24
Coordinates from ORCA-job job
  C          -2.85053183022366     -0.64553196078279      0.70618934063238
  H          -3.26154921556156      0.24296777404039      2.35381891166452
  H           0.33206165303827      0.18218801597658     -0.26319000475527
  O           0.12263964555551      1.02187701360171     -0.72464362481676
  O          -3.19067907273891      0.46093936719251      1.41196793356241
  H          -2.57985512522212     -1.53903484782518      1.26242457735494
  H          -3.44461857484224      1.36132384569158     -3.37532344119961
  H          -2.64775537266632     -0.65012325823486     -4.55980963056961
  O          -0.72487159917116      2.60716185003402     -1.20937407592150
  H          -1.99621309703149     -2.66238305611969     -3.29364727248091
  H          -2.10301459446517     -2.65861028298336     -0.83254293918400
  C          -2.83425472550034     -0.63192979596896     -0.69873089172695
  C          -3.22976830684440      0.50469335118484     -1.44345038898520
  C          -3.15864666056565      0.48447242152509     -2.81577527061018
  C          -2.70858753638257     -0.64958257828513     -3.48264891172519
  C          -2.33769928051113     -1.78548052205455     -2.76575001994931
  C          -2.39730288521693     -1.78624135797311     -1.39483933804404
  H          -3.57583034309073      1.38570320273571     -0.92806681866160
  C          -1.07857374760520      3.30526345663321     -0.07720447302134
  H           0.98425799776162      1.31647478200322     -1.04533869962241
  O          -2.42192200999741      3.12100569644281      0.34910730236560
  H          -0.37800513579840      3.05683219539942      0.73927345586013
  H          -0.98758101750526      4.38366450005041     -0.30874758407740
  H          -2.48295334221450      2.28425047241618      0.84428476201146
