14
Coordinates from ORCA-job job.QMRegion
  C          -2.28545675143921     -0.44981768690742      0.28390624657938
  H          -3.09943601563794     -0.06274440105123      2.00084273806915
  H          -1.49506601619146      0.48296118831039      0.14091996837771
  O          -0.60525047378113      1.46868635903159      0.10714733799144
  O          -3.33640708556315     -0.00693193456332      1.06421861648812
  H          -1.68110781047032     -1.24281394729330      0.74474288494903
  O           0.54545583088468      2.91370414122278      0.02386594729331
  C          -0.15264615449669      3.93934809079673      0.61638667456835
  H           0.11536061456350      0.97744646843092      0.54456310406165
  O          -1.10020135250090      4.57992546123663     -0.22548514553626
  H          -0.62751991852893      3.61106166572057      1.55401075273245
  H           0.61012899861577      4.70550559449581      0.84885487028744
  H          -1.93027589272093      4.08374976223988     -0.18667502912339
  H          -2.56751393149122     -0.68094490631322     -0.73078833854180
