14
Coordinates from ORCA-job job.QMRegion
  C          -2.28709056616367     -0.45110710707547      0.27959362520894
  H          -3.12380584364140     -0.06158162209422      1.99083143494905
  H          -1.50590152297144      0.43581094641218      0.16221721037637
  O          -0.54276528578336      1.49900269656455      0.12636812111510
  O          -3.35774904036303     -0.00754649474746      1.05406120783328
  H          -1.72459465953945     -1.27586080694426      0.73971769942446
  O           0.58165728237626      2.94054763791960      0.04560872659077
  C          -0.14286912519493      3.96467588981289      0.61836583832888
  H           0.16003057298159      0.99970028322867      0.58548427972832
  O          -1.09797742390751      4.56502571276615     -0.23547453503440
  H          -0.60390798173914      3.64554712544796      1.56462773771874
  H           0.61626603597073      4.74052348443307      0.82805212923966
  H          -1.93136126697140      4.07887527776742     -0.15895257886101
  H          -2.57255570799481     -0.68479759762000     -0.73817182576653
