24
Coordinates from ORCA-job job
  C          -2.28757774581549     -0.45165710927092      0.28570460969266
  H          -3.09368160179546     -0.05910935932906      2.00304375654860
  H          -1.48927355875876      0.49451708928574      0.13481938175594
  O          -0.61972111601676      1.45967631869570      0.10181927102275
  O          -3.33110012329891     -0.00379636131436      1.06627109329778
  H          -1.67350284588595     -1.23578139272257      0.74796938536498
  H          -5.11872222298625     -0.17635211244277     -3.37718432211682
  H          -3.64601441566116     -1.59602026508722     -4.75547447196123
  O           0.53651794954282      2.90839209204657      0.01788243736072
  H          -1.55477580282778     -2.49016867894906     -3.80362388675410
  H          -0.92930692188095     -1.96136098224208     -1.48530469730155
  C          -2.67511409115769     -0.76903300311928     -1.11595829673526
  C          -3.85353737172177     -0.26354642697973     -1.66004581237729
  C          -4.20225352698112     -0.56693892135806     -2.96237441836905
  C          -3.37543105339477     -1.36569973708736     -3.73649614171283
  C          -2.19836040964220     -1.86754431955152     -3.20144695935049
  C          -1.84604959367699     -1.57080084783130     -1.89931789262927
  H          -4.49149281863530      0.35484953418680     -1.04856102671780
  C          -0.15505167368249      3.93282578072160      0.61676921440591
  H           0.10887965879617      0.97168087837120      0.52874571361677
  O          -1.10100802554441      4.58477861461282     -0.22105849496501
  H          -0.63386500044168      3.60073955937759      1.55154488269213
  H           0.60761015003485      4.69703422358497      0.85672968185385
  H          -1.92842201536787      4.08321571110221     -0.19647010852143
