24
Coordinates from ORCA-job job
  C          -2.28421229454378     -0.44848013343641      0.28123577104051
  H          -3.10548321663988     -0.06461584828867      1.99738870343532
  H          -1.50137777501656      0.47189576883792      0.14546054276720
  O          -0.59031353645982      1.48053442931819      0.11017933815597
  O          -3.34253615560346     -0.01002384691863      1.06095542076495
  H          -1.68918248258133     -1.24947553172925      0.74115111592289
  H          -5.12403346401994     -0.18407603535146     -3.38005948557745
  H          -3.65313155866590     -1.60565230595463     -4.75872058285649
  O           0.55378703942417      2.92265114553483      0.02665065418622
  H          -1.55942634314633     -2.49623117989463     -3.80837915784348
  H          -0.93104040387524     -1.96274243035646     -1.49194509631567
  C          -2.67626688713732     -0.77085728011245     -1.12244165048610
  C          -3.85518521486550     -0.26754218416453     -1.66512566725498
  C          -4.20640945073748     -0.57345981353204     -2.96652475007062
  C          -3.38079705209260     -1.37299498852980     -3.74069641737461
  C          -2.20264926533056     -1.87274436304845     -3.20659754014275
  C          -1.84872087322792     -1.57334256975525     -1.90524304852025
  H          -4.49245275198432      0.35144814981984     -1.05347333617017
  C          -0.14892047961758      3.94779403244976      0.61797102709949
  H           0.12361698355988      0.98599143472877      0.55551720372569
  O          -1.10173762530883      4.57837590168834     -0.22255280082873
  H          -0.61582692629874      3.62111623817663      1.55968978255318
  H           0.61472219714374      4.71551856273514      0.84149631191127
  H          -1.93367663977466      4.08681313248316     -0.16795344002139
