14
Coordinates from ORCA-job job.QMRegion
  C          -2.28421229454378     -0.44848013343641      0.28123577104051
  H          -3.10548321663988     -0.06461584828867      1.99738870343532
  H          -1.50137777501656      0.47189576883792      0.14546054276720
  O          -0.59031353645982      1.48053442931819      0.11017933815597
  O          -3.34253615560346     -0.01002384691863      1.06095542076495
  H          -1.68918248258133     -1.24947553172925      0.74115111592289
  O           0.55378703942417      2.92265114553483      0.02665065418622
  C          -0.14892047961758      3.94779403244976      0.61797102709949
  H           0.12361698355988      0.98599143472877      0.55551720372569
  O          -1.10173762530883      4.57837590168834     -0.22255280082873
  H          -0.61582692629874      3.62111623817663      1.55968978255318
  H           0.61472219714374      4.71551856273514      0.84149631191127
  H          -1.93367663977466      4.08681313248316     -0.16795344002139
  H          -2.56780311976918     -0.68167010949276     -0.73410761694956
