24
* (null), Energy   -1000.0000000
C    -2.278847   -0.453021    0.282912    0.168822    0.057014    0.024974
H    -3.090051   -0.073683    2.003103   -0.378714   -0.348986    0.061598
H    -1.492788    0.481027    0.140808   -0.759538   -1.021274    0.465232
O    -0.603025    1.471747    0.106771    0.579648    0.646204   -0.001920
O    -3.329850   -0.016160    1.067338   -0.199546   -0.065378    0.064570
H    -1.671719   -1.246216    0.739790   -0.481282   -0.530376   -0.063764
H    -5.128975   -0.186865   -3.368443   -0.009036    0.005974   -0.014056
H    -3.655137   -1.596217   -4.756357   -0.043130   -0.031312   -0.007548
O     0.543112    2.919433    0.023978   -0.296402   -0.362088   -0.003056
H    -1.554679   -2.480604   -3.815421   -0.030980   -0.010328   -0.037554
H    -0.922060   -1.952960   -1.498822   -0.038866   -0.022604   -0.012052
C    -2.672142   -0.770698   -1.119664   -0.031170   -0.054006   -0.045318
C    -3.855187   -0.270635   -1.657341    0.012984   -0.027448   -0.003168
C    -4.208442   -0.573398   -2.958786   -0.005926   -0.005124   -0.017760
C    -3.381103   -1.366201   -3.738209   -0.020160   -0.006380   -0.013040
C    -2.199043   -1.862522   -3.209343   -0.023028   -0.001704   -0.029786
C    -1.842725   -1.566412   -1.908005   -0.037124   -0.013098   -0.016166
H    -4.493624    0.343189   -1.041742    0.030854   -0.042224    0.027218
C    -0.158409    3.942820    0.616763   -0.125894   -0.042828    0.005230
H     0.118666    0.981452    0.543526    0.140578    0.043332    0.091536
O    -1.108619    4.579554   -0.224642    0.049980   -0.009744   -0.007162
H    -0.631220    3.613098    1.554848   -0.016780    0.030528    0.050618
H     0.602266    4.711343    0.848227    0.217224   -0.382662   -0.194624
H    -1.937667    4.081849   -0.183297   -0.019350    0.107764   -0.066422
24
* Frequency(6) -573.8100
C    -2.259661   -0.446542    0.285750    0.168822    0.057014    0.024974
H    -3.133090   -0.113343    2.010103   -0.378714   -0.348986    0.061598
H    -1.579106    0.364965    0.193679   -0.759538   -1.021274    0.465232
O    -0.537151    1.545185    0.106553    0.579648    0.646204   -0.001920
O    -3.352527   -0.023590    1.074676   -0.199546   -0.065378    0.064570
H    -1.726414   -1.306490    0.732544   -0.481282   -0.530376   -0.063764
H    -5.130002   -0.186186   -3.370040   -0.009036    0.005974   -0.014056
H    -3.660039   -1.599775   -4.757215   -0.043130   -0.031312   -0.007548
O     0.509427    2.878284    0.023631   -0.296402   -0.362088   -0.003056
H    -1.558200   -2.481778   -3.819689   -0.030980   -0.010328   -0.037554
H    -0.926477   -1.955529   -1.500192   -0.038866   -0.022604   -0.012052
C    -2.675684   -0.776836   -1.124814   -0.031170   -0.054006   -0.045318
C    -3.853711   -0.273754   -1.657701    0.012984   -0.027448   -0.003168
C    -4.209115   -0.573980   -2.960804   -0.005926   -0.005124   -0.017760
C    -3.383394   -1.366926   -3.739691   -0.020160   -0.006380   -0.013040
C    -2.201660   -1.862716   -3.212728   -0.023028   -0.001704   -0.029786
C    -1.846944   -1.567901   -1.909842   -0.037124   -0.013098   -0.016166
H    -4.490118    0.338390   -1.038649    0.030854   -0.042224    0.027218
C    -0.172716    3.937953    0.617357   -0.125894   -0.042828    0.005230
H     0.134642    0.986376    0.553929    0.140578    0.043332    0.091536
O    -1.102939    4.578447   -0.225456    0.049980   -0.009744   -0.007162
H    -0.633127    3.616567    1.560600   -0.016780    0.030528    0.050618
H     0.626952    4.667855    0.826109    0.217224   -0.382662   -0.194624
H    -1.939866    4.094096   -0.190846   -0.019350    0.107764   -0.066422
24
* Frequency(6) -573.8100
C    -2.242555   -0.440764    0.288281    0.168822    0.057014    0.024974
H    -3.171465   -0.148706    2.016345   -0.378714   -0.348986    0.061598
H    -1.656069    0.261479    0.240821   -0.759538   -1.021274    0.465232
O    -0.478415    1.610664    0.106358    0.579648    0.646204   -0.001920
O    -3.372747   -0.030215    1.081219   -0.199546   -0.065378    0.064570
H    -1.775182   -1.360233    0.726082   -0.481282   -0.530376   -0.063764
H    -5.130918   -0.185581   -3.371465   -0.009036    0.005974   -0.014056
H    -3.664409   -1.602948   -4.757980   -0.043130   -0.031312   -0.007548
O     0.479393    2.841593    0.023321   -0.296402   -0.362088   -0.003056
H    -1.561339   -2.482824   -3.823494   -0.030980   -0.010328   -0.037554
H    -0.930415   -1.957819   -1.501413   -0.038866   -0.022604   -0.012052
C    -2.678843   -0.782308   -1.129406   -0.031170   -0.054006   -0.045318
C    -3.852396   -0.276536   -1.658022    0.012984   -0.027448   -0.003168
C    -4.209716   -0.574500   -2.962604   -0.005926   -0.005124   -0.017760
C    -3.385437   -1.367573   -3.741012   -0.020160   -0.006380   -0.013040
C    -2.203993   -1.862888   -3.215746   -0.023028   -0.001704   -0.029786
C    -1.850706   -1.569228   -1.911480   -0.037124   -0.013098   -0.016166
H    -4.486991    0.334112   -1.035891    0.030854   -0.042224    0.027218
C    -0.185473    3.933613    0.617887   -0.125894   -0.042828    0.005230
H     0.148887    0.990767    0.563204    0.140578    0.043332    0.091536
O    -1.097875    4.577459   -0.226182    0.049980   -0.009744   -0.007162
H    -0.634827    3.619661    1.565730   -0.016780    0.030528    0.050618
H     0.648964    4.629080    0.806388    0.217224   -0.382662   -0.194624
H    -1.941827    4.105016   -0.197576   -0.019350    0.107764   -0.066422
24
* Frequency(6) -573.8100
C    -2.229381   -0.436315    0.290230    0.168822    0.057014    0.024974
H    -3.201017   -0.175939    2.021152   -0.378714   -0.348986    0.061598
H    -1.715339    0.181785    0.277125   -0.759538   -1.021274    0.465232
O    -0.433183    1.661090    0.106208    0.579648    0.646204   -0.001920
O    -3.388319   -0.035316    1.086258   -0.199546   -0.065378    0.064570
H    -1.812739   -1.401621    0.721107   -0.481282   -0.530376   -0.063764
H    -5.131623   -0.185115   -3.372562   -0.009036    0.005974   -0.014056
H    -3.667774   -1.605392   -4.758569   -0.043130   -0.031312   -0.007548
O     0.456264    2.813338    0.023083   -0.296402   -0.362088   -0.003056
H    -1.563756   -2.483630   -3.826425   -0.030980   -0.010328   -0.037554
H    -0.933448   -1.959583   -1.502353   -0.038866   -0.022604   -0.012052
C    -2.681275   -0.786522   -1.132943   -0.031170   -0.054006   -0.045318
C    -3.851383   -0.278677   -1.658269    0.012984   -0.027448   -0.003168
C    -4.210178   -0.574899   -2.963990   -0.005926   -0.005124   -0.017760
C    -3.387010   -1.368070   -3.742030   -0.020160   -0.006380   -0.013040
C    -2.205790   -1.863021   -3.218071   -0.023028   -0.001704   -0.029786
C    -1.853603   -1.570250   -1.912742   -0.037124   -0.013098   -0.016166
H    -4.484584    0.330817   -1.033767    0.030854   -0.042224    0.027218
C    -0.195297    3.930271    0.618295   -0.125894   -0.042828    0.005230
H     0.159857    0.994149    0.570347    0.140578    0.043332    0.091536
O    -1.093974    4.576699   -0.226741    0.049980   -0.009744   -0.007162
H    -0.636137    3.622043    1.569679   -0.016780    0.030528    0.050618
H     0.665914    4.599220    0.791201    0.217224   -0.382662   -0.194624
H    -1.943337    4.113425   -0.202759   -0.019350    0.107764   -0.066422
24
* Frequency(6) -573.8100
C    -2.221567   -0.433677    0.291385    0.168822    0.057014    0.024974
H    -3.218545   -0.192090    2.024003   -0.378714   -0.348986    0.061598
H    -1.750492    0.134519    0.298657   -0.759538   -1.021274    0.465232
O    -0.406356    1.690998    0.106120    0.579648    0.646204   -0.001920
O    -3.397554   -0.038342    1.089246   -0.199546   -0.065378    0.064570
H    -1.835013   -1.426167    0.718156   -0.481282   -0.530376   -0.063764
H    -5.132041   -0.184838   -3.373212   -0.009036    0.005974   -0.014056
H    -3.669771   -1.606841   -4.758918   -0.043130   -0.031312   -0.007548
O     0.442546    2.796580    0.022941   -0.296402   -0.362088   -0.003056
H    -1.565190   -2.484108   -3.828163   -0.030980   -0.010328   -0.037554
H    -0.935247   -1.960629   -1.502911   -0.038866   -0.022604   -0.012052
C    -2.682718   -0.789022   -1.135040   -0.031170   -0.054006   -0.045318
C    -3.850782   -0.279948   -1.658416    0.012984   -0.027448   -0.003168
C    -4.210453   -0.575137   -2.964812   -0.005926   -0.005124   -0.017760
C    -3.387943   -1.368366   -3.742633   -0.020160   -0.006380   -0.013040
C    -2.206856   -1.863100   -3.219449   -0.023028   -0.001704   -0.029786
C    -1.855321   -1.570856   -1.913490   -0.037124   -0.013098   -0.016166
H    -4.483156    0.328863   -1.032507    0.030854   -0.042224    0.027218
C    -0.201124    3.928289    0.618537   -0.125894   -0.042828    0.005230
H     0.166363    0.996154    0.574583    0.140578    0.043332    0.091536
O    -1.091661    4.576248   -0.227072    0.049980   -0.009744   -0.007162
H    -0.636913    3.623456    1.572022   -0.016780    0.030528    0.050618
H     0.675968    4.581510    0.782193    0.217224   -0.382662   -0.194624
H    -1.944232    4.118412   -0.205833   -0.019350    0.107764   -0.066422
24
* Frequency(6) -573.8100
C    -2.219961   -0.433134    0.291623    0.168822    0.057014    0.024974
H    -3.222148   -0.195411    2.024589   -0.378714   -0.348986    0.061598
H    -1.757718    0.124802    0.303083   -0.759538   -1.021274    0.465232
O    -0.400841    1.697146    0.106101    0.579648    0.646204   -0.001920
O    -3.399453   -0.038964    1.089860   -0.199546   -0.065378    0.064570
H    -1.839592   -1.431214    0.717549   -0.481282   -0.530376   -0.063764
H    -5.132127   -0.184781   -3.373346   -0.009036    0.005974   -0.014056
H    -3.670181   -1.607139   -4.758990   -0.043130   -0.031312   -0.007548
O     0.439726    2.793135    0.022912   -0.296402   -0.362088   -0.003056
H    -1.565485   -2.484206   -3.828520   -0.030980   -0.010328   -0.037554
H    -0.935617   -1.960844   -1.503026   -0.038866   -0.022604   -0.012052
C    -2.683014   -0.789536   -1.135471   -0.031170   -0.054006   -0.045318
C    -3.850658   -0.280209   -1.658446    0.012984   -0.027448   -0.003168
C    -4.210509   -0.575185   -2.964981   -0.005926   -0.005124   -0.017760
C    -3.388135   -1.368426   -3.742757   -0.020160   -0.006380   -0.013040
C    -2.207075   -1.863116   -3.219732   -0.023028   -0.001704   -0.029786
C    -1.855674   -1.570981   -1.913644   -0.037124   -0.013098   -0.016166
H    -4.482862    0.328461   -1.032248    0.030854   -0.042224    0.027218
C    -0.202321    3.927881    0.618587   -0.125894   -0.042828    0.005230
H     0.167700    0.996566    0.575454    0.140578    0.043332    0.091536
O    -1.091186    4.576155   -0.227140    0.049980   -0.009744   -0.007162
H    -0.637073    3.623746    1.572504   -0.016780    0.030528    0.050618
H     0.678035    4.577869    0.780341    0.217224   -0.382662   -0.194624
H    -1.944416    4.119438   -0.206465   -0.019350    0.107764   -0.066422
24
* Frequency(6) -573.8100
C    -2.224736   -0.434747    0.290917    0.168822    0.057014    0.024974
H    -3.211437   -0.185540    2.022846   -0.378714   -0.348986    0.061598
H    -1.736236    0.153688    0.289924   -0.759538   -1.021274    0.465232
O    -0.417236    1.678869    0.106156    0.579648    0.646204   -0.001920
O    -3.393809   -0.037115    1.088034   -0.199546   -0.065378    0.064570
H    -1.825980   -1.416212    0.719352   -0.481282   -0.530376   -0.063764
H    -5.131871   -0.184950   -3.372948   -0.009036    0.005974   -0.014056
H    -3.668961   -1.606253   -4.758776   -0.043130   -0.031312   -0.007548
O     0.448109    2.803376    0.022998   -0.296402   -0.362088   -0.003056
H    -1.564609   -2.483914   -3.827458   -0.030980   -0.010328   -0.037554
H    -0.934517   -1.960205   -1.502685   -0.038866   -0.022604   -0.012052
C    -2.682133   -0.788008   -1.134189   -0.031170   -0.054006   -0.045318
C    -3.851025   -0.279433   -1.658356    0.012984   -0.027448   -0.003168
C    -4.210341   -0.575040   -2.964478   -0.005926   -0.005124   -0.017760
C    -3.387565   -1.368246   -3.742389   -0.020160   -0.006380   -0.013040
C    -2.206424   -1.863068   -3.218890   -0.023028   -0.001704   -0.029786
C    -1.854624   -1.570610   -1.913187   -0.037124   -0.013098   -0.016166
H    -4.483735    0.329655   -1.033018    0.030854   -0.042224    0.027218
C    -0.198761    3.929093    0.618439   -0.125894   -0.042828    0.005230
H     0.163724    0.995341    0.572865    0.140578    0.043332    0.091536
O    -1.092599    4.576431   -0.226938    0.049980   -0.009744   -0.007162
H    -0.636598    3.622883    1.571072   -0.016780    0.030528    0.050618
H     0.671891    4.588692    0.785846    0.217224   -0.382662   -0.194624
H    -1.943869    4.116390   -0.204587   -0.019350    0.107764   -0.066422
24
* Frequency(6) -573.8100
C    -2.235375   -0.438340    0.289343    0.168822    0.057014    0.024974
H    -3.187571   -0.163548    2.018965   -0.378714   -0.348986    0.061598
H    -1.688372    0.218046    0.260607   -0.759538   -1.021274    0.465232
O    -0.453764    1.638147    0.106277    0.579648    0.646204   -0.001920
O    -3.381234   -0.032995    1.083965   -0.199546   -0.065378    0.064570
H    -1.795651   -1.382790    0.723371   -0.481282   -0.530376   -0.063764
H    -5.131302   -0.185327   -3.372062   -0.009036    0.005974   -0.014056
H    -3.666243   -1.604280   -4.758301   -0.043130   -0.031312   -0.007548
O     0.466787    2.826194    0.023191   -0.296402   -0.362088   -0.003056
H    -1.562656   -2.483263   -3.825091   -0.030980   -0.010328   -0.037554
H    -0.932068   -1.958781   -1.501925   -0.038866   -0.022604   -0.012052
C    -2.680168   -0.784605   -1.131334   -0.031170   -0.054006   -0.045318
C    -3.851844   -0.277703   -1.658157    0.012984   -0.027448   -0.003168
C    -4.209968   -0.574717   -2.963359   -0.005926   -0.005124   -0.017760
C    -3.386294   -1.367844   -3.741567   -0.020160   -0.006380   -0.013040
C    -2.204973   -1.862961   -3.217013   -0.023028   -0.001704   -0.029786
C    -1.852285   -1.569785   -1.912168   -0.037124   -0.013098   -0.016166
H    -4.485679    0.332316   -1.034733    0.030854   -0.042224    0.027218
C    -0.190827    3.931792    0.618110   -0.125894   -0.042828    0.005230
H     0.154865    0.992610    0.567097    0.140578    0.043332    0.091536
O    -1.095749    4.577045   -0.226486    0.049980   -0.009744   -0.007162
H    -0.635541    3.620959    1.567882   -0.016780    0.030528    0.050618
H     0.658202    4.612806    0.798111    0.217224   -0.382662   -0.194624
H    -1.942650    4.109599   -0.200401   -0.019350    0.107764   -0.066422
24
* Frequency(6) -573.8100
C    -2.250724   -0.443524    0.287072    0.168822    0.057014    0.024974
H    -3.153138   -0.131818    2.013364   -0.378714   -0.348986    0.061598
H    -1.619313    0.310902    0.218307   -0.759538   -1.021274    0.465232
O    -0.506466    1.579393    0.106451    0.579648    0.646204   -0.001920
O    -3.363091   -0.027051    1.078094   -0.199546   -0.065378    0.064570
H    -1.751892   -1.334567    0.729168   -0.481282   -0.530376   -0.063764
H    -5.130480   -0.185870   -3.370784   -0.009036    0.005974   -0.014056
H    -3.662322   -1.601433   -4.757614   -0.043130   -0.031312   -0.007548
O     0.493737    2.859116    0.023469   -0.296402   -0.362088   -0.003056
H    -1.559840   -2.482324   -3.821677   -0.030980   -0.010328   -0.037554
H    -0.928534   -1.956725   -1.500830   -0.038866   -0.022604   -0.012052
C    -2.677334   -0.779694   -1.127213   -0.031170   -0.054006   -0.045318
C    -3.853024   -0.275207   -1.657869    0.012984   -0.027448   -0.003168
C    -4.209429   -0.574252   -2.961744   -0.005926   -0.005124   -0.017760
C    -3.384461   -1.367264   -3.740381   -0.020160   -0.006380   -0.013040
C    -2.202879   -1.862806   -3.214305   -0.023028   -0.001704   -0.029786
C    -1.848909   -1.568594   -1.910698   -0.037124   -0.013098   -0.016166
H    -4.488484    0.336155   -1.037208    0.030854   -0.042224    0.027218
C    -0.179381    3.935686    0.617634   -0.125894   -0.042828    0.005230
H     0.142084    0.988670    0.558774    0.140578    0.043332    0.091536
O    -1.100293    4.577931   -0.225835    0.049980   -0.009744   -0.007162
H    -0.634015    3.618183    1.563280   -0.016780    0.030528    0.050618
H     0.638452    4.647599    0.815806    0.217224   -0.382662   -0.194624
H    -1.940890    4.099800   -0.194362   -0.019350    0.107764   -0.066422
24
* Frequency(6) -573.8100
C    -2.269121   -0.449737    0.284351    0.168822    0.057014    0.024974
H    -3.111868   -0.093787    2.006652   -0.378714   -0.348986    0.061598
H    -1.536544    0.422193    0.167609   -0.759538   -1.021274    0.465232
O    -0.569633    1.508974    0.106660    0.579648    0.646204   -0.001920
O    -3.341345   -0.019926    1.071058   -0.199546   -0.065378    0.064570
H    -1.699445   -1.276770    0.736117   -0.481282   -0.530376   -0.063764
H    -5.129496   -0.186521   -3.369253   -0.009036    0.005974   -0.014056
H    -3.657622   -1.598021   -4.756792   -0.043130   -0.031312   -0.007548
O     0.526037    2.898574    0.023802   -0.296402   -0.362088   -0.003056
H    -1.556464   -2.481199   -3.817584   -0.030980   -0.010328   -0.037554
H    -0.924299   -1.954262   -1.499516   -0.038866   -0.022604   -0.012052
C    -2.673938   -0.773809   -1.122275   -0.031170   -0.054006   -0.045318
C    -3.854439   -0.272216   -1.657524    0.012984   -0.027448   -0.003168
C    -4.208783   -0.573693   -2.959809   -0.005926   -0.005124   -0.017760
C    -3.382264   -1.366569   -3.738960   -0.020160   -0.006380   -0.013040
C    -2.200370   -1.862620   -3.211059   -0.023028   -0.001704   -0.029786
C    -1.844864   -1.567167   -1.908936   -0.037124   -0.013098   -0.016166
H    -4.491847    0.340757   -1.040174    0.030854   -0.042224    0.027218
C    -0.165662    3.940353    0.617064   -0.125894   -0.042828    0.005230
H     0.126764    0.983948    0.548799    0.140578    0.043332    0.091536
O    -1.105740    4.578993   -0.225055    0.049980   -0.009744   -0.007162
H    -0.632187    3.614857    1.557764   -0.016780    0.030528    0.050618
H     0.614780    4.689299    0.837015    0.217224   -0.382662   -0.194624
H    -1.938782    4.088057   -0.187123   -0.019350    0.107764   -0.066422
24
* Frequency(6) -573.8100
C    -2.288573   -0.456305    0.281473    0.168822    0.057014    0.024974
H    -3.068234   -0.053579    1.999554   -0.378714   -0.348986    0.061598
H    -1.449032    0.539861    0.114007   -0.759538   -1.021274    0.465232
O    -0.636417    1.434520    0.106882    0.579648    0.646204   -0.001920
O    -3.318355   -0.012394    1.063618   -0.199546   -0.065378    0.064570
H    -1.643993   -1.215662    0.743463   -0.481282   -0.530376   -0.063764
H    -5.128454   -0.187209   -3.367633   -0.009036    0.005974   -0.014056
H    -3.652652   -1.594413   -4.755922   -0.043130   -0.031312   -0.007548
O     0.560187    2.940292    0.024154   -0.296402   -0.362088   -0.003056
H    -1.552894   -2.480009   -3.813258   -0.030980   -0.010328   -0.037554
H    -0.919821   -1.951658   -1.498128   -0.038866   -0.022604   -0.012052
C    -2.670346   -0.767587   -1.117053   -0.031170   -0.054006   -0.045318
C    -3.855935   -0.269054   -1.657158    0.012984   -0.027448   -0.003168
C    -4.208101   -0.573103   -2.957763   -0.005926   -0.005124   -0.017760
C    -3.379942   -1.365833   -3.737458   -0.020160   -0.006380   -0.013040
C    -2.197716   -1.862424   -3.207627   -0.023028   -0.001704   -0.029786
C    -1.840586   -1.565657   -1.907074   -0.037124   -0.013098   -0.016166
H    -4.495401    0.345621   -1.043310    0.030854   -0.042224    0.027218
C    -0.151156    3.945287    0.616462   -0.125894   -0.042828    0.005230
H     0.110568    0.978956    0.538253    0.140578    0.043332    0.091536
O    -1.111498    4.580115   -0.224229    0.049980   -0.009744   -0.007162
H    -0.630253    3.611339    1.551932   -0.016780    0.030528    0.050618
H     0.589752    4.733387    0.859439    0.217224   -0.382662   -0.194624
H    -1.936552    4.075641   -0.179471   -0.019350    0.107764   -0.066422
24
* Frequency(6) -573.8100
C    -2.306970   -0.462518    0.278752    0.168822    0.057014    0.024974
H    -3.026964   -0.015548    1.992842   -0.378714   -0.348986    0.061598
H    -1.366263    0.651152    0.063309   -0.759538   -1.021274    0.465232
O    -0.699584    1.364101    0.107091    0.579648    0.646204   -0.001920
O    -3.296609   -0.005269    1.056582   -0.199546   -0.065378    0.064570
H    -1.591546   -1.157865    0.750412   -0.481282   -0.530376   -0.063764
H    -5.127470   -0.187860   -3.366102   -0.009036    0.005974   -0.014056
H    -3.647952   -1.591001   -4.755100   -0.043130   -0.031312   -0.007548
O     0.592487    2.979750    0.024487   -0.296402   -0.362088   -0.003056
H    -1.549518   -2.478884   -3.809165   -0.030980   -0.010328   -0.037554
H    -0.915586   -1.949195   -1.496814   -0.038866   -0.022604   -0.012052
C    -2.666950   -0.761702   -1.112115   -0.031170   -0.054006   -0.045318
C    -3.857350   -0.266063   -1.656813    0.012984   -0.027448   -0.003168
C    -4.207455   -0.572544   -2.955828   -0.005926   -0.005124   -0.017760
C    -3.377745   -1.365138   -3.736037   -0.020160   -0.006380   -0.013040
C    -2.195207   -1.862238   -3.204381   -0.023028   -0.001704   -0.029786
C    -1.836541   -1.564230   -1.905312   -0.037124   -0.013098   -0.016166
H    -4.498764    0.350223   -1.046276    0.030854   -0.042224    0.027218
C    -0.137437    3.949954    0.615892   -0.125894   -0.042828    0.005230
H     0.095248    0.974234    0.528278    0.140578    0.043332    0.091536
O    -1.116945    4.581177   -0.223449    0.049980   -0.009744   -0.007162
H    -0.628425    3.608013    1.546416   -0.016780    0.030528    0.050618
H     0.566080    4.775087    0.880648    0.217224   -0.382662   -0.194624
H    -1.934444    4.063898   -0.172232   -0.019350    0.107764   -0.066422
24
* Frequency(6) -573.8100
C    -2.322319   -0.467702    0.276481    0.168822    0.057014    0.024974
H    -2.992531    0.016182    1.987241   -0.378714   -0.348986    0.061598
H    -1.297204    0.744008    0.021009   -0.759538   -1.021274    0.465232
O    -0.752286    1.305347    0.107265    0.579648    0.646204   -0.001920
O    -3.278466    0.000675    1.050711   -0.199546   -0.065378    0.064570
H    -1.547787   -1.109642    0.756209   -0.481282   -0.530376   -0.063764
H    -5.126648   -0.188403   -3.364824   -0.009036    0.005974   -0.014056
H    -3.644031   -1.588154   -4.754413   -0.043130   -0.031312   -0.007548
O     0.619437    3.012672    0.024765   -0.296402   -0.362088   -0.003056
H    -1.546702   -2.477945   -3.805751   -0.030980   -0.010328   -0.037554
H    -0.912052   -1.947139   -1.495719   -0.038866   -0.022604   -0.012052
C    -2.664116   -0.756791   -1.107994   -0.031170   -0.054006   -0.045318
C    -3.858530   -0.263567   -1.656525    0.012984   -0.027448   -0.003168
C    -4.206916   -0.572079   -2.954213   -0.005926   -0.005124   -0.017760
C    -3.375912   -1.364558   -3.734851   -0.020160   -0.006380   -0.013040
C    -2.193113   -1.862083   -3.201673   -0.023028   -0.001704   -0.029786
C    -1.833165   -1.563039   -1.903842   -0.037124   -0.013098   -0.016166
H    -4.501569    0.354062   -1.048751    0.030854   -0.042224    0.027218
C    -0.125991    3.953848    0.615416   -0.125894   -0.042828    0.005230
H     0.082467    0.970294    0.519955    0.140578    0.043332    0.091536
O    -1.121489    4.582063   -0.222798    0.049980   -0.009744   -0.007162
H    -0.626899    3.605237    1.541814   -0.016780    0.030528    0.050618
H     0.546330    4.809880    0.898343    0.217224   -0.382662   -0.194624
H    -1.932684    4.054099   -0.166193   -0.019350    0.107764   -0.066422
24
* Frequency(6) -573.8100
C    -2.332958   -0.471295    0.274907    0.168822    0.057014    0.024974
H    -2.968665    0.038174    1.983360   -0.378714   -0.348986    0.061598
H    -1.249340    0.808366   -0.008308   -0.759538   -1.021274    0.465232
O    -0.788814    1.264625    0.107386    0.579648    0.646204   -0.001920
O    -3.265891    0.004795    1.046642   -0.199546   -0.065378    0.064570
H    -1.517458   -1.076220    0.760228   -0.481282   -0.530376   -0.063764
H    -5.126079   -0.188780   -3.363938   -0.009036    0.005974   -0.014056
H    -3.641313   -1.586181   -4.753938   -0.043130   -0.031312   -0.007548
O     0.638115    3.035490    0.024958   -0.296402   -0.362088   -0.003056
H    -1.544749   -2.477294   -3.803384   -0.030980   -0.010328   -0.037554
H    -0.909603   -1.945715   -1.494959   -0.038866   -0.022604   -0.012052
C    -2.662151   -0.753388   -1.105139   -0.031170   -0.054006   -0.045318
C    -3.859349   -0.261837   -1.656326    0.012984   -0.027448   -0.003168
C    -4.206543   -0.571756   -2.953094   -0.005926   -0.005124   -0.017760
C    -3.374641   -1.364156   -3.734029   -0.020160   -0.006380   -0.013040
C    -2.191662   -1.861976   -3.199796   -0.023028   -0.001704   -0.029786
C    -1.830826   -1.562214   -1.902823   -0.037124   -0.013098   -0.016166
H    -4.503513    0.356723   -1.050466    0.030854   -0.042224    0.027218
C    -0.118057    3.956547    0.615087   -0.125894   -0.042828    0.005230
H     0.073608    0.967563    0.514187    0.140578    0.043332    0.091536
O    -1.124639    4.582677   -0.222346    0.049980   -0.009744   -0.007162
H    -0.625842    3.603313    1.538624   -0.016780    0.030528    0.050618
H     0.532641    4.833994    0.910608    0.217224   -0.382662   -0.194624
H    -1.931465    4.047308   -0.162007   -0.019350    0.107764   -0.066422
24
* Frequency(6) -573.8100
C    -2.337733   -0.472908    0.274201    0.168822    0.057014    0.024974
H    -2.957954    0.048045    1.981617   -0.378714   -0.348986    0.061598
H    -1.227858    0.837252   -0.021467   -0.759538   -1.021274    0.465232
O    -0.805209    1.246348    0.107441    0.579648    0.646204   -0.001920
O    -3.260247    0.006644    1.044816   -0.199546   -0.065378    0.064570
H    -1.503846   -1.061218    0.762031   -0.481282   -0.530376   -0.063764
H    -5.125823   -0.188949   -3.363540   -0.009036    0.005974   -0.014056
H    -3.640093   -1.585295   -4.753724   -0.043130   -0.031312   -0.007548
O     0.646498    3.045731    0.025044   -0.296402   -0.362088   -0.003056
H    -1.543873   -2.477002   -3.802322   -0.030980   -0.010328   -0.037554
H    -0.908503   -1.945076   -1.494618   -0.038866   -0.022604   -0.012052
C    -2.661270   -0.751860   -1.103857   -0.031170   -0.054006   -0.045318
C    -3.859716   -0.261061   -1.656236    0.012984   -0.027448   -0.003168
C    -4.206375   -0.571611   -2.952591   -0.005926   -0.005124   -0.017760
C    -3.374071   -1.363976   -3.733661   -0.020160   -0.006380   -0.013040
C    -2.191011   -1.861928   -3.198954   -0.023028   -0.001704   -0.029786
C    -1.829776   -1.561843   -1.902366   -0.037124   -0.013098   -0.016166
H    -4.504386    0.357917   -1.051236    0.030854   -0.042224    0.027218
C    -0.114497    3.957759    0.614939   -0.125894   -0.042828    0.005230
H     0.069632    0.966338    0.511598    0.140578    0.043332    0.091536
O    -1.126052    4.582953   -0.222144    0.049980   -0.009744   -0.007162
H    -0.625367    3.602450    1.537192   -0.016780    0.030528    0.050618
H     0.526497    4.844817    0.916113    0.217224   -0.382662   -0.194624
H    -1.930918    4.044260   -0.160129   -0.019350    0.107764   -0.066422
24
* Frequency(6) -573.8100
C    -2.336127   -0.472365    0.274439    0.168822    0.057014    0.024974
H    -2.961557    0.044724    1.982203   -0.378714   -0.348986    0.061598
H    -1.235084    0.827535   -0.017041   -0.759538   -1.021274    0.465232
O    -0.799694    1.252496    0.107422    0.579648    0.646204   -0.001920
O    -3.262146    0.006022    1.045430   -0.199546   -0.065378    0.064570
H    -1.508425   -1.066265    0.761424   -0.481282   -0.530376   -0.063764
H    -5.125909   -0.188892   -3.363674   -0.009036    0.005974   -0.014056
H    -3.640503   -1.585593   -4.753796   -0.043130   -0.031312   -0.007548
O     0.643678    3.042286    0.025015   -0.296402   -0.362088   -0.003056
H    -1.544168   -2.477100   -3.802679   -0.030980   -0.010328   -0.037554
H    -0.908873   -1.945291   -1.494733   -0.038866   -0.022604   -0.012052
C    -2.661566   -0.752374   -1.104288   -0.031170   -0.054006   -0.045318
C    -3.859592   -0.261322   -1.656266    0.012984   -0.027448   -0.003168
C    -4.206431   -0.571659   -2.952760   -0.005926   -0.005124   -0.017760
C    -3.374263   -1.364036   -3.733785   -0.020160   -0.006380   -0.013040
C    -2.191230   -1.861944   -3.199237   -0.023028   -0.001704   -0.029786
C    -1.830129   -1.561968   -1.902520   -0.037124   -0.013098   -0.016166
H    -4.504092    0.357515   -1.050977    0.030854   -0.042224    0.027218
C    -0.115694    3.957351    0.614989   -0.125894   -0.042828    0.005230
H     0.070969    0.966750    0.512469    0.140578    0.043332    0.091536
O    -1.125577    4.582860   -0.222212    0.049980   -0.009744   -0.007162
H    -0.625527    3.602740    1.537674   -0.016780    0.030528    0.050618
H     0.528564    4.841176    0.914261    0.217224   -0.382662   -0.194624
H    -1.931102    4.045286   -0.160761   -0.019350    0.107764   -0.066422
24
* Frequency(6) -573.8100
C    -2.328313   -0.469727    0.275594    0.168822    0.057014    0.024974
H    -2.979085    0.028573    1.985054   -0.378714   -0.348986    0.061598
H    -1.270237    0.780269    0.004491   -0.759538   -1.021274    0.465232
O    -0.772867    1.282404    0.107334    0.579648    0.646204   -0.001920
O    -3.271381    0.002996    1.048418   -0.199546   -0.065378    0.064570
H    -1.530699   -1.090811    0.758473   -0.481282   -0.530376   -0.063764
H    -5.126327   -0.188615   -3.364324   -0.009036    0.005974   -0.014056
H    -3.642500   -1.587042   -4.754145   -0.043130   -0.031312   -0.007548
O     0.629960    3.025528    0.024873   -0.296402   -0.362088   -0.003056
H    -1.545602   -2.477578   -3.804417   -0.030980   -0.010328   -0.037554
H    -0.910672   -1.946337   -1.495291   -0.038866   -0.022604   -0.012052
C    -2.663009   -0.754874   -1.106385   -0.031170   -0.054006   -0.045318
C    -3.858991   -0.262593   -1.656413    0.012984   -0.027448   -0.003168
C    -4.206706   -0.571897   -2.953582   -0.005926   -0.005124   -0.017760
C    -3.375196   -1.364332   -3.734388   -0.020160   -0.006380   -0.013040
C    -2.192296   -1.862023   -3.200615   -0.023028   -0.001704   -0.029786
C    -1.831847   -1.562574   -1.903268   -0.037124   -0.013098   -0.016166
H    -4.502664    0.355561   -1.049717    0.030854   -0.042224    0.027218
C    -0.121521    3.955369    0.615231   -0.125894   -0.042828    0.005230
H     0.077475    0.968755    0.516705    0.140578    0.043332    0.091536
O    -1.123264    4.582409   -0.222543    0.049980   -0.009744   -0.007162
H    -0.626303    3.604153    1.540017   -0.016780    0.030528    0.050618
H     0.538618    4.823466    0.905253    0.217224   -0.382662   -0.194624
H    -1.931997    4.050273   -0.163835   -0.019350    0.107764   -0.066422
24
* Frequency(6) -573.8100
C    -2.315139   -0.465278    0.277543    0.168822    0.057014    0.024974
H    -3.008637    0.001340    1.989861   -0.378714   -0.348986    0.061598
H    -1.329507    0.700575    0.040795   -0.759538   -1.021274    0.465232
O    -0.727635    1.332830    0.107184    0.579648    0.646204   -0.001920
O    -3.286953   -0.002105    1.053457   -0.199546   -0.065378    0.064570
H    -1.568256   -1.132199    0.753498   -0.481282   -0.530376   -0.063764
H    -5.127032   -0.188149   -3.365421   -0.009036    0.005974   -0.014056
H    -3.645865   -1.589486   -4.754734   -0.043130   -0.031312   -0.007548
O     0.606831    2.997273    0.024635   -0.296402   -0.362088   -0.003056
H    -1.548019   -2.478384   -3.807348   -0.030980   -0.010328   -0.037554
H    -0.913705   -1.948101   -1.496231   -0.038866   -0.022604   -0.012052
C    -2.665441   -0.759088   -1.109922   -0.031170   -0.054006   -0.045318
C    -3.857978   -0.264734   -1.656660    0.012984   -0.027448   -0.003168
C    -4.207168   -0.572296   -2.954968   -0.005926   -0.005124   -0.017760
C    -3.376769   -1.364829   -3.735406   -0.020160   -0.006380   -0.013040
C    -2.194093   -1.862156   -3.202940   -0.023028   -0.001704   -0.029786
C    -1.834744   -1.563596   -1.904530   -0.037124   -0.013098   -0.016166
H    -4.500257    0.352266   -1.047593    0.030854   -0.042224    0.027218
C    -0.131345    3.952027    0.615639   -0.125894   -0.042828    0.005230
H     0.088445    0.972137    0.523848    0.140578    0.043332    0.091536
O    -1.119363    4.581649   -0.223102    0.049980   -0.009744   -0.007162
H    -0.627613    3.606535    1.543966   -0.016780    0.030528    0.050618
H     0.555568    4.793606    0.890066    0.217224   -0.382662   -0.194624
H    -1.933507    4.058682   -0.169018   -0.019350    0.107764   -0.066422
24
* Frequency(6) -573.8100
C    -2.298033   -0.459500    0.280074    0.168822    0.057014    0.024974
H    -3.047012   -0.034023    1.996103   -0.378714   -0.348986    0.061598
H    -1.406470    0.597089    0.087937   -0.759538   -1.021274    0.465232
O    -0.668899    1.398309    0.106989    0.579648    0.646204   -0.001920
O    -3.307173   -0.008730    1.060000   -0.199546   -0.065378    0.064570
H    -1.617024   -1.185942    0.747036   -0.481282   -0.530376   -0.063764
H    -5.127948   -0.187544   -3.366846   -0.009036    0.005974   -0.014056
H    -3.650235   -1.592659   -4.755499   -0.043130   -0.031312   -0.007548
O     0.576797    2.960582    0.024325   -0.296402   -0.362088   -0.003056
H    -1.551158   -2.479430   -3.811153   -0.030980   -0.010328   -0.037554
H    -0.917643   -1.950391   -1.497452   -0.038866   -0.022604   -0.012052
C    -2.668600   -0.764560   -1.114514   -0.031170   -0.054006   -0.045318
C    -3.856663   -0.267516   -1.656981    0.012984   -0.027448   -0.003168
C    -4.207769   -0.572816   -2.956768   -0.005926   -0.005124   -0.017760
C    -3.378812   -1.365476   -3.736727   -0.020160   -0.006380   -0.013040
C    -2.196426   -1.862328   -3.205958   -0.023028   -0.001704   -0.029786
C    -1.838506   -1.564923   -1.906168   -0.037124   -0.013098   -0.016166
H    -4.497130    0.347988   -1.044835    0.030854   -0.042224    0.027218
C    -0.144102    3.947687    0.616169   -0.125894   -0.042828    0.005230
H     0.102690    0.976528    0.533123    0.140578    0.043332    0.091536
O    -1.114299    4.580661   -0.223828    0.049980   -0.009744   -0.007162
H    -0.629313    3.609629    1.549096   -0.016780    0.030528    0.050618
H     0.577580    4.754831    0.870345    0.217224   -0.382662   -0.194624
H    -1.935468    4.069602   -0.175748   -0.019350    0.107764   -0.066422
24
* Frequency(6) -573.8100
C    -2.278847   -0.453021    0.282912    0.168822    0.057014    0.024974
H    -3.090051   -0.073683    2.003103   -0.378714   -0.348986    0.061598
H    -1.492788    0.481027    0.140808   -0.759538   -1.021274    0.465232
O    -0.603025    1.471747    0.106771    0.579648    0.646204   -0.001920
O    -3.329850   -0.016160    1.067338   -0.199546   -0.065378    0.064570
H    -1.671719   -1.246216    0.739790   -0.481282   -0.530376   -0.063764
H    -5.128975   -0.186865   -3.368443   -0.009036    0.005974   -0.014056
H    -3.655137   -1.596217   -4.756357   -0.043130   -0.031312   -0.007548
O     0.543112    2.919433    0.023978   -0.296402   -0.362088   -0.003056
H    -1.554679   -2.480604   -3.815421   -0.030980   -0.010328   -0.037554
H    -0.922060   -1.952960   -1.498822   -0.038866   -0.022604   -0.012052
C    -2.672142   -0.770698   -1.119664   -0.031170   -0.054006   -0.045318
C    -3.855187   -0.270635   -1.657341    0.012984   -0.027448   -0.003168
C    -4.208442   -0.573398   -2.958786   -0.005926   -0.005124   -0.017760
C    -3.381103   -1.366201   -3.738209   -0.020160   -0.006380   -0.013040
C    -2.199043   -1.862522   -3.209343   -0.023028   -0.001704   -0.029786
C    -1.842725   -1.566412   -1.908005   -0.037124   -0.013098   -0.016166
H    -4.493624    0.343189   -1.041742    0.030854   -0.042224    0.027218
C    -0.158409    3.942820    0.616763   -0.125894   -0.042828    0.005230
H     0.118666    0.981452    0.543526    0.140578    0.043332    0.091536
O    -1.108619    4.579554   -0.224642    0.049980   -0.009744   -0.007162
H    -0.631220    3.613098    1.554848   -0.016780    0.030528    0.050618
H     0.602266    4.711343    0.848227    0.217224   -0.382662   -0.194624
H    -1.937667    4.081849   -0.183297   -0.019350    0.107764   -0.066422
