14
Coordinates from ORCA-job job.QMRegion
  C          -2.28483343146713     -0.44986074413192      0.28049481160808
  H          -3.11378538125609     -0.06811104211119      1.99539439832198
  H          -1.50663268651977      0.45696600570480      0.15342870127676
  O          -0.57150990012778      1.49021585754099      0.11752453303757
  O          -3.35024473894247     -0.01403866051249      1.05899923229444
  H          -1.70153917211404     -1.26055307421648      0.73913110899314
  O           0.56552760783216      2.92978036914985      0.03367265739981
  C          -0.14518676631673      3.95607477969995      0.61652196186968
  H           0.13417000369059      0.99409781906753      0.57483563957405
  O          -1.10046329276448      4.57206107523584     -0.22909667058805
  H          -0.60754241392936      3.63475650315795      1.56187994234184
  H           0.61771877246722      4.72711049819579      0.83066705438917
  H          -1.93369212444008      4.08436913781543     -0.16049500393823
  H          -2.56940802502586     -0.68336972815858     -0.73601015650777
