24
Coordinates from ORCA-job job
  C          -2.28483343146713     -0.44986074413192      0.28049481160808
  H          -3.11378538125609     -0.06811104211119      1.99539439832198
  H          -1.50663268651977      0.45696600570480      0.15342870127676
  O          -0.57150990012778      1.49021585754099      0.11752453303757
  O          -3.35024473894247     -0.01403866051249      1.05899923229444
  H          -1.70153917211404     -1.26055307421648      0.73913110899314
  H          -5.12871482386156     -0.18945348911046     -3.38009726226195
  H          -3.65559336709817     -1.60649171398340     -4.76130998205993
  O           0.56552760783216      2.92978036914985      0.03367265739981
  H          -1.55903472766040     -2.49279167721938     -3.81296306269753
  H          -0.93082338547295     -1.96009384881327     -1.49623746850168
  C          -2.67824805005172     -0.77267890838932     -1.12478845461614
  C          -3.85824193354386     -0.27171116452818     -1.66615444977443
  C          -4.20981815064037     -0.57717436302404     -2.96774448223511
  C          -3.38307098557840     -1.37401779630100     -3.74325978160993
  C          -2.20349326718351     -1.87136190085945     -3.21030332875804
  C          -1.84970278481168     -1.57245000458683     -1.90867439435383
  H          -4.49649917700938      0.34525662691920     -1.05344280161170
  C          -0.14518676631673      3.95607477969995      0.61652196186968
  H           0.13417000369059      0.99409781906753      0.57483563957405
  O          -1.10046329276448      4.57206107523584     -0.22909667058805
  H          -0.60754241392936      3.63475650315795      1.56187994234184
  H           0.61771877246722      4.72711049819579      0.83066705438917
  H          -1.93369212444008      4.08436913781543     -0.16049500393823
