14
Coordinates from ORCA-job job.QMRegion
  C          -2.27884690413461     -0.45302137939757      0.28291158829908
  H          -3.09005072061531     -0.07368314654745      2.00310274364563
  H          -1.49278781460771      0.48102699137273      0.14080767020803
  O          -0.60302535496236      1.47174705409212      0.10677149683859
  O          -3.32985033943583     -0.01616001326715      1.06733845305261
  H          -1.67171929035439     -1.24621600836187      0.73978996265528
  O           0.54311204276812      2.91943300340208      0.02397810461675
  C          -0.15840911465092      3.94281977278272      0.61676289379339
  H           0.11866612261703      0.98145165638981      0.54352552977215
  O          -1.10861914395305      4.57955447992657     -0.22464222279682
  H          -0.63121989233481      3.61309777407546      1.55484775965592
  H           0.60226562786937      4.71134268694900      0.84822696514011
  H          -1.93766743803367      4.08184858284826     -0.18329684434280
  H          -2.56320365443870     -0.68270544691459     -0.73116627571930
