24
Coordinates from ORCA-job job
  C          -2.28709056616367     -0.45110710707547      0.27959362520894
  H          -3.12380584364140     -0.06158162209422      1.99083143494905
  H          -1.50590152297144      0.43581094641218      0.16221721037637
  O          -0.54276528578336      1.49900269656455      0.12636812111510
  O          -3.35774904036303     -0.00754649474746      1.05406120783328
  H          -1.72459465953945     -1.27586080694426      0.73971769942446
  H          -5.13773803560720     -0.20101572693446     -3.37892690824684
  H          -3.65939265075136     -1.60931182502567     -4.76374994015407
  O           0.58165728237626      2.94054763791960      0.04560872659077
  H          -1.55681468396840     -2.48533875237801     -3.81882885008501
  H          -0.92910671524418     -1.95224429346833     -1.50196831636369
  C          -2.68173633720126     -0.77417619787064     -1.12743221535140
  C          -3.86430101151329     -0.27858511370585     -1.66683668832229
  C          -4.21617759931063     -0.58447401765011     -2.96844918475425
  C          -3.38666033247343     -1.37628614472008     -3.74585852374148
  C          -2.20393386795959     -1.86796035142977     -3.21478958839498
  C          -1.85049012943525     -1.56889984282711     -1.91301806616099
  H          -4.50483398838865      0.33457952721889     -1.05265971694318
  C          -0.14286912519493      3.96467588981289      0.61836583832888
  H           0.16003057298159      0.99970028322867      0.58548427972832
  O          -1.09797742390751      4.56502571276615     -0.23547453503440
  H          -0.60390798173914      3.64554712544796      1.56462773771874
  H           0.61626603597073      4.74052348443307      0.82805212923966
  H          -1.93136126697140      4.07887527776742     -0.15895257886101
