14
Coordinates from ORCA-job job.QMRegion
  C          -2.28757774581549     -0.45165710927092      0.28570460969266
  H          -3.09368160179546     -0.05910935932906      2.00304375654860
  H          -1.48927355875876      0.49451708928574      0.13481938175594
  O          -0.61972111601676      1.45967631869570      0.10181927102275
  O          -3.33110012329891     -0.00379636131436      1.06627109329778
  H          -1.67350284588595     -1.23578139272257      0.74796938536498
  O           0.53651794954282      2.90839209204657      0.01788243736072
  C          -0.15505167368249      3.93282578072160      0.61676921440591
  H           0.10887965879617      0.97168087837120      0.52874571361677
  O          -1.10100802554441      4.58477861461282     -0.22105849496501
  H          -0.63386500044168      3.60073955937759      1.55154488269213
  H           0.60761015003485      4.69703422358497      0.85672968185385
  H          -1.92842201536787      4.08321571110221     -0.19647010852143
  H          -2.56790031837714     -0.68122945287669     -0.72818158838034
