14
Coordinates from ORCA-job job.QMRegion
  C          -2.85053183022366     -0.64553196078279      0.70618934063238
  H          -3.26154921556156      0.24296777404039      2.35381891166452
  H           0.33206165303827      0.18218801597658     -0.26319000475527
  O           0.12263964555551      1.02187701360171     -0.72464362481676
  O          -3.19067907273891      0.46093936719251      1.41196793356241
  H          -2.57985512522212     -1.53903484782518      1.26242457735494
  O          -0.72487159917116      2.60716185003402     -1.20937407592150
  C          -1.07857374760520      3.30526345663321     -0.07720447302134
  H           0.98425799776162      1.31647478200322     -1.04533869962241
  O          -2.42192200999741      3.12100569644281      0.34910730236560
  H          -0.37800513579840      3.05683219539942      0.73927345586013
  H          -0.98758101750526      4.38366450005041     -0.30874758407740
  H          -2.48295334221450      2.28425047241618      0.84428476201146
  H          -2.83875786392414     -0.63569289954673     -0.31005302866363
