24
Coordinates from ORCA-job job
  C          -2.28545675143921     -0.44981768690742      0.28390624657938
  H          -3.09943601563794     -0.06274440105123      2.00084273806915
  H          -1.49506601619146      0.48296118831039      0.14091996837771
  O          -0.60525047378113      1.46868635903159      0.10714733799144
  O          -3.33640708556315     -0.00693193456332      1.06421861648812
  H          -1.68110781047032     -1.24281394729330      0.74474288494903
  H          -5.12197047807821     -0.18026995583418     -3.37749285040021
  H          -3.64958694901331     -1.59941715243288     -4.75687868853765
  O           0.54545583088468      2.91370414122278      0.02386594729331
  H          -1.55636304389200     -2.49087669405044     -3.80658738219573
  H          -0.92923024854227     -1.96023279865806     -1.48916267168310
  C          -2.67539113216356     -0.76934314323838     -1.11887422722604
  C          -3.85449686032302     -0.26547711438721     -1.66178587133466
  C          -4.20457927322687     -0.56983955782683     -2.96369412147682
  C          -3.37804523428378     -1.36816404772146     -3.73834477915672
  C          -2.20001227922663     -1.86844689461083     -3.20422519973707
  C          -1.84677923473795     -1.57066090263737     -1.90244536546552
  H          -4.49237741604561      0.35254778442750     -1.04982491142488
  C          -0.15264615449669      3.93934809079673      0.61638667456835
  H           0.11536061456350      0.97744646843092      0.54456310406165
  O          -1.10020135250090      4.57992546123663     -0.22548514553626
  H          -0.62751991852893      3.61106166572057      1.55401075273245
  H           0.61012899861577      4.70550559449581      0.84885487028744
  H          -1.93027589272093      4.08374976223988     -0.18667502912339
