24
Coordinates from ORCA-job job
  C          -2.27884690413461     -0.45302137939757      0.28291158829908
  H          -3.09005072061531     -0.07368314654745      2.00310274364563
  H          -1.49278781460771      0.48102699137273      0.14080767020803
  O          -0.60302535496236      1.47174705409212      0.10677149683859
  O          -3.32985033943583     -0.01616001326715      1.06733845305261
  H          -1.67171929035439     -1.24621600836187      0.73978996265528
  H          -5.12897517942416     -0.18686469323776     -3.36844281842747
  H          -3.65513713248998     -1.59621740223577     -4.75635746854554
  O           0.54311204276812      2.91943300340208      0.02397810461675
  H          -1.55467873513180     -2.48060414721139     -3.81542093663163
  H          -0.92206028972885     -1.95295983570666     -1.49882242081389
  C          -2.67214186583151     -0.77069833427869     -1.11966357216493
  C          -3.85518739680456     -0.27063460566061     -1.65734090673557
  C          -4.20844157189765     -0.57339762866148     -2.95878612174957
  C          -3.38110329244174     -1.36620110908525     -3.73820914160220
  C          -2.19904264070846     -1.86252155709559     -3.20934314063669
  C          -1.84272521276562     -1.56641163809136     -1.90800535469832
  H          -4.49362446294754      0.34318949699985     -1.04174221853210
  C          -0.15840911465092      3.94281977278272      0.61676289379339
  H           0.11866612261703      0.98145165638981      0.54352552977215
  O          -1.10861914395305      4.57955447992657     -0.22464222279682
  H          -0.63121989233481      3.61309777407546      1.55484775965592
  H           0.60226562786937      4.71134268694900      0.84822696514011
  H          -1.93766743803367      4.08184858284826     -0.18329684434280
