11
Coordinates from ORCA-job job.QMRegion
  C           2.70130514802480     17.00246273420930     19.47880378682559
  O           1.91929028838941     14.28641858241117     17.38156803938559
  O           2.96775248486810     17.06080064910942     18.12860825371052
  O           2.22484754180361     18.20101908705320     18.92436790513758
  H           3.79089253412837     14.41518554546616     16.45969263342491
  O           3.96119443844876     14.83629824892038     18.45874608928131
  C           3.41476632649181     14.11344863510264     17.47986510865823
  H           1.79704916235281     15.24397025302421     17.29593095774555
  H           1.94913329961172     16.26566623861954     19.77874508439185
  H           3.57656194165885     17.08370927187067     20.13225494219641
  H           3.52019703237406     13.02100123416823     17.57165860229327
