21
Coordinates from ORCA-job job
  H           4.17280224921304     10.22634478530192     19.93408650242568
  C           3.56108771995604     12.59730184794536     17.60726017622640
  H           3.97941556294995     12.69785485267100     19.67864629425073
  C           3.49164500123982     10.40533542718362     16.63021500481845
  C           3.95156302313418     10.65656692608202     18.96877584269289
  H           3.16270979833787     12.23057774076787     15.54497263382861
  H           3.85894684158137      8.77032820377977     17.96183270037394
  C           3.84170424611692     12.02994651399138     18.83945674592488
  C           3.38664460627184     11.77913043609521     16.50170459019987
  C           3.77526872815030      9.84195061468315     17.86341142502807
  C           2.70130514802480     17.00246273420930     19.47880378682559
  H           3.35250057489412      9.77548092598263     15.76424391811273
  O           1.91929028838941     14.28641858241117     17.38156803938559
  O           2.96775248486810     17.06080064910942     18.12860825371052
  O           2.22484754180361     18.20101908705320     18.92436790513758
  H           3.79089253412837     14.41518554546616     16.45969263342491
  O           3.96119443844876     14.83629824892038     18.45874608928131
  C           3.41476632649181     14.11344863510264     17.47986510865823
  H           1.79704916235281     15.24397025302421     17.29593095774555
  H           1.94913329961172     16.26566623861954     19.77874508439185
  H           3.57656194165885     17.08370927187067     20.13225494219641
