21
* (null), Energy   -1000.0000000
H     4.172802   10.226345   19.934087   -0.047294    0.036502    0.003098
C     3.561088   12.597302   17.607260    0.087914    0.095426    0.046384
H     3.979416   12.697855   19.678646   -0.027174   -0.063114    0.144418
C     3.491645   10.405335   16.630215   -0.002872    0.070848    0.016492
C     3.951563   10.656567   18.968776   -0.014338    0.041638    0.000658
H     3.162710   12.230578   15.544973    0.026882    0.058232    0.035144
H     3.858947    8.770328   17.961833   -0.044430    0.039436    0.002118
C     3.841704   12.029947   18.839457    0.020076    0.067656    0.042800
C     3.386645   11.779130   16.501705    0.039478    0.081786    0.031116
C     3.775269    9.841951   17.863411   -0.015220    0.040838    0.007896
C     2.701305   17.002463   19.478804   -0.075052    0.424846   -0.120788
H     3.352501    9.775481   15.764244   -0.033678    0.097476    0.006424
O     1.919290   14.286419   17.381568    0.047834   -0.048304   -0.038640
O     2.967752   17.060801   18.128608    0.689956   -1.411896   -0.027200
O     2.224848   18.201019   18.924368   -0.311154    0.322948    0.337872
H     3.790893   14.415186   16.459693   -0.054210   -0.011064   -0.024298
O     3.961194   14.836298   18.458746   -0.232866    0.385994   -0.182200
C     3.414766   14.113449   17.479865   -0.265222    0.099020   -0.210718
H     1.797049   15.243970   17.295931   -0.112112   -0.038174    0.165060
H     1.949133   16.265666   19.778745    0.061320    0.387410    0.367828
H     3.576562   17.083709   20.132255   -0.161004    0.430358    0.092610
21
* Frequency(6) -385.5600
H     4.167427   10.230493   19.934439   -0.047294    0.036502    0.003098
C     3.571079   12.608147   17.612531    0.087914    0.095426    0.046384
H     3.976328   12.690682   19.695058   -0.027174   -0.063114    0.144418
C     3.491319   10.413387   16.632089   -0.002872    0.070848    0.016492
C     3.949934   10.661299   18.968851   -0.014338    0.041638    0.000658
H     3.165765   12.237196   15.548967    0.026882    0.058232    0.035144
H     3.853898    8.774810   17.962074   -0.044430    0.039436    0.002118
C     3.843986   12.037636   18.844321    0.020076    0.067656    0.042800
C     3.391131   11.788425   16.505241    0.039478    0.081786    0.031116
C     3.773539    9.846592   17.864308   -0.015220    0.040838    0.007896
C     2.692776   17.050745   19.465077   -0.075052    0.424846   -0.120788
H     3.348674    9.786559   15.764974   -0.033678    0.097476    0.006424
O     1.924726   14.280930   17.377177    0.047834   -0.048304   -0.038640
O     3.046162   16.900346   18.125517    0.689956   -1.411896   -0.027200
O     2.189487   18.237720   18.962765   -0.311154    0.322948    0.337872
H     3.784732   14.413929   16.456932   -0.054210   -0.011064   -0.024298
O     3.934730   14.880164   18.438040   -0.232866    0.385994   -0.182200
C     3.384625   14.124702   17.455918   -0.265222    0.099020   -0.210718
H     1.784308   15.239632   17.314689   -0.112112   -0.038174    0.165060
H     1.956102   16.309693   19.820547    0.061320    0.387410    0.367828
H     3.558265   17.132617   20.142780   -0.161004    0.430358    0.092610
21
* Frequency(6) -385.5600
H     4.162635   10.234192   19.934753   -0.047294    0.036502    0.003098
C     3.579987   12.617816   17.617231    0.087914    0.095426    0.046384
H     3.973574   12.684287   19.709692   -0.027174   -0.063114    0.144418
C     3.491028   10.420566   16.633760   -0.002872    0.070848    0.016492
C     3.948481   10.665518   18.968917   -0.014338    0.041638    0.000658
H     3.168489   12.243096   15.552528    0.026882    0.058232    0.035144
H     3.849396    8.778806   17.962288   -0.044430    0.039436    0.002118
C     3.846020   12.044491   18.848658    0.020076    0.067656    0.042800
C     3.395132   11.796712   16.508394    0.039478    0.081786    0.031116
C     3.771997    9.850730   17.865108   -0.015220    0.040838    0.007896
C     2.685171   17.093794   19.452838   -0.075052    0.424846   -0.120788
H     3.345261    9.796436   15.765625   -0.033678    0.097476    0.006424
O     1.929573   14.276035   17.373261    0.047834   -0.048304   -0.038640
O     3.116075   16.757279   18.122761    0.689956   -1.411896   -0.027200
O     2.157958   18.270445   18.997002   -0.311154    0.322948    0.337872
H     3.779239   14.412808   16.454470   -0.054210   -0.011064   -0.024298
O     3.911134   14.919277   18.419578   -0.232866    0.385994   -0.182200
C     3.357750   14.134736   17.434566   -0.265222    0.099020   -0.210718
H     1.772948   15.235764   17.331415   -0.112112   -0.038174    0.165060
H     1.962315   16.348949   19.857819    0.061320    0.387410    0.367828
H     3.541950   17.176225   20.152164   -0.161004    0.430358    0.092610
21
* Frequency(6) -385.5600
H     4.158944   10.237040   19.934995   -0.047294    0.036502    0.003098
C     3.586848   12.625263   17.620851    0.087914    0.095426    0.046384
H     3.971454   12.679362   19.720962   -0.027174   -0.063114    0.144418
C     3.490803   10.426094   16.635047   -0.002872    0.070848    0.016492
C     3.947362   10.668767   18.968969   -0.014338    0.041638    0.000658
H     3.170587   12.247640   15.555270    0.026882    0.058232    0.035144
H     3.845929    8.781883   17.962454   -0.044430    0.039436    0.002118
C     3.847586   12.049771   18.851998    0.020076    0.067656    0.042800
C     3.398212   11.803094   16.510822    0.039478    0.081786    0.031116
C     3.770809    9.853917   17.865725   -0.015220    0.040838    0.007896
C     2.679314   17.126946   19.443412   -0.075052    0.424846   -0.120788
H     3.342633    9.804042   15.766126   -0.033678    0.097476    0.006424
O     1.933306   14.272266   17.370246    0.047834   -0.048304   -0.038640
O     3.169915   16.647104   18.120638    0.689956   -1.411896   -0.027200
O     2.133677   18.295645   19.023367   -0.311154    0.322948    0.337872
H     3.775009   14.411944   16.452573   -0.054210   -0.011064   -0.024298
O     3.892962   14.949397   18.405360   -0.232866    0.385994   -0.182200
C     3.337054   14.142463   17.418123   -0.265222    0.099020   -0.210718
H     1.764199   15.232785   17.344295   -0.112112   -0.038174    0.165060
H     1.967100   16.379180   19.886522    0.061320    0.387410    0.367828
H     3.529386   17.209807   20.159390   -0.161004    0.430358    0.092610
21
* Frequency(6) -385.5600
H     4.156756   10.238730   19.935138   -0.047294    0.036502    0.003098
C     3.590916   12.629679   17.622998    0.087914    0.095426    0.046384
H     3.970196   12.676441   19.727646   -0.027174   -0.063114    0.144418
C     3.490671   10.429373   16.635811   -0.002872    0.070848    0.016492
C     3.946698   10.670694   18.968999   -0.014338    0.041638    0.000658
H     3.171831   12.250336   15.556897    0.026882    0.058232    0.035144
H     3.843872    8.783708   17.962552   -0.044430    0.039436    0.002118
C     3.848516   12.052902   18.853979    0.020076    0.067656    0.042800
C     3.400039   11.806879   16.512262    0.039478    0.081786    0.031116
C     3.770105    9.855807   17.866090   -0.015220    0.040838    0.007896
C     2.675841   17.146609   19.437822   -0.075052    0.424846   -0.120788
H     3.341074    9.808554   15.766424   -0.033678    0.097476    0.006424
O     1.935520   14.270030   17.368458    0.047834   -0.048304   -0.038640
O     3.201847   16.581759   18.119379    0.689956   -1.411896   -0.027200
O     2.119277   18.310592   19.039005   -0.311154    0.322948    0.337872
H     3.772500   14.411432   16.451449   -0.054210   -0.011064   -0.024298
O     3.882185   14.967262   18.396927   -0.232866    0.385994   -0.182200
C     3.324779   14.147046   17.408370   -0.265222    0.099020   -0.210718
H     1.759011   15.231018   17.351934   -0.112112   -0.038174    0.165060
H     1.969938   16.397110   19.903545    0.061320    0.387410    0.367828
H     3.521935   17.229725   20.163677   -0.161004    0.430358    0.092610
21
* Frequency(6) -385.5600
H     4.156306   10.239077   19.935168   -0.047294    0.036502    0.003098
C     3.591753   12.630587   17.623439    0.087914    0.095426    0.046384
H     3.969938   12.675841   19.729020   -0.027174   -0.063114    0.144418
C     3.490643   10.430047   16.635967   -0.002872    0.070848    0.016492
C     3.946562   10.671091   18.969006   -0.014338    0.041638    0.000658
H     3.172087   12.250890   15.557231    0.026882    0.058232    0.035144
H     3.843450    8.784083   17.962572   -0.044430    0.039436    0.002118
C     3.848707   12.053546   18.854386    0.020076    0.067656    0.042800
C     3.400415   11.807657   16.512558    0.039478    0.081786    0.031116
C     3.769960    9.856195   17.866165   -0.015220    0.040838    0.007896
C     2.675127   17.150651   19.436673   -0.075052    0.424846   -0.120788
H     3.340754    9.809481   15.766485   -0.033678    0.097476    0.006424
O     1.935975   14.269570   17.368090    0.047834   -0.048304   -0.038640
O     3.208412   16.568325   18.119121    0.689956   -1.411896   -0.027200
O     2.116316   18.313665   19.042219   -0.311154    0.322948    0.337872
H     3.771984   14.411327   16.451218   -0.054210   -0.011064   -0.024298
O     3.879969   14.970934   18.395194   -0.232866    0.385994   -0.182200
C     3.322255   14.147988   17.406366   -0.265222    0.099020   -0.210718
H     1.757944   15.230655   17.353505   -0.112112   -0.038174    0.165060
H     1.970522   16.400796   19.907045    0.061320    0.387410    0.367828
H     3.520403   17.233820   20.164558   -0.161004    0.430358    0.092610
21
* Frequency(6) -385.5600
H     4.157643   10.238045   19.935080   -0.047294    0.036502    0.003098
C     3.589266   12.627888   17.622127    0.087914    0.095426    0.046384
H     3.970706   12.677626   19.724935   -0.027174   -0.063114    0.144418
C     3.490724   10.428043   16.635501   -0.002872    0.070848    0.016492
C     3.946967   10.669913   18.968987   -0.014338    0.041638    0.000658
H     3.171326   12.249243   15.556237    0.026882    0.058232    0.035144
H     3.844706    8.782968   17.962512   -0.044430    0.039436    0.002118
C     3.848139   12.051632   18.853175    0.020076    0.067656    0.042800
C     3.399299   11.805344   16.511678    0.039478    0.081786    0.031116
C     3.770391    9.855040   17.865942   -0.015220    0.040838    0.007896
C     2.677249   17.138635   19.440089   -0.075052    0.424846   -0.120788
H     3.341707    9.806724   15.766303   -0.033678    0.097476    0.006424
O     1.934622   14.270937   17.369183    0.047834   -0.048304   -0.038640
O     3.188897   16.608259   18.119890    0.689956   -1.411896   -0.027200
O     2.125117   18.304531   19.032663   -0.311154    0.322948    0.337872
H     3.773518   14.411640   16.451905   -0.054210   -0.011064   -0.024298
O     3.886556   14.960017   18.400347   -0.232866    0.385994   -0.182200
C     3.329757   14.145187   17.412326   -0.265222    0.099020   -0.210718
H     1.761115   15.231734   17.348836   -0.112112   -0.038174    0.165060
H     1.968787   16.389839   19.896641    0.061320    0.387410    0.367828
H     3.524957   17.221648   20.161938   -0.161004    0.430358    0.092610
21
* Frequency(6) -385.5600
H     4.160624   10.235744   19.934885   -0.047294    0.036502    0.003098
C     3.583726   12.621875   17.619204    0.087914    0.095426    0.046384
H     3.972419   12.681603   19.715834   -0.027174   -0.063114    0.144418
C     3.490905   10.423579   16.634462   -0.002872    0.070848    0.016492
C     3.947871   10.667289   18.968945   -0.014338    0.041638    0.000658
H     3.169632   12.245573   15.554023    0.026882    0.058232    0.035144
H     3.847506    8.780483   17.962378   -0.044430    0.039436    0.002118
C     3.846874   12.047369   18.850478    0.020076    0.067656    0.042800
C     3.396811   11.800190   16.509717    0.039478    0.081786    0.031116
C     3.771350    9.852467   17.865444   -0.015220    0.040838    0.007896
C     2.681979   17.111862   19.447701   -0.075052    0.424846   -0.120788
H     3.343829    9.800581   15.765898   -0.033678    0.097476    0.006424
O     1.931607   14.273981   17.371618    0.047834   -0.048304   -0.038640
O     3.145418   16.697233   18.121604    0.689956   -1.411896   -0.027200
O     2.144725   18.284179   19.011371   -0.311154    0.322948    0.337872
H     3.776934   14.412337   16.453436   -0.054210   -0.011064   -0.024298
O     3.901230   14.935693   18.411829   -0.232866    0.385994   -0.182200
C     3.346470   14.138947   17.425604   -0.265222    0.099020   -0.210718
H     1.768180   15.234140   17.338435   -0.112112   -0.038174    0.165060
H     1.964923   16.365425   19.873462    0.061320    0.387410    0.367828
H     3.535103   17.194528   20.156102   -0.161004    0.430358    0.092610
21
* Frequency(6) -385.5600
H     4.164924   10.232426   19.934603   -0.047294    0.036502    0.003098
C     3.575733   12.613198   17.614987    0.087914    0.095426    0.046384
H     3.974889   12.687341   19.702703   -0.027174   -0.063114    0.144418
C     3.491167   10.417137   16.632962   -0.002872    0.070848    0.016492
C     3.949175   10.663503   18.968886   -0.014338    0.041638    0.000658
H     3.167188   12.240278   15.550827    0.026882    0.058232    0.035144
H     3.851546    8.776897   17.962186   -0.044430    0.039436    0.002118
C     3.845048   12.041217   18.846587    0.020076    0.067656    0.042800
C     3.393221   11.792754   16.506888    0.039478    0.081786    0.031116
C     3.772734    9.848754   17.864726   -0.015220    0.040838    0.007896
C     2.688803   17.073235   19.458683   -0.075052    0.424846   -0.120788
H     3.346891    9.791719   15.765314   -0.033678    0.097476    0.006424
O     1.927258   14.278372   17.375131    0.047834   -0.048304   -0.038640
O     3.082686   16.825605   18.124077    0.689956   -1.411896   -0.027200
O     2.173015   18.254816   18.980651   -0.311154    0.322948    0.337872
H     3.781863   14.413343   16.455645   -0.054210   -0.011064   -0.024298
O     3.922403   14.900597   18.428395   -0.232866    0.385994   -0.182200
C     3.370585   14.129944   17.444763   -0.265222    0.099020   -0.210718
H     1.778373   15.237611   17.323427   -0.112112   -0.038174    0.165060
H     1.959348   16.330201   19.840018    0.061320    0.387410    0.367828
H     3.549742   17.155399   20.147682   -0.161004    0.430358    0.092610
21
* Frequency(6) -385.5600
H     4.170077   10.228448   19.934265   -0.047294    0.036502    0.003098
C     3.566153   12.602799   17.609932    0.087914    0.095426    0.046384
H     3.977851   12.694219   19.686966   -0.027174   -0.063114    0.144418
C     3.491480   10.409416   16.631165   -0.002872    0.070848    0.016492
C     3.950737   10.658966   18.968814   -0.014338    0.041638    0.000658
H     3.164259   12.233933   15.546998    0.026882    0.058232    0.035144
H     3.856387    8.772600   17.961955   -0.044430    0.039436    0.002118
C     3.842861   12.033845   18.841923    0.020076    0.067656    0.042800
C     3.388919   11.783842   16.503498    0.039478    0.081786    0.031116
C     3.774392    9.844304   17.863866   -0.015220    0.040838    0.007896
C     2.696981   17.026938   19.471846   -0.075052    0.424846   -0.120788
H     3.350561    9.781096   15.764614   -0.033678    0.097476    0.006424
O     1.922046   14.283636   17.379342    0.047834   -0.048304   -0.038640
O     3.007499   16.979464   18.127041    0.689956   -1.411896   -0.027200
O     2.206923   18.219623   18.943832   -0.311154    0.322948    0.337872
H     3.787770   14.414549   16.458293   -0.054210   -0.011064   -0.024298
O     3.947779   14.858534   18.448250   -0.232866    0.385994   -0.182200
C     3.399487   14.119153   17.467726   -0.265222    0.099020   -0.210718
H     1.790590   15.241771   17.305440   -0.112112   -0.038174    0.165060
H     1.952666   16.287984   19.799935    0.061320    0.387410    0.367828
H     3.567287   17.108501   20.137590   -0.161004    0.430358    0.092610
21
* Frequency(6) -385.5600
H     4.175527   10.224242   19.933909   -0.047294    0.036502    0.003098
C     3.556023   12.591805   17.604588    0.087914    0.095426    0.046384
H     3.980981   12.701491   19.670326   -0.027174   -0.063114    0.144418
C     3.491810   10.401254   16.629265   -0.002872    0.070848    0.016492
C     3.952389   10.654168   18.968738   -0.014338    0.041638    0.000658
H     3.161161   12.227223   15.542948    0.026882    0.058232    0.035144
H     3.861507    8.768056   17.961711   -0.044430    0.039436    0.002118
C     3.840547   12.026049   18.836991    0.020076    0.067656    0.042800
C     3.384371   11.774418   16.499912    0.039478    0.081786    0.031116
C     3.776146    9.839598   17.862956   -0.015220    0.040838    0.007896
C     2.705629   16.977988   19.485762   -0.075052    0.424846   -0.120788
H     3.354441    9.769866   15.763874   -0.033678    0.097476    0.006424
O     1.916534   14.289202   17.383794    0.047834   -0.048304   -0.038640
O     2.928005   17.142138   18.130175    0.689956   -1.411896   -0.027200
O     2.242773   18.182415   18.904904   -0.311154    0.322948    0.337872
H     3.794016   14.415823   16.461093   -0.054210   -0.011064   -0.024298
O     3.974609   14.814062   18.469242   -0.232866    0.385994   -0.182200
C     3.430045   14.107745   17.492004   -0.265222    0.099020   -0.210718
H     1.803508   15.246169   17.286422   -0.112112   -0.038174    0.165060
H     1.945600   16.243348   19.757555    0.061320    0.387410    0.367828
H     3.585837   17.058917   20.126920   -0.161004    0.430358    0.092610
21
* Frequency(6) -385.5600
H     4.180680   10.220264   19.933571   -0.047294    0.036502    0.003098
C     3.546443   12.581406   17.599533    0.087914    0.095426    0.046384
H     3.983943   12.708369   19.654589   -0.027174   -0.063114    0.144418
C     3.492123   10.393533   16.627468   -0.002872    0.070848    0.016492
C     3.953951   10.649631   18.968666   -0.014338    0.041638    0.000658
H     3.158232   12.220878   15.539119    0.026882    0.058232    0.035144
H     3.866348    8.763759   17.961480   -0.044430    0.039436    0.002118
C     3.838360   12.018677   18.832327    0.020076    0.067656    0.042800
C     3.380069   11.765506   16.496522    0.039478    0.081786    0.031116
C     3.777804    9.835148   17.862096   -0.015220    0.040838    0.007896
C     2.713807   16.931691   19.498925   -0.075052    0.424846   -0.120788
H     3.358111    9.759243   15.763174   -0.033678    0.097476    0.006424
O     1.911322   14.294466   17.388005    0.047834   -0.048304   -0.038640
O     2.852818   17.295997   18.133139    0.689956   -1.411896   -0.027200
O     2.276681   18.147222   18.868085   -0.311154    0.322948    0.337872
H     3.799923   14.417029   16.463741   -0.054210   -0.011064   -0.024298
O     3.999985   14.771999   18.489097   -0.232866    0.385994   -0.182200
C     3.458947   14.096954   17.514967   -0.265222    0.099020   -0.210718
H     1.815725   15.250329   17.268435   -0.112112   -0.038174    0.165060
H     1.938918   16.201131   19.717472    0.061320    0.387410    0.367828
H     3.603382   17.012019   20.116828   -0.161004    0.430358    0.092610
21
* Frequency(6) -385.5600
H     4.184980   10.216946   19.933289   -0.047294    0.036502    0.003098
C     3.538450   12.572729   17.595316    0.087914    0.095426    0.046384
H     3.986413   12.714107   19.641458   -0.027174   -0.063114    0.144418
C     3.492385   10.387091   16.625968   -0.002872    0.070848    0.016492
C     3.955255   10.645845   18.968607   -0.014338    0.041638    0.000658
H     3.155788   12.215583   15.535923    0.026882    0.058232    0.035144
H     3.870388    8.760173   17.961288   -0.044430    0.039436    0.002118
C     3.836534   12.012525   18.828436    0.020076    0.067656    0.042800
C     3.376479   11.758070   16.493693    0.039478    0.081786    0.031116
C     3.779188    9.831435   17.861378   -0.015220    0.040838    0.007896
C     2.720631   16.893064   19.509907   -0.075052    0.424846   -0.120788
H     3.361173    9.750381   15.762590   -0.033678    0.097476    0.006424
O     1.906973   14.298857   17.391518    0.047834   -0.048304   -0.038640
O     2.790086   17.424369   18.135612    0.689956   -1.411896   -0.027200
O     2.304971   18.117859   18.837365   -0.311154    0.322948    0.337872
H     3.804852   14.418035   16.465950   -0.054210   -0.011064   -0.024298
O     4.021158   14.736903   18.505663   -0.232866    0.385994   -0.182200
C     3.483062   14.087951   17.534126   -0.265222    0.099020   -0.210718
H     1.825918   15.253800   17.253427   -0.112112   -0.038174    0.165060
H     1.933343   16.165907   19.684028    0.061320    0.387410    0.367828
H     3.618021   16.972890   20.108408   -0.161004    0.430358    0.092610
21
* Frequency(6) -385.5600
H     4.187961   10.214645   19.933094   -0.047294    0.036502    0.003098
C     3.532910   12.566716   17.592393    0.087914    0.095426    0.046384
H     3.988126   12.718084   19.632357   -0.027174   -0.063114    0.144418
C     3.492566   10.382627   16.624929   -0.002872    0.070848    0.016492
C     3.956159   10.643221   18.968565   -0.014338    0.041638    0.000658
H     3.154094   12.211913   15.533709    0.026882    0.058232    0.035144
H     3.873188    8.757688   17.961154   -0.044430    0.039436    0.002118
C     3.835269   12.008262   18.825739    0.020076    0.067656    0.042800
C     3.373991   11.752916   16.491732    0.039478    0.081786    0.031116
C     3.780147    9.828862   17.860880   -0.015220    0.040838    0.007896
C     2.725361   16.866291   19.517519   -0.075052    0.424846   -0.120788
H     3.363295    9.744238   15.762185   -0.033678    0.097476    0.006424
O     1.903958   14.301901   17.393953    0.047834   -0.048304   -0.038640
O     2.746607   17.513343   18.137326    0.689956   -1.411896   -0.027200
O     2.324579   18.097507   18.816073   -0.311154    0.322948    0.337872
H     3.808268   14.418732   16.467481   -0.054210   -0.011064   -0.024298
O     4.035832   14.712579   18.517145   -0.232866    0.385994   -0.182200
C     3.499775   14.081711   17.547404   -0.265222    0.099020   -0.210718
H     1.832983   15.256206   17.243026   -0.112112   -0.038174    0.165060
H     1.929479   16.141493   19.660849    0.061320    0.387410    0.367828
H     3.628167   16.945770   20.102572   -0.161004    0.430358    0.092610
21
* Frequency(6) -385.5600
H     4.189298   10.213613   19.933006   -0.047294    0.036502    0.003098
C     3.530423   12.564017   17.591081    0.087914    0.095426    0.046384
H     3.988894   12.719869   19.628272   -0.027174   -0.063114    0.144418
C     3.492647   10.380623   16.624463   -0.002872    0.070848    0.016492
C     3.956564   10.642043   18.968546   -0.014338    0.041638    0.000658
H     3.153333   12.210266   15.532715    0.026882    0.058232    0.035144
H     3.874444    8.756573   17.961094   -0.044430    0.039436    0.002118
C     3.834701   12.006348   18.824528    0.020076    0.067656    0.042800
C     3.372875   11.750603   16.490852    0.039478    0.081786    0.031116
C     3.780578    9.827707   17.860657   -0.015220    0.040838    0.007896
C     2.727483   16.854275   19.520935   -0.075052    0.424846   -0.120788
H     3.364248    9.741481   15.762003   -0.033678    0.097476    0.006424
O     1.902605   14.303268   17.395046    0.047834   -0.048304   -0.038640
O     2.727092   17.553277   18.138095    0.689956   -1.411896   -0.027200
O     2.333380   18.088373   18.806517   -0.311154    0.322948    0.337872
H     3.809802   14.419045   16.468168   -0.054210   -0.011064   -0.024298
O     4.042419   14.701662   18.522298   -0.232866    0.385994   -0.182200
C     3.507277   14.078910   17.553364   -0.265222    0.099020   -0.210718
H     1.836154   15.257285   17.238357   -0.112112   -0.038174    0.165060
H     1.927744   16.130536   19.650445    0.061320    0.387410    0.367828
H     3.632721   16.933598   20.099952   -0.161004    0.430358    0.092610
21
* Frequency(6) -385.5600
H     4.188848   10.213960   19.933036   -0.047294    0.036502    0.003098
C     3.531260   12.564925   17.591522    0.087914    0.095426    0.046384
H     3.988636   12.719269   19.629646   -0.027174   -0.063114    0.144418
C     3.492619   10.381297   16.624619   -0.002872    0.070848    0.016492
C     3.956428   10.642440   18.968553   -0.014338    0.041638    0.000658
H     3.153589   12.210820   15.533049    0.026882    0.058232    0.035144
H     3.874022    8.756948   17.961114   -0.044430    0.039436    0.002118
C     3.834892   12.006992   18.824935    0.020076    0.067656    0.042800
C     3.373251   11.751381   16.491148    0.039478    0.081786    0.031116
C     3.780433    9.828095   17.860732   -0.015220    0.040838    0.007896
C     2.726769   16.858317   19.519786   -0.075052    0.424846   -0.120788
H     3.363928    9.742408   15.762064   -0.033678    0.097476    0.006424
O     1.903060   14.302808   17.394678    0.047834   -0.048304   -0.038640
O     2.733657   17.539843   18.137837    0.689956   -1.411896   -0.027200
O     2.330419   18.091446   18.809731   -0.311154    0.322948    0.337872
H     3.809286   14.418940   16.467937   -0.054210   -0.011064   -0.024298
O     4.040203   14.705334   18.520565   -0.232866    0.385994   -0.182200
C     3.504753   14.079852   17.551360   -0.265222    0.099020   -0.210718
H     1.835087   15.256922   17.239928   -0.112112   -0.038174    0.165060
H     1.928328   16.134222   19.653945    0.061320    0.387410    0.367828
H     3.631189   16.937693   20.100833   -0.161004    0.430358    0.092610
21
* Frequency(6) -385.5600
H     4.186660   10.215650   19.933179   -0.047294    0.036502    0.003098
C     3.535328   12.569341   17.593669    0.087914    0.095426    0.046384
H     3.987378   12.716348   19.636330   -0.027174   -0.063114    0.144418
C     3.492487   10.384576   16.625383   -0.002872    0.070848    0.016492
C     3.955764   10.644367   18.968583   -0.014338    0.041638    0.000658
H     3.154833   12.213516   15.534676    0.026882    0.058232    0.035144
H     3.871965    8.758773   17.961212   -0.044430    0.039436    0.002118
C     3.835822   12.010123   18.826916    0.020076    0.067656    0.042800
C     3.375078   11.755166   16.492588    0.039478    0.081786    0.031116
C     3.779729    9.829985   17.861097   -0.015220    0.040838    0.007896
C     2.723296   16.877980   19.514196   -0.075052    0.424846   -0.120788
H     3.362369    9.746920   15.762362   -0.033678    0.097476    0.006424
O     1.905274   14.300572   17.392890    0.047834   -0.048304   -0.038640
O     2.765589   17.474498   18.136578    0.689956   -1.411896   -0.027200
O     2.316019   18.106393   18.825369   -0.311154    0.322948    0.337872
H     3.806777   14.418428   16.466813   -0.054210   -0.011064   -0.024298
O     4.029426   14.723199   18.512132   -0.232866    0.385994   -0.182200
C     3.492478   14.084435   17.541607   -0.265222    0.099020   -0.210718
H     1.829899   15.255155   17.247567   -0.112112   -0.038174    0.165060
H     1.931166   16.152152   19.670968    0.061320    0.387410    0.367828
H     3.623738   16.957611   20.105120   -0.161004    0.430358    0.092610
21
* Frequency(6) -385.5600
H     4.182969   10.218498   19.933421   -0.047294    0.036502    0.003098
C     3.542189   12.576788   17.597289    0.087914    0.095426    0.046384
H     3.985258   12.711423   19.647600   -0.027174   -0.063114    0.144418
C     3.492262   10.390104   16.626670   -0.002872    0.070848    0.016492
C     3.954645   10.647616   18.968635   -0.014338    0.041638    0.000658
H     3.156931   12.218060   15.537418    0.026882    0.058232    0.035144
H     3.868498    8.761850   17.961378   -0.044430    0.039436    0.002118
C     3.837388   12.015403   18.830256    0.020076    0.067656    0.042800
C     3.378158   11.761548   16.495016    0.039478    0.081786    0.031116
C     3.778541    9.833172   17.861714   -0.015220    0.040838    0.007896
C     2.717439   16.911132   19.504770   -0.075052    0.424846   -0.120788
H     3.359741    9.754526   15.762863   -0.033678    0.097476    0.006424
O     1.909007   14.296803   17.389875    0.047834   -0.048304   -0.038640
O     2.819429   17.364323   18.134455    0.689956   -1.411896   -0.027200
O     2.291738   18.131593   18.851734   -0.311154    0.322948    0.337872
H     3.802547   14.417564   16.464916   -0.054210   -0.011064   -0.024298
O     4.011254   14.753319   18.497914   -0.232866    0.385994   -0.182200
C     3.471782   14.092162   17.525164   -0.265222    0.099020   -0.210718
H     1.821150   15.252176   17.260447   -0.112112   -0.038174    0.165060
H     1.935951   16.182383   19.699671    0.061320    0.387410    0.367828
H     3.611174   16.991193   20.112346   -0.161004    0.430358    0.092610
21
* Frequency(6) -385.5600
H     4.178177   10.222197   19.933735   -0.047294    0.036502    0.003098
C     3.551097   12.586457   17.601989    0.087914    0.095426    0.046384
H     3.982504   12.705028   19.662234   -0.027174   -0.063114    0.144418
C     3.491971   10.397283   16.628341   -0.002872    0.070848    0.016492
C     3.953192   10.651835   18.968701   -0.014338    0.041638    0.000658
H     3.159655   12.223960   15.540979    0.026882    0.058232    0.035144
H     3.863996    8.765846   17.961592   -0.044430    0.039436    0.002118
C     3.839422   12.022258   18.834593    0.020076    0.067656    0.042800
C     3.382159   11.769835   16.498169    0.039478    0.081786    0.031116
C     3.776999    9.837310   17.862514   -0.015220    0.040838    0.007896
C     2.709834   16.954181   19.492531   -0.075052    0.424846   -0.120788
H     3.356328    9.764403   15.763514   -0.033678    0.097476    0.006424
O     1.913854   14.291908   17.385959    0.047834   -0.048304   -0.038640
O     2.889342   17.221256   18.131699    0.689956   -1.411896   -0.027200
O     2.260209   18.164318   18.885971   -0.311154    0.322948    0.337872
H     3.797054   14.416443   16.462454   -0.054210   -0.011064   -0.024298
O     3.987658   14.792432   18.479452   -0.232866    0.385994   -0.182200
C     3.444907   14.102196   17.503812   -0.265222    0.099020   -0.210718
H     1.809790   15.248308   17.277173   -0.112112   -0.038174    0.165060
H     1.942164   16.221639   19.736943    0.061320    0.387410    0.367828
H     3.594859   17.034801   20.121730   -0.161004    0.430358    0.092610
21
* Frequency(6) -385.5600
H     4.172802   10.226345   19.934087   -0.047294    0.036502    0.003098
C     3.561088   12.597302   17.607260    0.087914    0.095426    0.046384
H     3.979416   12.697855   19.678646   -0.027174   -0.063114    0.144418
C     3.491645   10.405335   16.630215   -0.002872    0.070848    0.016492
C     3.951563   10.656567   18.968776   -0.014338    0.041638    0.000658
H     3.162710   12.230578   15.544973    0.026882    0.058232    0.035144
H     3.858947    8.770328   17.961833   -0.044430    0.039436    0.002118
C     3.841704   12.029947   18.839457    0.020076    0.067656    0.042800
C     3.386645   11.779130   16.501705    0.039478    0.081786    0.031116
C     3.775269    9.841951   17.863411   -0.015220    0.040838    0.007896
C     2.701305   17.002463   19.478804   -0.075052    0.424846   -0.120788
H     3.352501    9.775481   15.764244   -0.033678    0.097476    0.006424
O     1.919290   14.286419   17.381568    0.047834   -0.048304   -0.038640
O     2.967752   17.060801   18.128608    0.689956   -1.411896   -0.027200
O     2.224848   18.201019   18.924368   -0.311154    0.322948    0.337872
H     3.790893   14.415186   16.459693   -0.054210   -0.011064   -0.024298
O     3.961194   14.836298   18.458746   -0.232866    0.385994   -0.182200
C     3.414766   14.113449   17.479865   -0.265222    0.099020   -0.210718
H     1.797049   15.243970   17.295931   -0.112112   -0.038174    0.165060
H     1.949133   16.265666   19.778745    0.061320    0.387410    0.367828
H     3.576562   17.083709   20.132255   -0.161004    0.430358    0.092610
