16
Coordinates from ORCA-job job.QMRegion
  C          -1.26070991801307      2.14180020867369      2.14916347356510
  C           1.31690505756636     -2.75949211116648      2.06071821515236
  O          -2.01771761159693      1.34677381637637      2.91358204023763
  O           1.68000510996088     -1.59529152342979      2.61463389206175
  C           0.79903584925102     -1.05957696735865      3.60365305528376
  H           1.37487378938295     -0.27312198983282      4.08144537183517
  H           0.51557319480347     -1.82413003813771      4.33013152792724
  O           0.48307230594836     -3.51492646604719      2.51888888146114
  C          -1.25940721735586      0.48079992382427      3.76852536622534
  H          -2.01495322450844     -0.06215979338802      4.33186234599991
  H          -0.63429998009276      1.06360891369680      4.43906876477757
  O          -0.05043313178015      2.22492898734269      2.26388172517513
  C          -0.43473292821586     -0.48886606094581      2.95726158571187
  O          -0.76801035051885     -0.80516120509383      1.82486582412690
  H          -1.86675469558287      2.62818657949932      1.40695084113171
  H           1.87927544084228     -2.90985118869309      1.14172845796626
