140
* (null), Energy   -1000.0000000
C     0.495192    4.615980   -0.315504   -0.010648   -0.027602    0.010870
C    -4.483605    3.270254    0.530821   -0.015606    0.004974    0.018027
C    -5.041789   -1.724145   -0.637063    0.007967    0.003430   -0.006832
C    -0.710467   -4.699316   -0.729378    0.018747    0.024389   -0.011504
C     4.331891   -3.421284    0.058986    0.015677    0.012398    0.004054
C     4.833231    1.673682   -0.487961    0.012736   -0.004756   -0.026554
O    -0.397833    3.584532    0.046771   -0.019662   -0.017067    0.020865
O    -4.448535    2.300053   -0.464495    0.015751   -0.007493    0.029576
O    -3.639850   -1.811296   -0.804403    0.008048    0.015406   -0.003282
O     0.229433   -3.683434   -0.461070    0.018958    0.023097   -0.007045
O     4.332140   -2.351673   -0.831660    0.036267    0.007140   -0.001684
O     3.423768    1.751989   -0.614027    0.010145   -0.019072   -0.053626
C     0.997017    4.346711   -1.744859   -0.024415   -0.026011    0.004918
C    -4.037031    4.580232   -0.147315   -0.013065   -0.000444    0.011048
C    -5.634898   -0.928795   -1.810705    0.006791    0.009806   -0.002083
C    -1.324553   -4.426296   -2.113192    0.017468    0.030929   -0.009729
C     3.863407   -4.649468   -0.748495    0.012584    0.013445    0.004674
C     5.431559    1.051271   -1.760751    0.043031    0.000472   -0.015063
O    -0.054541    4.273747   -2.667394   -0.030303   -0.023626    0.012241
O    -4.872933    4.927208   -1.211733   -0.000307   -0.009545   -0.002121
O    -5.373391   -1.529806   -3.048702    0.010507    0.017658   -0.005350
O    -0.354787   -4.373699   -3.123892    0.011261    0.031873   -0.015209
O     4.684333   -4.896454   -1.851703    0.020514    0.003107    0.012883
O     5.099134    1.782536   -2.909050    0.020444   -0.015683   -0.019857
C     1.735096    3.002937   -1.727833   -0.024896   -0.026272   -0.004493
C    -2.590405    4.404361   -0.644621   -0.009730   -0.010457    0.027513
C    -5.071017    0.495554   -1.755817    0.003199    0.010701    0.007967
C    -2.044593   -3.073685   -2.042055    0.024904    0.033335    0.004305
C     2.412032   -4.414847   -1.204659    0.019671    0.027828   -0.006646
C     4.961097   -0.402645   -1.882729    0.115367   -0.024299   -0.017784
O     2.323789    2.699728   -2.967320   -0.040259   -0.033023   -0.009907
O    -2.125941    5.597029   -1.233835   -0.002978   -0.018351    0.014988
O    -5.683033    1.317195   -2.719161   -0.002514    0.018116    0.018087
O    -2.729012   -2.768679   -3.232315    0.044918    0.057062   -0.000264
O     1.915286   -5.543764   -1.886564    0.016764    0.039010   -0.023184
O     5.668702   -1.067361   -2.902173    0.218794   -0.015024    0.046757
C     2.860887    3.052495   -0.692159   -0.007804   -0.022079   -0.024788
C    -1.673372    3.983658    0.514101   -0.011346    0.003638    0.034466
C    -5.275640    1.146366   -0.379880    0.008424   -0.001900    0.014657
C    -3.076686   -3.109185   -0.911858    0.014884    0.019883   -0.006979
C     1.502361   -4.093959   -0.006333    0.019436    0.018232   -0.007276
C     5.143636   -1.208271   -0.587717    0.051059   -0.003894    0.005713
C     2.348973    3.511747    0.683978    0.010206   -0.031276   -0.015293
C    -2.293003    2.734594    1.152494   -0.023554    0.030323    0.084870
C    -4.891873    0.202104    0.778402    0.006667   -0.012547    0.005995
C    -2.431216   -3.535789    0.416369    0.009890    0.010575   -0.007932
C     2.147553   -2.907731    0.727160    0.006676    0.009942    0.015477
C     4.734584   -0.415507    0.672252    0.024103    0.005441   -0.009099
O     1.564300    4.693578    0.579853    0.000356   -0.036902   -0.000783
O    -3.609853    2.972010    1.604636   -0.035121    0.033921    0.039916
O    -5.372460   -1.128119    0.575103   -0.001644   -0.006602   -0.003840
O    -1.700410   -4.749783    0.256210    0.015018    0.016428   -0.014074
O     3.456434   -3.216771    1.149590    0.017159    0.025775    0.002325
O     5.193315    0.936736    0.634312    0.000077    0.014010   -0.012900
C     3.514316    3.871991    1.618048    0.023474   -0.018361   -0.035263
C    -1.471956    2.190626    2.315722   -0.028630    0.074723    0.105992
C    -5.526716    0.616310    2.119039    0.016113   -0.015924    0.011386
C    -3.492230   -3.813353    1.489850    0.009261    0.000346   -0.011735
C     1.361219   -2.344593    1.885143   -0.020597   -0.113140    0.067944
C     5.372322   -0.971636    1.958623    0.018457    0.022227    0.001300
O     4.403768    4.775445    1.020299   -0.003178   -0.001183   -0.048808
O    -1.888606    0.983814    2.657493   -0.217465    0.224263    0.414327
O    -6.905455    0.844569    1.999595    0.017732   -0.003926    0.016305
O    -4.416952   -4.781041    1.069005    0.017606   -0.004952   -0.015977
O     2.113911   -1.645819    2.726190   -0.107606    0.179192   -0.083859
O     6.760761   -1.117667    1.831078    0.021212    0.035106    0.017470
H     0.003010    5.593423   -0.260250    0.000782   -0.022205    0.016888
H    -5.479036    3.370742    0.980559   -0.026312   -0.001556   -0.004246
H    -5.487532   -2.725698   -0.595835    0.013487    0.000634   -0.016333
H    -0.235587   -5.687404   -0.714595    0.019108    0.024574   -0.014572
H     5.321146   -3.589401    0.502576    0.012068    0.004302    0.010265
H     5.258408    2.672243   -0.328626   -0.005610    0.003510   -0.031767
H     1.701987    5.145210   -2.026185   -0.026611   -0.025136    0.001261
H    -4.081947    5.402331    0.573642   -0.020293    0.006369    0.002710
H    -6.724635   -0.892281   -1.705780    0.006630    0.005939   -0.003464
H    -2.058633   -5.217524   -2.335157    0.013412    0.035121   -0.010544
H     3.908951   -5.540088   -0.113586   -0.001675    0.014631    0.007226
H     6.524259    1.071464   -1.684361    0.041772    0.048004   -0.007001
H    -0.738284    4.918241   -2.406079   -0.030820   -0.027274    0.021668
H    -5.002577    4.139801   -1.763964    0.003104   -0.015021    0.005132
H    -4.433947   -1.787163   -3.094647    0.012747    0.027016   -0.006915
H     0.426626   -4.885404   -2.840806    0.020013    0.046406   -0.012661
H     4.823505   -4.057488   -2.318578    0.029207    0.000274    0.010173
H     4.136208    1.937510   -2.924588    0.015798   -0.050642   -0.026675
H     1.007588    2.227753   -1.445154   -0.025050   -0.021390    0.011629
H    -2.575779    3.592849   -1.389928   -0.005853   -0.019918    0.037774
H    -3.985117    0.448892   -1.941511    0.002735    0.015030    0.003151
H    -1.286803   -2.304530   -1.831613    0.028061    0.024122    0.027532
H     2.395171   -3.538082   -1.872468    0.029471    0.036406    0.004468
H     3.884902   -0.402467   -2.115635    0.136783   -0.081667   -0.104456
H     1.634233    2.733473   -3.645508   -0.046752   -0.023881   -0.002743
H    -2.862993    5.958923   -1.755170   -0.002184   -0.020144    0.012363
H    -5.742604    0.803372   -3.539007   -0.003621    0.026366    0.013023
H    -2.108457   -2.874856   -3.967388    0.061085    0.056686    0.013466
H     2.623416   -5.856416   -2.474221    0.017794    0.043472   -0.024598
H     5.671380   -0.483679   -3.675941    0.204219   -0.058050    0.014808
H     3.615469    3.765002   -1.049816   -0.020961   -0.013166   -0.034638
H    -1.578787    4.794736    1.247601    0.010176    0.025074    0.007620
H    -6.326325    1.451579   -0.271751    0.010106    0.002052    0.018618
H    -3.854884   -3.833851   -1.183396    0.020835    0.017248   -0.017270
H     1.417196   -4.962826    0.658166    0.012430    0.011789   -0.016593
H     6.195208   -1.516274   -0.494645    0.042391   -0.023129    0.042700
H     1.750635    2.701011    1.124717    0.020677   -0.035520   -0.006944
H    -2.295009    1.949309    0.377993    0.006986   -0.001672    0.112311
H    -3.800239    0.187664    0.881047    0.008526   -0.021676   -0.003492
H    -1.750996   -2.748078    0.760234    0.006605    0.009644    0.002792
H     2.166046   -2.075486   -0.008658   -0.020488    0.039466    0.053662
H     3.642198   -0.425238    0.769073    0.023760   -0.017191   -0.017136
H     4.080189    2.969602    1.852876    0.046048   -0.010112   -0.058242
H     3.088918    4.293696    2.534644    0.035485   -0.026705   -0.025390
H    -5.325988   -0.188255    2.835826    0.011917   -0.022672    0.004894
H    -5.077076    1.538464    2.484305    0.026270   -0.022730    0.015999
H    -4.060889   -2.903133    1.687714    0.003065   -0.003663   -0.011150
H    -2.978293   -4.132841    2.403711    0.012232    0.003633   -0.012362
H     5.123770   -0.274359    2.766819    0.001222    0.022450   -0.004415
H     4.959683   -1.949833    2.198793    0.026327    0.019007    0.001514
H     3.911868    5.584773    0.820892   -0.017053   -0.005895   -0.032753
H    -7.316711    0.017326    1.712169    0.009455    0.001245    0.013500
H    -3.924081   -5.590430    0.873184    0.024489   -0.000381   -0.017877
H     7.127532   -0.246860    1.622261    0.016122    0.036950    0.015809
C     1.298563   -0.893774    3.634347   -0.192996    0.036787   -0.058984
H     1.970158   -0.220003    4.177698   -0.278117    0.083666   -0.006640
H     0.770301   -1.563147    4.324106   -0.130122   -0.053031   -0.091826
O     0.160836   -2.400372    2.003799    0.020970   -0.504492    0.242070
C    -1.030490    0.240926    3.518504   -0.108327    0.224443    0.312980
H    -1.552092   -0.701535    3.719767   -0.194249    0.329011    0.583314
H    -0.825411    0.762884    4.465117    0.185735    0.316568    0.196325
O    -0.553987    2.772098    2.839782    0.182046   -0.025719   -0.145389
C     0.288480   -0.067748    2.856588   -0.320013   -0.060302    0.016934
O     0.533924    0.345427    1.729819   -0.653612   -0.426114   -0.185928
H    -1.019473    0.004969    0.300759    0.179036    0.054125   -0.218973
O    -1.390743    0.111899   -0.588094    0.026055    0.137931   -0.149189
H     0.666119   -0.400895   -1.170218    0.293620    0.273332   -0.178323
O     1.617986   -0.547171   -1.276999    0.257202    0.048192   -0.147568
H     0.836762    2.604244    4.003053    0.186354    0.139856   -0.123728
O     1.441099    2.140572    4.615818    0.186245    0.199531   -0.078286
O     2.602065    1.905776    3.752731    0.032575   -0.202019   -0.182369
H     3.263424    2.399624    4.273027    0.190668   -0.198180   -0.391357
H    -2.089467   -0.565458   -0.635086    0.060861    0.103576   -0.128793
H     2.022794    0.255722   -0.915063    0.451993    0.058742   -0.372099
140
* Frequency(6)  -49.8412
C     0.493982    4.612843   -0.314269   -0.010648   -0.027602    0.010870
C    -4.485379    3.270819    0.532870   -0.015606    0.004974    0.018027
C    -5.040883   -1.723755   -0.637839    0.007967    0.003430   -0.006832
C    -0.708336   -4.696544   -0.730685    0.018747    0.024389   -0.011504
C     4.333672   -3.419875    0.059446    0.015677    0.012398    0.004054
C     4.834678    1.673142   -0.490978    0.012736   -0.004756   -0.026554
O    -0.400068    3.582592    0.049143   -0.019662   -0.017067    0.020865
O    -4.446745    2.299202   -0.461134    0.015751   -0.007493    0.029576
O    -3.638936   -1.809546   -0.804776    0.008048    0.015406   -0.003282
O     0.231587   -3.680809   -0.461870    0.018958    0.023097   -0.007045
O     4.336262   -2.350862   -0.831851    0.036267    0.007140   -0.001684
O     3.424921    1.749822   -0.620121    0.010145   -0.019072   -0.053626
C     0.994242    4.343755   -1.744300   -0.024415   -0.026011    0.004918
C    -4.038515    4.580181   -0.146060   -0.013065   -0.000444    0.011048
C    -5.634126   -0.927681   -1.810942    0.006791    0.009806   -0.002083
C    -1.322568   -4.422781   -2.114298    0.017468    0.030929   -0.009729
C     3.864837   -4.647940   -0.747964    0.012584    0.013445    0.004674
C     5.436449    1.051324   -1.762462    0.043031    0.000472   -0.015063
O    -0.057985    4.271062   -2.666003   -0.030303   -0.023626    0.012241
O    -4.872968    4.926123   -1.211974   -0.000307   -0.009545   -0.002121
O    -5.372196   -1.527799   -3.049310    0.010507    0.017658   -0.005350
O    -0.353508   -4.370077   -3.125620    0.011261    0.031873   -0.015209
O     4.686665   -4.896101   -1.850239    0.020514    0.003107    0.012883
O     5.101458    1.780754   -2.911306    0.020444   -0.015683   -0.019857
C     1.732267    2.999951   -1.728343   -0.024896   -0.026272   -0.004493
C    -2.591511    4.403173   -0.641494   -0.009730   -0.010457    0.027513
C    -5.070653    0.496771   -1.754912    0.003199    0.010701    0.007967
C    -2.041763   -3.069897   -2.041566    0.024904    0.033335    0.004305
C     2.414267   -4.411685   -1.205415    0.019671    0.027828   -0.006646
C     4.974208   -0.405406   -1.884750    0.115367   -0.024299   -0.017784
O     2.319214    2.695975   -2.968445   -0.040259   -0.033023   -0.009907
O    -2.126279    5.594944   -1.232132   -0.002978   -0.018351    0.014988
O    -5.683318    1.319254   -2.717106   -0.002514    0.018116    0.018087
O    -2.723908   -2.762195   -3.232345    0.044918    0.057062   -0.000264
O     1.917191   -5.539331   -1.889199    0.016764    0.039010   -0.023184
O     5.693567   -1.069069   -2.896859    0.218794   -0.015024    0.046757
C     2.860000    3.049986   -0.694976   -0.007804   -0.022079   -0.024788
C    -1.674662    3.984071    0.518018   -0.011346    0.003638    0.034466
C    -5.274683    1.146150   -0.378214    0.008424   -0.001900    0.014657
C    -3.074994   -3.106925   -0.912651    0.014884    0.019883   -0.006979
C     1.504570   -4.091887   -0.007160    0.019436    0.018232   -0.007276
C     5.149439   -1.208714   -0.587068    0.051059   -0.003894    0.005713
C     2.350133    3.508193    0.682240    0.010206   -0.031276   -0.015293
C    -2.295680    2.738040    1.162139   -0.023554    0.030323    0.084870
C    -4.891116    0.200678    0.779083    0.006667   -0.012547    0.005995
C    -2.430092   -3.534587    0.415468    0.009890    0.010575   -0.007932
C     2.148312   -2.906601    0.728919    0.006676    0.009942    0.015477
C     4.737323   -0.414889    0.671218    0.024103    0.005441   -0.009099
O     1.564340    4.689384    0.579764    0.000356   -0.036902   -0.000783
O    -3.613845    2.975865    1.609173   -0.035121    0.033921    0.039916
O    -5.372647   -1.128869    0.574667   -0.001644   -0.006602   -0.003840
O    -1.698703   -4.747916    0.254611    0.015018    0.016428   -0.014074
O     3.458384   -3.213842    1.149854    0.017159    0.025775    0.002325
O     5.193323    0.938328    0.632846    0.000077    0.014010   -0.012900
C     3.516983    3.869905    1.614040    0.023474   -0.018361   -0.035263
C    -1.475209    2.199118    2.327768   -0.028630    0.074723    0.105992
C    -5.524885    0.614500    2.120333    0.016113   -0.015924    0.011386
C    -3.491178   -3.813314    1.488516    0.009261    0.000346   -0.011735
C     1.358878   -2.357451    1.892864   -0.020597   -0.113140    0.067944
C     5.374420   -0.969110    1.958771    0.018457    0.022227    0.001300
O     4.403407    4.775311    1.014753   -0.003178   -0.001183   -0.048808
O    -1.913320    1.009300    2.704579   -0.217465    0.224263    0.414327
O    -6.903440    0.844123    2.001448    0.017732   -0.003926    0.016305
O    -4.414951   -4.781604    1.067189    0.017606   -0.004952   -0.015977
O     2.101682   -1.625455    2.716660   -0.107606    0.179192   -0.083859
O     6.763172   -1.113677    1.833063    0.021212    0.035106    0.017470
H     0.003099    5.590899   -0.258330    0.000782   -0.022205    0.016888
H    -5.482026    3.370565    0.980076   -0.026312   -0.001556   -0.004246
H    -5.485999   -2.725626   -0.597691    0.013487    0.000634   -0.016333
H    -0.233415   -5.684612   -0.716251    0.019108    0.024574   -0.014572
H     5.322518   -3.588912    0.503743    0.012068    0.004302    0.010265
H     5.257770    2.672642   -0.332236   -0.005610    0.003510   -0.031767
H     1.698963    5.142354   -2.026042   -0.026611   -0.025136    0.001261
H    -4.084254    5.403055    0.573950   -0.020293    0.006369    0.002710
H    -6.723881   -0.891606   -1.706174    0.006630    0.005939   -0.003464
H    -2.057109   -5.213533   -2.336355    0.013412    0.035121   -0.010544
H     3.908761   -5.538425   -0.112765   -0.001675    0.014631    0.007226
H     6.529007    1.076919   -1.685156    0.041772    0.048004   -0.007001
H    -0.741787    4.915141   -2.403616   -0.030820   -0.027274    0.021668
H    -5.002224    4.138094   -1.763381    0.003104   -0.015021    0.005132
H    -4.432498   -1.784093   -3.095433    0.012747    0.027016   -0.006915
H     0.428901   -4.880131   -2.842244    0.020013    0.046406   -0.012661
H     4.826824   -4.057457   -2.317422    0.029207    0.000274    0.010173
H     4.138004    1.931755   -2.927619    0.015798   -0.050642   -0.026675
H     1.004742    2.225322   -1.443832   -0.025050   -0.021390    0.011629
H    -2.576444    3.590585   -1.385635   -0.005853   -0.019918    0.037774
H    -3.984806    0.450600   -1.941153    0.002735    0.015030    0.003151
H    -1.283614   -2.301789   -1.828484    0.028061    0.024122    0.027532
H     2.398520   -3.533945   -1.871960    0.029471    0.036406    0.004468
H     3.900446   -0.411748   -2.127506    0.136783   -0.081667   -0.104456
H     1.628920    2.730759   -3.645819   -0.046752   -0.023881   -0.002743
H    -2.863241    5.956634   -1.753765   -0.002184   -0.020144    0.012363
H    -5.743016    0.806368   -3.537527   -0.003621    0.026366    0.013023
H    -2.101515   -2.868414   -3.965857    0.061085    0.056686    0.013466
H     2.625438   -5.851476   -2.477016    0.017794    0.043472   -0.024598
H     5.694589   -0.490276   -3.674258    0.204219   -0.058050    0.014808
H     3.613087    3.763506   -1.053753   -0.020961   -0.013166   -0.034638
H    -1.577631    4.797585    1.248467    0.010176    0.025074    0.007620
H    -6.325176    1.451813   -0.269635    0.010106    0.002052    0.018618
H    -3.852516   -3.831891   -1.185359    0.020835    0.017248   -0.017270
H     1.418609   -4.961486    0.656281    0.012430    0.011789   -0.016593
H     6.200025   -1.518902   -0.489793    0.042391   -0.023129    0.042700
H     1.752985    2.696975    1.123928    0.020677   -0.035520   -0.006944
H    -2.294215    1.949119    0.390757    0.006986   -0.001672    0.112311
H    -3.799270    0.185200    0.880650    0.008526   -0.021676   -0.003492
H    -1.750246   -2.746982    0.760551    0.006605    0.009644    0.002792
H     2.163717   -2.071001   -0.002560   -0.020488    0.039466    0.053662
H     3.644898   -0.427191    0.767126    0.023760   -0.017191   -0.017136
H     4.085423    2.968452    1.846257    0.046048   -0.010112   -0.058242
H     3.092950    4.290662    2.531758    0.035485   -0.026705   -0.025390
H    -5.324634   -0.190832    2.836383    0.011917   -0.022672    0.004894
H    -5.074091    1.535881    2.486123    0.026270   -0.022730    0.015999
H    -4.060541   -2.903549    1.686447    0.003065   -0.003663   -0.011150
H    -2.976903   -4.132428    2.402306    0.012232    0.003633   -0.012362
H     5.123909   -0.271808    2.766317    0.001222    0.022450   -0.004415
H     4.962675   -1.947673    2.198965    0.026327    0.019007    0.001514
H     3.909930    5.584103    0.817170   -0.017053   -0.005895   -0.032753
H    -7.315636    0.017467    1.713703    0.009455    0.001245    0.013500
H    -3.921298   -5.590473    0.871152    0.024489   -0.000381   -0.017877
H     7.129365   -0.242660    1.624058    0.016122    0.036950    0.015809
C     1.276630   -0.889594    3.627643   -0.192996    0.036787   -0.058984
H     1.938551   -0.210495    4.176943   -0.278117    0.083666   -0.006640
H     0.755513   -1.569173    4.313670   -0.130122   -0.053031   -0.091826
O     0.163219   -2.457705    2.031309    0.020970   -0.504492    0.242070
C    -1.042800    0.266432    3.554073   -0.108327    0.224443    0.312980
H    -1.574167   -0.664144    3.786058   -0.194249    0.329011    0.583314
H    -0.804303    0.798861    4.487429    0.185735    0.316568    0.196325
O    -0.533298    2.769175    2.823260    0.182046   -0.025719   -0.145389
C     0.252112   -0.074601    2.858512   -0.320013   -0.060302    0.016934
O     0.459644    0.297001    1.708690   -0.653612   -0.426114   -0.185928
H    -0.999126    0.011120    0.275874    0.179036    0.054125   -0.218973
O    -1.387782    0.127574   -0.605049    0.026055    0.137931   -0.149189
H     0.699487   -0.369833   -1.190484    0.293620    0.273332   -0.178323
O     1.647215   -0.541695   -1.293769    0.257202    0.048192   -0.147568
H     0.857940    2.620138    3.988992    0.186354    0.139856   -0.123728
O     1.462265    2.163248    4.606921    0.186245    0.199531   -0.078286
O     2.605767    1.882818    3.732006    0.032575   -0.202019   -0.182369
H     3.285093    2.377102    4.228552    0.190668   -0.198180   -0.391357
H    -2.082550   -0.553687   -0.649722    0.060861    0.103576   -0.128793
H     2.074161    0.262398   -0.957350    0.451993    0.058742   -0.372099
140
* Frequency(6)  -49.8412
C     0.492903    4.610046   -0.313167   -0.010648   -0.027602    0.010870
C    -4.486960    3.271323    0.534696   -0.015606    0.004974    0.018027
C    -5.040076   -1.723407   -0.638532    0.007967    0.003430   -0.006832
C    -0.706437   -4.694073   -0.731851    0.018747    0.024389   -0.011504
C     4.335261   -3.418619    0.059857    0.015677    0.012398    0.004054
C     4.835969    1.672660   -0.493669    0.012736   -0.004756   -0.026554
O    -0.402060    3.580863    0.051257   -0.019662   -0.017067    0.020865
O    -4.445149    2.298443   -0.458137    0.015751   -0.007493    0.029576
O    -3.638120   -1.807985   -0.805109    0.008048    0.015406   -0.003282
O     0.233509   -3.678469   -0.462584    0.018958    0.023097   -0.007045
O     4.339937   -2.350138   -0.832022    0.036267    0.007140   -0.001684
O     3.425949    1.747889   -0.625555    0.010145   -0.019072   -0.053626
C     0.991768    4.341120   -1.743802   -0.024415   -0.026011    0.004918
C    -4.039839    4.580136   -0.144940   -0.013065   -0.000444    0.011048
C    -5.633438   -0.926687   -1.811153    0.006791    0.009806   -0.002083
C    -1.320798   -4.419647   -2.115284    0.017468    0.030929   -0.009729
C     3.866112   -4.646577   -0.747491    0.012584    0.013445    0.004674
C     5.440810    1.051372   -1.763989    0.043031    0.000472   -0.015063
O    -0.061056    4.268668   -2.664763   -0.030303   -0.023626    0.012241
O    -4.872999    4.925156   -1.212189   -0.000307   -0.009545   -0.002121
O    -5.371132   -1.526010   -3.049853    0.010507    0.017658   -0.005350
O    -0.352367   -4.366847   -3.127162    0.011261    0.031873   -0.015209
O     4.688743   -4.895786   -1.848934    0.020514    0.003107    0.012883
O     5.103529    1.779165   -2.913318    0.020444   -0.015683   -0.019857
C     1.729744    2.997289   -1.728799   -0.024896   -0.026272   -0.004493
C    -2.592496    4.402113   -0.638707   -0.009730   -0.010457    0.027513
C    -5.070329    0.497855   -1.754104    0.003199    0.010701    0.007967
C    -2.039240   -3.066519   -2.041129    0.024904    0.033335    0.004305
C     2.416260   -4.408865   -1.206088    0.019671    0.027828   -0.006646
C     4.985898   -0.407868   -1.886552    0.115367   -0.024299   -0.017784
O     2.315134    2.692629   -2.969449   -0.040259   -0.033023   -0.009907
O    -2.126581    5.593084   -1.230613   -0.002978   -0.018351    0.014988
O    -5.683573    1.321090   -2.715273   -0.002514    0.018116    0.018087
O    -2.719356   -2.756413   -3.232371    0.044918    0.057062   -0.000264
O     1.918890   -5.535378   -1.891548    0.016764    0.039010   -0.023184
O     5.715737   -1.070591   -2.892121    0.218794   -0.015024    0.046757
C     2.859209    3.047749   -0.697488   -0.007804   -0.022079   -0.024788
C    -1.675811    3.984440    0.521511   -0.011346    0.003638    0.034466
C    -5.273829    1.145957   -0.376729    0.008424   -0.001900    0.014657
C    -3.073486   -3.104911   -0.913358    0.014884    0.019883   -0.006979
C     1.506539   -4.090040   -0.007897    0.019436    0.018232   -0.007276
C     5.154613   -1.209108   -0.586489    0.051059   -0.003894    0.005713
C     2.351167    3.505023    0.680691    0.010206   -0.031276   -0.015293
C    -2.298066    2.741113    1.170739   -0.023554    0.030323    0.084870
C    -4.890440    0.199406    0.779691    0.006667   -0.012547    0.005995
C    -2.429090   -3.533516    0.414664    0.009890    0.010575   -0.007932
C     2.148988   -2.905594    0.730487    0.006676    0.009942    0.015477
C     4.739765   -0.414337    0.670296    0.024103    0.005441   -0.009099
O     1.564376    4.685645    0.579684    0.000356   -0.036902   -0.000783
O    -3.617403    2.979302    1.613217   -0.035121    0.033921    0.039916
O    -5.372814   -1.129538    0.574277   -0.001644   -0.006602   -0.003840
O    -1.697181   -4.746251    0.253185    0.015018    0.016428   -0.014074
O     3.460123   -3.211230    1.150090    0.017159    0.025775    0.002325
O     5.193331    0.939747    0.631539    0.000077    0.014010   -0.012900
C     3.519362    3.868044    1.610467    0.023474   -0.018361   -0.035263
C    -1.478110    2.206689    2.338508   -0.028630    0.074723    0.105992
C    -5.523252    0.612886    2.121487    0.016113   -0.015924    0.011386
C    -3.490239   -3.813279    1.487327    0.009261    0.000346   -0.011735
C     1.356791   -2.368915    1.899749   -0.020597   -0.113140    0.067944
C     5.376290   -0.966858    1.958902    0.018457    0.022227    0.001300
O     4.403085    4.775191    1.009807   -0.003178   -0.001183   -0.048808
O    -1.935355    1.032025    2.746563   -0.217465    0.224263    0.414327
O    -6.901643    0.843725    2.003100    0.017732   -0.003926    0.016305
O    -4.413167   -4.782106    1.065570    0.017606   -0.004952   -0.015977
O     2.090778   -1.607297    2.708163   -0.107606    0.179192   -0.083859
O     6.765322   -1.110120    1.834834    0.021212    0.035106    0.017470
H     0.003178    5.588649   -0.256619    0.000782   -0.022205    0.016888
H    -5.484692    3.370407    0.979646   -0.026312   -0.001556   -0.004246
H    -5.484633   -2.725562   -0.599346    0.013487    0.000634   -0.016333
H    -0.231479   -5.682121   -0.717727    0.019108    0.024574   -0.014572
H     5.323741   -3.588476    0.504783    0.012068    0.004302    0.010265
H     5.257202    2.672998   -0.335455   -0.005610    0.003510   -0.031767
H     1.696266    5.139807   -2.025914   -0.026611   -0.025136    0.001261
H    -4.086310    5.403700    0.574225   -0.020293    0.006369    0.002710
H    -6.723209   -0.891005   -1.706525    0.006630    0.005939   -0.003464
H    -2.055750   -5.209974   -2.337424    0.013412    0.035121   -0.010544
H     3.908591   -5.536942   -0.112032   -0.001675    0.014631    0.007226
H     6.533239    1.081784   -1.685866    0.041772    0.048004   -0.007001
H    -0.744910    4.912378   -2.401420   -0.030820   -0.027274    0.021668
H    -5.001910    4.136572   -1.762861    0.003104   -0.015021    0.005132
H    -4.431207   -1.781356   -3.096133    0.012747    0.027016   -0.006915
H     0.430929   -4.875428   -2.843527    0.020013    0.046406   -0.012661
H     4.829784   -4.057429   -2.316391    0.029207    0.000274    0.010173
H     4.139604    1.926624   -2.930322    0.015798   -0.050642   -0.026675
H     1.002203    2.223155   -1.442654   -0.025050   -0.021390    0.011629
H    -2.577037    3.588567   -1.381807   -0.005853   -0.019918    0.037774
H    -3.984529    0.452123   -1.940834    0.002735    0.015030    0.003151
H    -1.280771   -2.299344   -1.825695    0.028061    0.024122    0.027532
H     2.401507   -3.530256   -1.871507    0.029471    0.036406    0.004468
H     3.914307   -0.420023   -2.138091    0.136783   -0.081667   -0.104456
H     1.624182    2.728339   -3.646097   -0.046752   -0.023881   -0.002743
H    -2.863463    5.954593   -1.752512   -0.002184   -0.020144    0.012363
H    -5.743383    0.809040   -3.536208   -0.003621    0.026366    0.013023
H    -2.095325   -2.862670   -3.964493    0.061085    0.056686    0.013466
H     2.627241   -5.847071   -2.479509    0.017794    0.043472   -0.024598
H     5.715282   -0.496158   -3.672758    0.204219   -0.058050    0.014808
H     3.610963    3.762172   -1.057262   -0.020961   -0.013166   -0.034638
H    -1.576600    4.800126    1.249240    0.010176    0.025074    0.007620
H    -6.324152    1.452021   -0.267749    0.010106    0.002052    0.018618
H    -3.850405   -3.830143   -1.187109    0.020835    0.017248   -0.017270
H     1.419868   -4.960292    0.654599    0.012430    0.011789   -0.016593
H     6.204320   -1.521246   -0.485466    0.042391   -0.023129    0.042700
H     1.755080    2.693376    1.123224    0.020677   -0.035520   -0.006944
H    -2.293508    1.948950    0.402137    0.006986   -0.001672    0.112311
H    -3.798406    0.183004    0.880297    0.008526   -0.021676   -0.003492
H    -1.749577   -2.746005    0.760834    0.006605    0.009644    0.002792
H     2.161641   -2.067002    0.002878   -0.020488    0.039466    0.053662
H     3.647306   -0.428933    0.765389    0.023760   -0.017191   -0.017136
H     4.090089    2.967428    1.840355    0.046048   -0.010112   -0.058242
H     3.096546    4.287956    2.529185    0.035485   -0.026705   -0.025390
H    -5.323426   -0.193129    2.836878    0.011917   -0.022672    0.004894
H    -5.071429    1.533578    2.487744    0.026270   -0.022730    0.015999
H    -4.060230   -2.903920    1.685317    0.003065   -0.003663   -0.011150
H    -2.975663   -4.132060    2.401053    0.012232    0.003633   -0.012362
H     5.124033   -0.269533    2.765869    0.001222    0.022450   -0.004415
H     4.965343   -1.945747    2.199119    0.026327    0.019007    0.001514
H     3.908202    5.583506    0.813851   -0.017053   -0.005895   -0.032753
H    -7.314678    0.017593    1.715071    0.009455    0.001245    0.013500
H    -3.918817   -5.590512    0.869341    0.024489   -0.000381   -0.017877
H     7.130998   -0.238916    1.625660    0.016122    0.036950    0.015809
C     1.257074   -0.885866    3.621666   -0.192996    0.036787   -0.058984
H     1.910370   -0.202017    4.176270   -0.278117    0.083666   -0.006640
H     0.742328   -1.574547    4.304366   -0.130122   -0.053031   -0.091826
O     0.165344   -2.508825    2.055838    0.020970   -0.504492    0.242070
C    -1.053777    0.289175    3.585787   -0.108327    0.224443    0.312980
H    -1.593850   -0.630806    3.845165   -0.194249    0.329011    0.583314
H    -0.785482    0.830938    4.507322    0.185735    0.316568    0.196325
O    -0.514852    2.766569    2.808527    0.182046   -0.025719   -0.145389
C     0.219685   -0.080712    2.860228   -0.320013   -0.060302    0.016934
O     0.393414    0.253823    1.689850   -0.653612   -0.426114   -0.185928
H    -0.980985    0.016604    0.253685    0.179036    0.054125   -0.218973
O    -1.385142    0.141551   -0.620166    0.026055    0.137931   -0.149189
H     0.729239   -0.342136   -1.208553    0.293620    0.273332   -0.178323
O     1.673277   -0.536811   -1.308722    0.257202    0.048192   -0.147568
H     0.876824    2.634310    3.976455    0.186354    0.139856   -0.123728
O     1.481137    2.183466    4.598989    0.186245    0.199531   -0.078286
O     2.609068    1.862347    3.713526    0.032575   -0.202019   -0.182369
H     3.304413    2.357020    4.188896    0.190668   -0.198180   -0.391357
H    -2.076383   -0.543192   -0.662773    0.060861    0.103576   -0.128793
H     2.119962    0.268350   -0.995054    0.451993    0.058742   -0.372099
140
* Frequency(6)  -49.8412
C     0.492073    4.607892   -0.312319   -0.010648   -0.027602    0.010870
C    -4.488178    3.271711    0.536103   -0.015606    0.004974    0.018027
C    -5.039454   -1.723140   -0.639065    0.007967    0.003430   -0.006832
C    -0.704974   -4.692170   -0.732748    0.018747    0.024389   -0.011504
C     4.336484   -3.417651    0.060174    0.015677    0.012398    0.004054
C     4.836963    1.672289   -0.495741    0.012736   -0.004756   -0.026554
O    -0.403594    3.579531    0.052885   -0.019662   -0.017067    0.020865
O    -4.443920    2.297858   -0.455829    0.015751   -0.007493    0.029576
O    -3.637492   -1.806782   -0.805365    0.008048    0.015406   -0.003282
O     0.234988   -3.676666   -0.463134    0.018958    0.023097   -0.007045
O     4.342767   -2.349581   -0.832153    0.036267    0.007140   -0.001684
O     3.426741    1.746401   -0.629739    0.010145   -0.019072   -0.053626
C     0.989863    4.339090   -1.743418   -0.024415   -0.026011    0.004918
C    -4.040859    4.580102   -0.144078   -0.013065   -0.000444    0.011048
C    -5.632908   -0.925922   -1.811315    0.006791    0.009806   -0.002083
C    -1.319435   -4.417234   -2.116043    0.017468    0.030929   -0.009729
C     3.867094   -4.645528   -0.747126    0.012584    0.013445    0.004674
C     5.444168    1.051409   -1.765164    0.043031    0.000472   -0.015063
O    -0.063420    4.266825   -2.663808   -0.030303   -0.023626    0.012241
O    -4.873023    4.924411   -1.212354   -0.000307   -0.009545   -0.002121
O    -5.370312   -1.524632   -3.050270    0.010507    0.017658   -0.005350
O    -0.351488   -4.364360   -3.128348    0.011261    0.031873   -0.015209
O     4.690344   -4.895543   -1.847929    0.020514    0.003107    0.012883
O     5.105124    1.777941   -2.914868    0.020444   -0.015683   -0.019857
C     1.727802    2.995239   -1.729149   -0.024896   -0.026272   -0.004493
C    -2.593256    4.401297   -0.636560   -0.009730   -0.010457    0.027513
C    -5.070079    0.498690   -1.753483    0.003199    0.010701    0.007967
C    -2.037296   -3.063918   -2.040794    0.024904    0.033335    0.004305
C     2.417795   -4.406694   -1.206607    0.019671    0.027828   -0.006646
C     4.994900   -0.409765   -1.887940    0.115367   -0.024299   -0.017784
O     2.311993    2.690052   -2.970222   -0.040259   -0.033023   -0.009907
O    -2.126814    5.591652   -1.229443   -0.002978   -0.018351    0.014988
O    -5.683769    1.322503   -2.713862   -0.002514    0.018116    0.018087
O    -2.715851   -2.751960   -3.232392    0.044918    0.057062   -0.000264
O     1.920198   -5.532334   -1.893357    0.016764    0.039010   -0.023184
O     5.732810   -1.071763   -2.888473    0.218794   -0.015024    0.046757
C     2.858600    3.046026   -0.699422   -0.007804   -0.022079   -0.024788
C    -1.676697    3.984724    0.524200   -0.011346    0.003638    0.034466
C    -5.273172    1.145809   -0.375585    0.008424   -0.001900    0.014657
C    -3.072324   -3.103359   -0.913903    0.014884    0.019883   -0.006979
C     1.508056   -4.088617   -0.008465    0.019436    0.018232   -0.007276
C     5.158597   -1.209412   -0.586043    0.051059   -0.003894    0.005713
C     2.351963    3.502583    0.679497    0.010206   -0.031276   -0.015293
C    -2.299904    2.743479    1.177361   -0.023554    0.030323    0.084870
C    -4.889920    0.198427    0.780159    0.006667   -0.012547    0.005995
C    -2.428318   -3.532690    0.414045    0.009890    0.010575   -0.007932
C     2.149509   -2.904818    0.731695    0.006676    0.009942    0.015477
C     4.741646   -0.413913    0.669586    0.024103    0.005441   -0.009099
O     1.564404    4.682765    0.579623    0.000356   -0.036902   -0.000783
O    -3.620144    2.981949    1.616332   -0.035121    0.033921    0.039916
O    -5.372942   -1.130054    0.573978   -0.001644   -0.006602   -0.003840
O    -1.696009   -4.744969    0.252087    0.015018    0.016428   -0.014074
O     3.461462   -3.209219    1.150271    0.017159    0.025775    0.002325
O     5.193337    0.940841    0.630532    0.000077    0.014010   -0.012900
C     3.521194    3.866611    1.607716    0.023474   -0.018361   -0.035263
C    -1.480345    2.212520    2.346779   -0.028630    0.074723    0.105992
C    -5.521995    0.611644    2.122375    0.016113   -0.015924    0.011386
C    -3.489517   -3.813252    1.486412    0.009261    0.000346   -0.011735
C     1.355184   -2.377744    1.905051   -0.020597   -0.113140    0.067944
C     5.377730   -0.965123    1.959004    0.018457    0.022227    0.001300
O     4.402837    4.775098    1.005998   -0.003178   -0.001183   -0.048808
O    -1.952325    1.049525    2.778894   -0.217465    0.224263    0.414327
O    -6.900259    0.843418    2.004372    0.017732   -0.003926    0.016305
O    -4.411794   -4.782492    1.064323    0.017606   -0.004952   -0.015977
O     2.082381   -1.593314    2.701619   -0.107606    0.179192   -0.083859
O     6.766977   -1.107380    1.836197    0.021212    0.035106    0.017470
H     0.003239    5.586917   -0.255301    0.000782   -0.022205    0.016888
H    -5.486746    3.370286    0.979314   -0.026312   -0.001556   -0.004246
H    -5.483580   -2.725512   -0.600620    0.013487    0.000634   -0.016333
H    -0.229988   -5.680204   -0.718864    0.019108    0.024574   -0.014572
H     5.324683   -3.588140    0.505584    0.012068    0.004302    0.010265
H     5.256764    2.673272   -0.337934   -0.005610    0.003510   -0.031767
H     1.694190    5.137845   -2.025816   -0.026611   -0.025136    0.001261
H    -4.087893    5.404197    0.574437   -0.020293    0.006369    0.002710
H    -6.722692   -0.890541   -1.706795    0.006630    0.005939   -0.003464
H    -2.054703   -5.207234   -2.338247    0.013412    0.035121   -0.010544
H     3.908460   -5.535801   -0.111469   -0.001675    0.014631    0.007226
H     6.536499    1.085530   -1.686412    0.041772    0.048004   -0.007001
H    -0.747315    4.910249   -2.399730   -0.030820   -0.027274    0.021668
H    -5.001667    4.135400   -1.762461    0.003104   -0.015021    0.005132
H    -4.430212   -1.779248   -3.096673    0.012747    0.027016   -0.006915
H     0.432490   -4.871807   -2.844515    0.020013    0.046406   -0.012661
H     4.832063   -4.057407   -2.315597    0.029207    0.000274    0.010173
H     4.140837    1.922672   -2.932404    0.015798   -0.050642   -0.026675
H     1.000248    2.221486   -1.441746   -0.025050   -0.021390    0.011629
H    -2.577494    3.587013   -1.378860   -0.005853   -0.019918    0.037774
H    -3.984316    0.453296   -1.940588    0.002735    0.015030    0.003151
H    -1.278581   -2.297462   -1.823546    0.028061    0.024122    0.027532
H     2.403806   -3.527415   -1.871159    0.029471    0.036406    0.004468
H     3.924980   -0.426396   -2.146242    0.136783   -0.081667   -0.104456
H     1.620534    2.726476   -3.646311   -0.046752   -0.023881   -0.002743
H    -2.863633    5.953021   -1.751547   -0.002184   -0.020144    0.012363
H    -5.743666    0.811098   -3.535191   -0.003621    0.026366    0.013023
H    -2.090558   -2.858246   -3.963442    0.061085    0.056686    0.013466
H     2.628630   -5.843679   -2.481428    0.017794    0.043472   -0.024598
H     5.731218   -0.500688   -3.671602    0.204219   -0.058050    0.014808
H     3.609327    3.761144   -1.059965   -0.020961   -0.013166   -0.034638
H    -1.575806    4.802083    1.249834    0.010176    0.025074    0.007620
H    -6.323364    1.452181   -0.266296    0.010106    0.002052    0.018618
H    -3.848779   -3.828797   -1.188456    0.020835    0.017248   -0.017270
H     1.420838   -4.959372    0.653305    0.012430    0.011789   -0.016593
H     6.207628   -1.523051   -0.482134    0.042391   -0.023129    0.042700
H     1.756694    2.690604    1.122682    0.020677   -0.035520   -0.006944
H    -2.292962    1.948819    0.410902    0.006986   -0.001672    0.112311
H    -3.797741    0.181312    0.880024    0.008526   -0.021676   -0.003492
H    -1.749061   -2.745252    0.761052    0.006605    0.009644    0.002792
H     2.160043   -2.063922    0.007065   -0.020488    0.039466    0.053662
H     3.649160   -0.430275    0.764052    0.023760   -0.017191   -0.017136
H     4.093682    2.966639    1.835810    0.046048   -0.010112   -0.058242
H     3.099315    4.285872    2.527204    0.035485   -0.026705   -0.025390
H    -5.322496   -0.194898    2.837260    0.011917   -0.022672    0.004894
H    -5.069379    1.531804    2.488993    0.026270   -0.022730    0.015999
H    -4.059991   -2.904206    1.684447    0.003065   -0.003663   -0.011150
H    -2.974709   -4.131776    2.400088    0.012232    0.003633   -0.012362
H     5.124128   -0.267781    2.765525    0.001222    0.022450   -0.004415
H     4.967397   -1.944264    2.199237    0.026327    0.019007    0.001514
H     3.906872    5.583046    0.811295   -0.017053   -0.005895   -0.032753
H    -7.313940    0.017691    1.716125    0.009455    0.001245    0.013500
H    -3.916906   -5.590541    0.867946    0.024489   -0.000381   -0.017877
H     7.132256   -0.236033    1.626893    0.016122    0.036950    0.015809
C     1.242014   -0.882995    3.617064   -0.192996    0.036787   -0.058984
H     1.888667   -0.195489    4.175752   -0.278117    0.083666   -0.006640
H     0.732174   -1.578685    4.297200   -0.130122   -0.053031   -0.091826
O     0.166980   -2.548192    2.074728    0.020970   -0.504492    0.242070
C    -1.062230    0.306689    3.610210   -0.108327    0.224443    0.312980
H    -1.609008   -0.605132    3.890683   -0.194249    0.329011    0.583314
H    -0.770989    0.855641    4.522642    0.185735    0.316568    0.196325
O    -0.500646    2.764562    2.797182    0.182046   -0.025719   -0.145389
C     0.194713   -0.085417    2.861549   -0.320013   -0.060302    0.016934
O     0.342410    0.220572    1.675341   -0.653612   -0.426114   -0.185928
H    -0.967014    0.020828    0.236598    0.179036    0.054125   -0.218973
O    -1.383108    0.152314   -0.631808    0.026055    0.137931   -0.149189
H     0.752152   -0.320807   -1.222468    0.293620    0.273332   -0.178323
O     1.693348   -0.533051   -1.320237    0.257202    0.048192   -0.147568
H     0.891365    2.645223    3.966800    0.186354    0.139856   -0.123728
O     1.495670    2.199036    4.592880    0.186245    0.199531   -0.078286
O     2.611610    1.846583    3.699295    0.032575   -0.202019   -0.182369
H     3.319292    2.341556    4.158357    0.190668   -0.198180   -0.391357
H    -2.071634   -0.535109   -0.672823    0.060861    0.103576   -0.128793
H     2.155232    0.272934   -1.024090    0.451993    0.058742   -0.372099
140
* Frequency(6)  -49.8412
C     0.491580    4.606615   -0.311816   -0.010648   -0.027602    0.010870
C    -4.488900    3.271942    0.536937   -0.015606    0.004974    0.018027
C    -5.039086   -1.722981   -0.639381    0.007967    0.003430   -0.006832
C    -0.704106   -4.691041   -0.733281    0.018747    0.024389   -0.011504
C     4.337210   -3.417077    0.060361    0.015677    0.012398    0.004054
C     4.837552    1.672068   -0.496970    0.012736   -0.004756   -0.026554
O    -0.404504    3.578741    0.053851   -0.019662   -0.017067    0.020865
O    -4.443191    2.297511   -0.454461    0.015751   -0.007493    0.029576
O    -3.637120   -1.806069   -0.805517    0.008048    0.015406   -0.003282
O     0.235865   -3.675597   -0.463460    0.018958    0.023097   -0.007045
O     4.344445   -2.349251   -0.832231    0.036267    0.007140   -0.001684
O     3.427210    1.745518   -0.632221    0.010145   -0.019072   -0.053626
C     0.988733    4.337886   -1.743190   -0.024415   -0.026011    0.004918
C    -4.041463    4.580081   -0.143567   -0.013065   -0.000444    0.011048
C    -5.632594   -0.925468   -1.811412    0.006791    0.009806   -0.002083
C    -1.318626   -4.415802   -2.116493    0.017468    0.030929   -0.009729
C     3.867676   -4.644906   -0.746909    0.012584    0.013445    0.004674
C     5.446159    1.051431   -1.765861    0.043031    0.000472   -0.015063
O    -0.064823    4.265731   -2.663241   -0.030303   -0.023626    0.012241
O    -4.873037    4.923969   -1.212453   -0.000307   -0.009545   -0.002121
O    -5.369826   -1.523815   -3.050518    0.010507    0.017658   -0.005350
O    -0.350967   -4.362885   -3.129052    0.011261    0.031873   -0.015209
O     4.691293   -4.895400   -1.847332    0.020514    0.003107    0.012883
O     5.106071    1.777215   -2.915787    0.020444   -0.015683   -0.019857
C     1.726649    2.994023   -1.729357   -0.024896   -0.026272   -0.004493
C    -2.593706    4.400813   -0.635286   -0.009730   -0.010457    0.027513
C    -5.069931    0.499185   -1.753114    0.003199    0.010701    0.007967
C    -2.036144   -3.062375   -2.040594    0.024904    0.033335    0.004305
C     2.418706   -4.405406   -1.206914    0.019671    0.027828   -0.006646
C     5.000240   -0.410889   -1.888763    0.115367   -0.024299   -0.017784
O     2.310130    2.688523   -2.970681   -0.040259   -0.033023   -0.009907
O    -2.126951    5.590803   -1.228750   -0.002978   -0.018351    0.014988
O    -5.683885    1.323342   -2.713025   -0.002514    0.018116    0.018087
O    -2.713772   -2.749319   -3.232404    0.044918    0.057062   -0.000264
O     1.920974   -5.530528   -1.894430    0.016764    0.039010   -0.023184
O     5.742936   -1.072459   -2.886309    0.218794   -0.015024    0.046757
C     2.858239    3.045004   -0.700569   -0.007804   -0.022079   -0.024788
C    -1.677222    3.984892    0.525796   -0.011346    0.003638    0.034466
C    -5.272782    1.145721   -0.374906    0.008424   -0.001900    0.014657
C    -3.071635   -3.102439   -0.914226    0.014884    0.019883   -0.006979
C     1.508955   -4.087773   -0.008801    0.019436    0.018232   -0.007276
C     5.160960   -1.209592   -0.585778    0.051059   -0.003894    0.005713
C     2.352436    3.501135    0.678790    0.010206   -0.031276   -0.015293
C    -2.300995    2.744882    1.181289   -0.023554    0.030323    0.084870
C    -4.889611    0.197847    0.780436    0.006667   -0.012547    0.005995
C    -2.427861   -3.532201    0.413678    0.009890    0.010575   -0.007932
C     2.149818   -2.904358    0.732411    0.006676    0.009942    0.015477
C     4.742762   -0.413661    0.669165    0.024103    0.005441   -0.009099
O     1.564420    4.681057    0.579587    0.000356   -0.036902   -0.000783
O    -3.621770    2.983519    1.618179   -0.035121    0.033921    0.039916
O    -5.373018   -1.130359    0.573800   -0.001644   -0.006602   -0.003840
O    -1.695314   -4.744209    0.251435    0.015018    0.016428   -0.014074
O     3.462256   -3.208026    1.150379    0.017159    0.025775    0.002325
O     5.193341    0.941489    0.629935    0.000077    0.014010   -0.012900
C     3.522280    3.865762    1.606083    0.023474   -0.018361   -0.035263
C    -1.481670    2.215979    2.351685   -0.028630    0.074723    0.105992
C    -5.521249    0.610907    2.122902    0.016113   -0.015924    0.011386
C    -3.489088   -3.813236    1.485869    0.009261    0.000346   -0.011735
C     1.354231   -2.382980    1.908196   -0.020597   -0.113140    0.067944
C     5.378585   -0.964095    1.959064    0.018457    0.022227    0.001300
O     4.402690    4.775044    1.003739   -0.003178   -0.001183   -0.048808
O    -1.962389    1.059904    2.798070   -0.217465    0.224263    0.414327
O    -6.899439    0.843237    2.005127    0.017732   -0.003926    0.016305
O    -4.410979   -4.782722    1.063584    0.017606   -0.004952   -0.015977
O     2.077401   -1.585021    2.697738   -0.107606    0.179192   -0.083859
O     6.767959   -1.105755    1.837005    0.021212    0.035106    0.017470
H     0.003275    5.585889   -0.254520    0.000782   -0.022205    0.016888
H    -5.487963    3.370214    0.979118   -0.026312   -0.001556   -0.004246
H    -5.482956   -2.725483   -0.601376    0.013487    0.000634   -0.016333
H    -0.229104   -5.679067   -0.719539    0.019108    0.024574   -0.014572
H     5.325241   -3.587941    0.506059    0.012068    0.004302    0.010265
H     5.256504    2.673434   -0.339404   -0.005610    0.003510   -0.031767
H     1.692958    5.136682   -2.025757   -0.026611   -0.025136    0.001261
H    -4.088833    5.404492    0.574562   -0.020293    0.006369    0.002710
H    -6.722385   -0.890266   -1.706955    0.006630    0.005939   -0.003464
H    -2.054083   -5.205608   -2.338735    0.013412    0.035121   -0.010544
H     3.908383   -5.535123   -0.111134   -0.001675    0.014631    0.007226
H     6.538432    1.087751   -1.686736    0.041772    0.048004   -0.007001
H    -0.748741    4.908987   -2.398727   -0.030820   -0.027274    0.021668
H    -5.001524    4.134705   -1.762223    0.003104   -0.015021    0.005132
H    -4.429622   -1.777997   -3.096993    0.012747    0.027016   -0.006915
H     0.433417   -4.869659   -2.845101    0.020013    0.046406   -0.012661
H     4.833415   -4.057395   -2.315126    0.029207    0.000274    0.010173
H     4.141568    1.920328   -2.933638    0.015798   -0.050642   -0.026675
H     0.999089    2.220496   -1.441208   -0.025050   -0.021390    0.011629
H    -2.577765    3.586091   -1.377112   -0.005853   -0.019918    0.037774
H    -3.984189    0.453991   -1.940442    0.002735    0.015030    0.003151
H    -1.277282   -2.296346   -1.822272    0.028061    0.024122    0.027532
H     2.405170   -3.525730   -1.870952    0.029471    0.036406    0.004468
H     3.931311   -0.430175   -2.151076    0.136783   -0.081667   -0.104456
H     1.618370    2.725370   -3.646438   -0.046752   -0.023881   -0.002743
H    -2.863734    5.952088   -1.750975   -0.002184   -0.020144    0.012363
H    -5.743833    0.812318   -3.534589   -0.003621    0.026366    0.013023
H    -2.087731   -2.855623   -3.962819    0.061085    0.056686    0.013466
H     2.629453   -5.841667   -2.482567    0.017794    0.043472   -0.024598
H     5.740670   -0.503375   -3.670917    0.204219   -0.058050    0.014808
H     3.608357    3.760535   -1.061569   -0.020961   -0.013166   -0.034638
H    -1.575335    4.803243    1.250187    0.010176    0.025074    0.007620
H    -6.322896    1.452276   -0.265434    0.010106    0.002052    0.018618
H    -3.847815   -3.827999   -1.189256    0.020835    0.017248   -0.017270
H     1.421414   -4.958826    0.652537    0.012430    0.011789   -0.016593
H     6.209590   -1.524121   -0.480158    0.042391   -0.023129    0.042700
H     1.757651    2.688960    1.122361    0.020677   -0.035520   -0.006944
H    -2.292639    1.948742    0.416100    0.006986   -0.001672    0.112311
H    -3.797346    0.180309    0.879862    0.008526   -0.021676   -0.003492
H    -1.748755   -2.744806    0.761181    0.006605    0.009644    0.002792
H     2.159094   -2.062095    0.009549   -0.020488    0.039466    0.053662
H     3.650259   -0.431070    0.763259    0.023760   -0.017191   -0.017136
H     4.095813    2.966171    1.833115    0.046048   -0.010112   -0.058242
H     3.100957    4.284636    2.526029    0.035485   -0.026705   -0.025390
H    -5.321945   -0.195947    2.837487    0.011917   -0.022672    0.004894
H    -5.068163    1.530752    2.489733    0.026270   -0.022730    0.015999
H    -4.059849   -2.904375    1.683931    0.003065   -0.003663   -0.011150
H    -2.974143   -4.131608    2.399516    0.012232    0.003633   -0.012362
H     5.124185   -0.266742    2.765321    0.001222    0.022450   -0.004415
H     4.968616   -1.943384    2.199307    0.026327    0.019007    0.001514
H     3.906082    5.582773    0.809779   -0.017053   -0.005895   -0.032753
H    -7.313503    0.017748    1.716750    0.009455    0.001245    0.013500
H    -3.915772   -5.590559    0.867119    0.024489   -0.000381   -0.017877
H     7.133002   -0.234323    1.627625    0.016122    0.036950    0.015809
C     1.233081   -0.881293    3.614334   -0.192996    0.036787   -0.058984
H     1.875796   -0.191616    4.175445   -0.278117    0.083666   -0.006640
H     0.726152   -1.581140    4.292950   -0.130122   -0.053031   -0.091826
O     0.167951   -2.571541    2.085931    0.020970   -0.504492    0.242070
C    -1.067244    0.317077    3.624695   -0.108327    0.224443    0.312980
H    -1.617999   -0.589904    3.917680   -0.194249    0.329011    0.583314
H    -0.762393    0.870293    4.531729    0.185735    0.316568    0.196325
O    -0.492221    2.763371    2.790453    0.182046   -0.025719   -0.145389
C     0.179903   -0.088208    2.862333   -0.320013   -0.060302    0.016934
O     0.312160    0.200851    1.666736   -0.653612   -0.426114   -0.185928
H    -0.958728    0.023333    0.226463    0.179036    0.054125   -0.218973
O    -1.381903    0.158698   -0.638712    0.026055    0.137931   -0.149189
H     0.765741   -0.308157   -1.230721    0.293620    0.273332   -0.178323
O     1.705252   -0.530820   -1.327067    0.257202    0.048192   -0.147568
H     0.899990    2.651696    3.961073    0.186354    0.139856   -0.123728
O     1.504290    2.208271    4.589256    0.186245    0.199531   -0.078286
O     2.613118    1.837233    3.690855    0.032575   -0.202019   -0.182369
H     3.328116    2.332383    4.140244    0.190668   -0.198180   -0.391357
H    -2.068817   -0.530316   -0.678784    0.060861    0.103576   -0.128793
H     2.176151    0.275652   -1.041312    0.451993    0.058742   -0.372099
140
* Frequency(6)  -49.8412
C     0.491478    4.606352   -0.311712   -0.010648   -0.027602    0.010870
C    -4.489049    3.271989    0.537109   -0.015606    0.004974    0.018027
C    -5.039010   -1.722948   -0.639446    0.007967    0.003430   -0.006832
C    -0.703928   -4.690809   -0.733390    0.018747    0.024389   -0.011504
C     4.337359   -3.416959    0.060400    0.015677    0.012398    0.004054
C     4.837673    1.672023   -0.497223    0.012736   -0.004756   -0.026554
O    -0.404691    3.578579    0.054049   -0.019662   -0.017067    0.020865
O    -4.443041    2.297440   -0.454179    0.015751   -0.007493    0.029576
O    -3.637043   -1.805923   -0.805548    0.008048    0.015406   -0.003282
O     0.236046   -3.675378   -0.463527    0.018958    0.023097   -0.007045
O     4.344791   -2.349183   -0.832247    0.036267    0.007140   -0.001684
O     3.427307    1.745337   -0.632731    0.010145   -0.019072   -0.053626
C     0.988501    4.337639   -1.743143   -0.024415   -0.026011    0.004918
C    -4.041588    4.580077   -0.143462   -0.013065   -0.000444    0.011048
C    -5.632530   -0.925375   -1.811431    0.006791    0.009806   -0.002083
C    -1.318460   -4.415508   -2.116586    0.017468    0.030929   -0.009729
C     3.867796   -4.644778   -0.746865    0.012584    0.013445    0.004674
C     5.446569    1.051435   -1.766005    0.043031    0.000472   -0.015063
O    -0.065111    4.265506   -2.663125   -0.030303   -0.023626    0.012241
O    -4.873040    4.923879   -1.212473   -0.000307   -0.009545   -0.002121
O    -5.369726   -1.523647   -3.050569    0.010507    0.017658   -0.005350
O    -0.350859   -4.362581   -3.129197    0.011261    0.031873   -0.015209
O     4.691489   -4.895370   -1.847210    0.020514    0.003107    0.012883
O     5.106265    1.777066   -2.915976    0.020444   -0.015683   -0.019857
C     1.726413    2.993773   -1.729400   -0.024896   -0.026272   -0.004493
C    -2.593799    4.400714   -0.635024   -0.009730   -0.010457    0.027513
C    -5.069901    0.499287   -1.753038    0.003199    0.010701    0.007967
C    -2.035907   -3.062058   -2.040553    0.024904    0.033335    0.004305
C     2.418893   -4.405141   -1.206978    0.019671    0.027828   -0.006646
C     5.001337   -0.411120   -1.888932    0.115367   -0.024299   -0.017784
O     2.309747    2.688209   -2.970775   -0.040259   -0.033023   -0.009907
O    -2.126980    5.590628   -1.228607   -0.002978   -0.018351    0.014988
O    -5.683909    1.323514   -2.712852   -0.002514    0.018116    0.018087
O    -2.713345   -2.748776   -3.232407    0.044918    0.057062   -0.000264
O     1.921133   -5.530157   -1.894651    0.016764    0.039010   -0.023184
O     5.745018   -1.072602   -2.885864    0.218794   -0.015024    0.046757
C     2.858165    3.044794   -0.700805   -0.007804   -0.022079   -0.024788
C    -1.677330    3.984927    0.526123   -0.011346    0.003638    0.034466
C    -5.272702    1.145703   -0.374767    0.008424   -0.001900    0.014657
C    -3.071494   -3.102250   -0.914292    0.014884    0.019883   -0.006979
C     1.509140   -4.087600   -0.008871    0.019436    0.018232   -0.007276
C     5.161446   -1.209629   -0.585724    0.051059   -0.003894    0.005713
C     2.352533    3.500838    0.678644    0.010206   -0.031276   -0.015293
C    -2.301219    2.745171    1.182097   -0.023554    0.030323    0.084870
C    -4.889548    0.197727    0.780493    0.006667   -0.012547    0.005995
C    -2.427767   -3.532100    0.413602    0.009890    0.010575   -0.007932
C     2.149882   -2.904263    0.732559    0.006676    0.009942    0.015477
C     4.742991   -0.413609    0.669079    0.024103    0.005441   -0.009099
O     1.564424    4.680706    0.579580    0.000356   -0.036902   -0.000783
O    -3.622104    2.983841    1.618559   -0.035121    0.033921    0.039916
O    -5.373034   -1.130422    0.573763   -0.001644   -0.006602   -0.003840
O    -1.695171   -4.744053    0.251301    0.015018    0.016428   -0.014074
O     3.462419   -3.207781    1.150401    0.017159    0.025775    0.002325
O     5.193341    0.941622    0.629812    0.000077    0.014010   -0.012900
C     3.522503    3.865587    1.605748    0.023474   -0.018361   -0.035263
C    -1.481942    2.216690    2.352693   -0.028630    0.074723    0.105992
C    -5.521096    0.610755    2.123011    0.016113   -0.015924    0.011386
C    -3.489000   -3.813232    1.485757    0.009261    0.000346   -0.011735
C     1.354035   -2.384057    1.908842   -0.020597   -0.113140    0.067944
C     5.378760   -0.963883    1.959077    0.018457    0.022227    0.001300
O     4.402659    4.775032    1.003275   -0.003178   -0.001183   -0.048808
O    -1.964459    1.062038    2.802012   -0.217465    0.224263    0.414327
O    -6.899270    0.843199    2.005282    0.017732   -0.003926    0.016305
O    -4.410811   -4.782769    1.063432    0.017606   -0.004952   -0.015977
O     2.076377   -1.583316    2.696940   -0.107606    0.179192   -0.083859
O     6.768160   -1.105421    1.837172    0.021212    0.035106    0.017470
H     0.003283    5.585678   -0.254359    0.000782   -0.022205    0.016888
H    -5.488214    3.370199    0.979077   -0.026312   -0.001556   -0.004246
H    -5.482828   -2.725477   -0.601532    0.013487    0.000634   -0.016333
H    -0.228922   -5.678833   -0.719677    0.019108    0.024574   -0.014572
H     5.325356   -3.587900    0.506157    0.012068    0.004302    0.010265
H     5.256451    2.673467   -0.339707   -0.005610    0.003510   -0.031767
H     1.692705    5.136443   -2.025745   -0.026611   -0.025136    0.001261
H    -4.089026    5.404552    0.574588   -0.020293    0.006369    0.002710
H    -6.722322   -0.890210   -1.706988    0.006630    0.005939   -0.003464
H    -2.053955   -5.205274   -2.338835    0.013412    0.035121   -0.010544
H     3.908367   -5.534984   -0.111065   -0.001675    0.014631    0.007226
H     6.538830    1.088208   -1.686803    0.041772    0.048004   -0.007001
H    -0.749034    4.908728   -2.398521   -0.030820   -0.027274    0.021668
H    -5.001494    4.134562   -1.762174    0.003104   -0.015021    0.005132
H    -4.429501   -1.777740   -3.097059    0.012747    0.027016   -0.006915
H     0.433607   -4.869218   -2.845222    0.020013    0.046406   -0.012661
H     4.833693   -4.057392   -2.315030    0.029207    0.000274    0.010173
H     4.141719    1.919846   -2.933892    0.015798   -0.050642   -0.026675
H     0.998851    2.220292   -1.441098   -0.025050   -0.021390    0.011629
H    -2.577821    3.585902   -1.376752   -0.005853   -0.019918    0.037774
H    -3.984163    0.454134   -1.940412    0.002735    0.015030    0.003151
H    -1.277015   -2.296116   -1.822010    0.028061    0.024122    0.027532
H     2.405451   -3.525384   -1.870909    0.029471    0.036406    0.004468
H     3.932612   -0.430952   -2.152070    0.136783   -0.081667   -0.104456
H     1.617925    2.725143   -3.646464   -0.046752   -0.023881   -0.002743
H    -2.863755    5.951897   -1.750857   -0.002184   -0.020144    0.012363
H    -5.743868    0.812569   -3.534465   -0.003621    0.026366    0.013023
H    -2.087150   -2.855084   -3.962691    0.061085    0.056686    0.013466
H     2.629623   -5.841253   -2.482801    0.017794    0.043472   -0.024598
H     5.742613   -0.503927   -3.670776    0.204219   -0.058050    0.014808
H     3.608158    3.760410   -1.061898   -0.020961   -0.013166   -0.034638
H    -1.575238    4.803482    1.250259    0.010176    0.025074    0.007620
H    -6.322800    1.452295   -0.265257    0.010106    0.002052    0.018618
H    -3.847616   -3.827835   -1.189420    0.020835    0.017248   -0.017270
H     1.421532   -4.958714    0.652379    0.012430    0.011789   -0.016593
H     6.209994   -1.524341   -0.479751    0.042391   -0.023129    0.042700
H     1.757848    2.688622    1.122295    0.020677   -0.035520   -0.006944
H    -2.292573    1.948726    0.417168    0.006986   -0.001672    0.112311
H    -3.797265    0.180103    0.879829    0.008526   -0.021676   -0.003492
H    -1.748693   -2.744714    0.761208    0.006605    0.009644    0.002792
H     2.158899   -2.061720    0.010059   -0.020488    0.039466    0.053662
H     3.650485   -0.431234    0.763096    0.023760   -0.017191   -0.017136
H     4.096251    2.966074    1.832560    0.046048   -0.010112   -0.058242
H     3.101295    4.284382    2.525788    0.035485   -0.026705   -0.025390
H    -5.321831   -0.196163    2.837533    0.011917   -0.022672    0.004894
H    -5.067913    1.530536    2.489885    0.026270   -0.022730    0.015999
H    -4.059820   -2.904410    1.683824    0.003065   -0.003663   -0.011150
H    -2.974026   -4.131574    2.399399    0.012232    0.003633   -0.012362
H     5.124196   -0.266528    2.765279    0.001222    0.022450   -0.004415
H     4.968866   -1.943203    2.199321    0.026327    0.019007    0.001514
H     3.905920    5.582717    0.809468   -0.017053   -0.005895   -0.032753
H    -7.313413    0.017760    1.716878    0.009455    0.001245    0.013500
H    -3.915539   -5.590563    0.866948    0.024489   -0.000381   -0.017877
H     7.133156   -0.233971    1.627775    0.016122    0.036950    0.015809
C     1.231245   -0.880943    3.613773   -0.192996    0.036787   -0.058984
H     1.873150   -0.190820    4.175382   -0.278117    0.083666   -0.006640
H     0.724913   -1.581644    4.292077   -0.130122   -0.053031   -0.091826
O     0.168150   -2.576341    2.088234    0.020970   -0.504492    0.242070
C    -1.068275    0.319213    3.627673   -0.108327    0.224443    0.312980
H    -1.619847   -0.586774    3.923230   -0.194249    0.329011    0.583314
H    -0.760626    0.873305    4.533597    0.185735    0.316568    0.196325
O    -0.490488    2.763127    2.789070    0.182046   -0.025719   -0.145389
C     0.176858   -0.088782    2.862494   -0.320013   -0.060302    0.016934
O     0.305941    0.196796    1.664967   -0.653612   -0.426114   -0.185928
H    -0.957024    0.023848    0.224380    0.179036    0.054125   -0.218973
O    -1.381655    0.160010   -0.640132    0.026055    0.137931   -0.149189
H     0.768535   -0.305556   -1.232418    0.293620    0.273332   -0.178323
O     1.707699   -0.530362   -1.328471    0.257202    0.048192   -0.147568
H     0.901763    2.653027    3.959896    0.186354    0.139856   -0.123728
O     1.506062    2.210170    4.588512    0.186245    0.199531   -0.078286
O     2.613428    1.835311    3.689120    0.032575   -0.202019   -0.182369
H     3.329930    2.330498    4.136521    0.190668   -0.198180   -0.391357
H    -2.068238   -0.529330   -0.680009    0.060861    0.103576   -0.128793
H     2.180452    0.276211   -1.044852    0.451993    0.058742   -0.372099
140
* Frequency(6)  -49.8412
C     0.491780    4.607133   -0.312020   -0.010648   -0.027602    0.010870
C    -4.488607    3.271848    0.536599   -0.015606    0.004974    0.018027
C    -5.039235   -1.723045   -0.639253    0.007967    0.003430   -0.006832
C    -0.704458   -4.691499   -0.733065    0.018747    0.024389   -0.011504
C     4.336915   -3.417310    0.060285    0.015677    0.012398    0.004054
C     4.837313    1.672158   -0.496472    0.012736   -0.004756   -0.026554
O    -0.404135    3.579062    0.053459   -0.019662   -0.017067    0.020865
O    -4.443486    2.297652   -0.455016    0.015751   -0.007493    0.029576
O    -3.637271   -1.806359   -0.805455    0.008048    0.015406   -0.003282
O     0.235509   -3.676031   -0.463328    0.018958    0.023097   -0.007045
O     4.343765   -2.349385   -0.832200    0.036267    0.007140   -0.001684
O     3.427020    1.745876   -0.631215    0.010145   -0.019072   -0.053626
C     0.989191    4.338374   -1.743283   -0.024415   -0.026011    0.004918
C    -4.041218    4.580089   -0.143774   -0.013065   -0.000444    0.011048
C    -5.632722   -0.925652   -1.811373    0.006791    0.009806   -0.002083
C    -1.318954   -4.416383   -2.116310    0.017468    0.030929   -0.009729
C     3.867440   -4.645158   -0.746997    0.012584    0.013445    0.004674
C     5.445352    1.051422   -1.765578    0.043031    0.000472   -0.015063
O    -0.064254    4.266175   -2.663471   -0.030303   -0.023626    0.012241
O    -4.873032    4.924149   -1.212413   -0.000307   -0.009545   -0.002121
O    -5.370023   -1.524146   -3.050417    0.010507    0.017658   -0.005350
O    -0.351178   -4.363483   -3.128767    0.011261    0.031873   -0.015209
O     4.690908   -4.895458   -1.847574    0.020514    0.003107    0.012883
O     5.105687    1.777509   -2.915414    0.020444   -0.015683   -0.019857
C     1.727117    2.994517   -1.729273   -0.024896   -0.026272   -0.004493
C    -2.593523    4.401010   -0.635803   -0.009730   -0.010457    0.027513
C    -5.069991    0.498984   -1.753264    0.003199    0.010701    0.007967
C    -2.036611   -3.063001   -2.040675    0.024904    0.033335    0.004305
C     2.418337   -4.405928   -1.206790    0.019671    0.027828   -0.006646
C     4.998074   -0.410433   -1.888429    0.115367   -0.024299   -0.017784
O     2.310885    2.689143   -2.970495   -0.040259   -0.033023   -0.009907
O    -2.126895    5.591147   -1.229031   -0.002978   -0.018351    0.014988
O    -5.683838    1.323002   -2.713364   -0.002514    0.018116    0.018087
O    -2.714615   -2.750390   -3.232399    0.044918    0.057062   -0.000264
O     1.920659   -5.531261   -1.893995    0.016764    0.039010   -0.023184
O     5.738830   -1.072177   -2.887186    0.218794   -0.015024    0.046757
C     2.858385    3.045418   -0.700104   -0.007804   -0.022079   -0.024788
C    -1.677009    3.984824    0.525149   -0.011346    0.003638    0.034466
C    -5.272940    1.145757   -0.375182    0.008424   -0.001900    0.014657
C    -3.071915   -3.102812   -0.914095    0.014884    0.019883   -0.006979
C     1.508591   -4.088115   -0.008665    0.019436    0.018232   -0.007276
C     5.160002   -1.209519   -0.585886    0.051059   -0.003894    0.005713
C     2.352244    3.501722    0.679077    0.010206   -0.031276   -0.015293
C    -2.300552    2.744313    1.179696   -0.023554    0.030323    0.084870
C    -4.889736    0.198082    0.780324    0.006667   -0.012547    0.005995
C    -2.428046   -3.532399    0.413827    0.009890    0.010575   -0.007932
C     2.149693   -2.904544    0.732121    0.006676    0.009942    0.015477
C     4.742309   -0.413763    0.669336    0.024103    0.005441   -0.009099
O     1.564414    4.681750    0.579602    0.000356   -0.036902   -0.000783
O    -3.621110    2.982882    1.617430   -0.035121    0.033921    0.039916
O    -5.372987   -1.130235    0.573872   -0.001644   -0.006602   -0.003840
O    -1.695596   -4.744517    0.251700    0.015018    0.016428   -0.014074
O     3.461934   -3.208510    1.150335    0.017159    0.025775    0.002325
O     5.193339    0.941226    0.630177    0.000077    0.014010   -0.012900
C     3.521839    3.866106    1.606745    0.023474   -0.018361   -0.035263
C    -1.481132    2.214576    2.349695   -0.028630    0.074723    0.105992
C    -5.521551    0.611206    2.122689    0.016113   -0.015924    0.011386
C    -3.489262   -3.813242    1.486089    0.009261    0.000346   -0.011735
C     1.354618   -2.380857    1.906920   -0.020597   -0.113140    0.067944
C     5.378238   -0.964512    1.959040    0.018457    0.022227    0.001300
O     4.402749    4.775066    1.004655   -0.003178   -0.001183   -0.048808
O    -1.958308    1.055695    2.790293   -0.217465    0.224263    0.414327
O    -6.899771    0.843310    2.004821    0.017732   -0.003926    0.016305
O    -4.411309   -4.782629    1.063884    0.017606   -0.004952   -0.015977
O     2.079421   -1.588384    2.699312   -0.107606    0.179192   -0.083859
O     6.767560   -1.106414    1.836677    0.021212    0.035106    0.017470
H     0.003260    5.586306   -0.254837    0.000782   -0.022205    0.016888
H    -5.487470    3.370243    0.979198   -0.026312   -0.001556   -0.004246
H    -5.483209   -2.725495   -0.601070    0.013487    0.000634   -0.016333
H    -0.229462   -5.679528   -0.719265    0.019108    0.024574   -0.014572
H     5.325015   -3.588022    0.505867    0.012068    0.004302    0.010265
H     5.256610    2.673368   -0.338808   -0.005610    0.003510   -0.031767
H     1.693458    5.137154   -2.025781   -0.026611   -0.025136    0.001261
H    -4.088452    5.404372    0.574511   -0.020293    0.006369    0.002710
H    -6.722509   -0.890378   -1.706890    0.006630    0.005939   -0.003464
H    -2.054334   -5.206267   -2.338537    0.013412    0.035121   -0.010544
H     3.908414   -5.535398   -0.111270   -0.001675    0.014631    0.007226
H     6.537648    1.086850   -1.686605    0.041772    0.048004   -0.007001
H    -0.748163    4.909499   -2.399134   -0.030820   -0.027274    0.021668
H    -5.001582    4.134987   -1.762319    0.003104   -0.015021    0.005132
H    -4.429861   -1.778504   -3.096863    0.012747    0.027016   -0.006915
H     0.433041   -4.870530   -2.844864    0.020013    0.046406   -0.012661
H     4.832867   -4.057400   -2.315317    0.029207    0.000274    0.010173
H     4.141272    1.921279   -2.933138    0.015798   -0.050642   -0.026675
H     0.999559    2.220897   -1.441426   -0.025050   -0.021390    0.011629
H    -2.577655    3.586465   -1.377821   -0.005853   -0.019918    0.037774
H    -3.984240    0.453709   -1.940501    0.002735    0.015030    0.003151
H    -1.277809   -2.296798   -1.822789    0.028061    0.024122    0.027532
H     2.404617   -3.526413   -1.871036    0.029471    0.036406    0.004468
H     3.928743   -0.428643   -2.149115    0.136783   -0.081667   -0.104456
H     1.619248    2.725819   -3.646387   -0.046752   -0.023881   -0.002743
H    -2.863693    5.952466   -1.751207   -0.002184   -0.020144    0.012363
H    -5.743765    0.811823   -3.534833   -0.003621    0.026366    0.013023
H    -2.088878   -2.856687   -3.963071    0.061085    0.056686    0.013466
H     2.629119   -5.842482   -2.482105    0.017794    0.043472   -0.024598
H     5.736837   -0.502285   -3.671195    0.204219   -0.058050    0.014808
H     3.608750    3.760782   -1.060918   -0.020961   -0.013166   -0.034638
H    -1.575526    4.802773    1.250044    0.010176    0.025074    0.007620
H    -6.323086    1.452237   -0.265784    0.010106    0.002052    0.018618
H    -3.848206   -3.828323   -1.188931    0.020835    0.017248   -0.017270
H     1.421180   -4.959048    0.652848    0.012430    0.011789   -0.016593
H     6.208795   -1.523687   -0.480959    0.042391   -0.023129    0.042700
H     1.757263    2.689627    1.122491    0.020677   -0.035520   -0.006944
H    -2.292770    1.948773    0.413991    0.006986   -0.001672    0.112311
H    -3.797506    0.180716    0.879928    0.008526   -0.021676   -0.003492
H    -1.748879   -2.744987    0.761129    0.006605    0.009644    0.002792
H     2.159479   -2.062836    0.008541   -0.020488    0.039466    0.053662
H     3.649813   -0.430748    0.763580    0.023760   -0.017191   -0.017136
H     4.094949    2.966360    1.834208    0.046048   -0.010112   -0.058242
H     3.100291    4.285137    2.526506    0.035485   -0.026705   -0.025390
H    -5.322169   -0.195522    2.837395    0.011917   -0.022672    0.004894
H    -5.068656    1.531179    2.489433    0.026270   -0.022730    0.015999
H    -4.059907   -2.904307    1.684140    0.003065   -0.003663   -0.011150
H    -2.974372   -4.131676    2.399748    0.012232    0.003633   -0.012362
H     5.124162   -0.267163    2.765404    0.001222    0.022450   -0.004415
H     4.968122   -1.943741    2.199278    0.026327    0.019007    0.001514
H     3.906403    5.582884    0.810394   -0.017053   -0.005895   -0.032753
H    -7.313680    0.017725    1.716496    0.009455    0.001245    0.013500
H    -3.916232   -5.590552    0.867454    0.024489   -0.000381   -0.017877
H     7.132700   -0.235016    1.627328    0.016122    0.036950    0.015809
C     1.236704   -0.881983    3.615441   -0.192996    0.036787   -0.058984
H     1.881016   -0.193187    4.175570   -0.278117    0.083666   -0.006640
H     0.728594   -1.580144    4.294674   -0.130122   -0.053031   -0.091826
O     0.167557   -2.562072    2.081388    0.020970   -0.504492    0.242070
C    -1.065211    0.312864    3.618821   -0.108327    0.224443    0.312980
H    -1.614353   -0.596080    3.906731   -0.194249    0.329011    0.583314
H    -0.765879    0.864351    4.528044    0.185735    0.316568    0.196325
O    -0.495637    2.763854    2.793182    0.182046   -0.025719   -0.145389
C     0.185909   -0.087076    2.862015   -0.320013   -0.060302    0.016934
O     0.324428    0.208849    1.670226   -0.653612   -0.426114   -0.185928
H    -0.962088    0.022317    0.230573    0.179036    0.054125   -0.218973
O    -1.382392    0.156109   -0.635912    0.026055    0.137931   -0.149189
H     0.760230   -0.313287   -1.227374    0.293620    0.273332   -0.178323
O     1.700424   -0.531725   -1.324297    0.257202    0.048192   -0.147568
H     0.896493    2.649071    3.963396    0.186354    0.139856   -0.123728
O     1.500794    2.204526    4.590726    0.186245    0.199531   -0.078286
O     2.612506    1.841025    3.694278    0.032575   -0.202019   -0.182369
H     3.324537    2.336103    4.147590    0.190668   -0.198180   -0.391357
H    -2.069960   -0.532260   -0.676367    0.060861    0.103576   -0.128793
H     2.167668    0.274550   -1.034328    0.451993    0.058742   -0.372099
140
* Frequency(6)  -49.8412
C     0.492451    4.608872   -0.312705   -0.010648   -0.027602    0.010870
C    -4.487624    3.271535    0.535463   -0.015606    0.004974    0.018027
C    -5.039737   -1.723261   -0.638822    0.007967    0.003430   -0.006832
C    -0.705639   -4.693036   -0.732340    0.018747    0.024389   -0.011504
C     4.335928   -3.418091    0.060030    0.015677    0.012398    0.004054
C     4.836511    1.672457   -0.494798    0.012736   -0.004756   -0.026554
O    -0.402896    3.580137    0.052144   -0.019662   -0.017067    0.020865
O    -4.444479    2.298124   -0.456879    0.015751   -0.007493    0.029576
O    -3.637778   -1.807329   -0.805248    0.008048    0.015406   -0.003282
O     0.234315   -3.677486   -0.462884    0.018958    0.023097   -0.007045
O     4.341479   -2.349835   -0.832094    0.036267    0.007140   -0.001684
O     3.426380    1.747078   -0.627835    0.010145   -0.019072   -0.053626
C     0.990730    4.340013   -1.743592   -0.024415   -0.026011    0.004918
C    -4.040395    4.580117   -0.144470   -0.013065   -0.000444    0.011048
C    -5.633150   -0.926270   -1.811241    0.006791    0.009806   -0.002083
C    -1.320055   -4.418332   -2.115697    0.017468    0.030929   -0.009729
C     3.866647   -4.646006   -0.747292    0.012584    0.013445    0.004674
C     5.442640    1.051392   -1.764629    0.043031    0.000472   -0.015063
O    -0.062344    4.267663   -2.664242   -0.030303   -0.023626    0.012241
O    -4.873012    4.924750   -1.212279   -0.000307   -0.009545   -0.002121
O    -5.370685   -1.525259   -3.050080    0.010507    0.017658   -0.005350
O    -0.351888   -4.365491   -3.127808    0.011261    0.031873   -0.015209
O     4.689616   -4.895654   -1.848386    0.020514    0.003107    0.012883
O     5.104399    1.778498   -2.914163    0.020444   -0.015683   -0.019857
C     1.728686    2.996172   -1.728990   -0.024896   -0.026272   -0.004493
C    -2.592910    4.401669   -0.637536   -0.009730   -0.010457    0.027513
C    -5.070193    0.498310   -1.753766    0.003199    0.010701    0.007967
C    -2.038180   -3.065101   -2.040946    0.024904    0.033335    0.004305
C     2.417097   -4.407682   -1.206371    0.019671    0.027828   -0.006646
C     4.990804   -0.408902   -1.887308    0.115367   -0.024299   -0.017784
O     2.313422    2.691224   -2.969871   -0.040259   -0.033023   -0.009907
O    -2.126708    5.592304   -1.229975   -0.002978   -0.018351    0.014988
O    -5.683680    1.321860   -2.714504   -0.002514    0.018116    0.018087
O    -2.717446   -2.753986   -3.232383    0.044918    0.057062   -0.000264
O     1.919603   -5.533719   -1.892534    0.016764    0.039010   -0.023184
O     5.725042   -1.071230   -2.890133    0.218794   -0.015024    0.046757
C     2.858877    3.046810   -0.698542   -0.007804   -0.022079   -0.024788
C    -1.676294    3.984595    0.522977   -0.011346    0.003638    0.034466
C    -5.273471    1.145877   -0.376105    0.008424   -0.001900    0.014657
C    -3.072853   -3.104065   -0.913655    0.014884    0.019883   -0.006979
C     1.507366   -4.089264   -0.008206    0.019436    0.018232   -0.007276
C     5.156784   -1.209274   -0.586246    0.051059   -0.003894    0.005713
C     2.351601    3.503693    0.680040    0.010206   -0.031276   -0.015293
C    -2.299068    2.742402    1.174348   -0.023554    0.030323    0.084870
C    -4.890156    0.198873    0.779946    0.006667   -0.012547    0.005995
C    -2.428670   -3.533066    0.414327    0.009890    0.010575   -0.007932
C     2.149272   -2.905171    0.731146    0.006676    0.009942    0.015477
C     4.740790   -0.414106    0.669909    0.024103    0.005441   -0.009099
O     1.564391    4.684075    0.579651    0.000356   -0.036902   -0.000783
O    -3.618897    2.980744    1.614915   -0.035121    0.033921    0.039916
O    -5.372884   -1.129819    0.574114   -0.001644   -0.006602   -0.003840
O    -1.696542   -4.745552    0.252586    0.015018    0.016428   -0.014074
O     3.460853   -3.210134    1.150189    0.017159    0.025775    0.002325
O     5.193334    0.940343    0.630990    0.000077    0.014010   -0.012900
C     3.520360    3.867263    1.608968    0.023474   -0.018361   -0.035263
C    -1.479328    2.209867    2.343016   -0.028630    0.074723    0.105992
C    -5.522567    0.612209    2.121971    0.016113   -0.015924    0.011386
C    -3.489845   -3.813264    1.486828    0.009261    0.000346   -0.011735
C     1.355915   -2.373727    1.902639   -0.020597   -0.113140    0.067944
C     5.377075   -0.965912    1.958958    0.018457    0.022227    0.001300
O     4.402949    4.775140    1.007731   -0.003178   -0.001183   -0.048808
O    -1.944604    1.041563    2.764183   -0.217465    0.224263    0.414327
O    -6.900889    0.843558    2.003793    0.017732   -0.003926    0.016305
O    -4.412419   -4.782317    1.064890    0.017606   -0.004952   -0.015977
O     2.086202   -1.599677    2.704596   -0.107606    0.179192   -0.083859
O     6.766224   -1.108627    1.835577    0.021212    0.035106    0.017470
H     0.003211    5.587705   -0.255901    0.000782   -0.022205    0.016888
H    -5.485811    3.370341    0.979465   -0.026312   -0.001556   -0.004246
H    -5.484059   -2.725535   -0.600040    0.013487    0.000634   -0.016333
H    -0.230666   -5.681076   -0.718347    0.019108    0.024574   -0.014572
H     5.324254   -3.588293    0.505220    0.012068    0.004302    0.010265
H     5.256963    2.673147   -0.336806   -0.005610    0.003510   -0.031767
H     1.695135    5.138738   -2.025860   -0.026611   -0.025136    0.001261
H    -4.087173    5.403971    0.574340   -0.020293    0.006369    0.002710
H    -6.722927   -0.890752   -1.706672    0.006630    0.005939   -0.003464
H    -2.055180   -5.208480   -2.337872    0.013412    0.035121   -0.010544
H     3.908520   -5.536320   -0.111725   -0.001675    0.014631    0.007226
H     6.535016    1.083825   -1.686163    0.041772    0.048004   -0.007001
H    -0.746220    4.911218   -2.400499   -0.030820   -0.027274    0.021668
H    -5.001778    4.135933   -1.762643    0.003104   -0.015021    0.005132
H    -4.430665   -1.780207   -3.096427    0.012747    0.027016   -0.006915
H     0.431780   -4.873455   -2.844066    0.020013    0.046406   -0.012661
H     4.831026   -4.057417   -2.315958    0.029207    0.000274    0.010173
H     4.140276    1.924470   -2.931457    0.015798   -0.050642   -0.026675
H     1.001138    2.222245   -1.442159   -0.025050   -0.021390    0.011629
H    -2.577286    3.587720   -1.380201   -0.005853   -0.019918    0.037774
H    -3.984413    0.452762   -1.940700    0.002735    0.015030    0.003151
H    -1.279577   -2.298318   -1.824524    0.028061    0.024122    0.027532
H     2.402760   -3.528707   -1.871317    0.029471    0.036406    0.004468
H     3.920124   -0.423496   -2.142533    0.136783   -0.081667   -0.104456
H     1.622194    2.727324   -3.646214   -0.046752   -0.023881   -0.002743
H    -2.863556    5.953736   -1.751986   -0.002184   -0.020144    0.012363
H    -5.743537    0.810161   -3.535654   -0.003621    0.026366    0.013023
H    -2.092727   -2.860259   -3.963920    0.061085    0.056686    0.013466
H     2.627998   -5.845222   -2.480555    0.017794    0.043472   -0.024598
H     5.723967   -0.498627   -3.672128    0.204219   -0.058050    0.014808
H     3.610071    3.761612   -1.058736   -0.020961   -0.013166   -0.034638
H    -1.576167    4.801192    1.249564    0.010176    0.025074    0.007620
H    -6.323723    1.452108   -0.266957    0.010106    0.002052    0.018618
H    -3.849519   -3.829410   -1.187843    0.020835    0.017248   -0.017270
H     1.420397   -4.959790    0.653894    0.012430    0.011789   -0.016593
H     6.206123   -1.522230   -0.483650    0.042391   -0.023129    0.042700
H     1.755960    2.691865    1.122929    0.020677   -0.035520   -0.006944
H    -2.293211    1.948879    0.406914    0.006986   -0.001672    0.112311
H    -3.798044    0.182082    0.880148    0.008526   -0.021676   -0.003492
H    -1.749296   -2.745595    0.760953    0.006605    0.009644    0.002792
H     2.160770   -2.065323    0.005160   -0.020488    0.039466    0.053662
H     3.648316   -0.429664    0.764660    0.023760   -0.017191   -0.017136
H     4.092047    2.966998    1.837878    0.046048   -0.010112   -0.058242
H     3.098055    4.286820    2.528106    0.035485   -0.026705   -0.025390
H    -5.322920   -0.194093    2.837087    0.011917   -0.022672    0.004894
H    -5.070312    1.532611    2.488425    0.026270   -0.022730    0.015999
H    -4.060100   -2.904076    1.684842    0.003065   -0.003663   -0.011150
H    -2.975143   -4.131905    2.400527    0.012232    0.003633   -0.012362
H     5.124085   -0.268578    2.765682    0.001222    0.022450   -0.004415
H     4.966463   -1.944939    2.199183    0.026327    0.019007    0.001514
H     3.907477    5.583255    0.812458   -0.017053   -0.005895   -0.032753
H    -7.314276    0.017646    1.715646    0.009455    0.001245    0.013500
H    -3.917775   -5.590528    0.868581    0.024489   -0.000381   -0.017877
H     7.131684   -0.237345    1.626332    0.016122    0.036950    0.015809
C     1.248866   -0.884302    3.619158   -0.192996    0.036787   -0.058984
H     1.898542   -0.198459    4.175988   -0.278117    0.083666   -0.006640
H     0.736794   -1.576802    4.300460   -0.130122   -0.053031   -0.091826
O     0.166236   -2.530280    2.066133    0.020970   -0.504492    0.242070
C    -1.058384    0.298721    3.599098   -0.108327    0.224443    0.312980
H    -1.602112   -0.616813    3.869972   -0.194249    0.329011    0.583314
H    -0.777583    0.844402    4.515672    0.185735    0.316568    0.196325
O    -0.507109    2.765475    2.802344    0.182046   -0.025719   -0.145389
C     0.206075   -0.083276    2.860948   -0.320013   -0.060302    0.016934
O     0.365616    0.235701    1.681942   -0.653612   -0.426114   -0.185928
H    -0.973370    0.018906    0.244372    0.179036    0.054125   -0.218973
O    -1.384034    0.147417   -0.626511    0.026055    0.137931   -0.149189
H     0.741727   -0.330512   -1.216137    0.293620    0.273332   -0.178323
O     1.684216   -0.534762   -1.314998    0.257202    0.048192   -0.147568
H     0.884749    2.640258    3.971193    0.186354    0.139856   -0.123728
O     1.489058    2.191952    4.595659    0.186245    0.199531   -0.078286
O     2.610453    1.853755    3.705770    0.032575   -0.202019   -0.182369
H     3.312522    2.348592    4.172252    0.190668   -0.198180   -0.391357
H    -2.073795   -0.538787   -0.668250    0.060861    0.103576   -0.128793
H     2.139184    0.270848   -1.010879    0.451993    0.058742   -0.372099
140
* Frequency(6)  -49.8412
C     0.493419    4.611382   -0.313693   -0.010648   -0.027602    0.010870
C    -4.486205    3.271083    0.533824   -0.015606    0.004974    0.018027
C    -5.040462   -1.723573   -0.638201    0.007967    0.003430   -0.006832
C    -0.707344   -4.695253   -0.731294    0.018747    0.024389   -0.011504
C     4.334502   -3.419219    0.059661    0.015677    0.012398    0.004054
C     4.835353    1.672890   -0.492384    0.012736   -0.004756   -0.026554
O    -0.401109    3.581689    0.050247   -0.019662   -0.017067    0.020865
O    -4.445911    2.298805   -0.459569    0.015751   -0.007493    0.029576
O    -3.638510   -1.808730   -0.804950    0.008048    0.015406   -0.003282
O     0.232591   -3.679586   -0.462243    0.018958    0.023097   -0.007045
O     4.338182   -2.350484   -0.831940    0.036267    0.007140   -0.001684
O     3.425458    1.748812   -0.622960    0.010145   -0.019072   -0.053626
C     0.992950    4.342378   -1.744040   -0.024415   -0.026011    0.004918
C    -4.039207    4.580158   -0.145475   -0.013065   -0.000444    0.011048
C    -5.633767   -0.927162   -1.811052    0.006791    0.009806   -0.002083
C    -1.321643   -4.421144   -2.114813    0.017468    0.030929   -0.009729
C     3.865503   -4.647228   -0.747717    0.012584    0.013445    0.004674
C     5.438727    1.051349   -1.763260    0.043031    0.000472   -0.015063
O    -0.059589    4.269811   -2.665355   -0.030303   -0.023626    0.012241
O    -4.872984    4.925618   -1.212086   -0.000307   -0.009545   -0.002121
O    -5.371640   -1.526865   -3.049594    0.010507    0.017658   -0.005350
O    -0.352911   -4.368389   -3.126426    0.011261    0.031873   -0.015209
O     4.687750   -4.895936   -1.849557    0.020514    0.003107    0.012883
O     5.102540    1.779924   -2.912357    0.020444   -0.015683   -0.019857
C     1.730949    2.998561   -1.728581   -0.024896   -0.026272   -0.004493
C    -2.592026    4.402619   -0.640038   -0.009730   -0.010457    0.027513
C    -5.070484    0.497337   -1.754490    0.003199    0.010701    0.007967
C    -2.040445   -3.068132   -2.041338    0.024904    0.033335    0.004305
C     2.415309   -4.410212   -1.205766    0.019671    0.027828   -0.006646
C     4.980315   -0.406692   -1.885691    0.115367   -0.024299   -0.017784
O     2.317083    2.694227   -2.968970   -0.040259   -0.033023   -0.009907
O    -2.126437    5.593972   -1.231338   -0.002978   -0.018351    0.014988
O    -5.683451    1.320213   -2.716148   -0.002514    0.018116    0.018087
O    -2.721530   -2.759174   -3.232359    0.044918    0.057062   -0.000264
O     1.918079   -5.537266   -1.890426    0.016764    0.039010   -0.023184
O     5.705149   -1.069864   -2.894384    0.218794   -0.015024    0.046757
C     2.859587    3.048817   -0.696288   -0.007804   -0.022079   -0.024788
C    -1.675262    3.984264    0.519843   -0.011346    0.003638    0.034466
C    -5.274237    1.146049   -0.377438    0.008424   -0.001900    0.014657
C    -3.074206   -3.105873   -0.913021    0.014884    0.019883   -0.006979
C     1.505599   -4.090922   -0.007545    0.019436    0.018232   -0.007276
C     5.152142   -1.208920   -0.586765    0.051059   -0.003894    0.005713
C     2.350673    3.506537    0.681431    0.010206   -0.031276   -0.015293
C    -2.296927    2.739645    1.166631   -0.023554    0.030323    0.084870
C    -4.890763    0.200014    0.779401    0.006667   -0.012547    0.005995
C    -2.429569   -3.534027    0.415048    0.009890    0.010575   -0.007932
C     2.148665   -2.906075    0.729738    0.006676    0.009942    0.015477
C     4.738599   -0.414601    0.670737    0.024103    0.005441   -0.009099
O     1.564359    4.687431    0.579722    0.000356   -0.036902   -0.000783
O    -3.615704    2.977660    1.611286   -0.035121    0.033921    0.039916
O    -5.372734   -1.129219    0.574463   -0.001644   -0.006602   -0.003840
O    -1.697908   -4.747046    0.253866    0.015018    0.016428   -0.014074
O     3.459292   -3.212477    1.149978    0.017159    0.025775    0.002325
O     5.193328    0.939069    0.632163    0.000077    0.014010   -0.012900
C     3.518226    3.868933    1.612174    0.023474   -0.018361   -0.035263
C    -1.476725    2.203073    2.333379   -0.028630    0.074723    0.105992
C    -5.524032    0.613657    2.120936    0.016113   -0.015924    0.011386
C    -3.490688   -3.813296    1.487895    0.009261    0.000346   -0.011735
C     1.357788   -2.363440    1.896461   -0.020597   -0.113140    0.067944
C     5.375397   -0.967933    1.958840    0.018457    0.022227    0.001300
O     4.403238    4.775248    1.012169   -0.003178   -0.001183   -0.048808
O    -1.924831    1.021172    2.726512   -0.217465    0.224263    0.414327
O    -6.902501    0.843915    2.002311    0.017732   -0.003926    0.016305
O    -4.414019   -4.781866    1.066343    0.017606   -0.004952   -0.015977
O     2.095986   -1.615969    2.712221   -0.107606    0.179192   -0.083859
O     6.764295   -1.111819    1.833988    0.021212    0.035106    0.017470
H     0.003140    5.589724   -0.257436    0.000782   -0.022205    0.016888
H    -5.483419    3.370483    0.979851   -0.026312   -0.001556   -0.004246
H    -5.485286   -2.725592   -0.598555    0.013487    0.000634   -0.016333
H    -0.232404   -5.683311   -0.717022    0.019108    0.024574   -0.014572
H     5.323157   -3.588684    0.504286    0.012068    0.004302    0.010265
H     5.257473    2.672828   -0.333918   -0.005610    0.003510   -0.031767
H     1.697554    5.141023   -2.025975   -0.026611   -0.025136    0.001261
H    -4.085328    5.403392    0.574094   -0.020293    0.006369    0.002710
H    -6.723530   -0.891292   -1.706357    0.006630    0.005939   -0.003464
H    -2.056399   -5.211674   -2.336914    0.013412    0.035121   -0.010544
H     3.908672   -5.537650   -0.112382   -0.001675    0.014631    0.007226
H     6.531218    1.079461   -1.685527    0.041772    0.048004   -0.007001
H    -0.743418    4.913698   -2.402469   -0.030820   -0.027274    0.021668
H    -5.002060    4.137299   -1.763109    0.003104   -0.015021    0.005132
H    -4.431824   -1.782663   -3.095799    0.012747    0.027016   -0.006915
H     0.429960   -4.877674   -2.842915    0.020013    0.046406   -0.012661
H     4.828370   -4.057442   -2.316883    0.029207    0.000274    0.010173
H     4.138840    1.929074   -2.929031    0.015798   -0.050642   -0.026675
H     1.003415    2.224190   -1.443217   -0.025050   -0.021390    0.011629
H    -2.576754    3.589531   -1.383635   -0.005853   -0.019918    0.037774
H    -3.984662    0.451396   -1.940986    0.002735    0.015030    0.003151
H    -1.282129   -2.300512   -1.827027    0.028061    0.024122    0.027532
H     2.400081   -3.532017   -1.871724    0.029471    0.036406    0.004468
H     3.907687   -0.416071   -2.133036    0.136783   -0.081667   -0.104456
H     1.626445    2.729495   -3.645965   -0.046752   -0.023881   -0.002743
H    -2.863357    5.955567   -1.753110   -0.002184   -0.020144    0.012363
H    -5.743208    0.807764   -3.536838   -0.003621    0.026366    0.013023
H    -2.098281   -2.865413   -3.965144    0.061085    0.056686    0.013466
H     2.626380   -5.849175   -2.478318    0.017794    0.043472   -0.024598
H     5.705399   -0.493349   -3.673474    0.204219   -0.058050    0.014808
H     3.611977    3.762809   -1.055586   -0.020961   -0.013166   -0.034638
H    -1.577092    4.798913    1.248871    0.010176    0.025074    0.007620
H    -6.324641    1.451921   -0.268650    0.010106    0.002052    0.018618
H    -3.851413   -3.830978   -1.186273    0.020835    0.017248   -0.017270
H     1.419267   -4.960862    0.655402    0.012430    0.011789   -0.016593
H     6.202269   -1.520127   -0.487532    0.042391   -0.023129    0.042700
H     1.754080    2.695095    1.123560    0.020677   -0.035520   -0.006944
H    -2.293846    1.949031    0.396702    0.006986   -0.001672    0.112311
H    -3.798819    0.184053    0.880466    0.008526   -0.021676   -0.003492
H    -1.749896   -2.746471    0.760699    0.006605    0.009644    0.002792
H     2.162633   -2.068911    0.000281   -0.020488    0.039466    0.053662
H     3.646156   -0.428101    0.766218    0.023760   -0.017191   -0.017136
H     4.087860    2.967917    1.843174    0.046048   -0.010112   -0.058242
H     3.094829    4.289248    2.530414    0.035485   -0.026705   -0.025390
H    -5.324003   -0.192032    2.836642    0.011917   -0.022672    0.004894
H    -5.072700    1.534678    2.486970    0.026270   -0.022730    0.015999
H    -4.060378   -2.903743    1.685856    0.003065   -0.003663   -0.011150
H    -2.976255   -4.132236    2.401651    0.012232    0.003633   -0.012362
H     5.123974   -0.270619    2.766083    0.001222    0.022450   -0.004415
H     4.964069   -1.946667    2.199045    0.026327    0.019007    0.001514
H     3.909028    5.583791    0.815436   -0.017053   -0.005895   -0.032753
H    -7.315136    0.017533    1.714418    0.009455    0.001245    0.013500
H    -3.920002   -5.590493    0.870206    0.024489   -0.000381   -0.017877
H     7.130218   -0.240704    1.624894    0.016122    0.036950    0.015809
C     1.266413   -0.887646    3.624521   -0.192996    0.036787   -0.058984
H     1.923829   -0.206066    4.176592   -0.278117    0.083666   -0.006640
H     0.748625   -1.571981    4.308809   -0.130122   -0.053031   -0.091826
O     0.164329   -2.484411    2.044124    0.020970   -0.504492    0.242070
C    -1.048535    0.278314    3.570641   -0.108327    0.224443    0.312980
H    -1.584450   -0.646727    3.816936   -0.194249    0.329011    0.583314
H    -0.794471    0.815619    4.497822    0.185735    0.316568    0.196325
O    -0.523661    2.767813    2.815563    0.182046   -0.025719   -0.145389
C     0.235171   -0.077793    2.859408   -0.320013   -0.060302    0.016934
O     0.425044    0.274444    1.698847   -0.653612   -0.426114   -0.185928
H    -0.989649    0.013985    0.264282    0.179036    0.054125   -0.218973
O    -1.386402    0.134876   -0.612946    0.026055    0.137931   -0.149189
H     0.715030   -0.355363   -1.199923    0.293620    0.273332   -0.178323
O     1.660831   -0.539143   -1.301581    0.257202    0.048192   -0.147568
H     0.867805    2.627542    3.982442    0.186354    0.139856   -0.123728
O     1.472124    2.173810    4.602777    0.186245    0.199531   -0.078286
O     2.607492    1.872123    3.722352    0.032575   -0.202019   -0.182369
H     3.295186    2.366611    4.207835    0.190668   -0.198180   -0.391357
H    -2.079329   -0.548204   -0.656540    0.060861    0.103576   -0.128793
H     2.098088    0.265507   -0.977047    0.451993    0.058742   -0.372099
140
* Frequency(6)  -49.8412
C     0.494579    4.614390   -0.314878   -0.010648   -0.027602    0.010870
C    -4.484504    3.270541    0.531860   -0.015606    0.004974    0.018027
C    -5.041330   -1.723947   -0.637457    0.007967    0.003430   -0.006832
C    -0.709387   -4.697911   -0.730040    0.018747    0.024389   -0.011504
C     4.332794   -3.420570    0.059219    0.015677    0.012398    0.004054
C     4.833965    1.673408   -0.489491    0.012736   -0.004756   -0.026554
O    -0.398966    3.583549    0.047973   -0.019662   -0.017067    0.020865
O    -4.447628    2.299622   -0.462792    0.015751   -0.007493    0.029576
O    -3.639387   -1.810409   -0.804592    0.008048    0.015406   -0.003282
O     0.230525   -3.682103   -0.461476    0.018958    0.023097   -0.007045
O     4.334230   -2.351262   -0.831757    0.036267    0.007140   -0.001684
O     3.424353    1.750890   -0.617116    0.010145   -0.019072   -0.053626
C     0.995610    4.345213   -1.744575   -0.024415   -0.026011    0.004918
C    -4.037783    4.580206   -0.146679   -0.013065   -0.000444    0.011048
C    -5.634507   -0.928230   -1.810825    0.006791    0.009806   -0.002083
C    -1.323547   -4.424514   -2.113752    0.017468    0.030929   -0.009729
C     3.864132   -4.648693   -0.748226    0.012584    0.013445    0.004674
C     5.434038    1.051298   -1.761618    0.043031    0.000472   -0.015063
O    -0.056287    4.272386   -2.666689   -0.030303   -0.023626    0.012241
O    -4.872951    4.926658   -1.211855   -0.000307   -0.009545   -0.002121
O    -5.372785   -1.528789   -3.049011    0.010507    0.017658   -0.005350
O    -0.354139   -4.371863   -3.124768    0.011261    0.031873   -0.015209
O     4.685515   -4.896275   -1.850961    0.020514    0.003107    0.012883
O     5.100312    1.781633   -2.910193    0.020444   -0.015683   -0.019857
C     1.733662    3.001424   -1.728092   -0.024896   -0.026272   -0.004493
C    -2.590965    4.403759   -0.643036   -0.009730   -0.010457    0.027513
C    -5.070832    0.496171   -1.755358    0.003199    0.010701    0.007967
C    -2.043159   -3.071765   -2.041807    0.024904    0.033335    0.004305
C     2.413165   -4.413244   -1.205042    0.019671    0.027828   -0.006646
C     4.967743   -0.404044   -1.883753    0.115367   -0.024299   -0.017784
O     2.321470    2.697825   -2.967890   -0.040259   -0.033023   -0.009907
O    -2.126113    5.595972   -1.232971   -0.002978   -0.018351    0.014988
O    -5.683177    1.318239   -2.718119   -0.002514    0.018116    0.018087
O    -2.726425   -2.765392   -3.232330    0.044918    0.057062   -0.000264
O     1.916252   -5.541517   -1.887900    0.016764    0.039010   -0.023184
O     5.681306   -1.068227   -2.899479    0.218794   -0.015024    0.046757
C     2.860437    3.051223   -0.693587   -0.007804   -0.022079   -0.024788
C    -1.674026    3.983867    0.516087   -0.011346    0.003638    0.034466
C    -5.275155    1.146257   -0.379035    0.008424   -0.001900    0.014657
C    -3.075828   -3.108040   -0.912260    0.014884    0.019883   -0.006979
C     1.503481   -4.092909   -0.006752    0.019436    0.018232   -0.007276
C     5.146578   -1.208495   -0.587388    0.051059   -0.003894    0.005713
C     2.349561    3.509945    0.683097    0.010206   -0.031276   -0.015293
C    -2.294360    2.736341    1.157383   -0.023554    0.030323    0.084870
C    -4.891489    0.201381    0.778748    0.006667   -0.012547    0.005995
C    -2.430646   -3.535180    0.415912    0.009890    0.010575   -0.007932
C     2.147938   -2.907158    0.728052    0.006676    0.009942    0.015477
C     4.735972   -0.415194    0.671728    0.024103    0.005441   -0.009099
O     1.564320    4.691452    0.579808    0.000356   -0.036902   -0.000783
O    -3.611877    2.973964    1.606936   -0.035121    0.033921    0.039916
O    -5.372555   -1.128499    0.574882   -0.001644   -0.006602   -0.003840
O    -1.699544   -4.748836    0.255400    0.015018    0.016428   -0.014074
O     3.457423   -3.215286    1.149724    0.017159    0.025775    0.002325
O     5.193319    0.937543    0.633569    0.000077    0.014010   -0.012900
C     3.515668    3.870934    1.616016    0.023474   -0.018361   -0.035263
C    -1.473605    2.194931    2.321828   -0.028630    0.074723    0.105992
C    -5.525787    0.615392    2.119695    0.016113   -0.015924    0.011386
C    -3.491697   -3.813333    1.489174    0.009261    0.000346   -0.011735
C     1.360033   -2.351111    1.889057   -0.020597   -0.113140    0.067944
C     5.373386   -0.970355    1.958698    0.018457    0.022227    0.001300
O     4.403585    4.775377    1.017488   -0.003178   -0.001183   -0.048808
O    -1.901134    0.996733    2.681361   -0.217465    0.224263    0.414327
O    -6.904433    0.844343    2.000534    0.017732   -0.003926    0.016305
O    -4.415938   -4.781327    1.068084    0.017606   -0.004952   -0.015977
O     2.107712   -1.635496    2.721359   -0.107606    0.179192   -0.083859
O     6.761983   -1.115644    1.832084    0.021212    0.035106    0.017470
H     0.003055    5.592144   -0.259277    0.000782   -0.022205    0.016888
H    -5.480552    3.370652    0.980314   -0.026312   -0.001556   -0.004246
H    -5.486755   -2.725661   -0.596776    0.013487    0.000634   -0.016333
H    -0.234486   -5.685989   -0.715434    0.019108    0.024574   -0.014572
H     5.321842   -3.589153    0.503168    0.012068    0.004302    0.010265
H     5.258085    2.672445   -0.330456   -0.005610    0.003510   -0.031767
H     1.700454    5.143762   -2.026112   -0.026611   -0.025136    0.001261
H    -4.083116    5.402698    0.573799   -0.020293    0.006369    0.002710
H    -6.724253   -0.891939   -1.705979    0.006630    0.005939   -0.003464
H    -2.057861   -5.215501   -2.335765    0.013412    0.035121   -0.010544
H     3.908854   -5.539245   -0.113170   -0.001675    0.014631    0.007226
H     6.526666    1.074230   -1.684764    0.041772    0.048004   -0.007001
H    -0.740060    4.916670   -2.404830   -0.030820   -0.027274    0.021668
H    -5.002398    4.138936   -1.763669    0.003104   -0.015021    0.005132
H    -4.433213   -1.785607   -3.095045    0.012747    0.027016   -0.006915
H     0.427779   -4.882731   -2.841535    0.020013    0.046406   -0.012661
H     4.825188   -4.057472   -2.317992    0.029207    0.000274    0.010173
H     4.137118    1.934593   -2.926124    0.015798   -0.050642   -0.026675
H     1.006145    2.226521   -1.444484   -0.025050   -0.021390    0.011629
H    -2.576116    3.591702   -1.387752   -0.005853   -0.019918    0.037774
H    -3.984960    0.449758   -1.941329    0.002735    0.015030    0.003151
H    -1.285187   -2.303140   -1.830027    0.028061    0.024122    0.027532
H     2.396869   -3.535985   -1.872210    0.029471    0.036406    0.004468
H     3.892781   -0.407171   -2.121653    0.136783   -0.081667   -0.104456
H     1.631539    2.732097   -3.645666   -0.046752   -0.023881   -0.002743
H    -2.863119    5.957763   -1.754457   -0.002184   -0.020144    0.012363
H    -5.742813    0.804891   -3.538257   -0.003621    0.026366    0.013023
H    -2.104938   -2.871590   -3.966612    0.061085    0.056686    0.013466
H     2.624441   -5.853912   -2.475638    0.017794    0.043472   -0.024598
H     5.683145   -0.487023   -3.675088    0.204219   -0.058050    0.014808
H     3.614261    3.764244   -1.051812   -0.020961   -0.013166   -0.034638
H    -1.578201    4.796180    1.248040    0.010176    0.025074    0.007620
H    -6.325743    1.451698   -0.270679    0.010106    0.002052    0.018618
H    -3.853683   -3.832858   -1.184391    0.020835    0.017248   -0.017270
H     1.417912   -4.962147    0.657211    0.012430    0.011789   -0.016593
H     6.197650   -1.517606   -0.492185    0.042391   -0.023129    0.042700
H     1.751827    2.698965    1.124317    0.020677   -0.035520   -0.006944
H    -2.294607    1.949213    0.384463    0.006986   -0.001672    0.112311
H    -3.799748    0.186415    0.880846    0.008526   -0.021676   -0.003492
H    -1.750616   -2.747522    0.760395    0.006605    0.009644    0.002792
H     2.164865   -2.073212   -0.005567   -0.020488    0.039466    0.053662
H     3.643567   -0.426228    0.768086    0.023760   -0.017191   -0.017136
H     4.082842    2.969019    1.849520    0.046048   -0.010112   -0.058242
H     3.090962    4.292158    2.533181    0.035485   -0.026705   -0.025390
H    -5.325302   -0.189561    2.836108    0.011917   -0.022672    0.004894
H    -5.075563    1.537155    2.485226    0.026270   -0.022730    0.015999
H    -4.060712   -2.903344    1.687071    0.003065   -0.003663   -0.011150
H    -2.977588   -4.132631    2.402999    0.012232    0.003633   -0.012362
H     5.123841   -0.273066    2.766564    0.001222    0.022450   -0.004415
H     4.961200   -1.948738    2.198880    0.026327    0.019007    0.001514
H     3.910886    5.584433    0.819005   -0.017053   -0.005895   -0.032753
H    -7.316166    0.017397    1.712947    0.009455    0.001245    0.013500
H    -3.922670   -5.590452    0.872154    0.024489   -0.000381   -0.017877
H     7.128461   -0.244731    1.623172    0.016122    0.036950    0.015809
C     1.287445   -0.891655    3.630949   -0.192996    0.036787   -0.058984
H     1.954136   -0.215184    4.177315   -0.278117    0.083666   -0.006640
H     0.762805   -1.566202    4.318816   -0.130122   -0.053031   -0.091826
O     0.162044   -2.429435    2.017744    0.020970   -0.504492    0.242070
C    -1.036730    0.253855    3.536534   -0.108327    0.224443    0.312980
H    -1.563282   -0.682581    3.753371   -0.194249    0.329011    0.583314
H    -0.814711    0.781121    4.476427    0.185735    0.316568    0.196325
O    -0.543500    2.770616    2.831407    0.182046   -0.025719   -0.145389
C     0.270044   -0.071222    2.857563   -0.320013   -0.060302    0.016934
O     0.496270    0.320879    1.719109   -0.653612   -0.426114   -0.185928
H    -1.009159    0.008087    0.288144    0.179036    0.054125   -0.218973
O    -1.389242    0.119845   -0.596688    0.026055    0.137931   -0.149189
H     0.683033   -0.385149   -1.180491    0.293620    0.273332   -0.178323
O     1.632802   -0.544395   -1.285500    0.257202    0.048192   -0.147568
H     0.847498    2.612301    3.995925    0.186354    0.139856   -0.123728
O     1.451828    2.152067    4.611308    0.186245    0.199531   -0.078286
O     2.603942    1.894138    3.742225    0.032575   -0.202019   -0.182369
H     3.274408    2.388207    4.250482    0.190668   -0.198180   -0.391357
H    -2.085961   -0.559491   -0.642505    0.060861    0.103576   -0.128793
H     2.048833    0.259106   -0.936498    0.451993    0.058742   -0.372099
140
* Frequency(6)  -49.8412
C     0.495806    4.617570   -0.316130   -0.010648   -0.027602    0.010870
C    -4.482706    3.269968    0.529783   -0.015606    0.004974    0.018027
C    -5.042248   -1.724342   -0.636669    0.007967    0.003430   -0.006832
C    -0.711547   -4.700721   -0.728715    0.018747    0.024389   -0.011504
C     4.330988   -3.421998    0.058752    0.015677    0.012398    0.004054
C     4.832497    1.673956   -0.486431    0.012736   -0.004756   -0.026554
O    -0.396701    3.585515    0.045569   -0.019662   -0.017067    0.020865
O    -4.449442    2.300485   -0.466199    0.015751   -0.007493    0.029576
O    -3.640314   -1.812184   -0.804214    0.008048    0.015406   -0.003282
O     0.228341   -3.684764   -0.460664    0.018958    0.023097   -0.007045
O     4.330051   -2.352084   -0.831563    0.036267    0.007140   -0.001684
O     3.423184    1.753088   -0.610937    0.010145   -0.019072   -0.053626
C     0.998423    4.348210   -1.745142   -0.024415   -0.026011    0.004918
C    -4.036278    4.580257   -0.147952   -0.013065   -0.000444    0.011048
C    -5.635289   -0.929360   -1.810585    0.006791    0.009806   -0.002083
C    -1.325559   -4.428078   -2.112631    0.017468    0.030929   -0.009729
C     3.862682   -4.650242   -0.748765    0.012584    0.013445    0.004674
C     5.429080    1.051243   -1.759883    0.043031    0.000472   -0.015063
O    -0.052795    4.275108   -2.668099   -0.030303   -0.023626    0.012241
O    -4.872916    4.927758   -1.211611   -0.000307   -0.009545   -0.002121
O    -5.373996   -1.530823   -3.048394    0.010507    0.017658   -0.005350
O    -0.355436   -4.375535   -3.123016    0.011261    0.031873   -0.015209
O     4.683152   -4.896633   -1.852446    0.020514    0.003107    0.012883
O     5.097957    1.783440   -2.907906    0.020444   -0.015683   -0.019857
C     1.736530    3.004451   -1.727574   -0.024896   -0.026272   -0.004493
C    -2.589844    4.404964   -0.646206   -0.009730   -0.010457    0.027513
C    -5.071201    0.494938   -1.756276    0.003199    0.010701    0.007967
C    -2.046028   -3.075606   -2.042303    0.024904    0.033335    0.004305
C     2.410899   -4.416451   -1.204277    0.019671    0.027828   -0.006646
C     4.954451   -0.401245   -1.881704    0.115367   -0.024299   -0.017784
O     2.326108    2.701630   -2.966749   -0.040259   -0.033023   -0.009907
O    -2.125770    5.598086   -1.234698   -0.002978   -0.018351    0.014988
O    -5.682888    1.316152   -2.720203   -0.002514    0.018116    0.018087
O    -2.731600   -2.771967   -3.232299    0.044918    0.057062   -0.000264
O     1.914320   -5.546011   -1.885229    0.016764    0.039010   -0.023184
O     5.656098   -1.066496   -2.904867    0.218794   -0.015024    0.046757
C     2.861336    3.053767   -0.690731   -0.007804   -0.022079   -0.024788
C    -1.672719    3.983448    0.512116   -0.011346    0.003638    0.034466
C    -5.276126    1.146475   -0.380724    0.008424   -0.001900    0.014657
C    -3.077543   -3.110330   -0.911456    0.014884    0.019883   -0.006979
C     1.501241   -4.095009   -0.005914    0.019436    0.018232   -0.007276
C     5.140695   -1.208047   -0.588046    0.051059   -0.003894    0.005713
C     2.348385    3.513549    0.684859    0.010206   -0.031276   -0.015293
C    -2.291646    2.732847    1.147605   -0.023554    0.030323    0.084870
C    -4.892257    0.202827    0.778057    0.006667   -0.012547    0.005995
C    -2.431786   -3.536398    0.416826    0.009890    0.010575   -0.007932
C     2.147169   -2.908303    0.726268    0.006676    0.009942    0.015477
C     4.733195   -0.415821    0.672777    0.024103    0.005441   -0.009099
O     1.564279    4.695704    0.579898    0.000356   -0.036902   -0.000783
O    -3.607830    2.970055    1.602337   -0.035121    0.033921    0.039916
O    -5.372365   -1.127739    0.575324   -0.001644   -0.006602   -0.003840
O    -1.701275   -4.750729    0.257021    0.015018    0.016428   -0.014074
O     3.455446   -3.218256    1.149456    0.017159    0.025775    0.002325
O     5.193310    0.935929    0.635055    0.000077    0.014010   -0.012900
C     3.512963    3.873049    1.620079    0.023474   -0.018361   -0.035263
C    -1.470306    2.186321    2.309616   -0.028630    0.074723    0.105992
C    -5.527644    0.617227    2.118383    0.016113   -0.015924    0.011386
C    -3.492764   -3.813373    1.490526    0.009261    0.000346   -0.011735
C     1.362406   -2.338075    1.881229   -0.020597   -0.113140    0.067944
C     5.371259   -0.972916    1.958548    0.018457    0.022227    0.001300
O     4.403951    4.775513    1.023111   -0.003178   -0.001183   -0.048808
O    -1.876078    0.970895    2.633624   -0.217465    0.224263    0.414327
O    -6.906476    0.844795    1.998655    0.017732   -0.003926    0.016305
O    -4.417967   -4.780756    1.069925    0.017606   -0.004952   -0.015977
O     2.120110   -1.656142    2.731021   -0.107606    0.179192   -0.083859
O     6.759539   -1.119689    1.830072    0.021212    0.035106    0.017470
H     0.002965    5.594702   -0.261222    0.000782   -0.022205    0.016888
H    -5.477520    3.370831    0.980803   -0.026312   -0.001556   -0.004246
H    -5.488309   -2.725734   -0.594894    0.013487    0.000634   -0.016333
H    -0.236688   -5.688820   -0.713755    0.019108    0.024574   -0.014572
H     5.320451   -3.589649    0.501985    0.012068    0.004302    0.010265
H     5.258731    2.672041   -0.326796   -0.005610    0.003510   -0.031767
H     1.703520    5.146658   -2.026258   -0.026611   -0.025136    0.001261
H    -4.080778    5.401964    0.573486   -0.020293    0.006369    0.002710
H    -6.725017   -0.892624   -1.705580    0.006630    0.005939   -0.003464
H    -2.059406   -5.219547   -2.334550    0.013412    0.035121   -0.010544
H     3.909047   -5.540931   -0.114002   -0.001675    0.014631    0.007226
H     6.521853    1.068699   -1.683957    0.041772    0.048004   -0.007001
H    -0.736509    4.919812   -2.407327   -0.030820   -0.027274    0.021668
H    -5.002756    4.140667   -1.764260    0.003104   -0.015021    0.005132
H    -4.434681   -1.788720   -3.094248    0.012747    0.027016   -0.006915
H     0.425473   -4.888078   -2.840076    0.020013    0.046406   -0.012661
H     4.821823   -4.057503   -2.319164    0.029207    0.000274    0.010173
H     4.135298    1.940428   -2.923051    0.015798   -0.050642   -0.026675
H     1.009031    2.228985   -1.445824   -0.025050   -0.021390    0.011629
H    -2.575442    3.593996   -1.392104   -0.005853   -0.019918    0.037774
H    -3.985275    0.448026   -1.941692    0.002735    0.015030    0.003151
H    -1.288420   -2.305920   -1.833199    0.028061    0.024122    0.027532
H     2.393473   -3.540179   -1.872725    0.029471    0.036406    0.004468
H     3.877022   -0.397762   -2.109618    0.136783   -0.081667   -0.104456
H     1.636926    2.734849   -3.645350   -0.046752   -0.023881   -0.002743
H    -2.862867    5.960084   -1.755882   -0.002184   -0.020144    0.012363
H    -5.742396    0.801853   -3.539757   -0.003621    0.026366    0.013023
H    -2.111976   -2.878121   -3.968163    0.061085    0.056686    0.013466
H     2.622391   -5.858920   -2.472804    0.017794    0.043472   -0.024598
H     5.659615   -0.480335   -3.676794    0.204219   -0.058050    0.014808
H     3.616676    3.765760   -1.047821   -0.020961   -0.013166   -0.034638
H    -1.579373    4.793291    1.247162    0.010176    0.025074    0.007620
H    -6.326907    1.451461   -0.272824    0.010106    0.002052    0.018618
H    -3.856084   -3.834845   -1.182401    0.020835    0.017248   -0.017270
H     1.416480   -4.963505    0.659122    0.012430    0.011789   -0.016593
H     6.192765   -1.514941   -0.497105    0.042391   -0.023129    0.042700
H     1.749444    2.703058    1.125117    0.020677   -0.035520   -0.006944
H    -2.295412    1.949405    0.371523    0.006986   -0.001672    0.112311
H    -3.800730    0.188912    0.881248    0.008526   -0.021676   -0.003492
H    -1.751377   -2.748633    0.760073    0.006605    0.009644    0.002792
H     2.167226   -2.077759   -0.011750   -0.020488    0.039466    0.053662
H     3.640829   -0.424247    0.770060    0.023760   -0.017191   -0.017136
H     4.077537    2.970184    1.856231    0.046048   -0.010112   -0.058242
H     3.086873    4.295235    2.536106    0.035485   -0.026705   -0.025390
H    -5.326675   -0.186949    2.835544    0.011917   -0.022672    0.004894
H    -5.078590    1.539774    2.483383    0.026270   -0.022730    0.015999
H    -4.061065   -2.902922    1.688356    0.003065   -0.003663   -0.011150
H    -2.978997   -4.133050    2.404423    0.012232    0.003633   -0.012362
H     5.123700   -0.275652    2.767073    0.001222    0.022450   -0.004415
H     4.958167   -1.950928    2.198706    0.026327    0.019007    0.001514
H     3.912851    5.585113    0.822779   -0.017053   -0.005895   -0.032753
H    -7.317255    0.017254    1.711392    0.009455    0.001245    0.013500
H    -3.925492   -5.590408    0.874214    0.024489   -0.000381   -0.017877
H     7.126604   -0.248988    1.621350    0.016122    0.036950    0.015809
C     1.309681   -0.895893    3.637745   -0.192996    0.036787   -0.058984
H     1.986180   -0.224823    4.178080   -0.278117    0.083666   -0.006640
H     0.777797   -1.560092    4.329396   -0.130122   -0.053031   -0.091826
O     0.159628   -2.371309    1.989854    0.020970   -0.504492    0.242070
C    -1.024249    0.227996    3.500474   -0.108327    0.224443    0.312980
H    -1.540901   -0.720488    3.686163   -0.194249    0.329011    0.583314
H    -0.836111    0.744647    4.453807    0.185735    0.316568    0.196325
O    -0.564474    2.773579    2.848158    0.182046   -0.025719   -0.145389
C     0.306915   -0.064274    2.855612   -0.320013   -0.060302    0.016934
O     0.571577    0.369974    1.740530   -0.653612   -0.426114   -0.185928
H    -1.029787    0.001851    0.313373    0.179036    0.054125   -0.218973
O    -1.392244    0.103953   -0.579499    0.026055    0.137931   -0.149189
H     0.649204   -0.416641   -1.159945    0.293620    0.273332   -0.178323
O     1.603169   -0.549948   -1.268498    0.257202    0.048192   -0.147568
H     0.826027    2.596188    4.010181    0.186354    0.139856   -0.123728
O     1.430370    2.129078    4.620328    0.186245    0.199531   -0.078286
O     2.600189    1.917414    3.763237    0.032575   -0.202019   -0.182369
H     3.252440    2.411041    4.295573    0.190668   -0.198180   -0.391357
H    -2.092973   -0.571424   -0.627666    0.060861    0.103576   -0.128793
H     1.996756    0.252338   -0.893627    0.451993    0.058742   -0.372099
140
* Frequency(6)  -49.8412
C     0.496966    4.620578   -0.317315   -0.010648   -0.027602    0.010870
C    -4.481006    3.269425    0.527818   -0.015606    0.004974    0.018027
C    -5.043116   -1.724716   -0.635925    0.007967    0.003430   -0.006832
C    -0.713590   -4.703379   -0.727461    0.018747    0.024389   -0.011504
C     4.329279   -3.423349    0.058310    0.015677    0.012398    0.004054
C     4.831110    1.674474   -0.483537    0.012736   -0.004756   -0.026554
O    -0.394558    3.587375    0.043296   -0.019662   -0.017067    0.020865
O    -4.451159    2.301302   -0.469422    0.015751   -0.007493    0.029576
O    -3.641191   -1.813863   -0.803856    0.008048    0.015406   -0.003282
O     0.226275   -3.687281   -0.459896    0.018958    0.023097   -0.007045
O     4.326099   -2.352862   -0.831379    0.036267    0.007140   -0.001684
O     3.422078    1.755166   -0.605094    0.010145   -0.019072   -0.053626
C     1.001084    4.351044   -1.745678   -0.024415   -0.026011    0.004918
C    -4.034854    4.580306   -0.149156   -0.013065   -0.000444    0.011048
C    -5.636029   -0.930429   -1.810358    0.006791    0.009806   -0.002083
C    -1.327463   -4.431448   -2.111571    0.017468    0.030929   -0.009729
C     3.861311   -4.651707   -0.749274    0.012584    0.013445    0.004674
C     5.424391    1.051192   -1.758241    0.043031    0.000472   -0.015063
O    -0.049493    4.277683   -2.669433   -0.030303   -0.023626    0.012241
O    -4.872882    4.928798   -1.211380   -0.000307   -0.009545   -0.002121
O    -5.375141   -1.532747   -3.047811    0.010507    0.017658   -0.005350
O    -0.356663   -4.379008   -3.121359    0.011261    0.031873   -0.015209
O     4.680916   -4.896971   -1.853849    0.020514    0.003107    0.012883
O     5.095729    1.785149   -2.905742    0.020444   -0.015683   -0.019857
C     1.739243    3.007313   -1.727085   -0.024896   -0.026272   -0.004493
C    -2.588784    4.406103   -0.649204   -0.009730   -0.010457    0.027513
C    -5.071549    0.493772   -1.757144    0.003199    0.010701    0.007967
C    -2.048742   -3.079238   -2.042772    0.024904    0.033335    0.004305
C     2.408755   -4.419483   -1.203552    0.019671    0.027828   -0.006646
C     4.941879   -0.398597   -1.879766    0.115367   -0.024299   -0.017784
O     2.330496    2.705228   -2.965669   -0.040259   -0.033023   -0.009907
O    -2.125445    5.600086   -1.236332   -0.002978   -0.018351    0.014988
O    -5.682614    1.314178   -2.722174   -0.002514    0.018116    0.018087
O    -2.736495   -2.778185   -3.232271    0.044918    0.057062   -0.000264
O     1.912494   -5.550263   -1.882702    0.016764    0.039010   -0.023184
O     5.632255   -1.064858   -2.909962    0.218794   -0.015024    0.046757
C     2.862187    3.056173   -0.688030   -0.007804   -0.022079   -0.024788
C    -1.671482    3.983052    0.508360   -0.011346    0.003638    0.034466
C    -5.277044    1.146683   -0.382321    0.008424   -0.001900    0.014657
C    -3.079165   -3.112497   -0.910696    0.014884    0.019883   -0.006979
C     1.499123   -4.096996   -0.005121    0.019436    0.018232   -0.007276
C     5.135131   -1.207622   -0.588669    0.051059   -0.003894    0.005713
C     2.347273    3.516957    0.686526    0.010206   -0.031276   -0.015293
C    -2.289079    2.729543    1.138356   -0.023554    0.030323    0.084870
C    -4.892984    0.204194    0.777403    0.006667   -0.012547    0.005995
C    -2.432864   -3.537551    0.417690    0.009890    0.010575   -0.007932
C     2.146441   -2.909387    0.724582    0.006676    0.009942    0.015477
C     4.730569   -0.416414    0.673768    0.024103    0.005441   -0.009099
O     1.564240    4.699725    0.579983    0.000356   -0.036902   -0.000783
O    -3.604003    2.966359    1.597987   -0.035121    0.033921    0.039916
O    -5.372186   -1.127019    0.575743   -0.001644   -0.006602   -0.003840
O    -1.702911   -4.752519    0.258555    0.015018    0.016428   -0.014074
O     3.453576   -3.221065    1.149203    0.017159    0.025775    0.002325
O     5.193302    0.934402    0.636461    0.000077    0.014010   -0.012900
C     3.510405    3.875050    1.623922    0.023474   -0.018361   -0.035263
C    -1.467186    2.178179    2.298066   -0.028630    0.074723    0.105992
C    -5.529400    0.618962    2.117143    0.016113   -0.015924    0.011386
C    -3.493773   -3.813411    1.491805    0.009261    0.000346   -0.011735
C     1.364650   -2.325746    1.873825   -0.020597   -0.113140    0.067944
C     5.369248   -0.975338    1.958406    0.018457    0.022227    0.001300
O     4.404297    4.775642    1.028430   -0.003178   -0.001183   -0.048808
O    -1.852380    0.946456    2.588473   -0.217465    0.224263    0.414327
O    -6.908408    0.845223    1.996878    0.017732   -0.003926    0.016305
O    -4.419885   -4.780216    1.071666    0.017606   -0.004952   -0.015977
O     2.131836   -1.675669    2.740159   -0.107606    0.179192   -0.083859
O     6.757228   -1.123515    1.828168    0.021212    0.035106    0.017470
H     0.002879    5.597122   -0.263063    0.000782   -0.022205    0.016888
H    -5.474653    3.371001    0.981266   -0.026312   -0.001556   -0.004246
H    -5.489779   -2.725803   -0.593114    0.013487    0.000634   -0.016333
H    -0.238770   -5.691498   -0.712167    0.019108    0.024574   -0.014572
H     5.319136   -3.590118    0.500866    0.012068    0.004302    0.010265
H     5.259342    2.671659   -0.323335   -0.005610    0.003510   -0.031767
H     1.706420    5.149398   -2.026395   -0.026611   -0.025136    0.001261
H    -4.078567    5.401270    0.573191   -0.020293    0.006369    0.002710
H    -6.725739   -0.893271   -1.705203    0.006630    0.005939   -0.003464
H    -2.060868   -5.223375   -2.333401    0.013412    0.035121   -0.010544
H     3.909230   -5.542525   -0.114789   -0.001675    0.014631    0.007226
H     6.517301    1.063467   -1.683194    0.041772    0.048004   -0.007001
H    -0.733150    4.922785   -2.409688   -0.030820   -0.027274    0.021668
H    -5.003094    4.142303   -1.764819    0.003104   -0.015021    0.005132
H    -4.436070   -1.791664   -3.093495    0.012747    0.027016   -0.006915
H     0.423292   -4.893135   -2.838696    0.020013    0.046406   -0.012661
H     4.818640   -4.057533   -2.320273    0.029207    0.000274    0.010173
H     4.133577    1.945946   -2.920144    0.015798   -0.050642   -0.026675
H     1.011761    2.231316   -1.447091   -0.025050   -0.021390    0.011629
H    -2.574804    3.596167   -1.396220   -0.005853   -0.019918    0.037774
H    -3.985573    0.446388   -1.942036    0.002735    0.015030    0.003151
H    -1.291478   -2.308548   -1.836199    0.028061    0.024122    0.027532
H     2.390262   -3.544146   -1.873212    0.029471    0.036406    0.004468
H     3.862116   -0.388863   -2.098235    0.136783   -0.081667   -0.104456
H     1.642021    2.737451   -3.645051   -0.046752   -0.023881   -0.002743
H    -2.862629    5.962279   -1.757229   -0.002184   -0.020144    0.012363
H    -5.742001    0.798980   -3.541177   -0.003621    0.026366    0.013023
H    -2.118632   -2.884299   -3.969631    0.061085    0.056686    0.013466
H     2.620452   -5.863658   -2.470123    0.017794    0.043472   -0.024598
H     5.637361   -0.474009   -3.678407    0.204219   -0.058050    0.014808
H     3.618960    3.767195   -1.044046   -0.020961   -0.013166   -0.034638
H    -1.580482    4.790559    1.246332    0.010176    0.025074    0.007620
H    -6.328008    1.451237   -0.274853    0.010106    0.002052    0.018618
H    -3.858354   -3.836724   -1.180519    0.020835    0.017248   -0.017270
H     1.415126   -4.964790    0.660931    0.012430    0.011789   -0.016593
H     6.188146   -1.512421   -0.501758    0.042391   -0.023129    0.042700
H     1.747191    2.706928    1.125874    0.020677   -0.035520   -0.006944
H    -2.296173    1.949588    0.359284    0.006986   -0.001672    0.112311
H    -3.801659    0.191274    0.881629    0.008526   -0.021676   -0.003492
H    -1.752097   -2.749684    0.759769    0.006605    0.009644    0.002792
H     2.169459   -2.082060   -0.017597   -0.020488    0.039466    0.053662
H     3.638240   -0.422374    0.771927    0.023760   -0.017191   -0.017136
H     4.072519    2.971286    1.862578    0.046048   -0.010112   -0.058242
H     3.083006    4.298145    2.538873    0.035485   -0.026705   -0.025390
H    -5.327973   -0.184478    2.835011    0.011917   -0.022672    0.004894
H    -5.081452    1.542251    2.481639    0.026270   -0.022730    0.015999
H    -4.061399   -2.902523    1.689571    0.003065   -0.003663   -0.011150
H    -2.980330   -4.133446    2.405770    0.012232    0.003633   -0.012362
H     5.123567   -0.278099    2.767554    0.001222    0.022450   -0.004415
H     4.955298   -1.952999    2.198541    0.026327    0.019007    0.001514
H     3.914709    5.585755    0.826348   -0.017053   -0.005895   -0.032753
H    -7.318286    0.017118    1.709920    0.009455    0.001245    0.013500
H    -3.928161   -5.590366    0.876162    0.024489   -0.000381   -0.017877
H     7.124847   -0.253015    1.619627    0.016122    0.036950    0.015809
C     1.330712   -0.899902    3.644172   -0.192996    0.036787   -0.058984
H     2.016487   -0.233941    4.178804   -0.278117    0.083666   -0.006640
H     0.791977   -1.554313    4.339402   -0.130122   -0.053031   -0.091826
O     0.157343   -2.316333    1.963475    0.020970   -0.504492    0.242070
C    -1.012445    0.203538    3.466367   -0.108327    0.224443    0.312980
H    -1.519733   -0.756342    3.622598   -0.194249    0.329011    0.583314
H    -0.856351    0.710150    4.432413    0.185735    0.316568    0.196325
O    -0.584312    2.776382    2.864002    0.182046   -0.025719   -0.145389
C     0.341788   -0.057703    2.853767   -0.320013   -0.060302    0.016934
O     0.642803    0.416410    1.760792   -0.653612   -0.426114   -0.185928
H    -1.049297   -0.004047    0.337236    0.179036    0.054125   -0.218973
O    -1.395083    0.088922   -0.563242    0.026055    0.137931   -0.149189
H     0.617207   -0.446427   -1.140513    0.293620    0.273332   -0.178323
O     1.575141   -0.555199   -1.252417    0.257202    0.048192   -0.147568
H     0.805719    2.580947    4.023664    0.186354    0.139856   -0.123728
O     1.410074    2.107334    4.628859    0.186245    0.199531   -0.078286
O     2.596639    1.939429    3.783110    0.032575   -0.202019   -0.182369
H     3.231663    2.432637    4.338220    0.190668   -0.198180   -0.391357
H    -2.099605   -0.582711   -0.613631    0.060861    0.103576   -0.128793
H     1.947501    0.245937   -0.853078    0.451993    0.058742   -0.372099
140
* Frequency(6)  -49.8412
C     0.497934    4.623087   -0.318303   -0.010648   -0.027602    0.010870
C    -4.479587    3.268973    0.526179   -0.015606    0.004974    0.018027
C    -5.043840   -1.725028   -0.635304    0.007967    0.003430   -0.006832
C    -0.715294   -4.705596   -0.726415    0.018747    0.024389   -0.011504
C     4.327854   -3.424477    0.057942    0.015677    0.012398    0.004054
C     4.829952    1.674907   -0.481123    0.012736   -0.004756   -0.026554
O    -0.392770    3.588927    0.041399   -0.019662   -0.017067    0.020865
O    -4.452591    2.301983   -0.472111    0.015751   -0.007493    0.029576
O    -3.641923   -1.815264   -0.803558    0.008048    0.015406   -0.003282
O     0.224551   -3.689381   -0.459256    0.018958    0.023097   -0.007045
O     4.322801   -2.353512   -0.831226    0.036267    0.007140   -0.001684
O     3.421156    1.756900   -0.600218    0.010145   -0.019072   -0.053626
C     1.003304    4.353409   -1.746125   -0.024415   -0.026011    0.004918
C    -4.033666    4.580346   -0.150160   -0.013065   -0.000444    0.011048
C    -5.636647   -0.931320   -1.810169    0.006791    0.009806   -0.002083
C    -1.329051   -4.434260   -2.110687    0.017468    0.030929   -0.009729
C     3.860166   -4.652930   -0.749699    0.012584    0.013445    0.004674
C     5.420479    1.051149   -1.756872    0.043031    0.000472   -0.015063
O    -0.046738    4.279831   -2.670546   -0.030303   -0.023626    0.012241
O    -4.872854    4.929666   -1.211187   -0.000307   -0.009545   -0.002121
O    -5.376096   -1.534353   -3.047325    0.010507    0.017658   -0.005350
O    -0.357687   -4.381906   -3.119976    0.011261    0.031873   -0.015209
O     4.679051   -4.897254   -1.855021    0.020514    0.003107    0.012883
O     5.093870    1.786575   -2.903936    0.020444   -0.015683   -0.019857
C     1.741507    3.009702   -1.726676   -0.024896   -0.026272   -0.004493
C    -2.587899    4.407054   -0.651706   -0.009730   -0.010457    0.027513
C    -5.071840    0.492799   -1.757869    0.003199    0.010701    0.007967
C    -2.051006   -3.082269   -2.043163    0.024904    0.033335    0.004305
C     2.406966   -4.422013   -1.202948    0.019671    0.027828   -0.006646
C     4.931390   -0.396388   -1.878149    0.115367   -0.024299   -0.017784
O     2.334156    2.708231   -2.964769   -0.040259   -0.033023   -0.009907
O    -2.125174    5.601754   -1.237694   -0.002978   -0.018351    0.014988
O    -5.682385    1.312530   -2.723819   -0.002514    0.018116    0.018087
O    -2.740579   -2.783373   -3.232247    0.044918    0.057062   -0.000264
O     1.910969   -5.553809   -1.880594    0.016764    0.039010   -0.023184
O     5.612362   -1.063492   -2.914213    0.218794   -0.015024    0.046757
C     2.862896    3.058180   -0.685776   -0.007804   -0.022079   -0.024788
C    -1.670451    3.982721    0.505226   -0.011346    0.003638    0.034466
C    -5.277810    1.146855   -0.383654    0.008424   -0.001900    0.014657
C    -3.080518   -3.114305   -0.910061    0.014884    0.019883   -0.006979
C     1.497356   -4.098654   -0.004459    0.019436    0.018232   -0.007276
C     5.130489   -1.207268   -0.589188    0.051059   -0.003894    0.005713
C     2.346345    3.519800    0.687916    0.010206   -0.031276   -0.015293
C    -2.286938    2.726786    1.130639   -0.023554    0.030323    0.084870
C    -4.893590    0.205335    0.776858    0.006667   -0.012547    0.005995
C    -2.433763   -3.538512    0.418411    0.009890    0.010575   -0.007932
C     2.145834   -2.910291    0.723175    0.006676    0.009942    0.015477
C     4.728377   -0.416908    0.674595    0.024103    0.005441   -0.009099
O     1.564208    4.703080    0.580055    0.000356   -0.036902   -0.000783
O    -3.600810    2.963275    1.594358   -0.035121    0.033921    0.039916
O    -5.372037   -1.126419    0.576092   -0.001644   -0.006602   -0.003840
O    -1.704277   -4.754013    0.259834    0.015018    0.016428   -0.014074
O     3.452015   -3.223408    1.148992    0.017159    0.025775    0.002325
O     5.193295    0.933128    0.637634    0.000077    0.014010   -0.012900
C     3.508271    3.876720    1.627128    0.023474   -0.018361   -0.035263
C    -1.464583    2.171385    2.288429   -0.028630    0.074723    0.105992
C    -5.530865    0.620410    2.116107    0.016113   -0.015924    0.011386
C    -3.494615   -3.813443    1.492872    0.009261    0.000346   -0.011735
C     1.366523   -2.315459    1.867647   -0.020597   -0.113140    0.067944
C     5.367570   -0.977359    1.958288    0.018457    0.022227    0.001300
O     4.404586    4.775750    1.032868   -0.003178   -0.001183   -0.048808
O    -1.832608    0.926065    2.550802   -0.217465    0.224263    0.414327
O    -6.910021    0.845580    1.995396    0.017732   -0.003926    0.016305
O    -4.421486   -4.779766    1.073119    0.017606   -0.004952   -0.015977
O     2.141620   -1.691962    2.747784   -0.107606    0.179192   -0.083859
O     6.755299   -1.126707    1.826580    0.021212    0.035106    0.017470
H     0.002808    5.599141   -0.264598    0.000782   -0.022205    0.016888
H    -5.472260    3.371142    0.981652   -0.026312   -0.001556   -0.004246
H    -5.491005   -2.725861   -0.591629    0.013487    0.000634   -0.016333
H    -0.240507   -5.693732   -0.710842    0.019108    0.024574   -0.014572
H     5.318039   -3.590509    0.499933    0.012068    0.004302    0.010265
H     5.259852    2.671339   -0.320446   -0.005610    0.003510   -0.031767
H     1.708839    5.151683   -2.026510   -0.026611   -0.025136    0.001261
H    -4.076722    5.400691    0.572944   -0.020293    0.006369    0.002710
H    -6.726342   -0.893811   -1.704888    0.006630    0.005939   -0.003464
H    -2.062087   -5.226568   -2.332442    0.013412    0.035121   -0.010544
H     3.909382   -5.543855   -0.115446   -0.001675    0.014631    0.007226
H     6.513503    1.059103   -1.682558    0.041772    0.048004   -0.007001
H    -0.730348    4.925264   -2.411658   -0.030820   -0.027274    0.021668
H    -5.003376    4.143669   -1.765286    0.003104   -0.015021    0.005132
H    -4.437229   -1.794120   -3.092866    0.012747    0.027016   -0.006915
H     0.421473   -4.897354   -2.837545    0.020013    0.046406   -0.012661
H     4.815984   -4.057558   -2.321198    0.029207    0.000274    0.010173
H     4.132140    1.950551   -2.917719    0.015798   -0.050642   -0.026675
H     1.014039    2.233261   -1.448148   -0.025050   -0.021390    0.011629
H    -2.574272    3.597978   -1.399655   -0.005853   -0.019918    0.037774
H    -3.985821    0.445022   -1.942322    0.002735    0.015030    0.003151
H    -1.294029   -2.310741   -1.838703    0.028061    0.024122    0.027532
H     2.387582   -3.547457   -1.873618    0.029471    0.036406    0.004468
H     3.849680   -0.381437   -2.088738    0.136783   -0.081667   -0.104456
H     1.646271    2.739622   -3.644801   -0.046752   -0.023881   -0.002743
H    -2.862431    5.964110   -1.758353   -0.002184   -0.020144    0.012363
H    -5.741672    0.796583   -3.542361   -0.003621    0.026366    0.013023
H    -2.124186   -2.889453   -3.970855    0.061085    0.056686    0.013466
H     2.618834   -5.867610   -2.467887    0.017794    0.043472   -0.024598
H     5.618793   -0.468731   -3.679754    0.204219   -0.058050    0.014808
H     3.620866    3.768392   -1.040897   -0.020961   -0.013166   -0.034638
H    -1.581407    4.788279    1.245639    0.010176    0.025074    0.007620
H    -6.328927    1.451051   -0.276545    0.010106    0.002052    0.018618
H    -3.860249   -3.838293   -1.178949    0.020835    0.017248   -0.017270
H     1.413995   -4.965862    0.662439    0.012430    0.011789   -0.016593
H     6.184292   -1.510318   -0.505641    0.042391   -0.023129    0.042700
H     1.745311    2.710158    1.126505    0.020677   -0.035520   -0.006944
H    -2.296808    1.949740    0.349073    0.006986   -0.001672    0.112311
H    -3.802435    0.193245    0.881946    0.008526   -0.021676   -0.003492
H    -1.752697   -2.750561    0.759515    0.006605    0.009644    0.002792
H     2.171321   -2.085648   -0.022476   -0.020488    0.039466    0.053662
H     3.636079   -0.420811    0.773486    0.023760   -0.017191   -0.017136
H     4.068332    2.972206    1.867873    0.046048   -0.010112   -0.058242
H     3.079780    4.300573    2.541182    0.035485   -0.026705   -0.025390
H    -5.329057   -0.182417    2.834566    0.011917   -0.022672    0.004894
H    -5.083841    1.544318    2.480185    0.026270   -0.022730    0.015999
H    -4.061678   -2.902190    1.690585    0.003065   -0.003663   -0.011150
H    -2.981443   -4.133776    2.406894    0.012232    0.003633   -0.012362
H     5.123456   -0.280140    2.767955    0.001222    0.022450   -0.004415
H     4.952904   -1.954727    2.198403    0.026327    0.019007    0.001514
H     3.916260    5.586291    0.829326   -0.017053   -0.005895   -0.032753
H    -7.319145    0.017005    1.708693    0.009455    0.001245    0.013500
H    -3.930387   -5.590331    0.877788    0.024489   -0.000381   -0.017877
H     7.123381   -0.256374    1.618190    0.016122    0.036950    0.015809
C     1.348260   -0.903247    3.649535   -0.192996    0.036787   -0.058984
H     2.041774   -0.241548    4.179408   -0.278117    0.083666   -0.006640
H     0.803808   -1.549491    4.347751   -0.130122   -0.053031   -0.091826
O     0.155436   -2.270464    1.941465    0.020970   -0.504492    0.242070
C    -1.002595    0.183131    3.437911   -0.108327    0.224443    0.312980
H    -1.502072   -0.786256    3.569562   -0.194249    0.329011    0.583314
H    -0.873238    0.681367    4.414563    0.185735    0.316568    0.196325
O    -0.600864    2.778721    2.877221    0.182046   -0.025719   -0.145389
C     0.370884   -0.052220    2.852227   -0.320013   -0.060302    0.016934
O     0.702231    0.455153    1.777697   -0.653612   -0.426114   -0.185928
H    -1.065575   -0.008969    0.357145    0.179036    0.054125   -0.218973
O    -1.397452    0.076381   -0.549677    0.026055    0.137931   -0.149189
H     0.590511   -0.471279   -1.124299    0.293620    0.273332   -0.178323
O     1.551755   -0.559581   -1.239000    0.257202    0.048192   -0.147568
H     0.788775    2.568231    4.034913    0.186354    0.139856   -0.123728
O     1.393141    2.089192    4.635977    0.186245    0.199531   -0.078286
O     2.593677    1.957797    3.799692    0.032575   -0.202019   -0.182369
H     3.214327    2.450656    4.373803    0.190668   -0.198180   -0.391357
H    -2.105139   -0.592129   -0.601921    0.060861    0.103576   -0.128793
H     1.906405    0.240596   -0.819246    0.451993    0.058742   -0.372099
140
* Frequency(6)  -49.8412
C     0.498605    4.624827   -0.318988   -0.010648   -0.027602    0.010870
C    -4.478603    3.268660    0.525043   -0.015606    0.004974    0.018027
C    -5.044342   -1.725244   -0.634873    0.007967    0.003430   -0.006832
C    -0.716476   -4.707133   -0.725690    0.018747    0.024389   -0.011504
C     4.326866   -3.425258    0.057686    0.015677    0.012398    0.004054
C     4.829149    1.675206   -0.479450    0.012736   -0.004756   -0.026554
O    -0.391531    3.590002    0.040084   -0.019662   -0.017067    0.020865
O    -4.453583    2.302455   -0.473975    0.015751   -0.007493    0.029576
O    -3.642430   -1.816234   -0.803351    0.008048    0.015406   -0.003282
O     0.223357   -3.690837   -0.458812    0.018958    0.023097   -0.007045
O     4.320516   -2.353962   -0.831120    0.036267    0.007140   -0.001684
O     3.420517    1.758102   -0.596838    0.010145   -0.019072   -0.053626
C     1.004842    4.355049   -1.746435   -0.024415   -0.026011    0.004918
C    -4.032843    4.580374   -0.150857   -0.013065   -0.000444    0.011048
C    -5.637075   -0.931938   -1.810037    0.006791    0.009806   -0.002083
C    -1.330152   -4.436209   -2.110074    0.017468    0.030929   -0.009729
C     3.859373   -4.653777   -0.749994    0.012584    0.013445    0.004674
C     5.417767    1.051119   -1.755923    0.043031    0.000472   -0.015063
O    -0.044828    4.281320   -2.671318   -0.030303   -0.023626    0.012241
O    -4.872835    4.930268   -1.211053   -0.000307   -0.009545   -0.002121
O    -5.376758   -1.535466   -3.046988    0.010507    0.017658   -0.005350
O    -0.358397   -4.383915   -3.119017    0.011261    0.031873   -0.015209
O     4.677758   -4.897449   -1.855833    0.020514    0.003107    0.012883
O     5.092582    1.787563   -2.902685    0.020444   -0.015683   -0.019857
C     1.743076    3.011358   -1.726393   -0.024896   -0.026272   -0.004493
C    -2.587286    4.407713   -0.653440   -0.009730   -0.010457    0.027513
C    -5.072042    0.492125   -1.758371    0.003199    0.010701    0.007967
C    -2.052575   -3.084370   -2.043435    0.024904    0.033335    0.004305
C     2.405727   -4.423767   -1.202529    0.019671    0.027828   -0.006646
C     4.924119   -0.394856   -1.877029    0.115367   -0.024299   -0.017784
O     2.336693    2.710312   -2.964144   -0.040259   -0.033023   -0.009907
O    -2.124987    5.602911   -1.238639   -0.002978   -0.018351    0.014988
O    -5.682227    1.311389   -2.724958   -0.002514    0.018116    0.018087
O    -2.743410   -2.786969   -3.232230    0.044918    0.057062   -0.000264
O     1.909913   -5.556268   -1.879133    0.016764    0.039010   -0.023184
O     5.598574   -1.062545   -2.917160    0.218794   -0.015024    0.046757
C     2.863388    3.059572   -0.684214   -0.007804   -0.022079   -0.024788
C    -1.669736    3.982492    0.503054   -0.011346    0.003638    0.034466
C    -5.278340    1.146975   -0.384577    0.008424   -0.001900    0.014657
C    -3.081456   -3.115558   -0.909621    0.014884    0.019883   -0.006979
C     1.496132   -4.099803   -0.004001    0.019436    0.018232   -0.007276
C     5.127271   -1.207023   -0.589548    0.051059   -0.003894    0.005713
C     2.345701    3.521771    0.688880    0.010206   -0.031276   -0.015293
C    -2.285453    2.724875    1.125291   -0.023554    0.030323    0.084870
C    -4.894010    0.206125    0.776481    0.006667   -0.012547    0.005995
C    -2.434386   -3.539179    0.418911    0.009890    0.010575   -0.007932
C     2.145414   -2.910917    0.722199    0.006676    0.009942    0.015477
C     4.726858   -0.417251    0.675169    0.024103    0.005441   -0.009099
O     1.564186    4.705406    0.580104    0.000356   -0.036902   -0.000783
O    -3.598596    2.961137    1.591842   -0.035121    0.033921    0.039916
O    -5.371933   -1.126003    0.576334   -0.001644   -0.006602   -0.003840
O    -1.705223   -4.755048    0.260721    0.015018    0.016428   -0.014074
O     3.450934   -3.225032    1.148845    0.017159    0.025775    0.002325
O     5.193290    0.932245    0.638447    0.000077    0.014010   -0.012900
C     3.506792    3.877877    1.629350    0.023474   -0.018361   -0.035263
C    -1.462779    2.166676    2.281750   -0.028630    0.074723    0.105992
C    -5.531880    0.621413    2.115390    0.016113   -0.015924    0.011386
C    -3.495199   -3.813464    1.493611    0.009261    0.000346   -0.011735
C     1.367821   -2.308329    1.863366   -0.020597   -0.113140    0.067944
C     5.366407   -0.978760    1.958206    0.018457    0.022227    0.001300
O     4.404787    4.775824    1.035943   -0.003178   -0.001183   -0.048808
O    -1.818904    0.911933    2.524692   -0.217465    0.224263    0.414327
O    -6.911138    0.845827    1.994368    0.017732   -0.003926    0.016305
O    -4.422595   -4.779454    1.074126    0.017606   -0.004952   -0.015977
O     2.148401   -1.703254    2.753068   -0.107606    0.179192   -0.083859
O     6.753963   -1.128919    1.825479    0.021212    0.035106    0.017470
H     0.002759    5.600540   -0.265663    0.000782   -0.022205    0.016888
H    -5.470602    3.371240    0.981920   -0.026312   -0.001556   -0.004246
H    -5.491855   -2.725901   -0.590600    0.013487    0.000634   -0.016333
H    -0.241712   -5.695281   -0.709924    0.019108    0.024574   -0.014572
H     5.317278   -3.590780    0.499286    0.012068    0.004302    0.010265
H     5.260206    2.671118   -0.318444   -0.005610    0.003510   -0.031767
H     1.710516    5.153267   -2.026589   -0.026611   -0.025136    0.001261
H    -4.075443    5.400289    0.572774   -0.020293    0.006369    0.002710
H    -6.726760   -0.894185   -1.704669    0.006630    0.005939   -0.003464
H    -2.062932   -5.228781   -2.331778    0.013412    0.035121   -0.010544
H     3.909488   -5.544777   -0.115902   -0.001675    0.014631    0.007226
H     6.510871    1.056078   -1.682117    0.041772    0.048004   -0.007001
H    -0.728405    4.926983   -2.413023   -0.030820   -0.027274    0.021668
H    -5.003572    4.144616   -1.765609    0.003104   -0.015021    0.005132
H    -4.438032   -1.795823   -3.092430    0.012747    0.027016   -0.006915
H     0.420212   -4.900278   -2.836747    0.020013    0.046406   -0.012661
H     4.814144   -4.057576   -2.321839    0.029207    0.000274    0.010173
H     4.131145    1.953742   -2.916038    0.015798   -0.050642   -0.026675
H     1.015617    2.234609   -1.448881   -0.025050   -0.021390    0.011629
H    -2.573903    3.599233   -1.402035   -0.005853   -0.019918    0.037774
H    -3.985994    0.444074   -1.942521    0.002735    0.015030    0.003151
H    -1.295797   -2.312261   -1.840438    0.028061    0.024122    0.027532
H     2.385725   -3.549751   -1.873900    0.029471    0.036406    0.004468
H     3.841060   -0.376291   -2.082155    0.136783   -0.081667   -0.104456
H     1.649217    2.741127   -3.644628   -0.046752   -0.023881   -0.002743
H    -2.862293    5.965380   -1.759132   -0.002184   -0.020144    0.012363
H    -5.741444    0.794921   -3.543181   -0.003621    0.026366    0.013023
H    -2.128036   -2.893025   -3.971704    0.061085    0.056686    0.013466
H     2.617713   -5.870350   -2.466337    0.017794    0.043472   -0.024598
H     5.605924   -0.465073   -3.680687    0.204219   -0.058050    0.014808
H     3.622187    3.769222   -1.038714   -0.020961   -0.013166   -0.034638
H    -1.582049    4.786699    1.245159    0.010176    0.025074    0.007620
H    -6.329564    1.450922   -0.277719    0.010106    0.002052    0.018618
H    -3.861562   -3.839380   -1.177860    0.020835    0.017248   -0.017270
H     1.413212   -4.966605    0.663485    0.012430    0.011789   -0.016593
H     6.181620   -1.508860   -0.508332    0.042391   -0.023129    0.042700
H     1.744008    2.712396    1.126943    0.020677   -0.035520   -0.006944
H    -2.297248    1.949845    0.341995    0.006986   -0.001672    0.112311
H    -3.802972    0.194611    0.882166    0.008526   -0.021676   -0.003492
H    -1.753113   -2.751169    0.759339    0.006605    0.009644    0.002792
H     2.172613   -2.088135   -0.025858   -0.020488    0.039466    0.053662
H     3.634582   -0.419728    0.774565    0.023760   -0.017191   -0.017136
H     4.065430    2.972843    1.871543    0.046048   -0.010112   -0.058242
H     3.077544    4.302256    2.542782    0.035485   -0.026705   -0.025390
H    -5.329808   -0.180988    2.834258    0.011917   -0.022672    0.004894
H    -5.085496    1.545750    2.479177    0.026270   -0.022730    0.015999
H    -4.061871   -2.901959    1.691288    0.003065   -0.003663   -0.011150
H    -2.982213   -4.134005    2.407673    0.012232    0.003633   -0.012362
H     5.123379   -0.281555    2.768234    0.001222    0.022450   -0.004415
H     4.951245   -1.955925    2.198308    0.026327    0.019007    0.001514
H     3.917334    5.586662    0.831390   -0.017053   -0.005895   -0.032753
H    -7.319741    0.016927    1.707842    0.009455    0.001245    0.013500
H    -3.931930   -5.590307    0.878914    0.024489   -0.000381   -0.017877
H     7.122365   -0.258703    1.617194    0.016122    0.036950    0.015809
C     1.360422   -0.905565    3.653252   -0.192996    0.036787   -0.058984
H     2.059300   -0.246820    4.179826   -0.278117    0.083666   -0.006640
H     0.812008   -1.546149    4.353538   -0.130122   -0.053031   -0.091826
O     0.154114   -2.238672    1.926211    0.020970   -0.504492    0.242070
C    -0.995769    0.168987    3.418188   -0.108327    0.224443    0.312980
H    -1.489831   -0.806990    3.532803   -0.194249    0.329011    0.583314
H    -0.884943    0.661418    4.402191    0.185735    0.316568    0.196325
O    -0.612336    2.780341    2.886383    0.182046   -0.025719   -0.145389
C     0.391050   -0.048420    2.851160   -0.320013   -0.060302    0.016934
O     0.743420    0.482005    1.789413   -0.653612   -0.426114   -0.185928
H    -1.076857   -0.012379    0.370944    0.179036    0.054125   -0.218973
O    -1.399094    0.067689   -0.540276    0.026055    0.137931   -0.149189
H     0.572007   -0.488504   -1.113062    0.293620    0.273332   -0.178323
O     1.535547   -0.562618   -1.229700    0.257202    0.048192   -0.147568
H     0.777032    2.559418    4.042710    0.186354    0.139856   -0.123728
O     1.381404    2.076618    4.640910    0.186245    0.199531   -0.078286
O     2.591624    1.970527    3.811184    0.032575   -0.202019   -0.182369
H     3.202312    2.463145    4.398465    0.190668   -0.198180   -0.391357
H    -2.108974   -0.598656   -0.593805    0.060861    0.103576   -0.128793
H     1.877921    0.236894   -0.795797    0.451993    0.058742   -0.372099
140
* Frequency(6)  -49.8412
C     0.498907    4.625607   -0.319296   -0.010648   -0.027602    0.010870
C    -4.478162    3.268519    0.524533   -0.015606    0.004974    0.018027
C    -5.044568   -1.725341   -0.634680    0.007967    0.003430   -0.006832
C    -0.717006   -4.707823   -0.725365    0.018747    0.024389   -0.011504
C     4.326423   -3.425609    0.057572    0.015677    0.012398    0.004054
C     4.828789    1.675341   -0.478699    0.012736   -0.004756   -0.026554
O    -0.390975    3.590485    0.039494   -0.019662   -0.017067    0.020865
O    -4.454029    2.302667   -0.474811    0.015751   -0.007493    0.029576
O    -3.642658   -1.816670   -0.803258    0.008048    0.015406   -0.003282
O     0.222820   -3.691490   -0.458612    0.018958    0.023097   -0.007045
O     4.319490   -2.354164   -0.831072    0.036267    0.007140   -0.001684
O     3.420230    1.758641   -0.595322    0.010145   -0.019072   -0.053626
C     1.005533    4.355784   -1.746574   -0.024415   -0.026011    0.004918
C    -4.032473    4.580387   -0.151169   -0.013065   -0.000444    0.011048
C    -5.637267   -0.932215   -1.809978    0.006791    0.009806   -0.002083
C    -1.330646   -4.437084   -2.109798    0.017468    0.030929   -0.009729
C     3.859017   -4.654157   -0.750126    0.012584    0.013445    0.004674
C     5.416550    1.051106   -1.755497    0.043031    0.000472   -0.015063
O    -0.043971    4.281988   -2.671664   -0.030303   -0.023626    0.012241
O    -4.872826    4.930538   -1.210993   -0.000307   -0.009545   -0.002121
O    -5.377056   -1.535965   -3.046836    0.010507    0.017658   -0.005350
O    -0.358715   -4.384816   -3.118587    0.011261    0.031873   -0.015209
O     4.677178   -4.897537   -1.856197    0.020514    0.003107    0.012883
O     5.092003    1.788007   -2.902124    0.020444   -0.015683   -0.019857
C     1.743780    3.012101   -1.726266   -0.024896   -0.026272   -0.004493
C    -2.587011    4.408009   -0.654218   -0.009730   -0.010457    0.027513
C    -5.072132    0.491822   -1.758596    0.003199    0.010701    0.007967
C    -2.053280   -3.085313   -2.043557    0.024904    0.033335    0.004305
C     2.405171   -4.424554   -1.202341    0.019671    0.027828   -0.006646
C     4.920856   -0.394169   -1.876526    0.115367   -0.024299   -0.017784
O     2.337832    2.711246   -2.963864   -0.040259   -0.033023   -0.009907
O    -2.124902    5.603430   -1.239063   -0.002978   -0.018351    0.014988
O    -5.682156    1.310876   -2.725470   -0.002514    0.018116    0.018087
O    -2.744680   -2.788583   -3.232223    0.044918    0.057062   -0.000264
O     1.909439   -5.557371   -1.878478    0.016764    0.039010   -0.023184
O     5.592386   -1.062120   -2.918482    0.218794   -0.015024    0.046757
C     2.863609    3.060196   -0.683513   -0.007804   -0.022079   -0.024788
C    -1.669415    3.982389    0.502080   -0.011346    0.003638    0.034466
C    -5.278579    1.147029   -0.384992    0.008424   -0.001900    0.014657
C    -3.081877   -3.116120   -0.909424    0.014884    0.019883   -0.006979
C     1.495582   -4.100319   -0.003795    0.019436    0.018232   -0.007276
C     5.125827   -1.206913   -0.589710    0.051059   -0.003894    0.005713
C     2.345413    3.522656    0.689313    0.010206   -0.031276   -0.015293
C    -2.284787    2.724017    1.122891   -0.023554    0.030323    0.084870
C    -4.894199    0.206480    0.776311    0.006667   -0.012547    0.005995
C    -2.434666   -3.539478    0.419136    0.009890    0.010575   -0.007932
C     2.145225   -2.911198    0.721761    0.006676    0.009942    0.015477
C     4.726177   -0.417405    0.675426    0.024103    0.005441   -0.009099
O     1.564175    4.706449    0.580126    0.000356   -0.036902   -0.000783
O    -3.597603    2.960178    1.590713   -0.035121    0.033921    0.039916
O    -5.371887   -1.125816    0.576442   -0.001644   -0.006602   -0.003840
O    -1.705648   -4.755513    0.261119    0.015018    0.016428   -0.014074
O     3.450449   -3.225761    1.148780    0.017159    0.025775    0.002325
O     5.193288    0.931849    0.638811    0.000077    0.014010   -0.012900
C     3.506128    3.878396    1.630348    0.023474   -0.018361   -0.035263
C    -1.461969    2.164562    2.278752   -0.028630    0.074723    0.105992
C    -5.532336    0.621864    2.115068    0.016113   -0.015924    0.011386
C    -3.495461   -3.813474    1.493943    0.009261    0.000346   -0.011735
C     1.368403   -2.305129    1.861444   -0.020597   -0.113140    0.067944
C     5.365885   -0.979389    1.958169    0.018457    0.022227    0.001300
O     4.404876    4.775858    1.037324   -0.003178   -0.001183   -0.048808
O    -1.812753    0.905590    2.512973   -0.217465    0.224263    0.414327
O    -6.911640    0.845938    1.993907    0.017732   -0.003926    0.016305
O    -4.423093   -4.779314    1.074578    0.017606   -0.004952   -0.015977
O     2.151444   -1.708322    2.755440   -0.107606    0.179192   -0.083859
O     6.753363   -1.129912    1.824985    0.021212    0.035106    0.017470
H     0.002737    5.601168   -0.266140    0.000782   -0.022205    0.016888
H    -5.469858    3.371284    0.982040   -0.026312   -0.001556   -0.004246
H    -5.492236   -2.725919   -0.590138    0.013487    0.000634   -0.016333
H    -0.242252   -5.695976   -0.709512    0.019108    0.024574   -0.014572
H     5.316937   -3.590902    0.498996    0.012068    0.004302    0.010265
H     5.260365    2.671019   -0.317546   -0.005610    0.003510   -0.031767
H     1.711269    5.153978   -2.026625   -0.026611   -0.025136    0.001261
H    -4.074869    5.400109    0.572697   -0.020293    0.006369    0.002710
H    -6.726947   -0.894353   -1.704571    0.006630    0.005939   -0.003464
H    -2.063312   -5.229774   -2.331480    0.013412    0.035121   -0.010544
H     3.909535   -5.545191   -0.116106   -0.001675    0.014631    0.007226
H     6.509689    1.054720   -1.681919    0.041772    0.048004   -0.007001
H    -0.727534    4.927755   -2.413636   -0.030820   -0.027274    0.021668
H    -5.003659    4.145041   -1.765755    0.003104   -0.015021    0.005132
H    -4.438393   -1.796587   -3.092235    0.012747    0.027016   -0.006915
H     0.419646   -4.901591   -2.836389    0.020013    0.046406   -0.012661
H     4.813318   -4.057583   -2.322127    0.029207    0.000274    0.010173
H     4.130698    1.955174   -2.915283    0.015798   -0.050642   -0.026675
H     1.016326    2.235214   -1.449210   -0.025050   -0.021390    0.011629
H    -2.573737    3.599797   -1.403104   -0.005853   -0.019918    0.037774
H    -3.986071    0.443649   -1.942610    0.002735    0.015030    0.003151
H    -1.296591   -2.312944   -1.841216    0.028061    0.024122    0.027532
H     2.384892   -3.550780   -1.874026    0.029471    0.036406    0.004468
H     3.837191   -0.373981   -2.079201    0.136783   -0.081667   -0.104456
H     1.650540    2.741803   -3.644551   -0.046752   -0.023881   -0.002743
H    -2.862231    5.965949   -1.759482   -0.002184   -0.020144    0.012363
H    -5.741341    0.794175   -3.543550   -0.003621    0.026366    0.013023
H    -2.129763   -2.894628   -3.972085    0.061085    0.056686    0.013466
H     2.617209   -5.871579   -2.465641    0.017794    0.043472   -0.024598
H     5.600148   -0.463431   -3.681106    0.204219   -0.058050    0.014808
H     3.622780    3.769594   -1.037734   -0.020961   -0.013166   -0.034638
H    -1.582336    4.785990    1.244943    0.010176    0.025074    0.007620
H    -6.329850    1.450864   -0.278245    0.010106    0.002052    0.018618
H    -3.862151   -3.839867   -1.177372    0.020835    0.017248   -0.017270
H     1.412861   -4.966938    0.663954    0.012430    0.011789   -0.016593
H     6.180421   -1.508206   -0.509539    0.042391   -0.023129    0.042700
H     1.743423    2.713401    1.127139    0.020677   -0.035520   -0.006944
H    -2.297446    1.949892    0.338819    0.006986   -0.001672    0.112311
H    -3.803213    0.195224    0.882265    0.008526   -0.021676   -0.003492
H    -1.753300   -2.751442    0.759260    0.006605    0.009644    0.002792
H     2.173192   -2.089252   -0.027376   -0.020488    0.039466    0.053662
H     3.633910   -0.419242    0.775050    0.023760   -0.017191   -0.017136
H     4.064128    2.973129    1.873191    0.046048   -0.010112   -0.058242
H     3.076540    4.303011    2.543500    0.035485   -0.026705   -0.025390
H    -5.330145   -0.180347    2.834119    0.011917   -0.022672    0.004894
H    -5.086239    1.546393    2.478724    0.026270   -0.022730    0.015999
H    -4.061958   -2.901855    1.691603    0.003065   -0.003663   -0.011150
H    -2.982559   -4.134108    2.408023    0.012232    0.003633   -0.012362
H     5.123344   -0.282190    2.768358    0.001222    0.022450   -0.004415
H     4.950500   -1.956463    2.198265    0.026327    0.019007    0.001514
H     3.917817    5.586829    0.832316   -0.017053   -0.005895   -0.032753
H    -7.320008    0.016892    1.707460    0.009455    0.001245    0.013500
H    -3.932623   -5.590297    0.879420    0.024489   -0.000381   -0.017877
H     7.121909   -0.259748    1.616747    0.016122    0.036950    0.015809
C     1.365881   -0.906606    3.654921   -0.192996    0.036787   -0.058984
H     2.067166   -0.249187    4.180014   -0.278117    0.083666   -0.006640
H     0.815688   -1.544649    4.356135   -0.130122   -0.053031   -0.091826
O     0.153521   -2.224403    1.919364    0.020970   -0.504492    0.242070
C    -0.992705    0.162639    3.409335   -0.108327    0.224443    0.312980
H    -1.484337   -0.816295    3.516305   -0.194249    0.329011    0.583314
H    -0.890196    0.652464    4.396638    0.185735    0.316568    0.196325
O    -0.617485    2.781069    2.890495    0.182046   -0.025719   -0.145389
C     0.400102   -0.046714    2.850681   -0.320013   -0.060302    0.016934
O     0.761906    0.494057    1.794672   -0.653612   -0.426114   -0.185928
H    -1.081921   -0.013910    0.377138    0.179036    0.054125   -0.218973
O    -1.399831    0.063788   -0.536056    0.026055    0.137931   -0.149189
H     0.563703   -0.496235   -1.108018    0.293620    0.273332   -0.178323
O     1.528273   -0.563981   -1.225527    0.257202    0.048192   -0.147568
H     0.771761    2.555462    4.046210    0.186354    0.139856   -0.123728
O     1.376136    2.070975    4.643125    0.186245    0.199531   -0.078286
O     2.590703    1.976241    3.816342    0.032575   -0.202019   -0.182369
H     3.196919    2.468750    4.409534    0.190668   -0.198180   -0.391357
H    -2.110695   -0.601585   -0.590162    0.060861    0.103576   -0.128793
H     1.865137    0.235233   -0.785273    0.451993    0.058742   -0.372099
140
* Frequency(6)  -49.8412
C     0.498805    4.625345   -0.319192   -0.010648   -0.027602    0.010870
C    -4.478310    3.268566    0.524705   -0.015606    0.004974    0.018027
C    -5.044492   -1.725308   -0.634745    0.007967    0.003430   -0.006832
C    -0.716828   -4.707591   -0.725474    0.018747    0.024389   -0.011504
C     4.326572   -3.425491    0.057610    0.015677    0.012398    0.004054
C     4.828910    1.675296   -0.478951    0.012736   -0.004756   -0.026554
O    -0.391162    3.590323    0.039692   -0.019662   -0.017067    0.020865
O    -4.453879    2.302596   -0.474530    0.015751   -0.007493    0.029576
O    -3.642581   -1.816524   -0.803290    0.008048    0.015406   -0.003282
O     0.223001   -3.691270   -0.458679    0.018958    0.023097   -0.007045
O     4.319835   -2.354096   -0.831088    0.036267    0.007140   -0.001684
O     3.420326    1.758460   -0.595832    0.010145   -0.019072   -0.053626
C     1.005300    4.355537   -1.746527   -0.024415   -0.026011    0.004918
C    -4.032598    4.580382   -0.151064   -0.013065   -0.000444    0.011048
C    -5.637202   -0.932122   -1.809998    0.006791    0.009806   -0.002083
C    -1.330480   -4.436790   -2.109891    0.017468    0.030929   -0.009729
C     3.859137   -4.654029   -0.750081    0.012584    0.013445    0.004674
C     5.416959    1.051111   -1.755640    0.043031    0.000472   -0.015063
O    -0.044260    4.281763   -2.671548   -0.030303   -0.023626    0.012241
O    -4.872829    4.930447   -1.211013   -0.000307   -0.009545   -0.002121
O    -5.376956   -1.535797   -3.046887    0.010507    0.017658   -0.005350
O    -0.358608   -4.384513   -3.118732    0.011261    0.031873   -0.015209
O     4.677373   -4.897508   -1.856074    0.020514    0.003107    0.012883
O     5.092198    1.787857   -2.902312    0.020444   -0.015683   -0.019857
C     1.743543    3.011851   -1.726309   -0.024896   -0.026272   -0.004493
C    -2.587104    4.407909   -0.653956   -0.009730   -0.010457    0.027513
C    -5.072102    0.491924   -1.758520    0.003199    0.010701    0.007967
C    -2.053043   -3.084996   -2.043516    0.024904    0.033335    0.004305
C     2.405358   -4.424289   -1.202404    0.019671    0.027828   -0.006646
C     4.921954   -0.394400   -1.876695    0.115367   -0.024299   -0.017784
O     2.337449    2.710932   -2.963958   -0.040259   -0.033023   -0.009907
O    -2.124931    5.603255   -1.238920   -0.002978   -0.018351    0.014988
O    -5.682180    1.311049   -2.725298   -0.002514    0.018116    0.018087
O    -2.744253   -2.788040   -3.232225    0.044918    0.057062   -0.000264
O     1.909598   -5.557000   -1.878698    0.016764    0.039010   -0.023184
O     5.594467   -1.062263   -2.918037    0.218794   -0.015024    0.046757
C     2.863534    3.059986   -0.683749   -0.007804   -0.022079   -0.024788
C    -1.669523    3.982424    0.502407   -0.011346    0.003638    0.034466
C    -5.278499    1.147011   -0.384853    0.008424   -0.001900    0.014657
C    -3.081736   -3.115931   -0.909490    0.014884    0.019883   -0.006979
C     1.495767   -4.100145   -0.003864    0.019436    0.018232   -0.007276
C     5.126313   -1.206950   -0.589656    0.051059   -0.003894    0.005713
C     2.345510    3.522358    0.689167    0.010206   -0.031276   -0.015293
C    -2.285011    2.724306    1.123698   -0.023554    0.030323    0.084870
C    -4.894135    0.206361    0.776368    0.006667   -0.012547    0.005995
C    -2.434572   -3.539377    0.419060    0.009890    0.010575   -0.007932
C     2.145288   -2.911104    0.721909    0.006676    0.009942    0.015477
C     4.726406   -0.417353    0.675340    0.024103    0.005441   -0.009099
O     1.564179    4.706098    0.580119    0.000356   -0.036902   -0.000783
O    -3.597937    2.960500    1.591093   -0.035121    0.033921    0.039916
O    -5.371902   -1.125879    0.576406   -0.001644   -0.006602   -0.003840
O    -1.705505   -4.755357    0.260985    0.015018    0.016428   -0.014074
O     3.450612   -3.225516    1.148802    0.017159    0.025775    0.002325
O     5.193289    0.931982    0.638689    0.000077    0.014010   -0.012900
C     3.506351    3.878221    1.630012    0.023474   -0.018361   -0.035263
C    -1.462242    2.165273    2.279760   -0.028630    0.074723    0.105992
C    -5.532182    0.621712    2.115176    0.016113   -0.015924    0.011386
C    -3.495373   -3.813471    1.493831    0.009261    0.000346   -0.011735
C     1.368207   -2.306206    1.862090   -0.020597   -0.113140    0.067944
C     5.366060   -0.979177    1.958182    0.018457    0.022227    0.001300
O     4.404846    4.775846    1.036860   -0.003178   -0.001183   -0.048808
O    -1.814822    0.907724    2.516916   -0.217465    0.224263    0.414327
O    -6.911471    0.845901    1.994062    0.017732   -0.003926    0.016305
O    -4.422926   -4.779361    1.074426    0.017606   -0.004952   -0.015977
O     2.150420   -1.706617    2.754642   -0.107606    0.179192   -0.083859
O     6.753564   -1.129578    1.825151    0.021212    0.035106    0.017470
H     0.002744    5.600957   -0.265980    0.000782   -0.022205    0.016888
H    -5.470108    3.371270    0.981999   -0.026312   -0.001556   -0.004246
H    -5.492108   -2.725913   -0.590293    0.013487    0.000634   -0.016333
H    -0.242070   -5.695742   -0.709651    0.019108    0.024574   -0.014572
H     5.317052   -3.590861    0.499093    0.012068    0.004302    0.010265
H     5.260311    2.671052   -0.317848   -0.005610    0.003510   -0.031767
H     1.711016    5.153739   -2.026613   -0.026611   -0.025136    0.001261
H    -4.075062    5.400170    0.572723   -0.020293    0.006369    0.002710
H    -6.726884   -0.894296   -1.704604    0.006630    0.005939   -0.003464
H    -2.063184   -5.229440   -2.331580    0.013412    0.035121   -0.010544
H     3.909519   -5.545052   -0.116037   -0.001675    0.014631    0.007226
H     6.510086    1.055177   -1.681985    0.041772    0.048004   -0.007001
H    -0.727827    4.927495   -2.413430   -0.030820   -0.027274    0.021668
H    -5.003630    4.144898   -1.765706    0.003104   -0.015021    0.005132
H    -4.438272   -1.796330   -3.092301    0.012747    0.027016   -0.006915
H     0.419836   -4.901149   -2.836510    0.020013    0.046406   -0.012661
H     4.813596   -4.057581   -2.322030    0.029207    0.000274    0.010173
H     4.130848    1.954692   -2.915537    0.015798   -0.050642   -0.026675
H     1.016088    2.235011   -1.449099   -0.025050   -0.021390    0.011629
H    -2.573793    3.599607   -1.402744   -0.005853   -0.019918    0.037774
H    -3.986045    0.443792   -1.942580    0.002735    0.015030    0.003151
H    -1.296324   -2.312714   -1.840954    0.028061    0.024122    0.027532
H     2.385172   -3.550434   -1.873984    0.029471    0.036406    0.004468
H     3.838492   -0.374758   -2.080194    0.136783   -0.081667   -0.104456
H     1.650095    2.741576   -3.644577   -0.046752   -0.023881   -0.002743
H    -2.862252    5.965758   -1.759364   -0.002184   -0.020144    0.012363
H    -5.741376    0.794426   -3.543426   -0.003621    0.026366    0.013023
H    -2.129182   -2.894089   -3.971957    0.061085    0.056686    0.013466
H     2.617379   -5.871166   -2.465875    0.017794    0.043472   -0.024598
H     5.602091   -0.463983   -3.680965    0.204219   -0.058050    0.014808
H     3.622580    3.769469   -1.038064   -0.020961   -0.013166   -0.034638
H    -1.582240    4.786228    1.245016    0.010176    0.025074    0.007620
H    -6.329754    1.450883   -0.278068    0.010106    0.002052    0.018618
H    -3.861953   -3.839703   -1.177536    0.020835    0.017248   -0.017270
H     1.412979   -4.966826    0.663796    0.012430    0.011789   -0.016593
H     6.180825   -1.508426   -0.509133    0.042391   -0.023129    0.042700
H     1.743620    2.713063    1.127073    0.020677   -0.035520   -0.006944
H    -2.297380    1.949876    0.339887    0.006986   -0.001672    0.112311
H    -3.803132    0.195018    0.882232    0.008526   -0.021676   -0.003492
H    -1.753237   -2.751350    0.759286    0.006605    0.009644    0.002792
H     2.172997   -2.088876   -0.026865   -0.020488    0.039466    0.053662
H     3.634136   -0.419405    0.774887    0.023760   -0.017191   -0.017136
H     4.064566    2.973033    1.872637    0.046048   -0.010112   -0.058242
H     3.076878    4.302757    2.543258    0.035485   -0.026705   -0.025390
H    -5.330031   -0.180563    2.834166    0.011917   -0.022672    0.004894
H    -5.085989    1.546177    2.478876    0.026270   -0.022730    0.015999
H    -4.061929   -2.901890    1.691497    0.003065   -0.003663   -0.011150
H    -2.982443   -4.134073    2.407905    0.012232    0.003633   -0.012362
H     5.123356   -0.281976    2.768316    0.001222    0.022450   -0.004415
H     4.950751   -1.956282    2.198279    0.026327    0.019007    0.001514
H     3.917654    5.586773    0.832005   -0.017053   -0.005895   -0.032753
H    -7.319919    0.016903    1.707589    0.009455    0.001245    0.013500
H    -3.932390   -5.590300    0.879250    0.024489   -0.000381   -0.017877
H     7.122062   -0.259396    1.616897    0.016122    0.036950    0.015809
C     1.364044   -0.906256    3.654359   -0.192996    0.036787   -0.058984
H     2.064520   -0.248391    4.179951   -0.278117    0.083666   -0.006640
H     0.814450   -1.545154    4.355261   -0.130122   -0.053031   -0.091826
O     0.153721   -2.229203    1.921667    0.020970   -0.504492    0.242070
C    -0.993736    0.164774    3.412313   -0.108327    0.224443    0.312980
H    -1.486185   -0.813165    3.521854   -0.194249    0.329011    0.583314
H    -0.888429    0.655476    4.398506    0.185735    0.316568    0.196325
O    -0.615753    2.780824    2.889111    0.182046   -0.025719   -0.145389
C     0.397057   -0.047288    2.850842   -0.320013   -0.060302    0.016934
O     0.755687    0.490003    1.792903   -0.653612   -0.426114   -0.185928
H    -1.080218   -0.013395    0.375054    0.179036    0.054125   -0.218973
O    -1.399583    0.065100   -0.537476    0.026055    0.137931   -0.149189
H     0.566496   -0.493634   -1.109715    0.293620    0.273332   -0.178323
O     1.530720   -0.563522   -1.226931    0.257202    0.048192   -0.147568
H     0.773534    2.556793    4.045032    0.186354    0.139856   -0.123728
O     1.377908    2.072873    4.642380    0.186245    0.199531   -0.078286
O     2.591013    1.974319    3.814607    0.032575   -0.202019   -0.182369
H     3.198733    2.466864    4.405811    0.190668   -0.198180   -0.391357
H    -2.110116   -0.600600   -0.591388    0.060861    0.103576   -0.128793
H     1.869438    0.235792   -0.788813    0.451993    0.058742   -0.372099
140
* Frequency(6)  -49.8412
C     0.498312    4.624067   -0.318689   -0.010648   -0.027602    0.010870
C    -4.479033    3.268797    0.525539   -0.015606    0.004974    0.018027
C    -5.044123   -1.725150   -0.635061    0.007967    0.003430   -0.006832
C    -0.715960   -4.706462   -0.726007    0.018747    0.024389   -0.011504
C     4.327297   -3.424917    0.057798    0.015677    0.012398    0.004054
C     4.829499    1.675075   -0.480180    0.012736   -0.004756   -0.026554
O    -0.392072    3.589533    0.040658   -0.019662   -0.017067    0.020865
O    -4.453150    2.302249   -0.473161    0.015751   -0.007493    0.029576
O    -3.642209   -1.815811   -0.803441    0.008048    0.015406   -0.003282
O     0.223878   -3.690201   -0.459005    0.018958    0.023097   -0.007045
O     4.321514   -2.353765   -0.831166    0.036267    0.007140   -0.001684
O     3.420796    1.757577   -0.598314    0.010145   -0.019072   -0.053626
C     1.004170    4.354333   -1.746300   -0.024415   -0.026011    0.004918
C    -4.033202    4.580362   -0.150553   -0.013065   -0.000444    0.011048
C    -5.636888   -0.931668   -1.810095    0.006791    0.009806   -0.002083
C    -1.329671   -4.435358   -2.110341    0.017468    0.030929   -0.009729
C     3.859720   -4.653407   -0.749865    0.012584    0.013445    0.004674
C     5.418951    1.051132   -1.756337    0.043031    0.000472   -0.015063
O    -0.045662    4.280670   -2.670981   -0.030303   -0.023626    0.012241
O    -4.872843    4.930005   -1.211112   -0.000307   -0.009545   -0.002121
O    -5.376469   -1.534980   -3.047135    0.010507    0.017658   -0.005350
O    -0.358087   -4.383038   -3.119436    0.011261    0.031873   -0.015209
O     4.678323   -4.897364   -1.855478    0.020514    0.003107    0.012883
O     5.093144    1.787132   -2.903231    0.020444   -0.015683   -0.019857
C     1.742391    3.010635   -1.726517   -0.024896   -0.026272   -0.004493
C    -2.587554    4.407425   -0.652683   -0.009730   -0.010457    0.027513
C    -5.071954    0.492419   -1.758151    0.003199    0.010701    0.007967
C    -2.051890   -3.083453   -2.043316    0.024904    0.033335    0.004305
C     2.406268   -4.423001   -1.202712    0.019671    0.027828   -0.006646
C     4.927293   -0.395525   -1.877518    0.115367   -0.024299   -0.017784
O     2.335586    2.709403   -2.964417   -0.040259   -0.033023   -0.009907
O    -2.125069    5.602406   -1.238227   -0.002978   -0.018351    0.014988
O    -5.682296    1.311887   -2.724461   -0.002514    0.018116    0.018087
O    -2.742174   -2.785399   -3.232237    0.044918    0.057062   -0.000264
O     1.910374   -5.555194   -1.879771    0.016764    0.039010   -0.023184
O     5.604593   -1.062959   -2.915873    0.218794   -0.015024    0.046757
C     2.863173    3.058964   -0.684896   -0.007804   -0.022079   -0.024788
C    -1.670048    3.982592    0.504003   -0.011346    0.003638    0.034466
C    -5.278109    1.146923   -0.384174    0.008424   -0.001900    0.014657
C    -3.081047   -3.115011   -0.909813    0.014884    0.019883   -0.006979
C     1.496666   -4.099301   -0.004201    0.019436    0.018232   -0.007276
C     5.128676   -1.207130   -0.589391    0.051059   -0.003894    0.005713
C     2.345982    3.520911    0.688459    0.010206   -0.031276   -0.015293
C    -2.286101    2.725709    1.127626   -0.023554    0.030323    0.084870
C    -4.893827    0.205780    0.776645    0.006667   -0.012547    0.005995
C    -2.434114   -3.538888    0.418693    0.009890    0.010575   -0.007932
C     2.145597   -2.910644    0.722625    0.006676    0.009942    0.015477
C     4.727522   -0.417101    0.674918    0.024103    0.005441   -0.009099
O     1.564195    4.704390    0.580082    0.000356   -0.036902   -0.000783
O    -3.599563    2.962070    1.592941   -0.035121    0.033921    0.039916
O    -5.371978   -1.126184    0.576228   -0.001644   -0.006602   -0.003840
O    -1.704810   -4.754596    0.260334    0.015018    0.016428   -0.014074
O     3.451406   -3.224323    1.148909    0.017159    0.025775    0.002325
O     5.193292    0.932631    0.638092    0.000077    0.014010   -0.012900
C     3.507438    3.877371    1.628380    0.023474   -0.018361   -0.035263
C    -1.463567    2.168732    2.284666   -0.028630    0.074723    0.105992
C    -5.531437    0.620975    2.115703    0.016113   -0.015924    0.011386
C    -3.494944   -3.813455    1.493288    0.009261    0.000346   -0.011735
C     1.367254   -2.311442    1.865235   -0.020597   -0.113140    0.067944
C     5.366914   -0.978148    1.958242    0.018457    0.022227    0.001300
O     4.404699    4.775792    1.034601   -0.003178   -0.001183   -0.048808
O    -1.824887    0.918103    2.536091   -0.217465    0.224263    0.414327
O    -6.910650    0.845719    1.994817    0.017732   -0.003926    0.016305
O    -4.422111   -4.779590    1.073686    0.017606   -0.004952   -0.015977
O     2.145440   -1.698324    2.750761   -0.107606    0.179192   -0.083859
O     6.754546   -1.127953    1.825959    0.021212    0.035106    0.017470
H     0.002780    5.599929   -0.265198    0.000782   -0.022205    0.016888
H    -5.471326    3.371198    0.981803   -0.026312   -0.001556   -0.004246
H    -5.491484   -2.725883   -0.591049    0.013487    0.000634   -0.016333
H    -0.241186   -5.694605   -0.710325    0.019108    0.024574   -0.014572
H     5.317610   -3.590662    0.499569    0.012068    0.004302    0.010265
H     5.260052    2.671215   -0.319318   -0.005610    0.003510   -0.031767
H     1.709784    5.152575   -2.026555   -0.026611   -0.025136    0.001261
H    -4.076001    5.400465    0.572848   -0.020293    0.006369    0.002710
H    -6.726577   -0.894022   -1.704765    0.006630    0.005939   -0.003464
H    -2.062563   -5.227815   -2.332068    0.013412    0.035121   -0.010544
H     3.909442   -5.544375   -0.115703   -0.001675    0.014631    0.007226
H     6.512020    1.057398   -1.682309    0.041772    0.048004   -0.007001
H    -0.729253    4.926233   -2.412427   -0.030820   -0.027274    0.021668
H    -5.003486    4.144202   -1.765468    0.003104   -0.015021    0.005132
H    -4.437682   -1.795079   -3.092621    0.012747    0.027016   -0.006915
H     0.420762   -4.899002   -2.837096    0.020013    0.046406   -0.012661
H     4.814947   -4.057568   -2.321559    0.029207    0.000274    0.010173
H     4.131579    1.952349   -2.916772    0.015798   -0.050642   -0.026675
H     1.014928    2.234021   -1.448561   -0.025050   -0.021390    0.011629
H    -2.574064    3.598685   -1.400996   -0.005853   -0.019918    0.037774
H    -3.985919    0.444488   -1.942434    0.002735    0.015030    0.003151
H    -1.295025   -2.311598   -1.839680    0.028061    0.024122    0.027532
H     2.386536   -3.548749   -1.873777    0.029471    0.036406    0.004468
H     3.844823   -0.378538   -2.085029    0.136783   -0.081667   -0.104456
H     1.647931    2.740470   -3.644704   -0.046752   -0.023881   -0.002743
H    -2.862353    5.964825   -1.758792   -0.002184   -0.020144    0.012363
H    -5.741543    0.795647   -3.542823   -0.003621    0.026366    0.013023
H    -2.126355   -2.891465   -3.971333    0.061085    0.056686    0.013466
H     2.618202   -5.869154   -2.467014    0.017794    0.043472   -0.024598
H     5.611542   -0.466670   -3.680280    0.204219   -0.058050    0.014808
H     3.621610    3.768860   -1.039667   -0.020961   -0.013166   -0.034638
H    -1.581769    4.787389    1.245369    0.010176    0.025074    0.007620
H    -6.329286    1.450978   -0.277206    0.010106    0.002052    0.018618
H    -3.860989   -3.838905   -1.178335    0.020835    0.017248   -0.017270
H     1.413554   -4.966281    0.663028    0.012430    0.011789   -0.016593
H     6.182787   -1.509497   -0.507157    0.042391   -0.023129    0.042700
H     1.744577    2.711419    1.126751    0.020677   -0.035520   -0.006944
H    -2.297056    1.949799    0.345085    0.006986   -0.001672    0.112311
H    -3.802737    0.194015    0.882070    0.008526   -0.021676   -0.003492
H    -1.752932   -2.750904    0.759416    0.006605    0.009644    0.002792
H     2.172049   -2.087050   -0.024381   -0.020488    0.039466    0.053662
H     3.635236   -0.420201    0.774094    0.023760   -0.017191   -0.017136
H     4.066697    2.972565    1.869941    0.046048   -0.010112   -0.058242
H     3.078520    4.301521    2.542083    0.035485   -0.026705   -0.025390
H    -5.329480   -0.181612    2.834392    0.011917   -0.022672    0.004894
H    -5.084774    1.545125    2.479617    0.026270   -0.022730    0.015999
H    -4.061787   -2.902060    1.690981    0.003065   -0.003663   -0.011150
H    -2.981877   -4.133905    2.407333    0.012232    0.003633   -0.012362
H     5.123412   -0.280937    2.768112    0.001222    0.022450   -0.004415
H     4.951969   -1.955402    2.198349    0.026327    0.019007    0.001514
H     3.916865    5.586500    0.830489   -0.017053   -0.005895   -0.032753
H    -7.319481    0.016961    1.708214    0.009455    0.001245    0.013500
H    -3.931257   -5.590318    0.878422    0.024489   -0.000381   -0.017877
H     7.122809   -0.257686    1.617629    0.016122    0.036950    0.015809
C     1.355112   -0.904553    3.651629   -0.192996    0.036787   -0.058984
H     2.051648   -0.244518    4.179643   -0.278117    0.083666   -0.006640
H     0.808428   -1.547608    4.351011   -0.130122   -0.053031   -0.091826
O     0.154691   -2.252552    1.932871    0.020970   -0.504492    0.242070
C    -0.998749    0.175162    3.426798   -0.108327    0.224443    0.312980
H    -1.495175   -0.797938    3.548851   -0.194249    0.329011    0.583314
H    -0.879833    0.670127    4.407592    0.185735    0.316568    0.196325
O    -0.607328    2.779634    2.882383    0.182046   -0.025719   -0.145389
C     0.382246   -0.050079    2.851626   -0.320013   -0.060302    0.016934
O     0.725437    0.470282    1.784298   -0.653612   -0.426114   -0.185928
H    -1.071932   -0.010890    0.364920    0.179036    0.054125   -0.218973
O    -1.398377    0.071484   -0.544380    0.026055    0.137931   -0.149189
H     0.580086   -0.480984   -1.117968    0.293620    0.273332   -0.178323
O     1.542623   -0.561292   -1.233760    0.257202    0.048192   -0.147568
H     0.782159    2.563265    4.039306    0.186354    0.139856   -0.123728
O     1.386528    2.082108    4.638757    0.186245    0.199531   -0.078286
O     2.592520    1.964969    3.806167    0.032575   -0.202019   -0.182369
H     3.207557    2.457692    4.387698    0.190668   -0.198180   -0.391357
H    -2.107300   -0.595806   -0.597348    0.060861    0.103576   -0.128793
H     1.890357    0.238510   -0.806035    0.451993    0.058742   -0.372099
140
* Frequency(6)  -49.8412
C     0.497482    4.621914   -0.317841   -0.010648   -0.027602    0.010870
C    -4.480250    3.269185    0.526946   -0.015606    0.004974    0.018027
C    -5.043501   -1.724882   -0.635594    0.007967    0.003430   -0.006832
C    -0.714497   -4.704559   -0.726905    0.018747    0.024389   -0.011504
C     4.328521   -3.423949    0.058114    0.015677    0.012398    0.004054
C     4.830493    1.674704   -0.482252    0.012736   -0.004756   -0.026554
O    -0.393606    3.588201    0.042286   -0.019662   -0.017067    0.020865
O    -4.451921    2.301664   -0.470853    0.015751   -0.007493    0.029576
O    -3.641581   -1.814608   -0.803698    0.008048    0.015406   -0.003282
O     0.225357   -3.688399   -0.459555    0.018958    0.023097   -0.007045
O     4.324344   -2.353208   -0.831298    0.036267    0.007140   -0.001684
O     3.421587    1.756089   -0.602498    0.010145   -0.019072   -0.053626
C     1.002265    4.352303   -1.745916   -0.024415   -0.026011    0.004918
C    -4.034222    4.580327   -0.149691   -0.013065   -0.000444    0.011048
C    -5.636358   -0.930903   -1.810257    0.006791    0.009806   -0.002083
C    -1.328308   -4.432945   -2.111100    0.017468    0.030929   -0.009729
C     3.860702   -4.652358   -0.749500    0.012584    0.013445    0.004674
C     5.422309    1.051169   -1.757512    0.043031    0.000472   -0.015063
O    -0.048027    4.278826   -2.670026   -0.030303   -0.023626    0.012241
O    -4.872867    4.929260   -1.211277   -0.000307   -0.009545   -0.002121
O    -5.375649   -1.533602   -3.047552    0.010507    0.017658   -0.005350
O    -0.357208   -4.380551   -3.120623    0.011261    0.031873   -0.015209
O     4.679923   -4.897121   -1.854473    0.020514    0.003107    0.012883
O     5.094739    1.785908   -2.904781    0.020444   -0.015683   -0.019857
C     1.740448    3.008585   -1.726867   -0.024896   -0.026272   -0.004493
C    -2.588313    4.406609   -0.650536   -0.009730   -0.010457    0.027513
C    -5.071704    0.493254   -1.757530    0.003199    0.010701    0.007967
C    -2.049947   -3.080852   -2.042980    0.024904    0.033335    0.004305
C     2.407803   -4.420830   -1.203231    0.019671    0.027828   -0.006646
C     4.936296   -0.397421   -1.878906    0.115367   -0.024299   -0.017784
O     2.332444    2.706827   -2.965190   -0.040259   -0.033023   -0.009907
O    -2.125301    5.600974   -1.237057   -0.002978   -0.018351    0.014988
O    -5.682492    1.313301   -2.723049   -0.002514    0.018116    0.018087
O    -2.738669   -2.780946   -3.232258    0.044918    0.057062   -0.000264
O     1.911682   -5.552150   -1.881580    0.016764    0.039010   -0.023184
O     5.621667   -1.064131   -2.912225    0.218794   -0.015024    0.046757
C     2.862564    3.057241   -0.686830   -0.007804   -0.022079   -0.024788
C    -1.670933    3.982876    0.506692   -0.011346    0.003638    0.034466
C    -5.277451    1.146774   -0.383030    0.008424   -0.001900    0.014657
C    -3.079885   -3.113459   -0.910358    0.014884    0.019883   -0.006979
C     1.498183   -4.097879   -0.004769    0.019436    0.018232   -0.007276
C     5.132660   -1.207434   -0.588945    0.051059   -0.003894    0.005713
C     2.346779    3.518470    0.687266    0.010206   -0.031276   -0.015293
C    -2.287939    2.728075    1.134249   -0.023554    0.030323    0.084870
C    -4.893306    0.204801    0.777113    0.006667   -0.012547    0.005995
C    -2.433342   -3.538062    0.418074    0.009890    0.010575   -0.007932
C     2.146118   -2.909868    0.723833    0.006676    0.009942    0.015477
C     4.729402   -0.416677    0.674208    0.024103    0.005441   -0.009099
O     1.564223    4.701511    0.580021    0.000356   -0.036902   -0.000783
O    -3.602303    2.964717    1.596055   -0.035121    0.033921    0.039916
O    -5.372107   -1.126700    0.575929   -0.001644   -0.006602   -0.003840
O    -1.703638   -4.753314    0.259236    0.015018    0.016428   -0.014074
O     3.452745   -3.222312    1.149091    0.017159    0.025775    0.002325
O     5.193298    0.933724    0.637085    0.000077    0.014010   -0.012900
C     3.509269    3.875939    1.625628    0.023474   -0.018361   -0.035263
C    -1.465801    2.174562    2.292937   -0.028630    0.074723    0.105992
C    -5.530179    0.619733    2.116592    0.016113   -0.015924    0.011386
C    -3.494221   -3.813428    1.492373    0.009261    0.000346   -0.011735
C     1.365647   -2.320271    1.870537   -0.020597   -0.113140    0.067944
C     5.368355   -0.976414    1.958343    0.018457    0.022227    0.001300
O     4.404451    4.775699    1.030792   -0.003178   -0.001183   -0.048808
O    -1.841856    0.935603    2.568423   -0.217465    0.224263    0.414327
O    -6.909267    0.845413    1.996089    0.017732   -0.003926    0.016305
O    -4.420737   -4.779977    1.072439    0.017606   -0.004952   -0.015977
O     2.137043   -1.684341    2.744217   -0.107606    0.179192   -0.083859
O     6.756201   -1.125214    1.827322    0.021212    0.035106    0.017470
H     0.002841    5.598196   -0.263880    0.000782   -0.022205    0.016888
H    -5.473379    3.371076    0.981471   -0.026312   -0.001556   -0.004246
H    -5.490432   -2.725834   -0.592323    0.013487    0.000634   -0.016333
H    -0.239695   -5.692687   -0.711462    0.019108    0.024574   -0.014572
H     5.318552   -3.590326    0.500370    0.012068    0.004302    0.010265
H     5.259614    2.671489   -0.321797   -0.005610    0.003510   -0.031767
H     1.707708    5.150614   -2.026456   -0.026611   -0.025136    0.001261
H    -4.077585    5.400962    0.573060   -0.020293    0.006369    0.002710
H    -6.726060   -0.893558   -1.705035    0.006630    0.005939   -0.003464
H    -2.061517   -5.225074   -2.332891    0.013412    0.035121   -0.010544
H     3.909311   -5.543233   -0.115139   -0.001675    0.014631    0.007226
H     6.515279    1.061144   -1.682856    0.041772    0.048004   -0.007001
H    -0.731658    4.924104   -2.410737   -0.030820   -0.027274    0.021668
H    -5.003244    4.143030   -1.765068    0.003104   -0.015021    0.005132
H    -4.436687   -1.792971   -3.093160    0.012747    0.027016   -0.006915
H     0.422324   -4.895381   -2.838084    0.020013    0.046406   -0.012661
H     4.817226   -4.057547   -2.320765    0.029207    0.000274    0.010173
H     4.132812    1.948397   -2.918853    0.015798   -0.050642   -0.026675
H     1.012973    2.232352   -1.447654   -0.025050   -0.021390    0.011629
H    -2.574521    3.597131   -1.398048   -0.005853   -0.019918    0.037774
H    -3.985705    0.445661   -1.942188    0.002735    0.015030    0.003151
H    -1.292836   -2.309715   -1.837532    0.028061    0.024122    0.027532
H     2.388836   -3.545908   -1.873428    0.029471    0.036406    0.004468
H     3.855497   -0.384910   -2.093180    0.136783   -0.081667   -0.104456
H     1.644283    2.738607   -3.644918   -0.046752   -0.023881   -0.002743
H    -2.862524    5.963254   -1.757828   -0.002184   -0.020144    0.012363
H    -5.741826    0.797704   -3.541807   -0.003621    0.026366    0.013023
H    -2.121588   -2.887042   -3.970283    0.061085    0.056686    0.013466
H     2.619591   -5.865761   -2.468933    0.017794    0.043472   -0.024598
H     5.627478   -0.471200   -3.679124    0.204219   -0.058050    0.014808
H     3.619975    3.767832   -1.042370   -0.020961   -0.013166   -0.034638
H    -1.580975    4.789345    1.245963    0.010176    0.025074    0.007620
H    -6.328497    1.451138   -0.275754    0.010106    0.002052    0.018618
H    -3.859363   -3.837559   -1.179683    0.020835    0.017248   -0.017270
H     1.414524   -4.965361    0.661734    0.012430    0.011789   -0.016593
H     6.186095   -1.511301   -0.503825    0.042391   -0.023129    0.042700
H     1.746190    2.708647    1.126210    0.020677   -0.035520   -0.006944
H    -2.296511    1.949668    0.353849    0.006986   -0.001672    0.112311
H    -3.802072    0.192323    0.881798    0.008526   -0.021676   -0.003492
H    -1.752416   -2.750151    0.759633    0.006605    0.009644    0.002792
H     2.170450   -2.083970   -0.020194   -0.020488    0.039466    0.053662
H     3.637090   -0.421542    0.772757    0.023760   -0.017191   -0.017136
H     4.070290    2.971776    1.865396    0.046048   -0.010112   -0.058242
H     3.081289    4.299437    2.540102    0.035485   -0.026705   -0.025390
H    -5.328550   -0.183381    2.834774    0.011917   -0.022672    0.004894
H    -5.082724    1.543351    2.480865    0.026270   -0.022730    0.015999
H    -4.061548   -2.902345    1.690111    0.003065   -0.003663   -0.011150
H    -2.980922   -4.133622    2.406368    0.012232    0.003633   -0.012362
H     5.123508   -0.279185    2.767768    0.001222    0.022450   -0.004415
H     4.954024   -1.953919    2.198468    0.026327    0.019007    0.001514
H     3.915534    5.586040    0.827933   -0.017053   -0.005895   -0.032753
H    -7.318743    0.017058    1.709267    0.009455    0.001245    0.013500
H    -3.929346   -5.590348    0.877027    0.024489   -0.000381   -0.017877
H     7.124067   -0.254803    1.618862    0.016122    0.036950    0.015809
C     1.340052   -0.901682    3.647027   -0.192996    0.036787   -0.058984
H     2.029946   -0.237990    4.179125   -0.278117    0.083666   -0.006640
H     0.798274   -1.551746    4.343846   -0.130122   -0.053031   -0.091826
O     0.156328   -2.291919    1.951760    0.020970   -0.504492    0.242070
C    -1.007202    0.192676    3.451221   -0.108327    0.224443    0.312980
H    -1.510333   -0.772264    3.594369   -0.194249    0.329011    0.583314
H    -0.865339    0.694830    4.422912    0.185735    0.316568    0.196325
O    -0.593122    2.777627    2.871037    0.182046   -0.025719   -0.145389
C     0.357274   -0.054785    2.852947   -0.320013   -0.060302    0.016934
O     0.674433    0.437030    1.769789   -0.653612   -0.426114   -0.185928
H    -1.057961   -0.006667    0.347832    0.179036    0.054125   -0.218973
O    -1.396344    0.082247   -0.556022    0.026055    0.137931   -0.149189
H     0.602998   -0.459655   -1.131883    0.293620    0.273332   -0.178323
O     1.562694   -0.557531   -1.245276    0.257202    0.048192   -0.147568
H     0.796701    2.574179    4.029651    0.186354    0.139856   -0.123728
O     1.401061    2.097678    4.632648    0.186245    0.199531   -0.078286
O     2.595062    1.949205    3.791936    0.032575   -0.202019   -0.182369
H     3.222436    2.442228    4.357159    0.190668   -0.198180   -0.391357
H    -2.102550   -0.587724   -0.607399    0.060861    0.103576   -0.128793
H     1.925627    0.243094   -0.835071    0.451993    0.058742   -0.372099
140
* Frequency(6)  -49.8412
C     0.496403    4.619117   -0.316739   -0.010648   -0.027602    0.010870
C    -4.481832    3.269689    0.528772   -0.015606    0.004974    0.018027
C    -5.042694   -1.724534   -0.636287    0.007967    0.003430   -0.006832
C    -0.712597   -4.702088   -0.728070    0.018747    0.024389   -0.011504
C     4.330109   -3.422693    0.058525    0.015677    0.012398    0.004054
C     4.831784    1.674222   -0.484943    0.012736   -0.004756   -0.026554
O    -0.395599    3.586471    0.044400   -0.019662   -0.017067    0.020865
O    -4.450325    2.300905   -0.467856    0.015751   -0.007493    0.029576
O    -3.640765   -1.813047   -0.804030    0.008048    0.015406   -0.003282
O     0.227278   -3.686059   -0.460269    0.018958    0.023097   -0.007045
O     4.328019   -2.352485   -0.831468    0.036267    0.007140   -0.001684
O     3.422615    1.754157   -0.607932    0.010145   -0.019072   -0.053626
C     0.999791    4.349668   -1.745418   -0.024415   -0.026011    0.004918
C    -4.035546    4.580282   -0.148571   -0.013065   -0.000444    0.011048
C    -5.635670   -0.929910   -1.810468    0.006791    0.009806   -0.002083
C    -1.326538   -4.429811   -2.112086    0.017468    0.030929   -0.009729
C     3.861977   -4.650995   -0.749027    0.012584    0.013445    0.004674
C     5.426669    1.051217   -1.759039    0.043031    0.000472   -0.015063
O    -0.051097    4.276432   -2.668785   -0.030303   -0.023626    0.012241
O    -4.872898    4.928293   -1.211492   -0.000307   -0.009545   -0.002121
O    -5.374585   -1.531813   -3.048094    0.010507    0.017658   -0.005350
O    -0.356067   -4.377321   -3.122164    0.011261    0.031873   -0.015209
O     4.682002   -4.896807   -1.853167    0.020514    0.003107    0.012883
O     5.096811    1.784319   -2.906793    0.020444   -0.015683   -0.019857
C     1.737926    3.005923   -1.727322   -0.024896   -0.026272   -0.004493
C    -2.589299    4.405550   -0.647748   -0.009730   -0.010457    0.027513
C    -5.071380    0.494338   -1.756723    0.003199    0.010701    0.007967
C    -2.047423   -3.077474   -2.042544    0.024904    0.033335    0.004305
C     2.409796   -4.418010   -1.203904    0.019671    0.027828   -0.006646
C     4.947986   -0.399883   -1.880708    0.115367   -0.024299   -0.017784
O     2.328364    2.703480   -2.966194   -0.040259   -0.033023   -0.009907
O    -2.125603    5.599114   -1.235538   -0.002978   -0.018351    0.014988
O    -5.682747    1.315137   -2.721217   -0.002514    0.018116    0.018087
O    -2.734117   -2.775164   -3.232285    0.044918    0.057062   -0.000264
O     1.913381   -5.548197   -1.883929    0.016764    0.039010   -0.023184
O     5.643837   -1.065654   -2.907487    0.218794   -0.015024    0.046757
C     2.861773    3.055004   -0.689342   -0.007804   -0.022079   -0.024788
C    -1.672083    3.983244    0.510185   -0.011346    0.003638    0.034466
C    -5.276598    1.146582   -0.381545    0.008424   -0.001900    0.014657
C    -3.078377   -3.111445   -0.911065    0.014884    0.019883   -0.006979
C     1.500152   -4.096031   -0.005506    0.019436    0.018232   -0.007276
C     5.137834   -1.207829   -0.588366    0.051059   -0.003894    0.005713
C     2.347813    3.515301    0.685716    0.010206   -0.031276   -0.015293
C    -2.290326    2.731148    1.142849   -0.023554    0.030323    0.084870
C    -4.892631    0.203530    0.777721    0.006667   -0.012547    0.005995
C    -2.432340   -3.536991    0.417270    0.009890    0.010575   -0.007932
C     2.146795   -2.908861    0.725401    0.006676    0.009942    0.015477
C     4.731845   -0.416125    0.673286    0.024103    0.005441   -0.009099
O     1.564259    4.697771    0.579942    0.000356   -0.036902   -0.000783
O    -3.605862    2.968155    1.600100   -0.035121    0.033921    0.039916
O    -5.372273   -1.127369    0.575539   -0.001644   -0.006602   -0.003840
O    -1.702116   -4.751650    0.257810    0.015018    0.016428   -0.014074
O     3.454484   -3.219700    1.149326    0.017159    0.025775    0.002325
O     5.193306    0.935143    0.635778    0.000077    0.014010   -0.012900
C     3.511648    3.874078    1.622055    0.023474   -0.018361   -0.035263
C    -1.468702    2.182134    2.303677   -0.028630    0.074723    0.105992
C    -5.528547    0.618119    2.117745    0.016113   -0.015924    0.011386
C    -3.493283   -3.813393    1.491183    0.009261    0.000346   -0.011735
C     1.363560   -2.331735    1.877421   -0.020597   -0.113140    0.067944
C     5.370225   -0.974162    1.958475    0.018457    0.022227    0.001300
O     4.404129    4.775579    1.025846   -0.003178   -0.001183   -0.048808
O    -1.863892    0.958328    2.610407   -0.217465    0.224263    0.414327
O    -6.907470    0.845015    1.997742    0.017732   -0.003926    0.016305
O    -4.418953   -4.780478    1.070820    0.017606   -0.004952   -0.015977
O     2.126140   -1.666183    2.735720   -0.107606    0.179192   -0.083859
O     6.758351   -1.121656    1.829093    0.021212    0.035106    0.017470
H     0.002921    5.595946   -0.262169    0.000782   -0.022205    0.016888
H    -5.476046    3.370919    0.981041   -0.026312   -0.001556   -0.004246
H    -5.489065   -2.725770   -0.593979    0.013487    0.000634   -0.016333
H    -0.237759   -5.690197   -0.712939    0.019108    0.024574   -0.014572
H     5.319775   -3.589890    0.501410    0.012068    0.004302    0.010265
H     5.259045    2.671844   -0.325016   -0.005610    0.003510   -0.031767
H     1.705011    5.148067   -2.026328   -0.026611   -0.025136    0.001261
H    -4.079641    5.401607    0.573334   -0.020293    0.006369    0.002710
H    -6.725388   -0.892956   -1.705386    0.006630    0.005939   -0.003464
H    -2.060158   -5.221515   -2.333959    0.013412    0.035121   -0.010544
H     3.909141   -5.541751   -0.114407   -0.001675    0.014631    0.007226
H     6.519512    1.066009   -1.683565    0.041772    0.048004   -0.007001
H    -0.734781    4.921341   -2.408541   -0.030820   -0.027274    0.021668
H    -5.002930    4.141508   -1.764548    0.003104   -0.015021    0.005132
H    -4.435395   -1.790234   -3.093861    0.012747    0.027016   -0.006915
H     0.424352   -4.890678   -2.839367    0.020013    0.046406   -0.012661
H     4.820186   -4.057519   -2.319734    0.029207    0.000274    0.010173
H     4.134413    1.943265   -2.921556    0.015798   -0.050642   -0.026675
H     1.010435    2.230184   -1.446475   -0.025050   -0.021390    0.011629
H    -2.575114    3.595113   -1.394221   -0.005853   -0.019918    0.037774
H    -3.985428    0.447184   -1.941869    0.002735    0.015030    0.003151
H    -1.289992   -2.307271   -1.834742    0.028061    0.024122    0.027532
H     2.391822   -3.542219   -1.872976    0.029471    0.036406    0.004468
H     3.869357   -0.393186   -2.103764    0.136783   -0.081667   -0.104456
H     1.639546    2.736187   -3.645196   -0.046752   -0.023881   -0.002743
H    -2.862745    5.961212   -1.756575   -0.002184   -0.020144    0.012363
H    -5.742193    0.800376   -3.540487   -0.003621    0.026366    0.013023
H    -2.115399   -2.881298   -3.968918    0.061085    0.056686    0.013466
H     2.621394   -5.861356   -2.471425    0.017794    0.043472   -0.024598
H     5.648172   -0.477082   -3.677624    0.204219   -0.058050    0.014808
H     3.617851    3.766498   -1.045880   -0.020961   -0.013166   -0.034638
H    -1.579944    4.791886    1.246735    0.010176    0.025074    0.007620
H    -6.327473    1.451346   -0.273867    0.010106    0.002052    0.018618
H    -3.857251   -3.835811   -1.181433    0.020835    0.017248   -0.017270
H     1.415784   -4.964166    0.660052    0.012430    0.011789   -0.016593
H     6.190390   -1.513645   -0.499498    0.042391   -0.023129    0.042700
H     1.748285    2.705048    1.125506    0.020677   -0.035520   -0.006944
H    -2.295803    1.949499    0.365230    0.006986   -0.001672    0.112311
H    -3.801208    0.190127    0.881444    0.008526   -0.021676   -0.003492
H    -1.751747   -2.749174    0.759916    0.006605    0.009644    0.002792
H     2.168374   -2.079971   -0.014757   -0.020488    0.039466    0.053662
H     3.639497   -0.423284    0.771020    0.023760   -0.017191   -0.017136
H     4.074956    2.970751    1.859495    0.046048   -0.010112   -0.058242
H     3.084885    4.296731    2.537529    0.035485   -0.026705   -0.025390
H    -5.327342   -0.185679    2.835270    0.011917   -0.022672    0.004894
H    -5.080062    1.541048    2.482486    0.026270   -0.022730    0.015999
H    -4.061237   -2.902717    1.688981    0.003065   -0.003663   -0.011150
H    -2.979683   -4.133254    2.405116    0.012232    0.003633   -0.012362
H     5.123631   -0.276910    2.767320    0.001222    0.022450   -0.004415
H     4.956691   -1.951993    2.198621    0.026327    0.019007    0.001514
H     3.913806    5.585443    0.824614   -0.017053   -0.005895   -0.032753
H    -7.317785    0.017184    1.710635    0.009455    0.001245    0.013500
H    -3.926864   -5.590386    0.875216    0.024489   -0.000381   -0.017877
H     7.125700   -0.251059    1.620464    0.016122    0.036950    0.015809
C     1.320496   -0.897955    3.641050   -0.192996    0.036787   -0.058984
H     2.001764   -0.229512    4.178452   -0.278117    0.083666   -0.006640
H     0.785089   -1.557120    4.334541   -0.130122   -0.053031   -0.091826
O     0.158453   -2.343039    1.976289    0.020970   -0.504492    0.242070
C    -1.018179    0.215419    3.482936   -0.108327    0.224443    0.312980
H    -1.530016   -0.738925    3.653476   -0.194249    0.329011    0.583314
H    -0.846519    0.726908    4.442806    0.185735    0.316568    0.196325
O    -0.574676    2.775021    2.856305    0.182046   -0.025719   -0.145389
C     0.324847   -0.060895    2.854663   -0.320013   -0.060302    0.016934
O     0.608203    0.393853    1.750949   -0.653612   -0.426114   -0.185928
H    -1.039819   -0.001182    0.325644    0.179036    0.054125   -0.218973
O    -1.393704    0.096224   -0.571139    0.026055    0.137931   -0.149189
H     0.632750   -0.431958   -1.149953    0.293620    0.273332   -0.178323
O     1.588756   -0.552648   -1.260228    0.257202    0.048192   -0.147568
H     0.815584    2.588350    4.017114    0.186354    0.139856   -0.123728
O     1.419933    2.117896    4.624715    0.186245    0.199531   -0.078286
O     2.598363    1.928734    3.773456    0.032575   -0.202019   -0.182369
H     3.241756    2.422146    4.317503    0.190668   -0.198180   -0.391357
H    -2.096383   -0.577228   -0.620449    0.060861    0.103576   -0.128793
H     1.971428    0.249046   -0.872775    0.451993    0.058742   -0.372099
140
* Frequency(6)  -49.8412
C     0.495192    4.615980   -0.315504   -0.010648   -0.027602    0.010870
C    -4.483605    3.270254    0.530821   -0.015606    0.004974    0.018027
C    -5.041789   -1.724145   -0.637063    0.007967    0.003430   -0.006832
C    -0.710467   -4.699316   -0.729378    0.018747    0.024389   -0.011504
C     4.331891   -3.421284    0.058986    0.015677    0.012398    0.004054
C     4.833231    1.673682   -0.487961    0.012736   -0.004756   -0.026554
O    -0.397833    3.584532    0.046771   -0.019662   -0.017067    0.020865
O    -4.448535    2.300053   -0.464495    0.015751   -0.007493    0.029576
O    -3.639850   -1.811296   -0.804403    0.008048    0.015406   -0.003282
O     0.229433   -3.683434   -0.461070    0.018958    0.023097   -0.007045
O     4.332140   -2.351673   -0.831660    0.036267    0.007140   -0.001684
O     3.423768    1.751989   -0.614027    0.010145   -0.019072   -0.053626
C     0.997017    4.346711   -1.744859   -0.024415   -0.026011    0.004918
C    -4.037031    4.580232   -0.147315   -0.013065   -0.000444    0.011048
C    -5.634898   -0.928795   -1.810705    0.006791    0.009806   -0.002083
C    -1.324553   -4.426296   -2.113192    0.017468    0.030929   -0.009729
C     3.863407   -4.649468   -0.748495    0.012584    0.013445    0.004674
C     5.431559    1.051271   -1.760751    0.043031    0.000472   -0.015063
O    -0.054541    4.273747   -2.667394   -0.030303   -0.023626    0.012241
O    -4.872933    4.927208   -1.211733   -0.000307   -0.009545   -0.002121
O    -5.373391   -1.529806   -3.048702    0.010507    0.017658   -0.005350
O    -0.354787   -4.373699   -3.123892    0.011261    0.031873   -0.015209
O     4.684333   -4.896454   -1.851703    0.020514    0.003107    0.012883
O     5.099134    1.782536   -2.909050    0.020444   -0.015683   -0.019857
C     1.735096    3.002937   -1.727833   -0.024896   -0.026272   -0.004493
C    -2.590405    4.404361   -0.644621   -0.009730   -0.010457    0.027513
C    -5.071017    0.495554   -1.755817    0.003199    0.010701    0.007967
C    -2.044593   -3.073685   -2.042055    0.024904    0.033335    0.004305
C     2.412032   -4.414847   -1.204659    0.019671    0.027828   -0.006646
C     4.961097   -0.402645   -1.882729    0.115367   -0.024299   -0.017784
O     2.323789    2.699728   -2.967320   -0.040259   -0.033023   -0.009907
O    -2.125941    5.597029   -1.233835   -0.002978   -0.018351    0.014988
O    -5.683033    1.317195   -2.719161   -0.002514    0.018116    0.018087
O    -2.729012   -2.768679   -3.232315    0.044918    0.057062   -0.000264
O     1.915286   -5.543764   -1.886564    0.016764    0.039010   -0.023184
O     5.668702   -1.067361   -2.902173    0.218794   -0.015024    0.046757
C     2.860887    3.052495   -0.692159   -0.007804   -0.022079   -0.024788
C    -1.673372    3.983658    0.514101   -0.011346    0.003638    0.034466
C    -5.275640    1.146366   -0.379880    0.008424   -0.001900    0.014657
C    -3.076686   -3.109185   -0.911858    0.014884    0.019883   -0.006979
C     1.502361   -4.093959   -0.006333    0.019436    0.018232   -0.007276
C     5.143636   -1.208271   -0.587717    0.051059   -0.003894    0.005713
C     2.348973    3.511747    0.683978    0.010206   -0.031276   -0.015293
C    -2.293003    2.734594    1.152494   -0.023554    0.030323    0.084870
C    -4.891873    0.202104    0.778402    0.006667   -0.012547    0.005995
C    -2.431216   -3.535789    0.416369    0.009890    0.010575   -0.007932
C     2.147553   -2.907731    0.727160    0.006676    0.009942    0.015477
C     4.734584   -0.415507    0.672252    0.024103    0.005441   -0.009099
O     1.564300    4.693578    0.579853    0.000356   -0.036902   -0.000783
O    -3.609853    2.972010    1.604636   -0.035121    0.033921    0.039916
O    -5.372460   -1.128119    0.575103   -0.001644   -0.006602   -0.003840
O    -1.700410   -4.749783    0.256210    0.015018    0.016428   -0.014074
O     3.456434   -3.216771    1.149590    0.017159    0.025775    0.002325
O     5.193315    0.936736    0.634312    0.000077    0.014010   -0.012900
C     3.514316    3.871991    1.618048    0.023474   -0.018361   -0.035263
C    -1.471956    2.190626    2.315722   -0.028630    0.074723    0.105992
C    -5.526716    0.616310    2.119039    0.016113   -0.015924    0.011386
C    -3.492230   -3.813353    1.489850    0.009261    0.000346   -0.011735
C     1.361219   -2.344593    1.885143   -0.020597   -0.113140    0.067944
C     5.372322   -0.971636    1.958623    0.018457    0.022227    0.001300
O     4.403768    4.775445    1.020299   -0.003178   -0.001183   -0.048808
O    -1.888606    0.983814    2.657493   -0.217465    0.224263    0.414327
O    -6.905455    0.844569    1.999595    0.017732   -0.003926    0.016305
O    -4.416952   -4.781041    1.069005    0.017606   -0.004952   -0.015977
O     2.113911   -1.645819    2.726190   -0.107606    0.179192   -0.083859
O     6.760761   -1.117667    1.831078    0.021212    0.035106    0.017470
H     0.003010    5.593423   -0.260250    0.000782   -0.022205    0.016888
H    -5.479036    3.370742    0.980559   -0.026312   -0.001556   -0.004246
H    -5.487532   -2.725698   -0.595835    0.013487    0.000634   -0.016333
H    -0.235587   -5.687404   -0.714595    0.019108    0.024574   -0.014572
H     5.321146   -3.589401    0.502576    0.012068    0.004302    0.010265
H     5.258408    2.672243   -0.328626   -0.005610    0.003510   -0.031767
H     1.701987    5.145210   -2.026185   -0.026611   -0.025136    0.001261
H    -4.081947    5.402331    0.573642   -0.020293    0.006369    0.002710
H    -6.724635   -0.892281   -1.705780    0.006630    0.005939   -0.003464
H    -2.058633   -5.217524   -2.335157    0.013412    0.035121   -0.010544
H     3.908951   -5.540088   -0.113586   -0.001675    0.014631    0.007226
H     6.524259    1.071464   -1.684361    0.041772    0.048004   -0.007001
H    -0.738284    4.918241   -2.406079   -0.030820   -0.027274    0.021668
H    -5.002577    4.139801   -1.763964    0.003104   -0.015021    0.005132
H    -4.433947   -1.787163   -3.094647    0.012747    0.027016   -0.006915
H     0.426626   -4.885404   -2.840806    0.020013    0.046406   -0.012661
H     4.823505   -4.057488   -2.318578    0.029207    0.000274    0.010173
H     4.136208    1.937510   -2.924588    0.015798   -0.050642   -0.026675
H     1.007588    2.227753   -1.445154   -0.025050   -0.021390    0.011629
H    -2.575779    3.592849   -1.389928   -0.005853   -0.019918    0.037774
H    -3.985117    0.448892   -1.941511    0.002735    0.015030    0.003151
H    -1.286803   -2.304530   -1.831613    0.028061    0.024122    0.027532
H     2.395171   -3.538082   -1.872468    0.029471    0.036406    0.004468
H     3.884902   -0.402467   -2.115635    0.136783   -0.081667   -0.104456
H     1.634233    2.733473   -3.645508   -0.046752   -0.023881   -0.002743
H    -2.862993    5.958923   -1.755170   -0.002184   -0.020144    0.012363
H    -5.742604    0.803372   -3.539007   -0.003621    0.026366    0.013023
H    -2.108457   -2.874856   -3.967388    0.061085    0.056686    0.013466
H     2.623416   -5.856416   -2.474221    0.017794    0.043472   -0.024598
H     5.671380   -0.483679   -3.675941    0.204219   -0.058050    0.014808
H     3.615469    3.765002   -1.049816   -0.020961   -0.013166   -0.034638
H    -1.578787    4.794736    1.247601    0.010176    0.025074    0.007620
H    -6.326325    1.451579   -0.271751    0.010106    0.002052    0.018618
H    -3.854884   -3.833851   -1.183396    0.020835    0.017248   -0.017270
H     1.417196   -4.962826    0.658166    0.012430    0.011789   -0.016593
H     6.195208   -1.516274   -0.494645    0.042391   -0.023129    0.042700
H     1.750635    2.701011    1.124717    0.020677   -0.035520   -0.006944
H    -2.295009    1.949309    0.377993    0.006986   -0.001672    0.112311
H    -3.800239    0.187664    0.881047    0.008526   -0.021676   -0.003492
H    -1.750996   -2.748078    0.760234    0.006605    0.009644    0.002792
H     2.166046   -2.075486   -0.008658   -0.020488    0.039466    0.053662
H     3.642198   -0.425238    0.769073    0.023760   -0.017191   -0.017136
H     4.080189    2.969602    1.852876    0.046048   -0.010112   -0.058242
H     3.088918    4.293696    2.534644    0.035485   -0.026705   -0.025390
H    -5.325988   -0.188255    2.835826    0.011917   -0.022672    0.004894
H    -5.077076    1.538464    2.484305    0.026270   -0.022730    0.015999
H    -4.060889   -2.903133    1.687714    0.003065   -0.003663   -0.011150
H    -2.978293   -4.132841    2.403711    0.012232    0.003633   -0.012362
H     5.123770   -0.274359    2.766819    0.001222    0.022450   -0.004415
H     4.959683   -1.949833    2.198793    0.026327    0.019007    0.001514
H     3.911868    5.584773    0.820892   -0.017053   -0.005895   -0.032753
H    -7.316711    0.017326    1.712169    0.009455    0.001245    0.013500
H    -3.924081   -5.590430    0.873184    0.024489   -0.000381   -0.017877
H     7.127532   -0.246860    1.622261    0.016122    0.036950    0.015809
C     1.298563   -0.893774    3.634347   -0.192996    0.036787   -0.058984
H     1.970158   -0.220003    4.177698   -0.278117    0.083666   -0.006640
H     0.770301   -1.563147    4.324106   -0.130122   -0.053031   -0.091826
O     0.160836   -2.400372    2.003799    0.020970   -0.504492    0.242070
C    -1.030490    0.240926    3.518504   -0.108327    0.224443    0.312980
H    -1.552092   -0.701535    3.719767   -0.194249    0.329011    0.583314
H    -0.825411    0.762884    4.465117    0.185735    0.316568    0.196325
O    -0.553987    2.772098    2.839782    0.182046   -0.025719   -0.145389
C     0.288480   -0.067748    2.856588   -0.320013   -0.060302    0.016934
O     0.533924    0.345427    1.729819   -0.653612   -0.426114   -0.185928
H    -1.019473    0.004969    0.300759    0.179036    0.054125   -0.218973
O    -1.390743    0.111899   -0.588094    0.026055    0.137931   -0.149189
H     0.666119   -0.400895   -1.170218    0.293620    0.273332   -0.178323
O     1.617986   -0.547171   -1.276999    0.257202    0.048192   -0.147568
H     0.836762    2.604244    4.003053    0.186354    0.139856   -0.123728
O     1.441099    2.140572    4.615818    0.186245    0.199531   -0.078286
O     2.602065    1.905776    3.752731    0.032575   -0.202019   -0.182369
H     3.263424    2.399624    4.273027    0.190668   -0.198180   -0.391357
H    -2.089467   -0.565458   -0.635086    0.060861    0.103576   -0.128793
H     2.022794    0.255722   -0.915063    0.451993    0.058742   -0.372099
