140
Coordinates from ORCA-job job
  C           0.49519249627186      4.61597982245781     -0.31550395952797
  C          -4.48360531846107      3.27025405322337      0.53082102241352
  C          -5.04178870892442     -1.72414455460861     -0.63706304057591
  C          -0.71046677132131     -4.69931593608211     -0.72937757735423
  C           4.33189074199553     -3.42128393833492      0.05898574707259
  C           4.83323111054762      1.67368201624082     -0.48796080178828
  O          -0.39783323359240      3.58453191261082      0.04677147487549
  O          -4.44853494268796      2.30005338438745     -0.46449533020843
  O          -3.63985031255143     -1.81129648705274     -0.80440318898788
  O           0.22943298977509     -3.68343393034124     -0.46106981828945
  O           4.33214025580864     -2.35167313309932     -0.83165985867126
  O           3.42376814864881      1.75198910673654     -0.61402659273424
  C           0.99701662368866      4.34671147002387     -1.74485874142384
  C          -4.03703053949143      4.58023170745497     -0.14731544025346
  C          -5.63489814670333     -0.92879510450333     -1.81070488752043
  C          -1.32455285927725     -4.42629586948271     -2.11319198896059
  C           3.86340669086050     -4.64946753908666     -0.74849534155056
  C           5.43155926526408      1.05127067240585     -1.76075054045757
  O          -0.05454115790206      4.27374713475669     -2.66739431740247
  O          -4.87293326015146      4.92720812910058     -1.21173295262976
  O          -5.37339060952312     -1.52980599725742     -3.04870240392010
  O          -0.35478737755633     -4.37369869654626     -3.12389206811583
  O           4.68433326937843     -4.89645362101682     -1.85170337827671
  O           5.09913424847018      1.78253619943806     -2.90904954944288
  C           1.73509627037264      3.00293709030308     -1.72783288437801
  C          -2.59040488154224      4.40436135499401     -0.64462119540047
  C          -5.07101651349854      0.49555447547076     -1.75581711983214
  C          -2.04459323534277     -3.07368537815493     -2.04205491099341
  C           2.41203176019271     -4.41484743423881     -1.20465936773646
  C           4.96109696933212     -0.40264464435927     -1.88272876579009
  O           2.32378921325637      2.69972753249380     -2.96731955054318
  O          -2.12594105854575      5.59702898118102     -1.23383489582963
  O          -5.68303253167582      1.31719524088420     -2.71916116297548
  O          -2.72901226370414     -2.76867949168358     -3.23231461577578
  O           1.91528603466317     -5.54376417232415     -1.88656411740531
  O           5.66870182520947     -1.06736107452411     -2.90217306229568
  C           2.86088656330979      3.05249502683645     -0.69215923734561
  C          -1.67337236246162      3.98365778025391      0.51410149448931
  C          -5.27564025439112      1.14636597977800     -0.37987951891411
  C          -3.07668558137812     -3.10918500755712     -0.91185810968479
  C           1.50236108965611     -4.09395910320155     -0.00633277909594
  C           5.14363647266200     -1.20827110526935     -0.58771701831958
  C           2.34897274486940      3.51174689639377      0.68397827381795
  C          -2.29300292319579      2.73459404017724      1.15249370881005
  C          -4.89187318303373      0.20210370745693      0.77840212435318
  C          -2.43121618106161     -3.53578894925453      0.41636897283011
  C           2.14755333948845     -2.90773077297287      0.72716004197229
  C           4.73458386808980     -0.41550707804238      0.67225243480787
  O           1.56429960997480      4.69357778435480      0.57985289041381
  O          -3.60985335388335      2.97200956977735      1.60463628931391
  O          -5.37246009495391     -1.12811903600766      0.57510296233383
  O          -1.70040955053579     -4.74978273164278      0.25621038822458
  O           3.45643402051167     -3.21677092277006      1.14959032120096
  O           5.19331475997371      0.93673561597899      0.63431178360144
  C           3.51431565739288      3.87199148287458      1.61804778056530
  C          -1.47195565873876      2.19062597761417      2.31572248276754
  C          -5.52671567826611      0.61630957070983      2.11903918516566
  C          -3.49223025789971     -3.81335330438718      1.48984992553907
  C           1.36121916820359     -2.34459301588110      1.88514291596567
  C           5.37232236097557     -0.97163586922394      1.95862291670313
  O           4.40376786277653      4.77544497056843      1.02029940623418
  O          -1.88860577313086      0.98381402294038      2.65749272447218
  O          -6.90545471900226      0.84456879937200      1.99959456544287
  O          -4.41695231947136     -4.78104125992868      1.06900461951146
  O           2.11391072397539     -1.64581913577273      2.72618995793418
  O           6.76076147422261     -1.11766666289396      1.83107804593279
  H           0.00300963133915      5.59342295240499     -0.26024957785931
  H          -5.47903583367463      3.37074184546755      0.98055857754045
  H          -5.48753220571783     -2.72569776980068     -0.59583464513912
  H          -0.23558693211840     -5.68740421254768     -0.71459464621646
  H           5.32114642038413     -3.58940109534133      0.50257634669722
  H           5.25840773837924      2.67224320541473     -0.32862631953971
  H           1.70198707141373      5.14521038504874     -2.02618509622889
  H          -4.08194734509994      5.40233074453488      0.57364242059636
  H          -6.72463466261983     -0.89228135873228     -1.70577984516607
  H          -2.05863334207180     -5.21752415188693     -2.33515724059193
  H           3.90895089653108     -5.54008778238166     -0.11358574918232
  H           6.52425939534305      1.07146407799828     -1.68436064317925
  H          -0.73828404654825      4.91824109896214     -2.40607850264614
  H          -5.00257685315894      4.13980123086380     -1.76396434678771
  H          -4.43394685019888     -1.78716338671798     -3.09464678942976
  H           0.42662624511467     -4.88540442400390     -2.84080552241215
  H           4.82350516352023     -4.05748766913918     -2.31857810449832
  H           4.13620827869193      1.93751023270425     -2.92458770366765
  H           1.00758834259736      2.22775324343245     -1.44515371511016
  H          -2.57577895212415      3.59284904385426     -1.38992782464812
  H          -3.98511714947157      0.44889182996188     -1.94151091851467
  H          -1.28680313471456     -2.30452991264460     -1.83161322133549
  H           2.39517121009176     -3.53808195266734     -1.87246787978660
  H           3.88490164221868     -0.40246673220178     -2.11563521262145
  H           1.63423259739708      2.73347297207317     -3.64550763959092
  H          -2.86299327561572      5.95892305432446     -1.75516967230253
  H          -5.74260445410318      0.80337208475671     -3.53900714526515
  H          -2.10845671019232     -2.87485577393637     -3.96738768365737
  H           2.62341596392363     -5.85641613263880     -2.47422085311380
  H           5.67138014802279     -0.48367902171794     -3.67594079222319
  H           3.61546864021633      3.76500199465616     -1.04981615282548
  H          -1.57878720001106      4.79473575868702      1.24760144838889
  H          -6.32632486461263      1.45157935365833     -0.27175109426340
  H          -3.85488367839246     -3.83385128147596     -1.18339581600166
  H           1.41719623477696     -4.96282621957738      0.65816649972757
  H           6.19520753500104     -1.51627366696404     -0.49464530668737
  H           1.75063535451503      2.70101148033163      1.12471697848781
  H          -2.29500933846325      1.94930907448251      0.37799336851619
  H          -3.80023913505788      0.18766350578205      0.88104722469580
  H          -1.75099635676863     -2.74807785638235      0.76023374776254
  H           2.16604572849369     -2.07548568884933     -0.00865819996692
  H           3.64219773315047     -0.42523774614828      0.76907294069833
  H           4.08018947781469      2.96960164885426      1.85287561279785
  H           3.08891752481664      4.29369649080766      2.53464360690803
  H          -5.32598817392136     -0.18825505822593      2.83582634707754
  H          -5.07707628352303      1.53846444114486      2.48430468305878
  H          -4.06088886919686     -2.90313276468575      1.68771370173486
  H          -2.97829273650112     -4.13284070861324      2.40371070432208
  H           5.12377021696948     -0.27435908993922      2.76681857021805
  H           4.95968341044943     -1.94983300317837      2.19879301892697
  H           3.91186837574909      5.58477300471594      0.82089197613457
  H          -7.31671053522496      0.01732575020407      1.71216927048961
  H          -3.92408116464208     -5.59042961267884      0.87318418016665
  H           7.12753243379271     -0.24685950955679      1.62226095296438
  C           1.29856281231072     -0.89377426249393      3.63434657158905
  H           1.97015791430413     -0.22000346054332      4.17769779256162
  H           0.77030077418295     -1.56314662717930      4.32410573424519
  O           0.16083582756497     -2.40037188617682      2.00379924690139
  C          -1.03048973570454      0.24092564373428      3.51850411926019
  H          -1.55209180167216     -0.70153458937365      3.71976701320232
  H          -0.82541077407677      0.76288417023141      4.46511741068184
  O          -0.55398692849836      2.77209777158450      2.83978236667991
  C           0.28847965574459     -0.06774809607836      2.85658755701082
  O           0.53392352595485      0.34542685796733      1.72981947832476
  H          -1.01947271019415      0.00496884064434      0.30075877525203
  O          -1.39074270151464      0.11189902928752     -0.58809396832568
  H           0.66611860484082     -0.40089532175896     -1.17021805652877
  O           1.61798560143407     -0.54717132340472     -1.27699878241267
  H           0.83676224615896      2.60424432393784      4.00305287362002
  O           1.44109913887048      2.14057214521725      4.61581810588487
  O           2.60206513803118      1.90577603176239      3.75273095864183
  H           3.26342446861391      2.39962394020056      4.27302749527693
  H          -2.08946685715983     -0.56545766555637     -0.63508585230763
  H           2.02279445787872      0.25572200375748     -0.91506252336703
