22
Coordinates from ORCA-job job.QMRegion
  O          -1.88860577313086      0.98381402294038      2.65749272447218
  O           2.11391072397539     -1.64581913577273      2.72618995793418
  C           1.29856281231072     -0.89377426249393      3.63434657158905
  H           1.97015791430413     -0.22000346054332      4.17769779256162
  H           0.77030077418295     -1.56314662717930      4.32410573424519
  C          -1.03048973570454      0.24092564373428      3.51850411926019
  H          -1.55209180167216     -0.70153458937365      3.71976701320232
  H          -0.82541077407677      0.76288417023141      4.46511741068184
  C           0.28847965574459     -0.06774809607836      2.85658755701082
  O           0.53392352595485      0.34542685796733      1.72981947832476
  H          -1.01947271019415      0.00496884064434      0.30075877525203
  O          -1.39074270151464      0.11189902928752     -0.58809396832568
  H           0.66611860484082     -0.40089532175896     -1.17021805652877
  O           1.61798560143407     -0.54717132340472     -1.27699878241267
  H           0.83676224615896      2.60424432393784      4.00305287362002
  O           1.44109913887048      2.14057214521725      4.61581810588487
  O           2.60206513803118      1.90577603176239      3.75273095864183
  H           3.26342446861391      2.39962394020056      4.27302749527693
  H          -2.08946685715983     -0.56545766555637     -0.63508585230763
  H           2.02279445787872      0.25572200375748     -0.91506252336703
  H          -1.59108487728164      1.84557251399457      2.41344193707488
  H           1.57794471876752     -2.14339220164998      2.12730902215226
