31
Coordinates from ORCA-job job
  C          -2.20094728706009     -0.43886625123442     -0.10347668634144
  H          -1.10705483307172     -2.05064060430278     -0.12626441871323
  H          -1.42657406526149      0.40779149824854     -0.06458724785765
  O          -0.42632109830984      1.52997467706570      0.36620146303063
  O          -1.68205822791768     -1.59322962782946      0.50179080952798
  H          -2.40482333120748     -0.57067735451291     -1.17745055802158
  H          -6.53112564712390      1.49650648631592      2.38621129268490
  C          -0.15623850611720      1.45834664975104      1.74874985392668
  O           0.59995153366542      2.52946723049444      1.26577804964962
  H          -5.77501481651914      2.48246023338021      0.25517253402266
  H          -3.77840234081196      1.58703342669476     -0.87704221987253
  C          -3.41636402406993      0.08660106478722      0.60598364336813
  C          -3.84120259949997     -0.46123020436126      1.80908927846939
  C          -4.96225469672480      0.04251478388954      2.44347918382677
  C          -5.65972824394270      1.10101768539115      1.88779785173831
  C          -5.23500111317093      1.65550426611942      0.69015708606255
  C          -4.11860109753395      1.15247393414390      0.05118921296121
  H          -3.29079174596894     -1.28597657393748      2.23335477578915
  H          -5.28859869574691     -0.39151187019968      3.37572361123668
  H           0.44361071756292      0.57899475378837      2.02490480809344
  H          -0.79369973930430      0.12919916672342      3.99866570569830
  C          -1.28755386311061      1.74388412981338      2.68449945389472
  C          -2.15485306801847      2.79743524616966      2.42687436031886
  C          -3.20037461097715      3.05567988992748      3.29321260866458
  C          -3.38006048458038      2.26545004863010      4.41639399027102
  C          -2.51550226350622      1.21436036368029      4.67310356701572
  C          -1.46881335122920      0.94973420731730      3.80812269967359
  H          -1.99660372915299      3.40269096453127      1.54643249981158
  H          -3.87403545958199      3.87316314433518      3.08965647833086
  H          -4.19644011576246      2.46898624875178      5.09166311345828
  H          -2.65678977095197      0.59796923963327      5.54703969909805
