137
Coordinates from ORCA-job job_IRC_F E -261.682791475040
  C          -0.23509560725466      3.76473551972928      6.87744403577755
  C           1.41265309072762      0.14868635800436     10.32539968180226
  C          -0.14302681674752     -4.69409935845985      9.24688527705265
  C          -1.61178928154170     -5.58195764231994      4.27096989708428
  C          -1.47441781823180     -2.04380878287517      0.38417828258302
  C          -1.86589302925301      2.96088191611337      1.94395621307990
  O           0.07948098534410      2.40621013733490      7.11840530285208
  O           0.35262968370145     -0.72311538981725     10.08231958016706
  O          -0.71936572972501     -4.23498538481781      8.04988155249714
  O          -1.43495629626059     -4.27177173827244      3.80211999609553
  O          -2.02589730924546     -1.06052627496933      1.20415744733952
  O          -1.84401715807958      2.59152260748474      3.29608378032657
  C          -1.75962852484422      3.93543696279120      6.74759352732592
  C           0.80986965807598      1.50905544673005     10.71988280156211
  C          -0.99511664477779     -4.16140698389608     10.41155951127517
  C          -2.78520258461967     -5.58111949607997      5.26614361080150
  C          -2.47578255146646     -3.21522367836294      0.35719419390433
  C          -3.20078144420827      2.45634427914679      1.36517773063525
  O          -2.46359513039538      3.47299268190156      7.86914514876491
  O          -0.00581636185720      1.42048783037862     11.85266150639753
  O          -2.31810950644118     -4.61795689079843     10.34817930440783
  O          -3.96856406702860     -5.07580893483851      4.70555048194002
  O          -3.71645164706602     -2.83324986781339     -0.16604621230983
  O          -4.29808333925048      3.00859074469597      2.04108108731235
  C          -2.23365998662044      3.14228842772896      5.52763354750920
  C           0.01747094071680      2.08441888056882      9.53269154114839
  C          -0.93593840426290     -2.62826554143189     10.37856337332279
  C          -2.39190652238365     -4.70989230763452      6.46506212467254
  C          -2.62758964321248     -3.74252629927871      1.79162224299384
  C          -3.21070155658832      0.92428189940958      1.45612595581187
  O          -3.60028498605375      3.34597200247632      5.26426504508012
  O          -0.44622027821195      3.38004756237787      9.84673283793405
  O          -1.57243290660729     -2.06393875991974     11.49670570229169
  O          -3.35131732206143     -4.75692665624849      7.49157182436654
  O          -3.45428203874364     -4.88463289881059      1.84024923293010
  O          -4.33069370122599      0.36848035516466      0.81127343929750
  C          -1.45821242935042      3.54865147296839      4.27113487624943
  C           0.87823105774282      2.13290779200760      8.25583032156128
  C           0.50874912181210     -2.11033492657553     10.35607376185481
  C          -1.05834792829176     -5.18156394002127      7.05311227930301
  C          -1.26305840833021     -4.09349824227376      2.40704124297803
  C          -1.95796750573860      0.30852494767242      0.82078791194688
  C           0.05970008069569      3.54177137472648      4.52116237716668
  C           1.49110334354295      0.73975364947145      8.05351840882171
  C           1.36780199891045     -2.84961052199691      9.30923837844420
  C           0.01719020451709     -5.27750565475855      5.95820838567059
  C          -0.28750107333438     -2.92764336619918      2.20651646854988
  C          -0.67756865419931      0.99809484646503      1.32168546698827
  O           0.39833737106822      4.23279497110637      5.72747707525116
  O           2.23190681186367      0.32573838382216      9.18767389453217
  O           1.17941736910091     -4.26320258860501      9.38120663407643
  O          -0.45564778363560     -6.08131419937975      4.88068198010308
  O          -0.22453905121415     -2.50080065595680      0.86082418573296
  O          -0.78969071770738      2.41887449306427      1.23060133919250
  C           0.82358995767159      4.26234477856616      3.39948480998128
  C           2.45767038520175      0.63126466750099      6.87640909483625
  C           2.87875485948992     -2.66471374775972      9.53402927791557
  C           1.29620548803591     -5.95308619764034      6.46514640195908
  C           1.13430651985670     -3.24949485942987      2.67602473223696
  C           0.55373121261313      0.62486298847891      0.48459276611001
  O           0.33396521436668      5.56036372514175      3.16326825785317
  O           2.68373260922259     -0.63454911081678      6.61371925704920
  O           3.26346666835807     -2.97541071020626     10.84601950744170
  O           1.05775320051406     -7.24929875119794      6.94661994284865
  O           1.98692161248574     -2.31966196143895      2.25458659732565
  O           0.35856859918942      0.86298679059687     -0.88551279448425
  H           0.14182018578543      4.39364149532571      7.69300918313586
  H           2.08039894164611     -0.23039559923087     11.10914208391330
  H          -0.09468424882002     -5.79016420695157      9.26963395248888
  H          -1.81832422021649     -6.27069954017477      3.44145481379720
  H          -1.27515993214339     -1.66954188092595     -0.62756098538886
  H          -1.77975906268001      4.04870592166717      1.82489289288261
  H          -1.96727954729375      5.00524483972424      6.58230097306001
  H           1.62608828707361      2.19368002195785     10.97485517347843
  H          -0.58530290318503     -4.52438116635552     11.35978498689921
  H          -2.94728134177488     -6.61459227642127      5.61126605665075
  H          -2.08856736964659     -4.00830888307071     -0.29031470822641
  H          -3.29085072944051      2.76317679098956      0.31854663245503
  H          -1.94056929373655      3.65559446510178      8.67240441233840
  H          -0.58644541975561      0.64645400351824     11.76978700300816
  H          -2.64634651859298     -4.55922657037604      9.43134647719435
  H          -3.93053717769152     -5.13628883197218      3.73311326798494
  H          -3.97614763500999     -1.97218669538093      0.20665128452260
  H          -4.13012406453579      2.98593295162700      2.99970777812196
  H          -2.03616738351394      2.07615453657334      5.71717715643280
  H          -0.83882781377371      1.42282206077253      9.32949011785454
  H          -1.42274114409743     -2.28828089775742      9.45023296035218
  H          -2.26017307178895     -3.67743681807648      6.10832097194111
  H          -3.06636521744853     -2.94239424262231      2.40774776519074
  H          -3.20909146754188      0.64298544246126      2.52136169641806
  H          -4.08939957143576      3.22142866219863      6.09219499539895
  H          -0.66592565978011      3.39195897690401     10.79477673881769
  H          -2.41281041723873     -2.53007976924073     11.63463059370416
  H          -4.22574651787664     -4.60375756273312      7.09917386025014
  H          -4.17204524006636     -4.75787253380653      1.19525635192334
  H          -5.11088139812420      0.89414347718070      1.05061354099097
  H          -1.78192325996883      4.55126684935400      3.95927335872244
  H           1.66963755738350      2.88615156396754      8.36129994830206
  H           0.95835558264591     -2.24090902618194     11.35023934232860
  H          -1.19774297429113     -6.17270948766846      7.50553907099147
  H          -0.85861218054140     -5.00367674016305      1.94741042752577
  H          -2.02090746010220      0.39338999754095     -0.27205120840852
  H           0.38186174520930      2.49721861184417      4.59293580317817
  H           0.67079966456706      0.03260705523441      7.86444353335427
  H           1.09530502170360     -2.49568741362861      8.30503597360867
  H           0.25760433483399     -4.26946515217657      5.59365283101478
  H          -0.63385180972881     -2.10015633802097      2.84449408824281
  H          -0.51198823961664      0.71318900447575      2.36783461922241
  H           0.70238008627168      3.70672306834469      2.46917998106638
  H           1.87882844106939      4.29900045691086      3.67841886279164
  H           3.39466583530023     -3.30586019558861      8.81016329587396
  H           3.16161474033970     -1.62822772014183      9.35635404434469
  H           1.70252136637417     -5.37717181181026      7.29830854645100
  H           2.01592567009836     -5.96139255538842      5.63911185283743
  H           1.40179425870081      1.20397421131305      0.86303673390196
  H           0.76891973282952     -0.43863268892084      0.59989731812661
  H           0.52208888622320      6.10023940710198      3.94421407282559
  H           3.11659826154163     -3.92098474600130     10.99484676080173
  H           0.73651012900018     -7.79001637877928      6.20972231714799
  H           0.25021906715073      1.81756213479436     -1.01330142708116
  C           3.09997705304989     -2.08179182140740      3.10599490038646
  H           3.78788597813387     -1.45980134452827      2.54308381935510
  H           3.54630337627964     -3.02252217108894      3.43345930365163
  O           1.45529826616325     -4.27286396084960      3.23791063563153
  C           3.45574484522112     -1.02360254673016      5.47141843876435
  H           3.98916226250080     -1.92508162687334      5.76156625884016
  H           4.13891400028011     -0.22402516260198      5.18560626013679
  O           2.96599327657967      1.56926499014616      6.31005433862873
  C           2.44635673396101     -1.35468694924798      4.32338114034234
  O           1.33425502720171     -1.90597423204941      4.70981547643686
  H           3.49884264981038      2.34124318300913      4.83803724342754
  H           0.57852158123958     -0.49695355805918      4.59995148172191
  H           4.36428166885346      2.36521501944264      3.45495665137660
  O           3.46775213205704      2.32176896038066      3.84666883108007
  H           3.01618938447408      1.45638207550325      3.63779149976517
  O           2.11417531408643      0.02342637204186      3.72131553697838
  O           0.85490288291741      0.40638121131178      4.21799348173527
