137
Coordinates from ORCA-job job_IRC_B E -261.672272037190
  C          -0.23668396917689      3.76741204836923      6.87960253232248
  C           1.40644020301043      0.14816428792234     10.33090799035983
  C          -0.14301312038576     -4.69500214970170      9.24601494507186
  C          -1.61068437583138     -5.58017477423663      4.26580743670262
  C          -1.48276608500239     -2.04403942051520      0.37105750277718
  C          -1.86712513609405      2.96358938688151      1.94163681527389
  O           0.08319072638380      2.41015352323407      7.11502158864260
  O           0.34884737649756     -0.72408600095562     10.08574679954005
  O          -0.71357702234983     -4.23569922161461      8.04638395148603
  O          -1.41847827270416     -4.27297636461067      3.79024138582418
  O          -2.01921036210931     -1.06015901248020      1.20270966796094
  O          -1.83798549491613      2.59769786119371      3.29557877802520
  C          -1.76203924533470      3.93376666575729      6.74958740677214
  C           0.80604325953202      1.51019103725029     10.72126078573558
  C          -0.99606827539881     -4.16359534978424     10.41044188406816
  C          -2.78437698368081     -5.57458951020314      5.26114443534161
  C          -2.48755625844791     -3.21328330026902      0.35204138461454
  C          -3.20351042927503      2.45485295720750      1.36833510244765
  O          -2.46426912759574      3.46600513672318      7.86912977673276
  O          -0.01078248378139      1.42490174260962     11.85318950999513
  O          -2.31892990578966     -4.62081774456114     10.34593416724454
  O          -3.96554024773796     -5.06251744884765      4.70221560251127
  O          -3.73031536868886     -2.82984362745621     -0.16511457982687
  O          -4.30073519630742      3.00551810554707      2.04562841307363
  C          -2.23469590803984      3.14413356630117      5.52680738964004
  C           0.01554696024854      2.08633412355464      9.53223401022392
  C          -0.93721875157219     -2.63032823556823     10.38078883925821
  C          -2.39193273878311     -4.70802945636426      6.46402386642761
  C          -2.63463876931073     -3.74273656199699      1.78716726243569
  C          -3.21263181318676      0.92257218604823      1.45872967767903
  O          -3.60209531710685      3.34259131590854      5.26637631271860
  O          -0.44841150749531      3.38181274420061      9.84734761857321
  O          -1.57359045633613     -2.06784495620249     11.50032158953202
  O          -3.35231088019943     -4.75756043384768      7.48994151987767
  O          -3.46400225242735     -4.88305532220461      1.83740266167247
  O          -4.33500977222164      0.36639314978801      0.81820518383453
  C          -1.46146756019173      3.55790081728969      4.27105045213206
  C           0.87881861850604      2.13305705178955      8.25622848905289
  C           0.50739690837625     -2.11195272485634     10.36024270274521
  C          -1.06022052861972     -5.18404644046855      7.05305605471285
  C          -1.26790885190791     -4.10284392717617      2.39034716510181
  C          -1.96223945393570      0.30838924312398      0.81791437849660
  C           0.05588169446186      3.56317386579623      4.52465280077598
  C           1.48839143754196      0.73760615814843      8.05766449418614
  C           1.36710825297109     -2.84957394483370      9.31290424603197
  C           0.01442729816297     -5.28266198681203      5.95756125839812
  C          -0.28417305970570     -2.94548890186046      2.17388424533855
  C          -0.68249203912801      1.00161477977642      1.31481778801674
  O           0.39042352460217      4.25367274369693      5.73093685633152
  O           2.22612590961866      0.32156456922227      9.19327485183579
  O           1.17905081385391     -4.26367021787359      9.38015156945308
  O          -0.45645282035851     -6.08211592604292      4.87676473714694
  O          -0.23127565853767     -2.50876307131115      0.83223026190984
  O          -0.79554862838324      2.42312344770365      1.22127096030552
  C           0.81824392588488      4.27312762860244      3.39801563815247
  C           2.48045128810984      0.63143777317120      6.90293305066990
  C           2.87853549419177     -2.66554870555023      9.53667572601153
  C           1.29510522514833     -5.95651129187118      6.46420404267423
  C           1.13153147731428     -3.28432899982006      2.63578924078853
  C           0.54867412226301      0.62367104025307      0.48051942752383
  O           0.34194963061602      5.57605476188505      3.16645940557995
  O           2.69591851793180     -0.63830252436642      6.63235648394195
  O           3.26381589509205     -2.97400282583089     10.84974465316761
  O           1.05678586611460     -7.25165350365512      6.94952013544430
  O           1.97452107947930     -2.31060574266042      2.32702549416661
  O           0.35795277062144      0.87058240869180     -0.88949949551845
  H           0.13868818208560      4.39409062973618      7.69756518994495
  H           2.07460054317927     -0.22888416302140     11.11523137260408
  H          -0.09521004645181     -5.79095602589853      9.26967367259520
  H          -1.82191855200204     -6.27012448688616      3.43905847744842
  H          -1.29385332031741     -1.66694629420625     -0.64112882106924
  H          -1.78413724417992      4.05146554654555      1.82124085397023
  H          -1.96917133648759      5.00410827749800      6.58700037640469
  H           1.62372986981890      2.19379315097031     10.97445655214220
  H          -0.58660252731101     -4.52754198755945     11.35846940865222
  H          -2.94936012349901     -6.60874275549132      5.60375780652291
  H          -2.10481534952052     -4.00684461416302     -0.29783860892965
  H          -3.29437692228276      2.76231399621208      0.32177386818866
  H          -1.94545177751295      3.65477592353637      8.67378016667548
  H          -0.59172203213374      0.65071131378044     11.77051885321252
  H          -2.64799013330850     -4.55788680504629      9.42953119620626
  H          -3.93714551532544     -5.13997568949858      3.73076825121177
  H          -3.98538776758113     -1.96728371514708      0.20654955126569
  H          -4.12969109387585      2.98778728046978      3.00379431149602
  H          -2.03231186046312      2.07834216978366      5.71174321479381
  H          -0.84177347397546      1.42657833904195      9.32808545163802
  H          -1.42448643899661     -2.28743153030047      9.45398102129382
  H          -2.26134526527752     -3.67418027979493      6.11129567941142
  H          -3.06804797935843     -2.94222092822529      2.40620345912135
  H          -3.20773952555470      0.64291594634174      2.52415763001902
  H          -4.08882541257867      3.21748887828673      6.09608183831542
  H          -0.66604747906642      3.39236688450036     10.79610367851553
  H          -2.41528209946528     -2.53179205607187     11.63571069282890
  H          -4.22596644882947     -4.59956666794835      7.09868841522523
  H          -4.18340687655978     -4.75467402849306      1.19555208590450
  H          -5.11389726397523      0.89422575850868      1.05633644882383
  H          -1.78962681259521      4.55869201047770      3.95871090825090
  H           1.67300676379680      2.88323839728840      8.36169309583066
  H           0.95571506671053     -2.24174992912406     11.35478120804642
  H          -1.20363414325055     -6.17337935542366      7.50704605403345
  H          -0.87855862092664     -5.01891529602083      1.93028581404977
  H          -2.02899028587435      0.39439853260830     -0.27428551744610
  H           0.38857241299566      2.52450294145606      4.59864954375015
  H           0.66738741514882      0.03248586368012      7.86656935836485
  H           1.09224706230418     -2.49241004603253      8.31108908125199
  H           0.24976755112482     -4.27322545394789      5.59560355823079
  H          -0.61570828751011     -2.11517199859578      2.81869565970630
  H          -0.51837486581832      0.72292207036440      2.36143035738184
  H           0.68235713290367      3.71643373783803      2.47021182226963
  H           1.88048319894083      4.28421778872906      3.65746571656204
  H           3.39414851447687     -3.31091728932979      8.81664718480988
  H           3.16250152115311     -1.62951425344010      9.35818220946988
  H           1.70211103062432     -5.38039033023227      7.29705728419862
  H           2.01404548747560     -5.97035210314944      5.63765663751968
  H           1.40121218625120      1.19060845249692      0.86725853222092
  H           0.75384276074189     -0.44225291295280      0.58841161322264
  H           0.54225130459467      6.11297155221267      3.94636490156586
  H           3.11692260879999     -3.91930923911102     10.99969060523818
  H           0.73803856314269     -7.79558794829068      6.21421194015880
  H           0.26324552457400      1.82628550595517     -1.01361448373798
  C           3.12025917163725     -2.17860080763370      3.16679487647004
  H           3.76760071048217     -1.45460404309918      2.67935619301350
  H           3.61636938654824     -3.14558316497100      3.30291630879520
  O           1.44334957183857     -4.30092054226871      3.20793150940726
  C           3.50728209510824     -1.03476257928195      5.51622484416862
  H           4.21955555147899     -1.77484691992673      5.88686028639157
  H           4.03137898235964     -0.17669668388204      5.09238818449623
  O           3.02461204760981      1.56398982659195      6.36751104032325
  C           2.57244871487408     -1.68992361422913      4.50700676417470
  O           1.42247718561950     -1.94428659114732      4.81773998250462
  H           3.51531375134219      2.33569166948263      4.77066422404135
  H           0.63447969056967     -0.30789743795567      4.61820138001458
  H           4.31194817871241      2.24183084357308      3.42439645323747
  O           3.43691242675870      2.38264326338401      3.80504766201926
  H           2.57822972598731      1.15484116308839      3.57716972512425
  O           2.03248611887357      0.26982442218104      3.48742575482252
  O           0.83025057728605      0.54252090108797      4.17150593682962
