9
Coordinates from ORCA-job job.QMRegion
  O           2.50749037524026     14.62841021863558     18.01986817757431
  C           1.67954891158336     17.17858680633346     19.00338583215843
  C           3.75347418812056     14.80578597152893     17.90143034465779
  O           3.04120348818797     17.48765411311970     18.91619877885641
  O           1.78866339503391     18.48545775343231     19.43209791871539
  O           4.37561525756456     15.89546124046458     18.18388311737328
  H           1.18311950851931     17.01495023949406     18.03844956986917
  H           1.42652652547525     16.42897683501855     19.76392155022770
  H           4.41579726272368     13.92414923425396     17.50598887718579
