19
Coordinates from ORCA-job job
  C           4.00555592958579     12.46127701755477     17.08479382683849
  O           2.50749037524026     14.62841021863558     18.01986817757431
  C           4.77678084450599     11.41293738036626     16.61842759852360
  C           6.74034026789012     12.78817652874337     16.76934629616613
  C           4.60011699582152     13.67879609115058     17.39594036984074
  H           4.30938502497808     10.47024181980016     16.37872104581592
  H           6.40603076842766     14.79618036842034     17.48617470592903
  H           2.93719573229181     12.36963426627263     17.21977164106358
  C           6.14399841484192     11.57579730269814     16.46067377862331
  C           5.97173635903793     13.83856614820200     17.23624722566153
  C           1.67954891158336     17.17858680633346     19.00338583215843
  H           7.80472074360059     12.91828335152623     16.64738320275134
  C           3.75347418812056     14.80578597152893     17.90143034465779
  O           3.04120348818797     17.48765411311970     18.91619877885641
  O           1.78866339503391     18.48545775343231     19.43209791871539
  H           6.74562946369839     10.75729734277932     16.09668387910435
  O           4.37561525756456     15.89546124046458     18.18388311737328
  H           1.18311950851931     17.01495023949406     18.03844956986917
  H           1.42652652547525     16.42897683501855     19.76392155022770
