19
* (null), Energy   -1000.0000000
C     4.005502   12.461101   17.084555    0.020438   -0.184362   -0.063810
O     2.507151   14.628353   18.019198    0.111944    0.145890   -0.009912
C     4.776946   11.412745   16.618589    0.045092   -0.147526   -0.086990
C     6.740278   12.788318   16.769343    0.036418   -0.114192   -0.038006
C     4.599830   13.678798   17.395488   -0.003600   -0.220868   -0.011446
H     4.309731   10.469895   16.379137    0.093620   -0.164026   -0.138404
H     6.405571   14.796438   17.485654   -0.116736   -0.147464    0.058968
H     2.937147   12.369303   17.219484    0.009068   -0.181160   -0.073502
C     6.144161   11.575755   16.460963    0.040460   -0.107416   -0.069994
C     5.971457   13.838701   17.235881   -0.009684   -0.182500   -0.015384
C     1.679760   17.178714   19.003549   -0.424514   -0.311808    0.049336
H     7.804655   12.918559   16.647483    0.039088   -0.098580   -0.043662
C     3.753251   14.805575   17.900904    0.292500   -0.049416   -0.047558
O     3.041362   17.487855   18.916893   -0.890872    1.221010    0.487636
O     1.789086   18.485462   19.432789    0.408772   -0.074534   -0.119906
H     6.745967   10.757226   16.097325    0.056270   -0.087480   -0.099584
O     4.375345   15.895185   18.183946    0.400018   -0.242992   -0.149054
H     1.183464   17.015610   18.038465   -0.350394   -0.204588    0.063128
H     1.426469   16.428880   19.763752   -0.170400   -0.066492    0.301846
19
* Frequency(6) -265.5200
C     4.007825   12.440149   17.077303    0.020438   -0.184362   -0.063810
O     2.519873   14.644933   18.018072    0.111944    0.145890   -0.009912
C     4.782070   11.395979   16.608703    0.045092   -0.147526   -0.086990
C     6.744417   12.775341   16.765024    0.036418   -0.114192   -0.038006
C     4.599421   13.653697   17.394187   -0.003600   -0.220868   -0.011446
H     4.320370   10.451254   16.363408    0.093620   -0.164026   -0.138404
H     6.392305   14.779679   17.492355   -0.116736   -0.147464    0.058968
H     2.938178   12.348715   17.211131    0.009068   -0.181160   -0.073502
C     6.148759   11.563548   16.453009    0.040460   -0.107416   -0.069994
C     5.970356   13.817961   17.234133   -0.009684   -0.182500   -0.015384
C     1.631516   17.143279   19.009156   -0.424514   -0.311808    0.049336
H     7.809097   12.907356   16.642521    0.039088   -0.098580   -0.043662
C     3.786492   14.799959   17.895499    0.292500   -0.049416   -0.047558
O     2.940119   17.626616   18.972310   -0.890872    1.221010    0.487636
O     1.835541   18.476992   19.419162    0.408772   -0.074534   -0.119906
H     6.752362   10.747284   16.086008    0.056270   -0.087480   -0.099584
O     4.420805   15.867570   18.167007    0.400018   -0.242992   -0.149054
H     1.143644   16.992360   18.045639   -0.350394   -0.204588    0.063128
H     1.407104   16.421324   19.798055   -0.170400   -0.066492    0.301846
19
* Frequency(6) -265.5200
C     4.009896   12.421468   17.070837    0.020438   -0.184362   -0.063810
O     2.531216   14.659716   18.017067    0.111944    0.145890   -0.009912
C     4.786640   11.381031   16.599888    0.045092   -0.147526   -0.086990
C     6.748107   12.763770   16.761173    0.036418   -0.114192   -0.038006
C     4.599056   13.631317   17.393027   -0.003600   -0.220868   -0.011446
H     4.329857   10.434634   16.349384    0.093620   -0.164026   -0.138404
H     6.380476   14.764737   17.498331   -0.116736   -0.147464    0.058968
H     2.939096   12.330358   17.203683    0.009068   -0.181160   -0.073502
C     6.152859   11.552663   16.445916    0.040460   -0.107416   -0.069994
C     5.969375   13.799468   17.232574   -0.009684   -0.182500   -0.015384
C     1.588500   17.111683   19.014155   -0.424514   -0.311808    0.049336
H     7.813058   12.897367   16.638097    0.039088   -0.098580   -0.043662
C     3.816131   14.794952   17.890680    0.292500   -0.049416   -0.047558
O     2.849847   17.750341   19.021722   -0.890872    1.221010    0.487636
O     1.876962   18.469439   19.407012    0.408772   -0.074534   -0.119906
H     6.758064   10.738420   16.075917    0.056270   -0.087480   -0.099584
O     4.461339   15.842948   18.151903    0.400018   -0.242992   -0.149054
H     1.108138   16.971629   18.052036   -0.350394   -0.204588    0.063128
H     1.389837   16.414586   19.828641   -0.170400   -0.066492    0.301846
19
* Frequency(6) -265.5200
C     4.011491   12.407081   17.065858    0.020438   -0.184362   -0.063810
O     2.539952   14.671100   18.016294    0.111944    0.145890   -0.009912
C     4.790158   11.369519   16.593100    0.045092   -0.147526   -0.086990
C     6.750949   12.754859   16.758207    0.036418   -0.114192   -0.038006
C     4.598775   13.614082   17.392134   -0.003600   -0.220868   -0.011446
H     4.337162   10.421834   16.338583    0.093620   -0.164026   -0.138404
H     6.371366   14.753230   17.502932   -0.116736   -0.147464    0.058968
H     2.939804   12.316222   17.197947    0.009068   -0.181160   -0.073502
C     6.156016   11.544281   16.440454    0.040460   -0.107416   -0.069994
C     5.968620   13.785227   17.231373   -0.009684   -0.182500   -0.015384
C     1.555374   17.087352   19.018005   -0.424514   -0.311808    0.049336
H     7.816108   12.889674   16.634690    0.039088   -0.098580   -0.043662
C     3.838956   14.791096   17.886969    0.292500   -0.049416   -0.047558
O     2.780329   17.845621   19.059774   -0.890872    1.221010    0.487636
O     1.908860   18.463623   19.397656    0.408772   -0.074534   -0.119906
H     6.762455   10.731594   16.068146    0.056270   -0.087480   -0.099584
O     4.492554   15.823986   18.140272    0.400018   -0.242992   -0.149054
H     1.080796   16.955664   18.056962   -0.350394   -0.204588    0.063128
H     1.376540   16.409397   19.852195   -0.170400   -0.066492    0.301846
19
* Frequency(6) -265.5200
C     4.012436   12.398549   17.062905    0.020438   -0.184362   -0.063810
O     2.545132   14.677852   18.015835    0.111944    0.145890   -0.009912
C     4.792245   11.362691   16.589074    0.045092   -0.147526   -0.086990
C     6.752634   12.749574   16.756448    0.036418   -0.114192   -0.038006
C     4.598609   13.603860   17.391604   -0.003600   -0.220868   -0.011446
H     4.341495   10.414243   16.332178    0.093620   -0.164026   -0.138404
H     6.365964   14.746405   17.505661   -0.116736   -0.147464    0.058968
H     2.940224   12.307837   17.194545    0.009068   -0.181160   -0.073502
C     6.157889   11.539310   16.437215    0.040460   -0.107416   -0.069994
C     5.968171   13.776781   17.230661   -0.009684   -0.182500   -0.015384
C     1.535727   17.072921   19.020288   -0.424514   -0.311808    0.049336
H     7.817917   12.885112   16.632669    0.039088   -0.098580   -0.043662
C     3.852493   14.788809   17.884768    0.292500   -0.049416   -0.047558
O     2.739098   17.902132   19.082343   -0.890872    1.221010    0.487636
O     1.927778   18.460173   19.392106    0.408772   -0.074534   -0.119906
H     6.765059   10.727545   16.063537    0.056270   -0.087480   -0.099584
O     4.511067   15.812740   18.133373    0.400018   -0.242992   -0.149054
H     1.064579   16.946195   18.059884   -0.350394   -0.204588    0.063128
H     1.368654   16.406320   19.866165   -0.170400   -0.066492    0.301846
19
* Frequency(6) -265.5200
C     4.012631   12.396795   17.062298    0.020438   -0.184362   -0.063810
O     2.546198   14.679240   18.015741    0.111944    0.145890   -0.009912
C     4.792674   11.361287   16.588246    0.045092   -0.147526   -0.086990
C     6.752981   12.748487   16.756086    0.036418   -0.114192   -0.038006
C     4.598574   13.601758   17.391496   -0.003600   -0.220868   -0.011446
H     4.342386   10.412682   16.330861    0.093620   -0.164026   -0.138404
H     6.364853   14.745002   17.506222   -0.116736   -0.147464    0.058968
H     2.940310   12.306114   17.193846    0.009068   -0.181160   -0.073502
C     6.158274   11.538288   16.436549    0.040460   -0.107416   -0.069994
C     5.968079   13.775044   17.230515   -0.009684   -0.182500   -0.015384
C     1.531688   17.069954   19.020758   -0.424514   -0.311808    0.049336
H     7.818289   12.884174   16.632253    0.039088   -0.098580   -0.043662
C     3.855276   14.788338   17.884316    0.292500   -0.049416   -0.047558
O     2.730622   17.913749   19.086983   -0.890872    1.221010    0.487636
O     1.931668   18.459464   19.390965    0.408772   -0.074534   -0.119906
H     6.765594   10.726713   16.062590    0.056270   -0.087480   -0.099584
O     4.514873   15.810428   18.131955    0.400018   -0.242992   -0.149054
H     1.061245   16.944249   18.060484   -0.350394   -0.204588    0.063128
H     1.367033   16.405687   19.869037   -0.170400   -0.066492    0.301846
19
* Frequency(6) -265.5200
C     4.012053   12.402009   17.064103    0.020438   -0.184362   -0.063810
O     2.543031   14.675114   18.016021    0.111944    0.145890   -0.009912
C     4.791399   11.365460   16.590707    0.045092   -0.147526   -0.086990
C     6.751951   12.751717   16.757161    0.036418   -0.114192   -0.038006
C     4.598676   13.608005   17.391819   -0.003600   -0.220868   -0.011446
H     4.339738   10.417321   16.334776    0.093620   -0.164026   -0.138404
H     6.368155   14.749173   17.504554   -0.116736   -0.147464    0.058968
H     2.940053   12.311237   17.195925    0.009068   -0.181160   -0.073502
C     6.157129   11.541326   16.438528    0.040460   -0.107416   -0.069994
C     5.968353   13.780206   17.230950   -0.009684   -0.182500   -0.015384
C     1.543694   17.078773   19.019362   -0.424514   -0.311808    0.049336
H     7.817184   12.886962   16.633488    0.039088   -0.098580   -0.043662
C     3.847003   14.789736   17.885661    0.292500   -0.049416   -0.047558
O     2.755819   17.879214   19.073190   -0.890872    1.221010    0.487636
O     1.920106   18.461572   19.394357    0.408772   -0.074534   -0.119906
H     6.764003   10.729187   16.065406    0.056270   -0.087480   -0.099584
O     4.503559   15.817301   18.136171    0.400018   -0.242992   -0.149054
H     1.071155   16.950035   18.058699   -0.350394   -0.204588    0.063128
H     1.371852   16.407568   19.860500   -0.170400   -0.066492    0.301846
19
* Frequency(6) -265.5200
C     4.010765   12.413627   17.068124    0.020438   -0.184362   -0.063810
O     2.535977   14.665920   18.016646    0.111944    0.145890   -0.009912
C     4.788557   11.374757   16.596189    0.045092   -0.147526   -0.086990
C     6.749656   12.758913   16.759556    0.036418   -0.114192   -0.038006
C     4.598903   13.621924   17.392541   -0.003600   -0.220868   -0.011446
H     4.333838   10.427658   16.343498    0.093620   -0.164026   -0.138404
H     6.375511   14.758466   17.500838   -0.116736   -0.147464    0.058968
H     2.939482   12.322654   17.200557    0.009068   -0.181160   -0.073502
C     6.154580   11.548095   16.442939    0.040460   -0.107416   -0.069994
C     5.968963   13.791707   17.231920   -0.009684   -0.182500   -0.015384
C     1.570446   17.098422   19.016253   -0.424514   -0.311808    0.049336
H     7.814720   12.893174   16.636240    0.039088   -0.098580   -0.043662
C     3.828571   14.792850   17.888658    0.292500   -0.049416   -0.047558
O     2.811959   17.802269   19.042461   -0.890872    1.221010    0.487636
O     1.894346   18.466269   19.401913    0.408772   -0.074534   -0.119906
H     6.760457   10.734700   16.071682    0.056270   -0.087480   -0.099584
O     4.478351   15.832614   18.145564    0.400018   -0.242992   -0.149054
H     1.093236   16.962928   18.054721   -0.350394   -0.204588    0.063128
H     1.382590   16.411758   19.841478   -0.170400   -0.066492    0.301846
19
* Frequency(6) -265.5200
C     4.008907   12.430390   17.073925    0.020438   -0.184362   -0.063810
O     2.525799   14.652656   18.017547    0.111944    0.145890   -0.009912
C     4.784457   11.388170   16.604098    0.045092   -0.147526   -0.086990
C     6.746345   12.769296   16.763012    0.036418   -0.114192   -0.038006
C     4.599230   13.642005   17.393581   -0.003600   -0.220868   -0.011446
H     4.325326   10.442571   16.356081    0.093620   -0.164026   -0.138404
H     6.386125   14.771873   17.495477   -0.116736   -0.147464    0.058968
H     2.938658   12.339125   17.207240    0.009068   -0.181160   -0.073502
C     6.150901   11.557861   16.449303    0.040460   -0.107416   -0.069994
C     5.969844   13.808300   17.233318   -0.009684   -0.182500   -0.015384
C     1.609044   17.126773   19.011767   -0.424514   -0.311808    0.049336
H     7.811166   12.902137   16.640210    0.039088   -0.098580   -0.043662
C     3.801976   14.797343   17.892982    0.292500   -0.049416   -0.047558
O     2.892959   17.691253   18.998124   -0.890872    1.221010    0.487636
O     1.857180   18.473046   19.412815    0.408772   -0.074534   -0.119906
H     6.755341   10.742653   16.080736    0.056270   -0.087480   -0.099584
O     4.441981   15.854707   18.159116    0.400018   -0.242992   -0.149054
H     1.125095   16.981529   18.048981   -0.350394   -0.204588    0.063128
H     1.398083   16.417804   19.814034   -0.170400   -0.066492    0.301846
19
* Frequency(6) -265.5200
C     4.006679   12.450480   17.080879    0.020438   -0.184362   -0.063810
O     2.513600   14.636757   18.018627    0.111944    0.145890   -0.009912
C     4.779544   11.404246   16.613578    0.045092   -0.147526   -0.086990
C     6.742376   12.781740   16.767154    0.036418   -0.114192   -0.038006
C     4.599623   13.666074   17.394829   -0.003600   -0.220868   -0.011446
H     4.315124   10.460446   16.371164    0.093620   -0.164026   -0.138404
H     6.398846   14.787943   17.489051   -0.116736   -0.147464    0.058968
H     2.937669   12.358867   17.215250    0.009068   -0.181160   -0.073502
C     6.146492   11.569567   16.456931    0.040460   -0.107416   -0.069994
C     5.970899   13.828188   17.234995   -0.009684   -0.182500   -0.015384
C     1.655305   17.160751   19.006391   -0.424514   -0.311808    0.049336
H     7.806907   12.912880   16.644968    0.039088   -0.098580   -0.043662
C     3.770101   14.802728   17.898164    0.292500   -0.049416   -0.047558
O     2.990041   17.558195   18.944985   -0.890872    1.221010    0.487636
O     1.812635   18.481168   19.425881    0.408772   -0.074534   -0.119906
H     6.749209   10.752186   16.091588    0.056270   -0.087480   -0.099584
O     4.398389   15.881187   18.175359    0.400018   -0.242992   -0.149054
H     1.163278   17.003824   18.042102   -0.350394   -0.204588    0.063128
H     1.416653   16.425050   19.781141   -0.170400   -0.066492    0.301846
19
* Frequency(6) -265.5200
C     4.004325   12.471722   17.088231    0.020438   -0.184362   -0.063810
O     2.500702   14.619949   18.019769    0.111944    0.145890   -0.009912
C     4.774348   11.421244   16.623600    0.045092   -0.147526   -0.086990
C     6.738180   12.794896   16.771532    0.036418   -0.114192   -0.038006
C     4.600037   13.691522   17.396147   -0.003600   -0.220868   -0.011446
H     4.304338   10.479344   16.387110    0.093620   -0.164026   -0.138404
H     6.412296   14.804933   17.482257   -0.116736   -0.147464    0.058968
H     2.936625   12.379739   17.223718    0.009068   -0.181160   -0.073502
C     6.141830   11.581943   16.464995    0.040460   -0.107416   -0.069994
C     5.972015   13.849214   17.236767   -0.009684   -0.182500   -0.015384
C     1.704215   17.196677   19.000707   -0.424514   -0.311808    0.049336
H     7.802403   12.924238   16.649998    0.039088   -0.098580   -0.043662
C     3.736401   14.808422   17.903644    0.292500   -0.049416   -0.047558
O     3.092683   17.417515   18.888801   -0.890872    1.221010    0.487636
O     1.765537   18.489756   19.439697    0.408772   -0.074534   -0.119906
H     6.742725   10.762266   16.103062    0.056270   -0.087480   -0.099584
O     4.352301   15.909183   18.192533    0.400018   -0.242992   -0.149054
H     1.203650   17.027396   18.034828   -0.350394   -0.204588    0.063128
H     1.436285   16.432710   19.746363   -0.170400   -0.066492    0.301846
19
* Frequency(6) -265.5200
C     4.002097   12.491812   17.095185    0.020438   -0.184362   -0.063810
O     2.488503   14.604050   18.020849    0.111944    0.145890   -0.009912
C     4.769435   11.437320   16.633080    0.045092   -0.147526   -0.086990
C     6.734211   12.807340   16.775674    0.036418   -0.114192   -0.038006
C     4.600430   13.715591   17.397395   -0.003600   -0.220868   -0.011446
H     4.294136   10.497219   16.402193    0.093620   -0.164026   -0.138404
H     6.425017   14.821003   17.475831   -0.116736   -0.147464    0.058968
H     2.935636   12.399481   17.231728    0.009068   -0.181160   -0.073502
C     6.137421   11.593649   16.472623    0.040460   -0.107416   -0.069994
C     5.973070   13.869102   17.238444   -0.009684   -0.182500   -0.015384
C     1.750476   17.230655   18.995331   -0.424514   -0.311808    0.049336
H     7.798144   12.934981   16.654756    0.039088   -0.098580   -0.043662
C     3.704526   14.813807   17.908826    0.292500   -0.049416   -0.047558
O     3.189765   17.284457   18.835662   -0.890872    1.221010    0.487636
O     1.720992   18.497878   19.452763    0.408772   -0.074534   -0.119906
H     6.736593   10.771799   16.113914    0.056270   -0.087480   -0.099584
O     4.308709   15.935663   18.208776    0.400018   -0.242992   -0.149054
H     1.241833   17.049691   18.027949   -0.350394   -0.204588    0.063128
H     1.454855   16.439956   19.713470   -0.170400   -0.066492    0.301846
19
* Frequency(6) -265.5200
C     4.000239   12.508575   17.100986    0.020438   -0.184362   -0.063810
O     2.478325   14.590786   18.021750    0.111944    0.145890   -0.009912
C     4.765335   11.450733   16.640989    0.045092   -0.147526   -0.086990
C     6.730900   12.817723   16.779130    0.036418   -0.114192   -0.038006
C     4.600757   13.735672   17.398435   -0.003600   -0.220868   -0.011446
H     4.285624   10.512132   16.414776    0.093620   -0.164026   -0.138404
H     6.435631   14.834410   17.470470   -0.116736   -0.147464    0.058968
H     2.934812   12.415952   17.238411    0.009068   -0.181160   -0.073502
C     6.133742   11.603415   16.478987    0.040460   -0.107416   -0.069994
C     5.973951   13.885695   17.239842   -0.009684   -0.182500   -0.015384
C     1.789074   17.259006   18.990845   -0.424514   -0.311808    0.049336
H     7.794590   12.943944   16.658726    0.039088   -0.098580   -0.043662
C     3.677931   14.818300   17.913150    0.292500   -0.049416   -0.047558
O     3.270765   17.173441   18.791325   -0.890872    1.221010    0.487636
O     1.683826   18.504655   19.463665    0.408772   -0.074534   -0.119906
H     6.731477   10.779752   16.122968    0.056270   -0.087480   -0.099584
O     4.272339   15.957756   18.222328    0.400018   -0.242992   -0.149054
H     1.273692   17.068292   18.022209   -0.350394   -0.204588    0.063128
H     1.470348   16.446002   19.686026   -0.170400   -0.066492    0.301846
19
* Frequency(6) -265.5200
C     3.998951   12.520193   17.105007    0.020438   -0.184362   -0.063810
O     2.471271   14.581592   18.022375    0.111944    0.145890   -0.009912
C     4.762493   11.460030   16.646471    0.045092   -0.147526   -0.086990
C     6.728605   12.824919   16.781525    0.036418   -0.114192   -0.038006
C     4.600984   13.749591   17.399157   -0.003600   -0.220868   -0.011446
H     4.279724   10.522469   16.423498    0.093620   -0.164026   -0.138404
H     6.442987   14.843703   17.466754   -0.116736   -0.147464    0.058968
H     2.934241   12.427369   17.243043    0.009068   -0.181160   -0.073502
C     6.131193   11.610184   16.483398    0.040460   -0.107416   -0.069994
C     5.974561   13.897196   17.240812   -0.009684   -0.182500   -0.015384
C     1.815826   17.278655   18.987736   -0.424514   -0.311808    0.049336
H     7.792126   12.950156   16.661478    0.039088   -0.098580   -0.043662
C     3.659499   14.821414   17.916147    0.292500   -0.049416   -0.047558
O     3.326905   17.096496   18.760596   -0.890872    1.221010    0.487636
O     1.658066   18.509352   19.471221    0.408772   -0.074534   -0.119906
H     6.727931   10.785265   16.129244    0.056270   -0.087480   -0.099584
O     4.247131   15.973069   18.231721    0.400018   -0.242992   -0.149054
H     1.295773   17.081185   18.018231   -0.350394   -0.204588    0.063128
H     1.481086   16.450192   19.667004   -0.170400   -0.066492    0.301846
19
* Frequency(6) -265.5200
C     3.998373   12.525407   17.106812    0.020438   -0.184362   -0.063810
O     2.468104   14.577466   18.022655    0.111944    0.145890   -0.009912
C     4.761218   11.464203   16.648932    0.045092   -0.147526   -0.086990
C     6.727575   12.828149   16.782600    0.036418   -0.114192   -0.038006
C     4.601086   13.755838   17.399480   -0.003600   -0.220868   -0.011446
H     4.277076   10.527108   16.427413    0.093620   -0.164026   -0.138404
H     6.446289   14.847874   17.465086   -0.116736   -0.147464    0.058968
H     2.933984   12.432492   17.245122    0.009068   -0.181160   -0.073502
C     6.130048   11.613222   16.485377    0.040460   -0.107416   -0.069994
C     5.974835   13.902358   17.241247   -0.009684   -0.182500   -0.015384
C     1.827832   17.287474   18.986340   -0.424514   -0.311808    0.049336
H     7.791021   12.952944   16.662713    0.039088   -0.098580   -0.043662
C     3.651226   14.822812   17.917492    0.292500   -0.049416   -0.047558
O     3.352102   17.061961   18.746803   -0.890872    1.221010    0.487636
O     1.646504   18.511460   19.474613    0.408772   -0.074534   -0.119906
H     6.726340   10.787739   16.132060    0.056270   -0.087480   -0.099584
O     4.235817   15.979942   18.235937    0.400018   -0.242992   -0.149054
H     1.305683   17.086971   18.016446   -0.350394   -0.204588    0.063128
H     1.485905   16.452073   19.658467   -0.170400   -0.066492    0.301846
19
* Frequency(6) -265.5200
C     3.998568   12.523653   17.106205    0.020438   -0.184362   -0.063810
O     2.469170   14.578854   18.022561    0.111944    0.145890   -0.009912
C     4.761647   11.462799   16.648104    0.045092   -0.147526   -0.086990
C     6.727922   12.827062   16.782238    0.036418   -0.114192   -0.038006
C     4.601051   13.753736   17.399372   -0.003600   -0.220868   -0.011446
H     4.277967   10.525547   16.426096    0.093620   -0.164026   -0.138404
H     6.445178   14.846471   17.465647   -0.116736   -0.147464    0.058968
H     2.934070   12.430769   17.244423    0.009068   -0.181160   -0.073502
C     6.130433   11.612200   16.484711    0.040460   -0.107416   -0.069994
C     5.974743   13.900621   17.241101   -0.009684   -0.182500   -0.015384
C     1.823793   17.284507   18.986810   -0.424514   -0.311808    0.049336
H     7.791393   12.952006   16.662297    0.039088   -0.098580   -0.043662
C     3.654009   14.822341   17.917040    0.292500   -0.049416   -0.047558
O     3.343626   17.073578   18.751443   -0.890872    1.221010    0.487636
O     1.650394   18.510751   19.473472    0.408772   -0.074534   -0.119906
H     6.726875   10.786907   16.131113    0.056270   -0.087480   -0.099584
O     4.239623   15.977630   18.234519    0.400018   -0.242992   -0.149054
H     1.302349   17.085025   18.017046   -0.350394   -0.204588    0.063128
H     1.484284   16.451440   19.661339   -0.170400   -0.066492    0.301846
19
* Frequency(6) -265.5200
C     3.999513   12.515121   17.103252    0.020438   -0.184362   -0.063810
O     2.474350   14.585606   18.022102    0.111944    0.145890   -0.009912
C     4.763734   11.455971   16.644078    0.045092   -0.147526   -0.086990
C     6.729607   12.821777   16.780479    0.036418   -0.114192   -0.038006
C     4.600885   13.743514   17.398842   -0.003600   -0.220868   -0.011446
H     4.282300   10.517956   16.419691    0.093620   -0.164026   -0.138404
H     6.439776   14.839646   17.468376   -0.116736   -0.147464    0.058968
H     2.934490   12.422384   17.241021    0.009068   -0.181160   -0.073502
C     6.132306   11.607229   16.481472    0.040460   -0.107416   -0.069994
C     5.974294   13.892175   17.240389   -0.009684   -0.182500   -0.015384
C     1.804146   17.270076   18.989093   -0.424514   -0.311808    0.049336
H     7.793202   12.947444   16.660276    0.039088   -0.098580   -0.043662
C     3.667546   14.820054   17.914839    0.292500   -0.049416   -0.047558
O     3.302395   17.130089   18.774012   -0.890872    1.221010    0.487636
O     1.669312   18.507301   19.467922    0.408772   -0.074534   -0.119906
H     6.729479   10.782858   16.126504    0.056270   -0.087480   -0.099584
O     4.258136   15.966384   18.227620    0.400018   -0.242992   -0.149054
H     1.286132   17.075556   18.019968   -0.350394   -0.204588    0.063128
H     1.476398   16.448363   19.675309   -0.170400   -0.066492    0.301846
19
* Frequency(6) -265.5200
C     4.001108   12.500734   17.098273    0.020438   -0.184362   -0.063810
O     2.483086   14.596990   18.021329    0.111944    0.145890   -0.009912
C     4.767252   11.444459   16.637290    0.045092   -0.147526   -0.086990
C     6.732449   12.812866   16.777513    0.036418   -0.114192   -0.038006
C     4.600604   13.726279   17.397949   -0.003600   -0.220868   -0.011446
H     4.289605   10.505156   16.408890    0.093620   -0.164026   -0.138404
H     6.430666   14.828139   17.472977   -0.116736   -0.147464    0.058968
H     2.935198   12.408248   17.235285    0.009068   -0.181160   -0.073502
C     6.135463   11.598847   16.476010    0.040460   -0.107416   -0.069994
C     5.973539   13.877934   17.239188   -0.009684   -0.182500   -0.015384
C     1.771020   17.245745   18.992943   -0.424514   -0.311808    0.049336
H     7.796252   12.939751   16.656869    0.039088   -0.098580   -0.043662
C     3.690371   14.816198   17.911128    0.292500   -0.049416   -0.047558
O     3.232877   17.225369   18.812064   -0.890872    1.221010    0.487636
O     1.701210   18.501485   19.458566    0.408772   -0.074534   -0.119906
H     6.733870   10.776032   16.118733    0.056270   -0.087480   -0.099584
O     4.289351   15.947422   18.215989    0.400018   -0.242992   -0.149054
H     1.258790   17.059591   18.024894   -0.350394   -0.204588    0.063128
H     1.463101   16.443174   19.698863   -0.170400   -0.066492    0.301846
19
* Frequency(6) -265.5200
C     4.003179   12.482053   17.091807    0.020438   -0.184362   -0.063810
O     2.494429   14.611773   18.020324    0.111944    0.145890   -0.009912
C     4.771822   11.429511   16.628475    0.045092   -0.147526   -0.086990
C     6.736139   12.801295   16.773662    0.036418   -0.114192   -0.038006
C     4.600239   13.703899   17.396789   -0.003600   -0.220868   -0.011446
H     4.299092   10.488536   16.394866    0.093620   -0.164026   -0.138404
H     6.418837   14.813197   17.478953   -0.116736   -0.147464    0.058968
H     2.936116   12.389891   17.227837    0.009068   -0.181160   -0.073502
C     6.139563   11.587962   16.468917    0.040460   -0.107416   -0.069994
C     5.972558   13.859441   17.237629   -0.009684   -0.182500   -0.015384
C     1.728004   17.214149   18.997942   -0.424514   -0.311808    0.049336
H     7.800213   12.929762   16.652445    0.039088   -0.098580   -0.043662
C     3.720010   14.811191   17.906309    0.292500   -0.049416   -0.047558
O     3.142605   17.349094   18.861476   -0.890872    1.221010    0.487636
O     1.742631   18.493932   19.446416    0.408772   -0.074534   -0.119906
H     6.739572   10.767168   16.108642    0.056270   -0.087480   -0.099584
O     4.329885   15.922800   18.200885    0.400018   -0.242992   -0.149054
H     1.223284   17.038860   18.031291   -0.350394   -0.204588    0.063128
H     1.445834   16.436436   19.729449   -0.170400   -0.066492    0.301846
19
* Frequency(6) -265.5200
C     4.005502   12.461101   17.084555    0.020438   -0.184362   -0.063810
O     2.507151   14.628353   18.019198    0.111944    0.145890   -0.009912
C     4.776946   11.412745   16.618589    0.045092   -0.147526   -0.086990
C     6.740278   12.788318   16.769343    0.036418   -0.114192   -0.038006
C     4.599830   13.678798   17.395488   -0.003600   -0.220868   -0.011446
H     4.309731   10.469895   16.379137    0.093620   -0.164026   -0.138404
H     6.405571   14.796438   17.485654   -0.116736   -0.147464    0.058968
H     2.937147   12.369303   17.219484    0.009068   -0.181160   -0.073502
C     6.144161   11.575755   16.460963    0.040460   -0.107416   -0.069994
C     5.971457   13.838701   17.235881   -0.009684   -0.182500   -0.015384
C     1.679760   17.178714   19.003549   -0.424514   -0.311808    0.049336
H     7.804655   12.918559   16.647483    0.039088   -0.098580   -0.043662
C     3.753251   14.805575   17.900904    0.292500   -0.049416   -0.047558
O     3.041362   17.487855   18.916893   -0.890872    1.221010    0.487636
O     1.789086   18.485462   19.432789    0.408772   -0.074534   -0.119906
H     6.745967   10.757226   16.097325    0.056270   -0.087480   -0.099584
O     4.375345   15.895185   18.183946    0.400018   -0.242992   -0.149054
H     1.183464   17.015610   18.038465   -0.350394   -0.204588    0.063128
H     1.426469   16.428880   19.763752   -0.170400   -0.066492    0.301846
