21
Coordinates from ORCA-job job
  H           3.61170389372546     10.30856305885497     19.98381427473307
  C           3.22088924263936     12.66509088855545     17.59939333182837
  H           2.88217562315118     12.65902591162033     19.70077783872625
  C           4.04898967785643     10.62424559683478     16.64905919827940
  C           3.62066081297357     10.76123564989622     19.00462042704083
  H           3.64801552261678     12.40533077320272     15.52219046989048
  H           4.35741178689863      9.01106745984499     18.02001901237128
  C           3.21228387738612     12.07504708276435     18.85561093112745
  C           3.64180274450148     11.93886618548903     16.49550667150159
  C           4.03914441781690     10.03499932156575     17.90194256302965
  C           3.20883404262775     16.97264359780780     19.27366295198673
  H           4.37384161786207     10.06306383595325     15.78709210876516
  O           1.47042329812864     14.23851945456946     17.99956224292084
  O           3.39796208595919     16.29846676299800     17.90863918207200
  O           2.89877574710504     18.21484402648117     19.04404019518355
  H           2.77381376604694     14.42855949839187     16.40001857778718
  O           3.74424638870526     14.87339168816463     18.15322317645816
  C           2.76963107372205     14.10273556063889     17.45439507792963
  H           1.14353254064986     15.11662305417039     17.75846977829007
  H           2.43257407942488     16.33227444769620     19.76473988103231
  H           4.19276976020235     16.78163214449950     19.77920810904577
