8
-16.3019747541
C  -1.91829235306234346936 -0.69713716503105593869 0.27236620239623515749
O  -3.39296052313936469247 0.74094025480254610549 -0.83512619573094293290
H  -0.87722625670670195674 -1.00955803233390817297 0.10748158195620376165
O  -2.74480756336992515187 -1.75459947782061465027 0.60350744672704892402
O  -2.22900266873407604251 -0.07914812929679941600 -0.94611981104122400144
H  -1.98435072008365209761 0.01925560289261876723 1.09810465139564894521
H  -2.73928196147390901061 -2.42263389787411265175 -0.10001797516228123908
H  -3.18463620158185811704 1.50046405822365724880 -1.41195938779710417066
