24
4 Eopt=-39.4240281174 (Eh) Einter=-5.303341 (kcal/mol)
C  -2.14798714515663169422 -0.63009679428140086266 -0.17712227985184481049
H  -1.85522234026868138024 0.74516125517865816619 -1.51872824566970288096
H  -2.42424408438405158961 -1.41534479783608002634 -0.89507748156490918312
C  -3.47386984610944749008 1.26204719523646424761 0.82742565454834482441
O  -1.33841132568187770602 0.34198433549034984447 -0.79976961330765616864
H  -1.51913639848987358505 -1.08163700711259691545 0.59871872172218876251
H  -6.62399275531299203124 1.33837810769674447897 2.04496347913918352646
H  -4.44919216448816445819 -1.93446419926977175585 0.36860574390997202787
H  -6.50331016021714347630 -1.03866549121615348028 1.39488725520517653500
H  -4.67550208421185597985 2.80984122960508297950 1.67970548205222813820
H  -2.61708616531856552712 1.89863086731292263210 0.66356091147015183740
C  -3.40081245759987593758 -0.07319572081286235266 0.45397664387510572315
C  -4.50031500068558365513 -0.89706653176426232044 0.66473133385593208278
C  -5.65352914408380158306 -0.39136104899045554006 1.23752708549444068176
C  -5.72190845886233390161 0.94378492098515542885 1.60233356251602265807
C  -4.62957521754344369924 1.76894261513030559563 1.39636375955319347320
C  -4.56533788099067905364 0.80895053500539093605 -2.77040028639516133779
O  -4.26436601400618009450 -1.50301316670919660190 -2.80717159048556386125
H  -5.27119695328954129820 1.51008921567553477949 -3.23428219368912728271
O  -3.25523611372566890054 1.25730865868608843172 -2.83488079936329206987
O  -4.79887852116206570230 -0.36463029174537453514 -3.49151510500805528636
H  -4.80030742160914769556 0.66744817738352635317 -1.70996156713555635953
H  -3.00808267870126755383 1.44377403051631292286 -3.75485509347976531558
H  -4.59462404382354350219 -2.24451144998798834962 -3.34821406671440335856
24
7 Eopt=-39.4229505491 (Eh) Einter=-4.627157 (kcal/mol)
C  -2.77292386730078677104 -1.57797977095732178121 0.62673712538740866673
H  -3.17457828720784895893 -1.43348180687937620803 -1.28392567177671845791
H  -3.37310965572549648073 -2.48187130823482871023 0.78998620166549260446
C  -3.20029776758809436643 0.89818079768985104039 0.64268206793341153826
O  -2.38292145522566123361 -1.48576138995901274598 -0.73080175971694294468
H  -1.83920601372327041645 -1.68533119473353054651 1.19022370621997364282
H  -5.39411046693719065104 2.74941358956293324667 2.42124393751536803876
H  -4.77110940190724353016 -1.47475462144475533144 2.45742791448178854452
H  -5.96317249081223366147 0.51164130422105302820 3.28920543735126891249
H  -3.62010907122772485067 2.99172727882185274240 0.72243011522450650830
H  -2.42052015931948183436 0.99771675606209575538 -0.09822389485383808960
C  -3.51847675087166278374 -0.36513361923547815735 1.12404449393969896320
C  -4.51891797830977015593 -0.49507477975433356043 2.07837176314896554530
C  -5.18783709219005029212 0.62231750670528984681 2.54608006466121938871
C  -4.86880580838721677139 1.87889528239361180972 2.05857667932717802728
C  -3.87396366554215099143 2.01463280407373357406 1.10506491381555216336
C  0.91216277009066804027 -1.74479716302077991763 -0.28426514508297295869
O  1.03890060829391384090 -3.39018749999723834065 1.38013560854443051440
H  0.71203614580488494568 -0.66380749249265558198 -0.28012871223254998121
O  0.22842390656451971864 -2.40887911970637702552 -1.27890068780931609460
O  0.53619321537268227473 -2.10333644531641983377 1.02282652230209469835
H  1.97743847910120607025 -1.94724098765000896982 -0.44106333234907069141
H  -0.72780572918542052463 -2.20216904523149281658 -1.21458327251839803829
H  1.34978936147328365536 -3.26370817433204418734 2.29688521297526992981
24
10 Eopt=-39.4228353958 (Eh) Einter=-4.554897 (kcal/mol)
C  -1.86085300622343141619 -0.62948464508193424649 -0.17516183766674719990
H  -2.92123860047801997553 -0.94340219555327498036 -1.79127152120279453662
H  -1.82528050932295604625 -1.68143056091952325382 0.13469001243053169148
C  -3.39324414475063207419 1.32747138573837486497 0.18281332078256873341
O  -2.07149814005242749460 -0.53605984629655800688 -1.57283776809894404458
H  -0.87021661520274085078 -0.19462848254761522249 -0.00261513712137695364
H  -5.47895808438734288615 2.06296163117716790936 2.73481757021457383416
H  -2.93000005228834092819 -1.32363795783741333700 2.21997831794389277604
H  -4.57953536791007120854 -0.08065873150352692589 3.55896584921584935302
H  -4.71510522093149297973 2.96169258023918224865 0.56676621598976173466
H  -3.05196601158111802121 1.71619219596422367680 -0.76551868383384258365
C  -2.88526291200825379946 0.11810468560798464965 0.63966657523219505599
C  -3.32106669634280349257 -0.38358159351345577637 1.85880608194061913707
C  -4.24780442632185462060 0.31633451988986915904 2.61135849164515043697
C  -4.75333708306943769628 1.51977328602983119410 2.14854852259672846060
C  -4.32525709191509655227 2.02347896759264767041 0.93180091751014915147
C  1.15930986006804115362 0.10614396032498596423 -2.42421872828947204681
O  2.16640490609678160183 -1.11580016773187318257 -0.69660142217129683573
H  0.74695333127232110826 1.12186085169484672797 -2.50845660023953076490
O  0.34014064385782694089 -0.85086310331983283639 -2.98218251456395311294
O  1.33012598984126828583 -0.00990588806354786300 -1.03301332226275133230
H  2.12658574581427295414 0.03155067149524398706 -2.93397362684789619891
H  -0.55888099122528345220 -0.78955534125331494621 -2.59050138141635777345
H  2.75289767962332110329 -0.75346339260871952881 -0.00534171369006464225
24
1 Eopt=-39.4227432337 (Eh) Einter=-4.497064 (kcal/mol)
C  -3.81422856211355565392 -2.01522375598730008051 0.13604778724413990609
H  -4.31997866264014618309 -1.37804699225797278039 -1.64662110310681097936
H  -4.74712279258795710746 -2.55174486245956000374 0.35537133755473271357
C  -2.71525240486275576401 0.17173988249344313006 0.68249627719520544744
O  -3.62366736332984906710 -1.93132278513453603530 -1.26664872802022610010
H  -2.97411491970904506843 -2.61372504416592121856 0.50283380460896121011
H  -3.79478380554337135777 2.79827323120744164697 2.51291956404665928204
H  -5.76357078521875720867 -0.89471575345829412740 1.67162938271516114952
H  -5.74896915171966860214 1.31249666957782373800 2.75841233793323725720
H  -1.85238372187377242639 2.06041783921201560048 1.17951217132492169881
H  -1.86512157020662994178 -0.15560242347035690980 0.10236335459063772291
C  -3.81473373955851391415 -0.66874356209813323737 0.81523145640362881803
C  -4.90570031087164704076 -0.24645577935968387973 1.56296150761016106046
C  -4.89717271101054762994 0.99520394570862036332 2.17553698666955952490
C  -3.80069932743862404223 1.82886926147352246730 2.03752267668210151896
C  -2.71091160487363458387 1.41508848639269291247 1.28884318423312849156
C  -0.31366062248863979534 -2.35988598186767628562 -1.51805276590578697160
O  -0.73672486470091813615 -3.65759028748853953772 0.37916178064825767358
H  0.17086300856542768756 -2.54353770333487982924 -2.48701191764844331544
O  0.06372487701726781140 -1.15141032797218390016 -0.95765586094032673081
O  0.08870770477614042804 -3.47885485452272291695 -0.77780344816084845405
H  -1.40326750989235282674 -2.33376167958373859079 -1.62941882135367399620
H  1.02616583586124487937 -1.11736843870787994071 -0.84031280123468543586
H  -0.40822244016952735635 -4.50201931704635516240 0.74029130880314664154
24
9 Eopt=-39.4224962780 (Eh) Einter=-4.342097 (kcal/mol)
C  -1.72831519510021158759 -0.52806360379810901584 0.54452333628418592149
H  -2.08680113598541305819 -0.62994419335549634020 -1.36379065170429725207
H  -1.59188907372183185984 -1.60623540929380648201 0.70404137236959218882
C  -3.66436129134549704034 1.07032456511745843741 0.52269768634205826530
O  -1.43558519206346479891 -0.19149545689331815002 -0.79499719182747763391
H  -0.98197585497128070386 0.00455834366309060268 1.14456722987910741729
H  -6.66034978080039330450 0.94104252248296293981 2.07538127842329966910
H  -3.43113299902525170637 -1.85111700516718769016 2.19714576192303034929
H  -5.68986049498755797060 -1.17020940032153020205 2.90417901438211778498
H  -5.35654587660634273760 2.37202233991285194037 0.54210779966653488415
H  -3.09051903828992680090 1.68587117725685131653 -0.15361589438668654672
C  -3.11318399175310167593 -0.11908768134067138078 0.98134610618138884419
C  -3.85223124101338809666 -0.92198846961200864314 1.84066011348154856542
C  -5.12216913548818286728 -0.53874222292631213094 2.23691562311981861910
C  -5.66718089939033209390 0.64664238602040735593 1.77138189955327440828
C  -4.93578442943919881714 1.44992752690981951957 0.91265221517523231753
C  -5.36314493487281129802 -1.24557153856517976998 -1.70234658946584338501
O  -3.29820345311303020353 -2.33455504332482899343 -1.82115472742020156893
H  -6.39383499327623816555 -1.51714295425610856682 -1.96884705713314622777
O  -5.03120541434065859931 0.03939805491813924698 -2.08113485161900957365
O  -4.62415170885404958057 -2.24165059830353996517 -2.35285361603224441041
H  -5.21790624584603079938 -1.30315948331776509939 -0.61809935620769462794
H  -5.19405337902820463114 0.16910716833183989105 -3.02902187966016800402
H  -2.99656492415453490352 -3.19313163765260554783 -2.17395500881989356401
24
6 Eopt=-39.4220051630 (Eh) Einter=-4.033918 (kcal/mol)
C  -2.43735966542066861962 -0.32545009712650052602 -0.01514399483764505838
H  -3.14536965255789890961 0.25175946670940224648 -1.74175952879233331139
H  -2.71301605889160857288 -1.37790531787991676893 -0.15453279926421492618
C  -3.48997123451680391071 1.73769919737938960402 0.95274772408528185519
O  -2.30650280024965281811 0.32165272364668884286 -1.26661214975374281089
H  -1.43515677093959803656 -0.29173718038843821088 0.42678422880041577692
H  -5.87602799049599688885 2.11094761685133969209 3.31203012893428372365
H  -4.18569570799533785532 -1.47603718915924631006 1.72459930110686210369
H  -5.74740867725883841644 -0.35219502649456368992 3.25744045211896438019
H  -4.42578443651671982195 3.44823961854951743788 1.82737817577470207375
H  -2.85045724823875357146 2.31369011767971954896 0.29942530351985163772
C  -3.41451712760674563896 0.35093981653299838319 0.91589201080319415649
C  -4.23502125730523104608 -0.39730427267086709797 1.74967199619809754552
C  -5.11401941118145320075 0.23667707043667726707 2.61110129477235197726
C  -5.18681698440616756329 1.61940692100481009597 2.64172295028655224058
C  -4.37400260569723009496 2.36974891173507806741 1.80856371111722991074
C  -2.76928835528861450044 -4.42188484894747091403 1.28896637962185089954
O  -2.33340606610562772971 -3.70341214527473638896 -0.88750094962916281638
H  -2.63875122379942661510 -5.36313502820735443777 1.84047540265484155242
O  -4.00652281770516882631 -3.84385482301382719328 1.50406989623580589210
O  -2.54871303968715690047 -4.82834722852982434205 -0.03313538961753059731
H  -2.02119560006711829203 -3.68321666783931345179 1.59761162697730174642
H  -4.71596885662112264015 -4.45948057228686156606 1.26068279521276194188
H  -1.71035024272924407462 -4.04775444912970883138 -1.55491974044632041974
24
8 Eopt=-39.4219200849 (Eh) Einter=-3.980530 (kcal/mol)
C  -1.75518969252625733901 -0.43141661773651462930 0.52479957375884922488
H  -1.78183724471032145509 0.32454218594161049483 -1.27392845050461711587
H  -1.71320081200323670600 -1.46839785547441592506 0.16912501431486726133
C  -3.65027662371896965965 1.18134386811178293542 0.91837501691117651159
O  -1.26889603232303382896 0.45302791943546549813 -0.46483358986507083976
H  -1.05797808248722668978 -0.33328958672075847947 1.36445789549902141147
H  -6.70278115092886839221 0.70226966540024604591 2.28165477228012392175
H  -3.55879753233153728331 -2.11578880561329718546 1.63633328988844839458
H  -5.82083557895771885882 -1.59658550574000823730 2.45138041507269255348
H  -5.30228232377923358598 2.48258477000565225268 1.29912713500106757891
H  -3.02901991750087429267 1.95601917194893348828 0.49266291073475176887
C  -3.15035001527829061629 -0.11093332914112308263 1.00554174597221956944
C  -3.94143796323887940503 -1.10824452216068802812 1.56277990774041719568
C  -5.21331841639060122873 -0.81437396054808730561 2.02112762758282027420
C  -5.70883268349647643447 0.47598392279414325490 1.92579167316952459821
C  -4.92419282561566262757 1.47378115518656960248 1.37361801194638966095
C  -3.16589461892419787858 -4.30419011193353728828 -0.79875189710955418754
O  -3.51891993795209101492 -4.57559459835398651961 1.48826938081853699103
H  -3.32483785670227360853 -4.92476543907954855683 -1.69133535490321107453
O  -1.93931489460086603493 -3.66416714861965964189 -0.80531875892742377232
O  -3.32055637892639454734 -5.23540789475792678331 0.23369797689190341394
H  -3.92898613451630129845 -3.52103669470780644701 -0.72938351807103241065
H  -1.21942755275589842512 -4.31068192980370934464 -0.88295721670598759090
H  -3.79042120507233626370 -5.30733224381036716721 2.07361158663165934257
24
3 Eopt=-39.4214890833 (Eh) Einter=-3.710073 (kcal/mol)
C  -4.13850482785281226228 -0.36858322473420035426 -0.71394153502770008046
H  -4.15280533922897365784 1.27076292396784196193 -1.77291606737791451742
H  -5.18149547922905906461 -0.64480871908161807582 -0.91817754536218099126
C  -3.01270053310532848201 1.10992074621202618800 0.98435025008520726786
O  -3.63101290209939220333 0.45707135282864164161 -1.74209916146427556960
H  -3.53922606845527454311 -1.28528139966949361828 -0.74801366657399470661
H  -3.78080692226632608666 1.72780423590766063491 4.21440451927333814552
H  -5.76594736077340641600 -0.79500851284251106144 1.39120710264126867806
H  -5.60258712681463144634 0.15815575265726453114 3.66328498766266807962
H  -2.11921016326178479616 2.33238503102435235093 2.49265244322901535767
H  -2.28594163966448027381 1.36429002080767269867 0.22644939075943859574
C  -4.03974511602346275652 0.23177807266682212695 0.66604703030978185119
C  -4.97158003617168198218 -0.10627532785791804493 1.63897743003866214195
C  -4.87518085241399390384 0.42702549082620494536 2.91184882505981690315
C  -3.85218484284563000841 1.30852031353000342051 3.22194363613611933772
C  -2.92090601228869317652 1.64876645122563636470 2.25579074138541457728
C  -5.32201089486461054179 -3.97994939961379845528 -0.89807283336105903082
O  -6.95358015014967101308 -2.53631520735041426917 -0.03340028450975740526
H  -5.33141329931884655480 -5.02210015980944302072 -1.24708391984897049021
O  -4.21989205711266102128 -3.69020259389887872459 -0.11581009400904029860
O  -6.54871480880961343018 -3.89217684701619326404 -0.22601602382446639439
H  -5.29488349524473100871 -3.28808968089484654485 -1.74657923471461917764
H  -4.16979054451783781587 -4.29766525822740774743 0.63894060119000228859
H  -7.92225061998292368060 -2.58175339025977468310 -0.14799484530735962373
24
2 Eopt=-39.4214801486 (Eh) Einter=-3.704466 (kcal/mol)
C  -1.92153641939584507448 -0.32774219045500507796 -0.51640244786028288715
H  -2.04597080068818826248 1.51215178648730264044 -1.16184781365670919406
H  -2.25933359804693001394 -0.79860129557372538933 -1.44947243153714011576
C  -2.97873870306274968200 0.54135517788872533629 1.58755797487167837900
O  -1.36394564743378454708 0.94341627548016437910 -0.77905230953205406585
H  -1.09842546524649486983 -0.92714339588481653465 -0.11057718788049530900
H  -5.87416508605169429558 -0.28473865357498662210 3.11642606790823695206
H  -4.20163436123953548673 -1.80707130537175308937 -0.50550318336549304732
H  -6.00373214372264918381 -1.79666348888291627084 1.17149855662371171761
H  -3.92919863909667643753 1.21391595351038006356 3.37803037303223252508
H  -2.12088520512306644150 1.18825713532928944893 1.69589580650544968776
C  -3.04593837455502569611 -0.30574052649243188551 0.48904044283716419095
C  -4.14344419241160899503 -1.14435815199530943609 0.34612666872599207046
C  -5.15580733311126859775 -1.13907528044132733136 1.29021151507070208631
C  -5.08283102114873486244 -0.29044277773255600117 2.38207447172625830234
C  -3.99256674069817352191 0.55128996391430917789 2.52805887618479285806
C  -2.32955455478426287641 -2.76990851186774467152 3.06933969102563075637
O  -0.36334822131358857078 -2.04072801426184646800 2.04279698263725917329
H  -3.10975529326166189037 -2.27804538576895510005 3.66564005833408135260
O  -1.98410499335398271548 -4.01619713948580692175 3.55886899790291177936
O  -1.28959408466658320691 -1.83262805341142231974 3.10819062571177973098
H  -2.67617599574156717068 -2.91233075048586886879 2.04101386153144925828
H  -1.72694878369232074355 -3.95674773043037664166 4.49297226457759268925
H  0.50591989583178698098 -1.89478404471900829797 2.46285857874531899370
24
11 Eopt=-39.4208839770 (Eh) Einter=-3.330363 (kcal/mol)
C  -2.20601899349433461239 -0.93496088594929194215 0.57194431895214337125
H  -3.61614406148325118195 -1.99613598940266334658 -0.26477581156567442378
H  -2.10228135636329405145 -1.56324307177014754089 1.46709103163390208735
C  -3.61700327509847063823 1.02733363046612558023 -0.11406355062105300036
O  -2.73048593477499235149 -1.68885996990686337860 -0.50164497388503437314
H  -1.20144292225928506213 -0.64047206832463565718 0.24863905582645473569
H  -5.01967941467294131996 3.49187741342607438355 1.72406437546218427315
H  -2.66326839852600816272 0.17399727719748300792 3.00966027583824224934
H  -3.94537671512864074330 2.21686881929114543155 3.52902629695166947243
H  -4.81188243030600037997 2.72527190175552735951 -0.61855992461453035425
H  -3.51667937907566630074 0.68602655340458618127 -1.13439516262318718098
C  -3.00791004991884447506 0.30118263358594143941 0.90125573842063466667
C  -3.13359730759195098670 0.73463558636033243765 2.21461040457654556590
C  -3.85256422838196677105 1.88050484777772441980 2.50712975461215581419
C  -4.45903812363866780544 2.59919102384056888155 1.48978428159016318411
C  -4.34175304170272280402 2.16905731054012962389 0.17868981058481592239
C  -6.21734110983086907254 4.05551941558495254725 4.99232601057021341262
O  -6.22710980894549770426 5.22214907256152294224 2.97028156564589318478
H  -6.76245396598177883618 4.15074561881102788163 5.94215981914119861784
O  -4.87062903568093119588 3.80155997690765090624 5.17669849299223283623
O  -6.49468838227036382449 5.28013100269261670405 4.37495808849857414913
H  -6.61495496007924810300 3.22544646392462031059 4.39844138411417429069
H  -4.45705558190807238361 4.51432888748418736924 5.68882520969783733733
H  -6.70030592403745117736 6.00546229280371868242 2.63201763528438448247
24
5 Eopt=-39.4192608383 (Eh) Einter=-2.311828 (kcal/mol)
C  -2.07532446810309778584 -0.67889348539894767143 0.21539447656530796849
H  -2.40698004113746977239 -0.03879761451500035596 -1.59939225747407154365
H  -2.35635492496721177247 -1.72317519010741304619 0.02187573089431693596
C  -3.29394174442198295338 1.41675680424130678858 0.88179507150571101448
O  -1.66458181077160327632 -0.04935422744684686558 -0.98001041403395050544
H  -1.18600131812847564561 -0.68271310373918181469 0.85551581626156947280
H  -6.03736216272037218289 1.86192957397652758544 2.80539089262281615689
H  -4.07277267758494065930 -1.76419653609869864219 1.69784474338075819233
H  -5.88028890396353087766 -0.59229031420639111083 2.89458845092720640224
H  -4.37664739596656282572 3.15064740641632390350 1.50442961743891934212
H  -2.55993470143519719073 1.97214443417584095464 0.31592244359563670386
C  -3.19949137628199276051 0.03206386518264919827 0.92991451541137637449
C  -4.13960737258168443020 -0.68653142087682739181 1.65693278786642861355
C  -5.15390044388720180990 -0.02782900039670682668 2.32922347391663908667
C  -5.24446639474420273075 1.35360375718056813454 2.27794899808893802629
C  -4.31243637457111805844 2.07380033736721447468 1.54961057661805901020
C  -8.97380168080764661909 1.23025189933167111711 4.02063947503476715184
O  -10.51696299086823316316 2.94999954867997349339 3.68686624934730655667
H  -9.01737258705844801909 0.22375237352461374574 4.46040110961502733744
O  -7.85546378056761351871 1.93730711183528203634 4.42111947124732296288
O  -10.18851135949731911978 1.78288639224109513037 4.44377600990770016409
H  -8.93343863523039694030 1.17428038883407159787 2.92719275341735674090
H  -7.84154286428968916312 2.03356575856663202018 5.38650187848823058800
H  -11.49260110969611936582 2.95065987871005841470 3.69998428314085359148
