24
-39.4240281174
C  -2.14798714515663213831 -0.63009679428140064061 -0.17712227985184464396
H  -1.85522234026868160228 0.74516125517865816619 -1.51872824566970288096
H  -2.42424408438405203370 -1.41534479783608002634 -0.89507748156490918312
C  -3.47386984610944749008 1.26204719523646402557 0.82742565454834471339
O  -1.33841132568187792806 0.34198433549034995549 -0.79976961330765594660
H  -1.51913639848987380709 -1.08163700711259713749 0.59871872172218887354
H  -6.62399275531299025488 1.33837810769674470102 2.04496347913918352646
H  -4.44919216448816445819 -1.93446419926977175585 0.36860574390997202787
H  -6.50331016021714347630 -1.03866549121615348028 1.39488725520517631296
H  -4.67550208421185597985 2.80984122960508297950 1.67970548205222791616
H  -2.61708616531856552712 1.89863086731292285414 0.66356091147015172638
C  -3.40081245759987638166 -0.07319572081286231102 0.45397664387510561212
C  -4.50031500068558365513 -0.89706653176426254248 0.66473133385593219380
C  -5.65352914408380069489 -0.39136104899045554006 1.23752708549444045971
C  -5.72190845886233390161 0.94378492098515542885 1.60233356251602265807
C  -4.62957521754344281106 1.76894261513030559563 1.39636375955319347320
C  -4.56533788099067905364 0.80895053500539071401 -2.77040028639516089370
O  -4.26436601400618009450 -1.50301316670919660190 -2.80717159048556341716
H  -5.27119695328954129820 1.51008921567553477949 -3.23428219368912683862
O  -3.25523611372566934463 1.25730865868608843172 -2.83488079936329162578
O  -4.79887852116206570230 -0.36463029174537459065 -3.49151510500805528636
H  -4.80030742160914680738 0.66744817738352635317 -1.70996156713555613749
H  -3.00808267870126755383 1.44377403051631292286 -3.75485509347976531558
H  -4.59462404382354439036 -2.24451144998798834962 -3.34821406671440247038
