139
Coordinates from ORCA-job job
  C           0.53577363326033      4.79625875906702     -0.39237211240832
  C          -4.42251281109479      3.27566312139515      0.44624053863316
  C          -4.99773540123171     -1.75314581584842     -0.60606298099386
  C          -0.68457152691968     -4.76137742172893     -0.73275973413867
  C           4.28878029904589     -3.31561628871671      0.12462510611602
  C           4.86247040277778      1.79829978441211     -0.60453573962697
  O          -0.36652430855472      3.74242805864467     -0.15667267268189
  O          -4.39189163305982      2.27429926629902     -0.52064370926950
  O          -3.60699579421689     -1.84698761246228     -0.83896067751200
  O           0.26648130296835     -3.76638761194802     -0.45763116524516
  O           4.16180289732823     -2.21200771516444     -0.71716541823831
  O           3.46703778916008      1.93952317226101     -0.78313809386342
  C           1.11426341757131      4.64018051571113     -1.81053898001078
  C          -4.03566132985259      4.58631809538456     -0.26539041943728
  C          -5.64322503948419     -0.97598780961818     -1.76456671908236
  C          -1.29901651195615     -4.48170055917508     -2.11619596554819
  C           3.92675982686935     -4.54932292834259     -0.72487036771085
  C           5.44225665221142      1.07482568042355     -1.83194729596327
  O           0.12541454085711      4.63979171637368     -2.80504550836141
  O          -4.91160294412551      4.89654591781119     -1.31121763707422
  O          -5.43457478252369     -1.59549668961642     -3.00441091011113
  O          -0.33703056901375     -4.43276345634861     -3.13577872822660
  O           4.78810968614994     -4.70433416972277     -1.81659824852840
  O           5.21060096704379      1.77562259516114     -3.02315918397355
  C           1.85690200864767      3.30050563202238     -1.86181333363099
  C          -2.59489576301563      4.46094247280527     -0.78709933161209
  C          -5.09880774668454      0.45804097146297     -1.75961581483751
  C          -2.01490240327868     -3.12684736496802     -2.04804880489546
  C           2.47420443179347     -4.39075337653099     -1.19639853283230
  C           4.84841606747271     -0.33853272673085     -1.89180487143953
  O           2.50975810816877      3.09175153436335     -3.08950476036428
  O          -2.17432302110607      5.66507541863642     -1.39257103241399
  O          -5.78640742531839      1.26532761407091     -2.68290880166482
  O          -2.70314121835899     -2.82295680219822     -3.23629859627026
  O           2.04579756883734     -5.51598594489840     -1.93383003538201
  O           5.45221233906620     -1.10639938757750     -2.90321389109059
  C           2.91546883046780      3.25004720518961     -0.75554369452204
  C          -1.63968875211661      4.08946026279805      0.35770055488593
  C          -5.22273390377741      1.12668158340293     -0.38212925613572
  C          -3.03660248872838     -3.14589899564147     -0.90734858559959
  C           1.53791250373561     -4.18988868845857      0.00260650780871
  C           5.03041918704403     -1.09495324828402     -0.56849593080730
  C           2.29951658131548      3.58321759219934      0.61497784286753
  C          -2.19203416207045      2.83995658996854      1.05433428998194
  C          -4.78930478526014      0.19911527486958      0.77104648101576
  C          -2.36297677722003     -3.55482037958625      0.41412752416453
  C           2.07420134978356     -3.07087557528436      0.90452930091636
  C           4.67145091983656     -0.23488793149187      0.65727761082725
  O           1.57059656777102      4.80722503819964      0.54905606383794
  O          -3.52293577527340      3.03136569597627      1.50783639070198
  O          -5.27687876238900     -1.13599820055245      0.61076702095153
  O          -1.68495082116198     -4.79776110494180      0.24584090739851
  O           3.43822613459653     -3.24374290169831      1.25121998726223
  O           5.16932899915417      1.10324928011642      0.56287830243324
  C           3.37784175312122      3.77038968813697      1.68843936856038
  C          -1.35901394026352      2.44144897907116      2.26923708619847
  C          -5.35517124671876      0.63840471015956      2.13396134512111
  C          -3.38450282581262     -3.76583328470059      1.53781661557085
  C           1.26199641271367     -2.97697317678648      2.19585531946761
  C           5.28244584177048     -0.78632589394885      1.95875117490273
  O           4.28042996151338      4.79650891875743      1.36061930874936
  O          -1.69778317844637      1.22506232513572      2.67165016818564
  O          -6.73929614513951      0.86772736573399      2.09317060721537
  O          -4.33581954563256     -4.74569929083197      1.21137703984121
  O           1.65109581781310     -1.93935796569843      2.92194397973484
  O           6.64866640817351     -1.08554045562804      1.83301384215631
  H           0.03965725980776      5.76829414050902     -0.28900994747533
  H          -5.41079659744690      3.36072598851611      0.91617172271391
  H          -5.44180008195730     -2.75315446261586     -0.52666079556790
  H          -0.22796139000071     -5.75846360959916     -0.71598737244900
  H           5.30285213466285     -3.40437313382875      0.53419658531494
  H           5.33452666281871      2.78127935533986     -0.48531566156630
  H           1.82751541973387      5.46166346082235     -1.98446449600998
  H          -4.09451121110038      5.41193033417358      0.45143216131658
  H          -6.72760663106653     -0.94938758682973     -1.61257607789392
  H          -2.03656253625925     -5.27139089269606     -2.33180140509509
  H           4.02401843692152     -5.45271882578887     -0.11462307968809
  H           6.52986053290880      1.00494774205423     -1.72309804673233
  H          -0.63794037504017      5.16652688288340     -2.50572859191513
  H          -5.07453268600477      4.09356537700486     -1.83331760117616
  H          -4.50549712080122     -1.88123759461597     -3.09012664932931
  H           0.45148311993349     -4.94218928974167     -2.87073254323414
  H           4.90434714144902     -3.84305643003541     -2.25176946133391
  H           4.28879149637933      2.09386792714989     -3.05667914777387
  H           1.11176118934131      2.50992225592834     -1.68903416438303
  H          -2.55937998995217      3.64511489572170     -1.52502828957681
  H          -4.02756248343990      0.42798385209886     -2.01232955819156
  H          -1.25484760018288     -2.35951524745514     -1.84136734658856
  H           2.40930229969516     -3.48987228948751     -1.82477193638654
  H           3.76638195800527     -0.25670998404831     -2.07781243247554
  H           1.88634141362513      3.30019916105604     -3.80279880691262
  H          -2.94791037327145      6.05441643447283     -1.83598430797234
  H          -5.86884465048586      0.77385550855329     -3.51563743352149
  H          -2.10720571320421     -2.99157047986024     -3.98290407279576
  H           2.79950680092413     -5.82391223280983     -2.46572876568399
  H           5.51463630418580     -0.56174268022103     -3.70399173637779
  H           3.69550983396964      3.98724286444978     -0.98439978190266
  H          -1.55267003118705      4.91672433844829      1.07328247048899
  H          -6.26382722122418      1.44170659561408     -0.22424433359026
  H          -3.81508384160423     -3.88091905883482     -1.14885412204355
  H           1.44839338826864     -5.12211874263056      0.57443989562005
  H           6.07016746055126     -1.44081677010530     -0.48920661457249
  H           1.62365059008238      2.77798830666949      0.92282210747406
  H          -2.14963122541073      2.00619393407148      0.33597599433937
  H          -3.69465239610087      0.18867604634335      0.82409190642046
  H          -1.64223025982006     -2.78514772750855      0.71525551450394
  H           1.93563444311030     -2.11382989996868      0.37551526612442
  H           3.58071311422079     -0.21898278583015      0.74776378541421
  H           3.96188645993778      2.85320616348431      1.77296314026898
  H           2.87619960865607      3.96733357979937      2.64102092871562
  H          -5.11215379120000     -0.14905989836122      2.85593743506100
  H          -4.88601140328942      1.56876977868365      2.45119376375941
  H          -3.93583771222321     -2.83901748541926      1.70635973704054
  H          -2.83534385104455     -4.03644752900234      2.44630157121514
  H           5.12516835100105     -0.03574109174594      2.74073867681175
  H           4.77953566692953     -1.71250015162938      2.23898835082254
  H           3.79484425424048      5.63393358116537      1.35525367819042
  H          -7.18512703750445      0.02465861553970      1.92768289697238
  H          -3.87565020396088     -5.59269149074205      1.11796605824247
  H           7.13833657368869     -0.25814666463533      1.72055901695284
  C           0.73558320020641     -1.44624242587454      3.89584664159271
  H           1.29737140565270     -0.81331567472974      4.58312882305884
  H           0.24371434794294     -2.27361389483934      4.42659576568097
  O           0.39098740326605     -3.74566462977688      2.52031551143623
  C          -0.91834513317351      0.59964702110053      3.68902761388332
  H          -1.56460808980411      0.35871316174956      4.54113738122992
  H          -0.10997303994020      1.27615938306187      4.00812100767956
  O          -0.52007086203829      3.12950883130840      2.78897646529559
  C          -0.30929315135258     -0.65825201147644      3.10492281086322
  O          -0.60086885585070     -1.05075434292245      1.98739368483180
  H          -1.35743890343828     -0.27561057946958      0.50748554584257
  O          -1.49336334777278      0.08358043648330     -0.38900060818421
  H           0.56271880841923      0.16970295268044     -0.42262773150582
  O           1.44371685995373      0.11300024001945     -0.01275655678693
  H           1.73957448831111      0.64585069079361      1.85794123899622
  O           1.92255767551016      1.03427515315750      2.73211383032505
  H           2.69954816049565      0.54924946706608      3.03805900148890
  H           2.00343930674647      0.75859647872277     -0.47537396484802
  H          -2.14106964163279     -0.52960240245149     -0.77199828845041
