133
Coordinates from ORCA-job job E -252.583552699340
  C          -0.36406216931836      4.21551803030392      5.35376512557962
  C           1.01511933867327      1.13716395564216      9.36806116449835
  C          -0.82805385705261     -3.77465520199923      9.65675356232409
  C          -1.64410787578138     -5.50354180345111      4.81650501409020
  C          -0.74368155406821     -2.68789286388291      0.48381002923598
  C          -1.33926114804577      2.46780184399190      0.51996278579129
  O          -0.17906642260141      2.91391188838401      5.85692030793629
  O          -0.01926369293580      0.21734557049986      9.17983646210971
  O          -1.51832078209883     -3.68143506094678      8.44418130584346
  O          -1.38852268540857     -4.21548215609871      4.30364104039464
  O          -1.57829549411306     -1.60235267905455      0.75262736022873
  O          -1.58502061865970      2.40818049147479      1.89931318379270
  C          -1.84731236540115      4.41465625768132      5.00234927956643
  C           0.36308974748761      2.51749696176993      9.55349919945416
  C          -1.54749004729001     -2.83578626748808     10.64290861805338
  C          -2.98413940468672     -5.48122197542377      5.56352701896052
  C          -1.61076338598647     -3.95885478506841      0.54899436361768
  C          -2.56456150380577      1.85134423429536     -0.17619993870784
  O          -2.70446960433134      4.20890796407858      6.09414966570250
  O          -0.51346990714833      2.54359780023456     10.64436830370106
  O          -2.89015519162855     -3.19167512458449     10.81835440908760
  O          -4.04708191813392     -5.05911968552122      4.75106819808641
  O          -2.68800824092411     -3.90699378942597     -0.34144633991113
  O          -3.74004204837836      2.55449191964552      0.12034378380561
  C          -2.21365454582199      3.41636001335408      3.90002854876592
  C          -0.36825162609553      2.87843047523881      8.25392300845423
  C          -1.41956326661897     -1.40053884463427     10.11270156483993
  C          -2.85552677195464     -4.50816335566994      6.73836816455304
  C          -2.10692079642330     -4.15466145114542      1.99136022451676
  C          -2.67313950561938      0.38444593070374      0.26390761466551
  O          -3.51469451187178      3.62392995142817      3.41187517370495
  O          -0.91474964303644      4.17805627830215      8.32882092418474
  O          -1.92797505068943     -0.45811234462110     11.02384759892430
  O          -3.99114394774199     -4.53181526868273      7.56451773819304
  O          -2.83490899838154     -5.35692183497682      2.10700271756125
  O          -3.66808678333323     -0.29949814248452     -0.45559036219585
  C          -1.25338618265140      3.52251814824234      2.70961101125440
  C           0.57941862055152      2.79732190428238      7.04571794000656
  C           0.04499436347141     -1.03687340754275      9.84244454200923
  C          -1.64093929267294     -4.83220969386393      7.61901825411290
  C          -0.91808857856771     -4.16657240340357      2.97215085304755
  C          -1.35577885167659     -0.37722317175890      0.06463750941165
  C           0.21566085392789      3.50756165670379      3.17080821108912
  C           1.28956217746640      1.43518971301270      7.03987020777222
  C           0.74444314720294     -2.11291667399332      8.99438686866734
  C          -0.37054809623028     -5.09727685955651      6.78917016532565
  C          -0.12742534924669     -2.86338850932290      2.75120496717778
  C          -0.14720601719720      0.41113270432498      0.60529191541436
  O           0.42337412188807      4.44759064506568      4.22353064874919
  O           1.90929999032824      1.16931004638673      8.28303651388989
  O           0.52343439964581     -3.41044182713924      9.54256730810754
  O          -0.62855395930283     -5.94372311276290      5.66761732819618
  O           0.31468166539401     -2.78251618097777      1.41330675382130
  O          -0.18147040594833      1.76753907020369      0.16159377374799
  C           1.19233156114820      3.92369282177728      2.06183733450632
  C           2.40491299444352      1.35550848140264      5.98389616101393
  C           2.26936585095015     -1.93343382843890      8.96282888372337
  C           0.71236580967638     -5.83903550659688      7.58794773269918
  C           1.08514287461182     -2.68872974095964      3.65715622933335
  C           1.20462862179674     -0.12742773800742      0.10677033678409
  O           0.85775271216224      5.16381994912482      1.49357654492340
  O           3.45930468981125      0.63884323587644      6.47492887936419
  O           2.82504724215216     -1.91126454137663     10.25051979038864
  O           0.23572871666906     -7.03280236728578      8.15229565088343
  O           2.07250146959165     -2.10119055288693      3.00680869717470
  O           1.22861173818232     -0.31236680711920     -1.28449324314721
  H          -0.04613098911253      4.96589388425604      6.08803659006393
  H           1.63452142293634      0.87538515420027     10.23528823675554
  H          -0.82044551013100     -4.80602867596581     10.03436423489990
  H          -1.67605480022230     -6.24314856911803      4.00726953939453
  H          -0.26014496276935     -2.59420560295640     -0.49623499801450
  H          -1.17722911396744      3.50057850002986      0.18584254564897
  H          -1.97033121846505      5.43963673068864      4.61691084345213
  H           1.14265814650137      3.26020876080633      9.75320316835548
  H          -1.07366743526004     -2.90663592656399     11.62697990290256
  H          -3.17915145649858     -6.49398573480549      5.95055601620078
  H          -1.00265021628179     -4.82146451871725      0.25672177506993
  H          -2.43603620185069      1.90201804808773     -1.26183582492803
  H          -2.21710833334046      4.35560311585435      6.92634497857442
  H          -1.03352895898239      1.72064894362238     10.66629403227885
  H          -3.28237597403430     -3.39087193236279      9.95219836924887
  H          -3.86908944810275     -5.31444244001282      3.82802541581528
  H          -3.09712633852816     -3.02635993107035     -0.29911548465015
  H          -3.76390610028500      2.75258621783080      1.07188084310574
  H          -2.11889295915479      2.40337451680545      4.32065756147477
  H          -1.17390945925654      2.14636999626272      8.09073510955600
  H          -1.96134967421755     -1.33379510020717      9.15631966313490
  H          -2.70277432714456     -3.50096979353155      6.32143650424322
  H          -2.75369615601378     -3.30612855960990      2.26272725282231
  H          -2.90308044484060      0.36762213688004      1.34115328901898
  H          -4.11509504058069      3.68971639893171      4.17078601681352
  H          -1.22919326451804      4.31243063403549      9.24038612377297
  H          -2.76645340315529     -0.79704163632965     11.37707899832081
  H          -4.77668700942808     -4.43631151479496      7.00333662950338
  H          -3.33889283443854     -5.47373267973653      1.28233541413536
  H          -4.46189781623582      0.25779870299227     -0.48598970343838
  H          -1.45591668667245      4.45539070363321      2.16542924243901
  H           1.33063911685507      3.59588408064984      7.09910355026681
  H           0.57385755428599     -0.92845604290687     10.79877040838793
  H          -1.86824377164526     -5.71169538412034      8.23814951968377
  H          -0.26716997274153     -5.02618302680965      2.76481517259915
  H          -1.21061069817258     -0.57651955855219     -1.00580872062575
  H           0.46360975973057      2.50124606090163      3.53377389057317
  H           0.54546348469509      0.66102047110922      6.80819805636652
  H           0.34962209162119     -2.06808340401017      7.96993864679111
  H           0.02055418663783     -4.13686066749519      6.43300437625926
  H          -0.79948534598417     -2.02087818590332      2.98434889928877
  H          -0.16993486021880      0.38475074056956      1.70362914100563
  H           1.16787688736769      3.19301809636648      1.25302653570307
  H           2.19192052701438      3.95765104374749      2.50753929622455
  H           2.68934327296486     -2.75256021410304      8.36726100690362
  H           2.52171386518183     -0.98149338825994      8.49250524185358
  H           1.05728728760964     -5.21599750890743      8.41205755888392
  H           1.54854129701929     -6.03410000258392      6.90717782052548
  H           1.96938664047034      0.58970053202836      0.42149211031446
  H           1.41299218004960     -1.09434038512916      0.56343636399152
  H           0.94461620593815      5.84493980006364      2.17590646555606
  H           2.67156170470173     -2.77319410069820     10.66584142283883
  H          -0.00459416697988     -7.63562580548247      7.43367293691685
  H           1.17022885162626      0.55394354852616     -1.71274678596473
  C           3.23632551763775     -1.75331110131113      3.75136827481732
  H           4.05386614287570     -1.72894121555010      3.03409044357365
  H           3.40671552865690     -2.50444054205895      4.53081866853063
  O           1.14081410034265     -3.02934994757936      4.81411775447429
  C           4.17792848847222      0.01871915882686      5.42632816022906
  H           4.68547861662000     -0.83974435980542      5.86383525407894
  H           4.89687619432223      0.70904596638218      4.98130775484437
  O           2.57709874314707      2.23913499771943      5.13542824571055
  C           3.04018100973903     -0.41309218917762      4.44960038561387
  O           1.89682411234101     -0.10209490001820      4.89414106888498
  O           3.28157319088781      0.73128479532108      3.09680451702853
  H           3.05007422678331      1.55964085706647      3.59781197173259
  H           4.21066646104586      0.79709479017057      2.79968779720910
