133
 xtb: 6.7.1 (edcfbbe)
C           -0.36337809011517        4.21501486260226        5.35323766721009
C            1.02071376407138        1.13479232359826        9.35637661045674
C           -0.82803784476436       -3.77445486164815        9.65662235952792
C           -1.64418915683532       -5.50349532990888        4.81659190837167
C           -0.74361690157861       -2.68793956859940        0.48358623182115
C           -1.33934836874456        2.46806026332344        0.51975509073217
O           -0.18288588329917        2.91061688741007        5.85046102881501
O           -0.01849881243665        0.21787066840952        9.18030355619042
O           -1.51839994321823       -3.68135509717754        8.44426932440981
O           -1.38859741450313       -4.21567018327483        4.30341969740297
O           -1.57809546825927       -1.60247676274104        0.75290137798082
O           -1.58482188426500        2.40800216238061        1.89945895524236
C           -1.84695670071570        4.41521167688988        5.00231971187999
C            0.36982591034643        2.51542186509423        9.54625302819402
C           -1.54716115039966       -2.83554214004199       10.64286182738986
C           -2.98421596528839       -5.48117053986040        5.56357586869736
C           -1.61063248896055       -3.95898774174867        0.54874105504075
C           -2.56459400520412        1.85142636081725       -0.17630585353328
O           -2.70430068073469        4.20997902447512        6.09424477447310
O           -0.50671255560573        2.54158540762656       10.63654399530531
O           -2.88981390533978       -3.19114900134068       10.81824252593955
O           -4.04699418395703       -5.05888668029411        4.75100598913399
O           -2.68773747355753       -3.90690190358102       -0.34184190418789
O           -3.74017183490037        2.55450934501684        0.12031718614897
C           -2.21361294369736        3.41687989266029        3.90006790105278
C           -0.35959268249648        2.87451491055477        8.24603589273181
C           -1.41865929088740       -1.40015284511223       10.11278472859526
C           -2.85556446863322       -4.50816282907860        6.73846413493742
C           -2.10713492179412       -4.15503017070177        1.99106135405034
C           -2.67323416813354        0.38445735959149        0.26384066585795
O           -3.51489933396176        3.62398136979727        3.41207695885522
O           -0.90636555088344        4.17390273962653        8.32049516666414
O           -1.92748771472218       -0.45805931907826       11.02385253709016
O           -3.99121699028657       -4.53186201124007        7.56455760635378
O           -2.83508458172881       -5.35729560615407        2.10660529475963
O           -3.66822983782417       -0.29950028388987       -0.45568782682150
C           -1.25365885327041        3.52262289874012        2.70954485396102
C            0.58502550328258        2.78244675657482        7.03238063586674
C            0.04630604285344       -1.03677026113601        9.84259663237677
C           -1.64100584195027       -4.83233594492299        7.61915131345753
C           -0.91832296000121       -4.16734677955710        2.97177575356167
C           -1.35603615490099       -0.37741283821465        0.06440383837252
C            0.21542151624239        3.50810227781599        3.17089878555019
C            1.27414085354037        1.40697943538880        7.02035834519719
C            0.74508520418654       -2.11296065194028        8.99448721481607
C           -0.37062013940554       -5.09742070510807        6.78939932009725
C           -0.12807857650911       -2.86419149544788        2.75078281237530
C           -0.14778012670879        0.41108472629189        0.60539752368530
O            0.42216934903034        4.44997152396506        4.22250173887983
O            1.90842680703041        1.16140585014308        8.25914280959534
O            0.52366070929171       -3.41049038281939        9.54237785290745
O           -0.62848169714400       -5.94349773630653        5.66762174280803
O            0.31503411976631       -2.78185957597911        1.41340425437321
O           -0.18175039917487        1.76779237982709        0.16203288883843
C            1.19253050072875        3.92340039054773        2.06197812167521
C            2.35783049406734        1.26517655752156        5.91461746835780
C            2.26990719380424       -1.93393091684797        8.96255798174898
C            0.71232256927050       -5.83922880847073        7.58804453851802
C            1.08041852225299       -2.68634782810756        3.65985606713421
C            1.20465657093093       -0.12619842196224        0.10635454706356
O            0.85832111479828        5.16389769740285        1.49356942648454
O            3.47676621003152        0.63493546867630        6.47157968507363
O            2.82539348938774       -1.91097846329799       10.25036779754942
O            0.23565422503121       -7.03297881664585        8.15246488904710
O            2.06294492558431       -2.07838677620583        3.01759476104617
O            1.22843535521932       -0.31374429862097       -1.28458582053329
H           -0.04537232598195        4.96480963267321        6.08859669789487
H            1.63822799990773        0.87466113913788       10.23042881329064
H           -0.82041670167521       -4.80595406194193       10.03435637346460
H           -1.67611757931006       -6.24318453656150        4.00735765198658
H           -0.26015762216651       -2.59423646458517       -0.49630509532185
H           -1.17731293611179        3.50067076680227        0.18582650629633
H           -1.97011937732996        5.43986950279373        4.61703151493179
H            1.14471165157608        3.25948395771732        9.75109447477882
H           -1.07354718878317       -2.90655731766646       11.62696047472844
H           -3.17921355729935       -6.49393105403685        5.95061326315797
H           -1.00270790277600       -4.82154790997399        0.25663259617313
H           -2.43614697223286        1.90206804379986       -1.26188393844550
H           -2.21647645023306        4.35438837793252        6.92628555882394
H           -1.03162838556342        1.72004155251184       10.66447625553753
H           -3.28230737028387       -3.39063194806110        9.95217091928341
H           -3.86925214041338       -5.31478229134448        3.82809604705979
H           -3.09726435981542       -3.02642698900119       -0.29898746156528
H           -3.76382781110398        2.75275389429959        1.07183937836100
H           -2.11878474353255        2.40365613992623        4.32095672220702
H           -1.17190185659759        2.14558054767591        8.08920408241420
H           -1.96092142576626       -1.33353860105293        9.15627220145355
H           -2.70274541825740       -3.50091413989446        6.32157271733348
H           -2.75377477417542       -3.30623944474760        2.26270368626132
H           -2.90313745744358        0.36771121339193        1.34114249088672
H           -4.11502809261608        3.69015947422192        4.17086346746366
H           -1.22589488955442        4.31129092547765        9.23874410097682
H           -2.76629506313170       -0.79713396742099       11.37705333176978
H           -4.77670651468192       -4.43622602647850        7.00337512701767
H           -3.33899173667318       -5.47382196119797        1.28228117012815
H           -4.46193691059144        0.25777648439382       -0.48600441839543
H           -1.45604051389225        4.45540289703507        2.16538477995512
H            1.33642476972944        3.58766465082027        7.09363152811641
H            0.57436788813377       -0.92831742171114       10.79876115982594
H           -1.86830495648528       -5.71166533814800        8.23825306556227
H           -0.26734287164575       -5.02648103783163        2.76478422523509
H           -1.21085153692226       -0.57663086002565       -1.00588007997441
H            0.46343063981755        2.50187635454077        3.53508070221120
H            0.53497957267003        0.65544672399055        6.81353839763729
H            0.34986928322104       -2.06779619133342        7.96998860368757
H            0.02051781994689       -4.13681718009227        6.43332504270397
H           -0.80006265060225       -2.02130223965443        2.98413469474332
H           -0.17073099870356        0.38479793897852        1.70367092288824
H            1.16764044786485        3.19325197468393        1.25276768124880
H            2.19175610204570        3.95758691245057        2.50805132413745
H            2.68947173356182       -2.75302411714554        8.36758910584692
H            2.52202860608579       -0.98195606759369        8.49170507412570
H            1.05732280419266       -5.21600950871240        8.41203935127807
H            1.54850907738243       -6.03419215287667        6.90720784653651
H            1.96857385946525        0.59152443953181        0.41996439449136
H            1.41363520833360       -1.09378283124533        0.56353891992294
H            0.94460796953132        5.84483393499409        2.17598958631163
H            2.67150720706065       -2.77311707617081       10.66585012515550
H           -0.00457531764916       -7.63569041110063        7.43372369040785
H            1.16921723024554        0.55324295448276       -1.71332478246641
C            3.22005479896361       -1.72648938519038        3.76988273413588
H            4.05346290269837       -1.73687119225941        3.04336319968590
H            3.39153079792870       -2.48766130870305        4.54648020363450
O            1.13757990268864       -3.03103728397096        4.81444036868020
C            4.19939319051808        0.02147486641160        5.42655177063391
H            4.68163009588636       -0.84701808809098        5.85942154194560
H            4.91191695894037        0.70938931360322        4.99386841942567
O            2.57106704323820        2.22174362531595        5.11466254670753
C            3.07519612798211       -0.32575439410209        4.38619753936941
O            1.92217244237620       -0.01626183068565        4.95856314149279
O            3.24815126065867        0.68871277801385        3.22001306963372
H            3.04260108063998        1.55428760672432        3.64044186632501
H            4.20372025149312        0.78029984317409        2.82685091273002
