147
Coordinates from ORCA-job job
  C           1.65352087314713      3.61104232376703     -0.05096341485557
  O           0.93069145511487      2.49504579591550     -0.52270428706151
  C           2.83871896442327      3.85675327476392     -0.99581224858175
  O           2.10413436027409      3.43669728461705      1.26031051071006
  C          -0.47789692140871      2.58690265360787     -0.53226954718159
  O           2.45191585875759      4.15222682375211     -2.30669121951166
  C           3.73779164845555      2.61408706508950     -0.94187395179381
  C           3.01230707964297      2.35512528440599      1.47017030377065
  C          -0.97143045278134      2.60293786139036     -1.98758553641646
  C          -1.14505936372642      1.39053401676959      0.17183326961192
  O           4.87458305222269      2.75963084764561     -1.75251709228558
  C           4.20534267786818      2.38737574225851      0.49924451851059
  C           3.46789884374288      2.50116503626654      2.93130179746485
  C          -2.50907991039392      2.67782490807124     -2.01959786574836
  O          -0.39856313981003      3.71102976981057     -2.63346121301534
  O          -2.54891536884210      1.54864668383431      0.12080022231877
  C          -0.80785576279542      1.27382199072047      1.64627798456928
  O           4.89901015211923      1.15079232153502      0.49598724603162
  O           4.17842288069888      3.68975198018428      3.14091862212622
  C          -3.08834738911298      1.52128327209199     -1.18263153026509
  O          -2.98587171815275      2.66469020585259     -3.33226104249266
  O           0.33465734384862      0.62044374091730      1.84442806214574
  O          -1.49439872036398      1.70441151807576      2.53599066090617
  C           6.03383093201958      1.01530665458403      1.31125577073582
  O          -2.82121752482974      0.34518190835452     -1.87907194790206
  C           0.55138018890385      0.07038813379641      3.13341106393605
  C           7.10976681233547      0.29504720295845      0.48387024050084
  O           5.77361100405465      0.30962717999533      2.49213008317832
  C          -3.69214474338417     -0.77104769306252     -1.71786571215493
  C          -0.10772661084859     -1.32473968911335      3.18612716088165
  O           7.41613355395338      0.98967241865167     -0.69271735719482
  C           6.61612219402393     -1.12768911538220      0.18238005509190
  C           5.27626320363352     -1.01839264004318      2.33396489957487
  C          -3.55218929826812     -1.53840952902441     -3.04181666473155
  C          -3.33618429399196     -1.61939780973654     -0.47940243735099
  C           0.72160990176444     -2.40070198102284      3.89160274024222
  O          -0.75428394399493     -1.69910448856006      2.00024422940227
  O          -1.48341097015438     -1.38993493888679      3.37967908662767
  O           7.61064109846346     -1.88298370272292     -0.45860351756150
  C           6.21490996725028     -1.87434806309585      1.46273973759743
  C           5.15971370325123     -1.54455958546607      3.77527229849130
  C          -4.10301009345404     -2.96761957058915     -2.96184756781079
  O          -4.19956712006165     -0.78814707194107     -4.03765270494245
  O          -3.83721899524231     -2.95011598697953     -0.58008142621314
  C          -3.99868000963540     -1.07825703231827      0.79912194560871
  O           1.85519702999729     -2.71161325366589      3.09137878677912
  O           5.60227351272726     -3.05587253979670      0.96400052371908
  O           6.41272207671558     -1.69031370130729      4.38398920714020
  C          -3.46506367653819     -3.64718481080485     -1.73812295130309
  O          -3.84542471018033     -3.66690553865329     -4.14711322767220
  O          -5.39386620038034     -1.04712596925234      0.68324396597085
  C           1.86023113740671     -3.87765399780050      2.45336219982673
  C           5.45130572315497     -4.17827860208073      1.77057156253867
  O          -2.08142757448545     -3.66680459269532     -1.95936801009886
  C           3.11863443875811     -4.01457072614986      1.61383615981871
  O           0.99842623326814     -4.71162987130909      2.55726033852378
  C           5.50973733030427     -5.39340441118291      0.82109800705943
  O           4.22255168857425     -4.19641753200099      2.48134936301276
  C          -1.34344425899570     -4.82017908801215     -1.60639921856989
  C           3.00437504775358     -5.16753201303103      0.61173707304389
  O           6.72209121413283     -5.45952020267650      0.13067041384274
  C           4.32513546108187     -5.29542822138263     -0.15713820518402
  C          -0.09824823600517     -4.77087803839991     -2.50192333749124
  C          -0.91319269188515     -4.87342304088548     -0.13118145150610
  O           1.96123896241886     -4.88760299379789     -0.31532269415639
  O           4.24734380620084     -6.42282006589808     -0.99734687633930
  C           0.85770595070352     -5.92506515270233     -2.17512734361036
  O          -0.52545408561807     -4.83576505661406     -3.83663149738215
  O          -0.05137220114946     -5.99359194348342      0.06578453442289
  C          -2.07311411299765     -5.10711826167528      0.84332107521142
  C           1.13565791629874     -5.97101334823827     -0.66525155220036
  O           2.03114886735446     -5.77168996728809     -2.92876444985501
  O          -2.80032272289396     -6.26395812021433      0.53237104838717
  C           1.40792110869007     -1.17516263594342     -0.68089881105713
  H           1.77388736093804     -0.29919648797374     -0.07978047151239
  C           1.38550013759900     -0.73546235827945     -2.14662763271113
  C           2.56634417562675     -0.36193720079293     -2.77315948508606
  C           0.19853645451139     -0.71757440754299     -2.85561238418945
  C           2.55083006664252      0.04052298543180     -4.09623101371464
  C           0.18057166369652     -0.31050648379908     -4.17977778667098
  C           1.35700830075600      0.07256842052728     -4.79962976427730
  H           1.00789438744235      4.49854453961993     -0.01159117031877
  H           3.40739370560556      4.72078312111797     -0.62694726859675
  H          -0.80408663674592      3.50498130072122     -0.02409019374888
  H           1.55922723082340      3.80684555795229     -2.48748533589308
  H           3.14833419004624      1.73972469459099     -1.26019342021873
  H           2.49073209936634      1.39979166871829      1.31975929137938
  H          -0.64122659429184      1.66835204716086     -2.46704881803621
  H          -0.82381199554693      0.45100548382401     -0.30308769535308
  H           4.61068369977450      3.24528336853154     -2.55190249342208
  H           4.89130305719587      3.19755904429131      0.78478994477981
  H           4.14413239949668      1.68368902410282      3.18526127394915
  H           2.57913248854226      2.45665834484748      3.57122459654276
  H          -2.82489642856710      3.62838045194576     -1.57481766818601
  H          -0.91487250312205      3.89561015133073     -3.43809653020766
  H           3.58238335026248      4.43844315612103      2.98882293117335
  H          -4.16908856238280      1.64832821877742     -1.02538321446608
  H          -3.06757542926355      1.74523827119188     -3.63420585102349
  H           6.39336424166280      1.99812525327770      1.64534676433496
  H           1.63229716859039     -0.03344456097481      3.25565553445992
  H           0.10688107082827      0.71378088620753      3.90579263759079
  H           8.03808096228388      0.23770055197207      1.06211507870284
  H          -4.72824805640273     -0.41550565633264     -1.61831057719613
  H           6.59983212785764      1.33642927681275     -1.09206219074045
  H           5.71248420332055     -1.06332155731212     -0.44632669072074
  H           4.28580801505054     -0.99479933831065      1.85519917208167
  H          -2.47750012627968     -1.61544550647437     -3.26418365359138
  H          -2.24269389612468     -1.64047050398040     -0.35226719683880
  H           1.08885534792356     -2.00936998440541      4.84655562549458
  H           0.10688699647651     -3.29915436039062      4.04021956450872
  H           8.00135960570431     -1.33556899554797     -1.15959427725720
  H           7.11264148881419     -2.13799710451850      2.03915142594400
  H           4.53085303785929     -0.84225585090166      4.33542926015943
  H           4.68358400242361     -2.52431082021878      3.77742352282330
  H          -5.19000163501732     -2.94541024149490     -2.83900857807956
  H          -4.35035642828883     -1.36562890477641     -4.80500456996502
  H          -3.67867460511777     -1.70974561546389      1.63662116419415
  H          -3.66811623329156     -0.05914510972596      0.99649079275484
  H           6.82034420043143     -0.81442615049478      4.46585208364872
  H          -3.85724194004047     -4.66368520296622     -1.59570248888329
  H          -2.90386284591256     -3.90567294608502     -4.17851186039271
  H          -5.71082151769701     -1.95749084941409      0.57648756888009
  H           6.22473464229769     -4.23477418404287      2.54772086760749
  H           3.23588220371271     -3.07337771746418      1.05669740775030
  H           5.42638002555493     -6.31380814528283      1.40762401431552
  H          -1.93286007191984     -5.71918434303358     -1.84104268647625
  H           2.78181299838821     -6.09469988902933      1.15382783347132
  H           6.94467187136419     -4.57501318083770     -0.20597399703175
  H           4.44304012133495     -4.38154132156718     -0.75965115515946
  H           0.40798797237145     -3.81226502676839     -2.30332595703360
  H          -0.40650108694655     -3.92926261903680      0.12104083039506
  H           5.15611637495165     -6.66790982098214     -1.24670562176073
  H           0.35603531074475     -6.86772243142403     -2.45067748899783
  H           0.25564357083691     -4.95217552452980     -4.40213678555969
  H          -2.76323893239835     -4.26523578030309      0.80236970618945
  H          -1.64182827922771     -5.16589054983190      1.84950459015332
  H           1.63595131045143     -6.91617553607334     -0.41264563950469
  H           2.79812033060727     -6.10493315139722     -2.42789948360921
  H          -2.21302487216161     -7.02762967283160      0.64392667938949
  O           0.26193719691507     -1.69657255050371     -0.22569430170425
  H           3.48819911075638     -0.41046351997599     -2.21001181428494
  H          -0.69547374071454     -1.03495386862385     -2.33653800895440
  H           3.47355113565731      0.32584908998373     -4.57654190406911
  H          -0.75500106837357     -0.29772433568179     -4.71784442308688
  H           1.34493609567715      0.39135176945094     -5.82979213137789
  H           2.20879815227539     -2.97805975056002     -0.82086695795151
  O           2.56619674995601     -2.11553881594662     -0.55077702734888
