8
Coordinates from ORCA-job job E -266.048781207431
  C          -1.91921606264446     -0.67321948934069      0.24036750859998
  O          -3.44319175897144      0.60888148243910     -0.95287854223043
  H          -0.87756043487182     -1.01908154449815      0.12582043711835
  O          -2.79503022248822     -1.70180363600448      0.59999736151183
  O          -2.17046155403473     -0.11442094746982     -1.03118713286452
  H          -1.99569342439308      0.08600614819612      1.02736698265550
  H          -2.73680296791989     -2.39418730113325     -0.07027809145053
  H          -3.13260182282818      1.50540850137351     -1.15097201059660
