133
Coordinates from ORCA-job job
  C           0.53158477423465      4.93608365531815     -0.40453498171029
  C          -4.38951517639790      3.36394767366987      0.50246731841683
  C          -5.11622505965318     -1.78522520188226     -0.14970083724458
  C          -0.90870732993541     -4.85795367239540     -0.86966570755121
  C           4.11582401138311     -3.28413635834304     -0.25780250901599
  C           4.76797777438792      1.84943167089880      0.18311418427644
  O          -0.31466628384164      3.93501141242860      0.14258641857293
  O          -4.25430209869850      2.20460426073417     -0.25879137446849
  O          -3.78253368790035     -1.96770925774688     -0.57204574950125
  O           0.03835589500114     -3.81636379048618     -0.79782993067903
  O           4.05390465064957     -2.05166823912168     -0.90499658406632
  O           3.35839461512555      2.05388791837884      0.11700927558578
  C           1.10880882069296      4.39558671415139     -1.72044905564456
  C          -4.00528538225731      4.53984084455213     -0.41708671865595
  C          -5.84103205993755     -0.98953319391614     -1.24845329285211
  C          -1.72563624479587     -4.63703705434193     -2.14874246073355
  C           3.73011238971739     -4.36830444453429     -1.28995747259913
  C           5.36486758907714      1.40287196466541     -1.16737845130657
  O           0.12925774164587      4.11152261497357     -2.68023639233845
  O          -4.80051390669147      4.58468938234318     -1.56289099746026
  O          -5.83891784233903     -1.65902917069214     -2.47549024424865
  O          -0.92182017350696     -4.62039441086062     -3.29718732745159
  O           4.54504619581940     -4.31352982007018     -2.42107760383732
  O           5.24271969069528      2.33955133198461     -2.19525769976737
  C           1.84582691231198      3.09905093014645     -1.37698973006916
  C          -2.51879494305764      4.40816216373497     -0.80717684221107
  C          -5.13731786964301      0.36791952340273     -1.36098641680357
  C          -2.46031819586469     -3.29708132407366     -1.99529994130344
  C           2.24678006112656     -4.20651235056562     -1.68059237822182
  C           4.71299971285662      0.07311714762930     -1.55967118476161
  O           2.46107804668863      2.54075949250878     -2.50976649457493
  O          -2.12413722117002      5.48434766866569     -1.61747975102133
  O          -5.76905200388760      1.20006468230139     -2.29501725407291
  O          -3.31969501157374     -3.04656543487426     -3.07482288562786
  O           1.80909067877467     -5.25008026660986     -2.51049486219515
  O           5.25633713947672     -0.41621837199466     -2.75537944948580
  C           2.91894069863773      3.34304675755821     -0.30948327510663
  C          -1.64251871640147      4.32049912260639      0.45273913827265
  C          -5.10885825445470      1.09556564480060     -0.01227242507764
  C          -3.30277624603997     -3.29315981442945     -0.71565770991088
  C           1.35954531683252     -4.16844183933285     -0.42798110846136
  C           4.89373650219664     -0.98780881568105     -0.46662207221242
  C           2.36283527457238      4.15282741627163      0.88262132926213
  C          -2.20683913404621      3.17143650227984      1.29238385376134
  C          -4.60280710404572      0.18260396774659      1.12434971686547
  C          -2.46917313352473     -3.70670561421893      0.50634053082276
  C           1.90983571727957     -3.06428700663031      0.47038679743081
  C           4.51784615582490     -0.43005464732394      0.92322795346160
  O           1.58293380149249      5.26328153080849      0.45318984261753
  O          -3.54861333276079      3.36511457933164      1.64326719532145
  O          -5.19007334295695     -1.11381641828635      1.07328494759730
  O          -1.74118222552972     -4.89857293530812      0.25442877491069
  O           3.23406693864832     -3.33941963580602      0.85477496713809
  O           5.03597989790070      0.88420050289794      1.14404564999828
  C           3.49342601373704      4.72005353469763      1.75466433484950
  C          -1.41577531154882      2.86843797711637      2.55108249040126
  C          -5.00463671990155      0.70995450946728      2.51297427589214
  C          -3.35467754882370     -4.00547348454588      1.72386866725112
  C           1.09953133950342     -2.80751395625619      1.73193808493699
  C           5.13093258264918     -1.24299433110236      2.08052890468749
  O           4.45461355132614      5.40595137320418      1.00507438729612
  O          -1.89733112413103      1.71662826929667      3.06052372696410
  O          -6.38787748726640      0.87977277527982      2.61157935706960
  O          -4.29972976661019     -4.99488298663838      1.44672375575039
  O           1.45280169368837     -1.59530019537155      2.15527817958277
  O           6.50291530265578     -1.44491129501630      1.90267291768634
  H          -0.02320408011392      5.86730740098809     -0.56067930101432
  H          -5.40560131272059      3.47356805030808      0.90131695402489
  H          -5.60582032408810     -2.75074514272436      0.02804175782778
  H          -0.41097905617874     -5.83536520193934     -0.88883826970884
  H           5.11314740998997     -3.47518194616367      0.15721879195342
  H           5.26098643115958      2.76513004768861      0.53505577853617
  H           1.82980254460455      5.13045397989424     -2.11263377440408
  H          -4.15635628595129      5.48184596652198      0.12013847329588
  H          -6.88883413128892     -0.84136815364346     -0.96802051875486
  H          -2.47080867136677     -5.43994290199342     -2.24238888000727
  H           3.87678597445089     -5.35504728156970     -0.83898773201118
  H           6.44043978756054      1.25451175863505     -1.01552536052429
  H          -0.59932625381451      4.75403431666716     -2.58072332985654
  H          -4.90269965159096      3.68338068865281     -1.90881224601602
  H          -4.94780731186080     -2.01237067762066     -2.65225005925527
  H           0.00581431661480     -4.80027886326487     -3.05485512370550
  H           4.60516758263363     -3.39178061561002     -2.71709414677119
  H           4.29911615505414      2.44862561586696     -2.42371916923801
  H           1.11163922389796      2.38578062574322     -0.95619149561769
  H          -2.38854409185220      3.45918884637683     -1.35497995995760
  H          -4.08807527203598      0.18704682406558     -1.65535184024468
  H          -1.70988967765062     -2.49315763753547     -1.90362117685037
  H           2.12768341825001     -3.23889449542743     -2.19598601719921
  H           3.62680990541491      0.24409710291239     -1.67834008575273
  H           1.89289974233044      2.71755995395829     -3.27684773009204
  H          -2.88388059726606      5.70372171235136     -2.18716022007034
  H          -6.06054150161984      0.63666023010371     -3.03105367690764
  H          -2.84873780643642     -3.28115738094344     -3.89039061492247
  H           2.48028456900177     -5.38058790884670     -3.20169668675969
  H           5.44625885244083      0.35154391408446     -3.32071821363425
  H           3.75440481303583      3.89662237486831     -0.75394703744691
  H          -1.64989768597619      5.25850776635763      1.02130234270309
  H          -6.11725289423434      1.45316810560044      0.23815310703145
  H          -4.14223892814650     -3.99093057728498     -0.83556554013810
  H           1.37486734848985     -5.12605955491276      0.10392310327952
  H           5.93800861080389     -1.33130794657328     -0.45067443668225
  H           1.73226678347955      3.50066945366813      1.49579692190905
  H          -2.10075429397008      2.24921680976033      0.68920168805771
  H          -3.50426086362065      0.09965184782140      1.06105848053718
  H          -1.78768550194474     -2.87657835246918      0.75594981679920
  H           1.87564156240113     -2.11879246768565     -0.09828283613773
  H           3.42230670746376     -0.42899603910546      1.01665089681859
  H           3.99837457754791      3.89305230629314      2.25682549108731
  H           3.03370415435754      5.36746417136237      2.50968435688874
  H          -4.63271308346536     -0.00950244156414      3.25305105883009
  H          -4.53335288960761      1.67443191444094      2.69985945259879
  H          -3.89056216339939     -3.09619250186955      2.00278700864073
  H          -2.69281235393047     -4.29517507905565      2.54962519069008
  H           4.92604846638443     -0.68722574815663      3.00369061333570
  H           4.65712475986473     -2.22155866115624      2.14734916412317
  H           4.02418727089408      6.17611587287844      0.60572785184743
  H          -6.80021868340617      0.01901555172562      2.44082405436274
  H          -3.81587488704298     -5.79657832589796      1.19424796226654
  H           6.93081998425373     -0.57600437151987      1.89411267105481
  C           0.73331654020835     -0.96620195817044      3.23860270596262
  H           1.46515071672532     -0.29403148898439      3.67422478131579
  H           0.35506813338726     -1.74005701100841      3.90351566661772
  O           0.31074492872742     -3.56404528146933      2.25606006552929
  C          -0.97190877593892      0.82514135158363      3.70986956226099
  H          -1.57825856902594      0.28842859644333      4.43340007374023
  H          -0.16197673006621      1.40267626716211      4.15370933068853
  O          -0.53159680827326      3.54894651627298      3.02144805677981
  C          -0.44784776101466     -0.18821414599756      2.69821981010305
  O          -1.26905217343432     -0.78835852994131      1.92870154804756
  O           0.36949765759829      0.97121686255277      1.55005116277436
  O           1.58636179867353      1.53092374979404      2.17164014560113
  H           2.27107699721627      1.35828319930606      1.49105885732947
