19
Coordinates from ORCA-job job.QMRegion
  C          -1.41044030668654      2.87508332972639      2.54368348668644
  C           1.10555806533136     -2.81580846736721      1.73461351884752
  O          -1.88952336336288      1.72336249267700      3.05619207582095
  O           1.46353403149796     -1.60660203044937      2.16155966865308
  C           0.73418263698891     -0.96607120385383      3.23145829945386
  H           1.47094053147230     -0.31284746315594      3.68701012476369
  H           0.32176213687787     -1.73251476701623      3.88429418081904
  O           0.31025629833617     -3.56847305051999      2.25428666409675
  C          -0.95759832690798      0.83072553783262      3.69515355249031
  H          -1.56104840014581      0.27436327207915      4.40566234513361
  H          -0.15585548805221      1.40962732812532      4.15211909066026
  O          -0.52182367369901      3.55374866374014      3.00762944778271
  C          -0.41953882911303     -0.15966235676044      2.66578909515370
  O          -1.24847612625999     -0.75683056282547      1.88932188335387
  O           0.38770576886917      0.96799749589730      1.55792429120140
  O           1.60525524602727      1.51948935977198      2.19623522582912
  H           2.28808455139933      1.37068559883896      1.50655932597579
  H          -1.98090494712574      3.09103298103249      1.64517339413521
  H           1.68309005095455     -2.99890353828540      0.83583885826746
