19
Coordinates from ORCA-job job.QMRegion
  C          -1.39495041831085      2.89001918963408      2.53256746687074
  C           1.10603307368040     -2.81441170130879      1.73821614740024
  O          -1.85724464555585      1.73414221327583      3.04731159630535
  O           1.48779083522471     -1.61956473086201      2.18323287018100
  C           0.75101196559541     -0.97080055446809      3.24260849650687
  H           1.49306917982086     -0.34115327171745      3.72195427856346
  H           0.30202248250997     -1.73143682289860      3.87765800516774
  O           0.29310836737619     -3.55628352091575      2.24577395180410
  C          -0.91746787777222      0.84928182546214      3.68663090246378
  H          -1.51893938156048      0.28476980639995      4.39215788112947
  H          -0.12201334728810      1.43327152972543      4.14832982918415
  O          -0.50257672369677      3.57262405337610      2.98439377962632
  C          -0.36707661345453     -0.13001326231345      2.65264523663720
  O          -1.19288991077041     -0.70645751058888      1.85154195489532
  O           0.47309290382486      0.97599719895174      1.58805328101508
  O           1.68800142729585      1.50433184566874      2.26229310006168
  H           2.36888742296292      1.39413660666763      1.56206339939181
  H          -1.97571681974390      3.10094426306795      1.63902655263705
  H           1.68223966175376     -2.99811783687413      0.83862321843081
