133
Coordinates from ORCA-job job
  C           0.51855944696796      4.93364149712080     -0.44098746022491
  C          -4.39508624562227      3.37017455513556      0.51325707055558
  C          -5.11290847555302     -1.78033495332873     -0.14636131009905
  C          -0.90790338854895     -4.85140714107071     -0.87646300224805
  C           4.12082224819861     -3.29052904940677     -0.25857350485327
  C           4.74024287922067      1.84380434823600      0.19789910125325
  O          -0.33403768543753      3.93680003006498      0.10009667600898
  O          -4.25811129506351      2.21044790599789     -0.24707865686735
  O          -3.78176651348888     -1.95997652341639     -0.57769215968126
  O           0.04307572283095     -3.81359388025092     -0.80311316962485
  O           4.05940491902214     -2.05771788551053     -0.90440266085827
  O           3.32837154191437      2.03838618247180      0.11988320228159
  C           1.10097887347480      4.38304496131652     -1.75009275525899
  C          -4.02578344929072      4.54487008687381     -0.41478720505796
  C          -5.84339635551652     -0.98251516804449     -1.23980426882312
  C          -1.72325321415955     -4.62648096797932     -2.15591870927744
  C           3.73426873142420     -4.37282297996753     -1.29229395643769
  C           5.35251579057371      1.40444303547261     -1.14786375920927
  O           0.12174091000867      4.10110362165968     -2.71152414070538
  O          -4.83637778860507      4.58311102366760     -1.55009440467187
  O          -5.84305519062525     -1.64914232174729     -2.46846108889602
  O          -0.91829493975223     -4.60954451956629     -3.30343335123241
  O           4.54892637798178     -4.31721951126606     -2.42355038661294
  O           5.23582290233917      2.34260551467662     -2.17477494732020
  C           1.82993681013563      3.08326046168146     -1.39700129851126
  C          -2.54422159337450      4.41103374988097     -0.82146018761527
  C          -5.14219983780138      0.37624734309850     -1.35058670107760
  C          -2.45646653443291     -3.28585359735830     -2.00058033065377
  C           2.25100496154587     -4.20820127311384     -1.68232237662764
  C           4.71230006531703      0.07181184659491     -1.54938065279204
  O           2.45939899334331      2.52523778140630     -2.52214375038195
  O          -2.15206327329101      5.48098849547511     -1.64094239566333
  O          -5.78021017443033      1.21247164836998     -2.27660366013585
  O          -3.31468813065374     -3.03199496457612     -3.08007015748120
  O           1.81150310616555     -5.24955322752235     -2.51399916794808
  O           5.26784794452830     -0.41016797833721     -2.74248982400583
  C           2.88909874724335      3.32511802986258     -0.31495739814550
  C          -1.65434214741188      4.32927440395376      0.42890677169058
  C          -5.10664098014050      1.09794815571866      0.00114842292742
  C          -3.30031354020513     -3.28434397973475     -0.72194484508803
  C           1.36236393174749     -4.17056084076477     -0.43044097809182
  C           4.89150550673875     -0.99092956512036     -0.45786687009488
  C           2.31479479149919      4.13177463781227      0.86952350850125
  C          -2.20619522078718      3.18579033926991      1.28406519372856
  C          -4.58934599845435      0.18203965777173      1.13020092715572
  C          -2.46728580234174     -3.69794704103674      0.50001714182156
  C           1.91507700310395     -3.07020250466570      0.47122342990524
  C           4.50318573781789     -0.43976076442759      0.93113475827810
  O           1.56506187862779      5.25581324737830      0.42563479456266
  O          -3.54462581336291      3.37779769585575      1.64749370175358
  O          -5.17919113222604     -1.11309004973411      1.07960799705429
  O          -1.74143781156557     -4.89059110918868      0.24707129861254
  O           3.23874431816779     -3.34802027506433      0.85388153205745
  O           5.00604951130726      0.87940736956248      1.15927676506342
  C           3.42909778743562      4.66728008762307      1.78128104195293
  C          -1.39384774875162      2.89265399181914      2.53239378547520
  C          -4.97786029628468      0.70699803758590      2.52347623563798
  C          -3.35207688095566     -3.99758777794786      1.71804035588451
  C           1.10625265514593     -2.80956067112338      1.73286137655014
  C           5.11968022899517     -1.24854985660857      2.08946645803023
  O           4.43787608818972      5.32171175545966      1.06709794288465
  O          -1.85619103600835      1.73760951900892      3.04932399684330
  O          -6.35963587848964      0.87906779672206      2.63527913482368
  O          -4.29762978990508     -4.98616496746705      1.44031375669087
  O           1.48816573599992     -1.61487255633475      2.17631796243357
  O           6.49529233794941     -1.43149247247764      1.91893480057729
  H          -0.03020926361773      5.86702261864452     -0.60501334229687
  H          -5.40840498656798      3.47464956537504      0.92015793479706
  H          -5.60076745028535     -2.74676647994588      0.03108244995987
  H          -0.41375365757448     -5.83066954354459     -0.89619883537499
  H           5.11794657887538     -3.48234383337221      0.15668801785710
  H           5.22217929838623      2.76312526882119      0.55626114496839
  H           1.82782678137314      5.11110821734492     -2.14398296103769
  H          -4.17202935403551      5.48868461564704      0.12041442751428
  H          -6.89068508037185     -0.83734211543465     -0.95614196169521
  H          -2.46964182498919     -5.42798289571342     -2.25193725608435
  H           3.87980969634553     -5.36040972129378     -0.84283442230476
  H           6.42733101355554      1.26191792092122     -0.98519089991092
  H          -0.61092705783362      4.73724770562283     -2.60641700384707
  H          -4.93904561003015      3.68063836595578     -1.89305574490713
  H          -4.95112080118843     -1.99809346874170     -2.64925424436441
  H           0.00921329902902     -4.78837202536902     -3.06003268975056
  H           4.61075846944972     -3.39495219452621     -2.71767666876117
  H           4.29433273728930      2.44459533214929     -2.41531670817967
  H           1.08930021341833      2.37133969726160     -0.98633721684702
  H          -2.42150466281466      3.45856105962190     -1.36492923533993
  H          -4.09442909629995      0.19785068699352     -1.65164459807216
  H          -1.70541547421777     -2.48280524593433     -1.90565849694589
  H           2.13355901714633     -3.23947266271804     -2.19606946759307
  H           3.62594145642125      0.23592766734525     -1.67572631424138
  H           1.89734455886089      2.69516361587617     -3.29512367226482
  H          -2.91406358922474      5.69951460138079     -2.20746409940749
  H          -6.07116346253272      0.65367048720005     -3.01630687807592
  H          -2.84348793660640     -3.26578593472228     -3.89579611428900
  H           2.48298770928172     -5.38091136109593     -3.20481788277751
  H           5.45879426758596      0.36097844481145     -3.30297690531910
  H           3.72913210317855      3.88151631494916     -0.74692395875400
  H          -1.65117691701571      5.27092040198582      0.99115671021072
  H          -6.11445598363709      1.45059696485107      0.26067439907146
  H          -4.13884226149641     -3.98305092930742     -0.84336134524412
  H           1.37343616964871     -5.12977393135327      0.09855910331480
  H           5.93729349737403     -1.32952745218346     -0.43614819689815
  H           1.65364179018571      3.48651994200898      1.45665439398637
  H          -2.10477375254982      2.25923167651597      0.68620123802626
  H          -3.49088913235056      0.09768702647063      1.05740524799710
  H          -1.78511342401850     -2.86700324689844      0.74921649832051
  H           1.88154742683534     -2.12370634061382     -0.09649231260416
  H           3.40739067453016     -0.45110277449370      1.01888237453771
  H           3.88922250190721      3.82582511189596      2.30247765704110
  H           2.96131159263846      5.32882698595347      2.51878725804987
  H          -4.60006593483457     -0.01399227124678      3.25913897341272
  H          -4.50322147655119      1.67048265209508      2.70759515144782
  H          -3.88779797325658     -3.08878175838195      1.99874700043906
  H          -2.68927370686948     -4.28888741393715      2.54253463982180
  H           4.90174029694874     -0.69858926210246      3.01308218052469
  H           4.65828581994926     -2.23327826187088      2.15054389766144
  H           4.04982434479956      6.10875991723052      0.65719392877165
  H          -6.77569477704038      0.02005612748149      2.46441503559229
  H          -3.81468109237260     -5.78776829524798      1.18563711504181
  H           6.91103307115447     -0.55661238932906      1.91601548006405
  C           0.75247324288558     -0.96660502767875      3.23668310225226
  H           1.49732668852554     -0.34616041743752      3.72364274070184
  H           0.29294092474161     -1.72637572556618      3.86501151902716
  O           0.29273710978148     -3.55015797048418      2.24126203591760
  C          -0.91387992911719      0.85168506786836      3.68420346489781
  H          -1.51468542949349      0.27691058907972      4.38172153426916
  H          -0.12354029383106      1.43611580226869      4.15424114483663
  O          -0.50058640472994      3.57507351634499      2.98222242768274
  C          -0.35490639912026     -0.11449887947931      2.64158894821977
  O          -1.18398331733919     -0.69133104612673      1.83748368222130
  O           0.47607519664702      0.97725776691048      1.59604506487225
  O           1.69107941779572      1.50595528796947      2.27523537331135
  H           2.37188042484461      1.40009665285255      1.57353556782629
