133
Coordinates from ORCA-job job
  C           0.52051121183299      4.93680364487364     -0.42271115955063
  C          -4.39790077139341      3.37072121512697      0.50784650437244
  C          -5.11240218132280     -1.77989721187504     -0.15180466111310
  C          -0.90636663238438     -4.85374459993476     -0.86883419415253
  C           4.12193939631251     -3.29082911364722     -0.25610185882820
  C           4.74974918706460      1.84579445828867      0.18237205240095
  O          -0.33040755241287      3.93723947392377      0.11758153230428
  O          -4.26163353479174      2.21271695923631     -0.25500673318692
  O          -3.77919653377677     -1.95972052874227     -0.57685368706401
  O           0.04467812821843     -3.81607839174979     -0.79256537216957
  O           4.05611738922334     -2.05841087545909     -0.90302274702829
  O           3.33871533330497      2.04385877605007      0.10587109652580
  C           1.09981878497394      4.39527928452138     -1.73722015728765
  C          -4.02185570332717      4.54767478406697     -0.41423078151140
  C          -5.83972665109747     -0.98395242468678     -1.24873653885838
  C          -1.71940165363747     -4.62858291106874     -2.14983632772348
  C           3.73474167793563     -4.37456397292609     -1.28791604697532
  C           5.35557220192166      1.40046423228186     -1.16419512377336
  O           0.11987674070756      4.11617675140284     -2.69824171841551
  O          -4.82568863357391      4.59093336322032     -1.55408237028423
  O          -5.83485916365719     -1.65151144591938     -2.47690658549589
  O          -0.91313756612571     -4.61353182999337     -3.29649088193982
  O           4.54758415191596     -4.32001503152401     -2.42048769030511
  O           5.23488893008372      2.33610832222180     -2.19299649736091
  C           1.83249228870056      3.09541572123889     -1.39421478271341
  C          -2.53811352992057      4.41546789468606     -0.81422261083260
  C          -5.14032144495915      0.37587699879626     -1.35872963198639
  C          -2.45111730505565     -3.28697317899936     -1.99658647791979
  C           2.25107828483610     -4.21049055174375     -1.67581779736528
  C           4.71045204098152      0.06791715462028     -1.55836146206285
  O           2.45490546817677      2.54123952621250     -2.52489340008144
  O          -2.14464645397456      5.49025479499037     -1.62676411484282
  O          -5.77647218433321      1.20941137329316     -2.28851283985367
  O          -3.30683084766317     -3.03254582409612     -3.07806816227882
  O           1.81157022545474     -5.25149423574447     -2.50794900304705
  O           5.25995298192402     -0.41986455278118     -2.75176564840769
  C           2.89832992656408      3.33373269325604     -0.31818584892022
  C          -1.65378888363594      4.32750273563265      0.43972494663138
  C          -5.11066051301743      1.09987806538873     -0.00803444512687
  C          -3.29740176394797     -3.28428089195216     -0.71954704980756
  C           1.36437200991306     -4.17426619142960     -0.42261217401496
  C           4.89158341418404     -0.99146437996618     -0.46384920382424
  C           2.32996163722121      4.13437515213595      0.87356747540983
  C          -2.21185116892992      3.18042358033945      1.28614440750831
  C          -4.59695345056577      0.18547174355706      1.12389252907785
  C          -2.46685987186773     -3.69868302160184      0.50420229835527
  C           1.91759279453898     -3.07463220886944      0.47986840838325
  C           4.50924800674968     -0.43495081346756      0.92461688450557
  O           1.57012711620349      5.25624848281775      0.44107750087696
  O          -3.55135036904341      3.37355867181895      1.64491835042119
  O          -5.18457652426328     -1.11067553644251      1.07255612362957
  O          -1.74195281910022     -4.89255546185647      0.25301484694851
  O           3.24315281552274     -3.34939550674125      0.85866313051039
  O           5.01573106605060      0.88384849859072      1.14657547108503
  C           3.44936662545908      4.67377704931577      1.77672771876460
  C          -1.40713374360138      2.88194663828677      2.53752500634515
  C          -4.99078347700763      0.70986021773750      2.51586794826352
  C          -3.35485103737174     -3.99628041290575      1.72027946896238
  C           1.11002497033966     -2.81991952480429      1.74399716161547
  C           5.12724870004937     -1.24232776940242      2.08317663961800
  O           4.44343201389348      5.34316486410214      1.05602166759903
  O          -1.86897197522617      1.72295197233741      3.04538973575432
  O          -6.37337371583732      0.87953840364104      2.62299486337218
  O          -4.30139667111454     -4.98362803218173      1.44081429133715
  O           1.48051469661483     -1.61710350206582      2.18028541584375
  O           6.50147369639463     -1.43071818132771      1.90823879222941
  H          -0.02970585441480      5.87061299754907     -0.57930134149088
  H          -5.41235866760661      3.47677065587154      0.91162013350670
  H          -5.60043357779126     -2.74634712261084      0.02509698279317
  H          -0.41242436044985     -5.83308352776851     -0.88792929996970
  H           5.12064300846934     -3.48021604757966      0.15641506582878
  H           5.23537563601041      2.76476181445224      0.53629157064273
  H           1.82401872126716      5.12776378343369     -2.12780565013357
  H          -4.17004199124935      5.48965397490928      0.12373019871856
  H          -6.88810261071494     -0.83978497970999     -0.96848244935818
  H          -2.46666752274654     -5.42930239557281     -2.24603043706227
  H           3.88130522788478     -5.36158986464997     -0.83757890174235
  H           6.43089796678808      1.25635551003885     -1.00676215864333
  H          -0.60993825353148      4.75621478387136     -2.59422002813363
  H          -4.92760627593987      3.68953968276397     -1.90001126671759
  H          -4.94230943634740     -2.00089328260082     -2.65388492435272
  H           0.01371099810051     -4.79545544010036     -3.05240399601215
  H           4.60791210327618     -3.39822640212877     -2.71633852147181
  H           4.29201702014771      2.44340603526882     -2.42524917042338
  H           1.09491371285052      2.38143098580174     -0.98082374640014
  H          -2.41243805929886      3.46602263800564     -1.36226157512783
  H          -4.09122352690742      0.19882361653813     -1.65596606453904
  H          -1.69922800211072     -2.48483030358982     -1.90101445239715
  H           2.13237610975296     -3.24139102201668     -2.18857917791725
  H           3.62393740375503      0.23446421560355     -1.68078505151146
  H           1.89072016819371      2.71862673262515     -3.29478588132487
  H          -2.90581083943399      5.71116570968909     -2.19369379268877
  H          -6.06483153390138      0.64854642283482     -3.02765003373076
  H          -2.83456894378071     -3.26807986571698     -3.89261691751639
  H           2.48233958379277     -5.38113992295094     -3.19979634309416
  H           5.44982519104639      0.34840583081781     -3.31649478605401
  H           3.73588770253398      3.89188397182959     -0.75273582069436
  H          -1.65371200248708      5.26627841950092      1.00687403184836
  H          -6.11961037835825      1.45250701189079      0.24701365023993
  H          -4.13581268127292     -3.98284468537107     -0.84249816856124
  H           1.37593957311621     -5.13410766786362      0.10528205735278
  H           5.93690259477323     -1.33161636495341     -0.44464028840473
  H           1.67835688834436      3.48277532480560      1.46462392479309
  H          -2.10912403538169      2.25687614718942      0.68429397162204
  H          -3.49853641267577      0.10286222581665      1.05427577122800
  H          -1.78334279028677     -2.86996037762680      0.75460718552436
  H           1.88007695585345     -2.12700131354141     -0.08551562044873
  H           3.41356905898516     -0.44345386348103      1.01615593915178
  H           3.92349277847241      3.83292473833020      2.28622914531948
  H           2.98390127598622      5.32545958574891      2.52444017730524
  H          -4.61445866377987     -0.01090751049520      3.25247764869006
  H          -4.51847620890847      1.67405834789644      2.70187612641136
  H          -3.88971547158891     -3.08641977999758      1.99915163005995
  H          -2.69470559115306     -4.28820610529616      2.54663021161362
  H           4.91444327313224     -0.68908038596257      3.00601398840704
  H           4.66262909668378     -2.22534585096422      2.14841754325156
  H           4.04276916660479      6.12942490598249      0.65682937889661
  H          -6.78696445382199      0.01947627234381      2.45165045804618
  H          -3.81883136942689     -5.78599963034980      1.18800373992484
  H           6.92090866595791     -0.55766300660483      1.90177097943202
  C           0.75047331347758     -0.97321397440892      3.24769480678414
  H           1.48783438383359     -0.32114490708705      3.70383862391582
  H           0.33480321490970     -1.73848560792173      3.89992594919641
  O           0.30699186098051     -3.56843724801405      2.25768241010440
  C          -0.93348002918389      0.84116087246286      3.69520362905661
  H          -1.53573489166957      0.29751351787513      4.41675570727760
  H          -0.12927602819789      1.42597557292283      4.14007026909828
  O          -0.52039429650643      3.56693037189541      2.99760499515349
  C          -0.39941279663645     -0.16426568908973      2.67944888019867
  O          -1.22196723889053     -0.75105735920877      1.89472466675156
  O           0.44046835161336      0.97586501346038      1.56827759111493
  O           1.66132296053542      1.50277373500026      2.22212037435534
  H           2.33966544399179      1.37513593810380      1.52389704976469
