19
Coordinates from ORCA-job job.QMRegion
  C          -1.41577531154882      2.86843797711637      2.55108249040126
  C           1.09953133950342     -2.80751395625619      1.73193808493699
  O          -1.89733112413103      1.71662826929667      3.06052372696410
  O           1.45280169368837     -1.59530019537155      2.15527817958277
  C           0.73331654020835     -0.96620195817044      3.23860270596262
  H           1.46515071672532     -0.29403148898439      3.67422478131579
  H           0.35506813338726     -1.74005701100841      3.90351566661772
  O           0.31074492872742     -3.56404528146933      2.25606006552929
  C          -0.97190877593892      0.82514135158363      3.70986956226099
  H          -1.57825856902594      0.28842859644333      4.43340007374023
  H          -0.16197673006621      1.40267626716211      4.15370933068853
  O          -0.53159680827326      3.54894651627298      3.02144805677981
  C          -0.44784776101466     -0.18821414599756      2.69821981010305
  O          -1.26905217343432     -0.78835852994131      1.92870154804756
  O           0.36949765759829      0.97121686255277      1.55005116277436
  O           1.58636179867353      1.53092374979404      2.17164014560113
  H           2.27107699721627      1.35828319930606      1.49105885732947
  H          -1.98199057981915      3.08531351399698      1.65015090188974
  H           1.67689203384342     -2.99047072005731      0.83305348394413
