133
Coordinates from ORCA-job job
  C           0.55436943832121      4.97216726145558     -0.33212165699667
  C          -4.36236274608279      3.34938243258457      0.51629047968517
  C          -5.11333097177273     -1.79367428221860     -0.19670239227918
  C          -0.91442518271453     -4.90188461921727     -0.83151450398781
  C           4.10153594971347     -3.27801801815723     -0.24980170567113
  C           4.79807386061459      1.86375373659030      0.13830025734129
  O          -0.28114450416875      3.96331536501550      0.22130883099242
  O          -4.20940726396799      2.19548834266156     -0.25086722618493
  O          -3.77740409951102     -1.99884239226365     -0.59949036871452
  O           0.02881152097505     -3.85566503575774     -0.77914085522839
  O           4.02656396477506     -2.04919778232459     -0.90398171862883
  O           3.39361554536129      2.09375571099737      0.09829556984884
  C           1.11399846481554      4.45445583671539     -1.66546371521164
  C          -3.97490870994256      4.53624896534293     -0.38662356908594
  C          -5.80377758719617     -0.97734715295450     -1.30231245402413
  C          -1.72940010204813     -4.70985418847399     -2.11649359652111
  C           3.72614842479290     -4.37445170367780     -1.27329409312484
  C           5.35861904173552      1.39494566825808     -1.22040073090764
  O           0.12715995896616      4.17933059106930     -2.61963065946291
  O          -4.74643821174404      4.57867064277976     -1.54908852027327
  O          -5.78918290237657     -1.63641928331697     -2.53483685548783
  O          -0.92302947079564     -4.71774762514538     -3.26346827477213
  O           4.53774613684166     -4.31613487561736     -2.40689416576441
  O           5.22679234050096      2.32408221536333     -2.25407862755763
  C           1.85898085475167      3.15669097277446     -1.35041704798913
  C          -2.47937124172991      4.43344588909345     -0.74989224129525
  C          -5.07676500059704      0.37010418418371     -1.38938526761851
  C          -2.46452649352781     -3.36687834975318     -1.99412670804868
  C           2.23931957023191     -4.24019218738709     -1.66269915212202
  C           4.67865457786492      0.07116001126321     -1.58534268332101
  O           2.44345097547036      2.60322221232020     -2.50172137749092
  O          -2.09377916695449      5.53282661699682     -1.53380392303953
  O          -5.67145764233316      1.21598121194389     -2.33553802701953
  O          -3.32336616623105     -3.14096896270368     -3.07972091523523
  O           1.81433679910597     -5.30459839594642     -2.47275415994296
  O           5.18761550982130     -0.43618060001439     -2.78843214390275
  C           2.95994013984586      3.39076297950948     -0.30921124087118
  C          -1.61712703029149      4.33326770649993      0.52013349143182
  C          -5.07487679117979      1.08772286569992     -0.03525694581578
  C          -3.30850345296532     -3.33149467294737     -0.71578127088002
  C           1.35358776073163     -4.19368327206917     -0.40951006665596
  C           4.87131611821038     -0.98133131589817     -0.48607899854627
  C           2.44316579976221      4.20203035224477      0.90101094600212
  C          -2.18834801680242      3.16685562615061      1.33166104968337
  C          -4.59979472951204      0.16041475521440      1.10276635549953
  C          -2.48081813445109     -3.72601997867494      0.51685000469733
  C           1.89531077096047     -3.07284143629228      0.47255064357929
  C           4.51530709672384     -0.40387473619697      0.90120805721852
  O           1.61981701337741      5.29665355474352      0.50775819987360
  O          -3.53599631666116      3.34953497191297      1.66683596945722
  O          -5.19871606880870     -1.12998147791323      1.02978290209776
  O          -1.74879781985897     -4.92094143364177      0.29143917000007
  O           3.22098594356588     -3.33335809169969      0.86326854530643
  O           5.06714248128798      0.89948171934078      1.10178444425688
  C           3.60089988590505      4.81020240182673      1.70765219222697
  C          -1.42387929902321      2.82392422352073      2.59643675349921
  C          -5.02308688656386      0.68111598489859      2.48744140149141
  C          -3.37418477097372     -4.00400000721194      1.73345229593902
  C           1.08121723859026     -2.80704422117207      1.72850708842669
  C           5.11530340780869     -1.21861579731643      2.06403110706611
  O           4.47798847886642      5.54699905615494      0.90497727465415
  O          -1.95968859175118      1.69017173379949      3.09384142990546
  O          -6.40654790880397      0.86416311511039      2.56061634902802
  O          -4.31458895043648     -5.00123650254764      1.46781021822202
  O           1.38147253291994     -1.56101404234444      2.09963885597313
  O           6.47970766491872     -1.46045581172249      1.87865724060190
  H          -0.00703988128565      5.90305288693919     -0.46611448026411
  H          -5.38455059990135      3.44876619505350      0.90205515958849
  H          -5.62370924951162     -2.75132362397675     -0.03442187968922
  H          -0.41369545413255     -5.87792882442593     -0.82897844582742
  H           5.10109439884092     -3.45650651405344      0.16526993154337
  H           5.31727027941124      2.77105568531560      0.47290352479204
  H           1.82710645243795      5.19915913086855     -2.05380500462905
  H          -4.15081704788146      5.47189082359080      0.15425801667348
  H          -6.85422404866199     -0.81370524841227     -1.04063162552586
  H          -2.47387184793357     -5.51507349257586     -2.19387738973940
  H           3.88880153368582     -5.35544036687256     -0.81515684136225
  H           6.43510097927026      1.23105036334056     -1.09263320019919
  H          -0.59599654685747      4.82779489819969     -2.51371524639568
  H          -4.83152311384918      3.67834822512868     -1.90219859391101
  H          -4.90635223811992     -2.01959288852760     -2.68970438413654
  H           0.00443484259823     -4.89115151272426     -3.01553312668377
  H           4.58249454142200     -3.39605523753716     -2.71051510496225
  H           4.27953893849507      2.45611914699304     -2.45270170996687
  H           1.13294141745280      2.44238181018519     -0.91673120352089
  H          -2.32520180321614      3.49772233177060     -1.31432417084374
  H          -4.02272558538964      0.17586068581333     -1.65691196488730
  H          -1.71386606055502     -2.56141112096295     -1.92119861841987
  H           2.10550334749398     -3.28345871561046     -2.19448243445288
  H           3.59236764147422      0.25644215188508     -1.68064959765296
  H           1.86268261006883      2.79728472311095     -3.25520932428803
  H          -2.85197859994065      5.75248303373218     -2.10584692402178
  H          -5.96026042419885      0.65856811399945     -3.07727440622197
  H          -2.84962668917778     -3.38731201686343     -3.89004020370850
  H           2.48437377817620     -5.43862761328085     -3.16421020694754
  H           5.37816062083070      0.32405167580581     -3.36361104745752
  H           3.78910001317189      3.93684558931101     -0.77490370258631
  H          -1.63871346922556      5.26300938033059      1.10194457515548
  H          -6.08698593897809      1.44831301228771      0.19526036744321
  H          -4.15358542739250     -4.02440921473499     -0.82348502020538
  H           1.37842843413745     -5.14412543760982      0.13474836716482
  H           5.91539180672514     -1.32542777430532     -0.47903404489688
  H           1.86081830779030      3.53877676317242      1.54952096034245
  H          -2.07274094185895      2.25943802100465      0.70846369883378
  H          -3.50143360477911      0.06805564914551      1.05921963279214
  H          -1.80188995455333     -2.89186247302854      0.75521160605562
  H           1.85720164490910     -2.13565539138277     -0.10869861838911
  H           3.42034047478366     -0.37427912525946      1.00088510287588
  H           4.17567756421397      4.00441115274253      2.16674317240367
  H           3.16183160870626      5.43063435241004      2.49720871082302
  H          -4.67353019182214     -0.04768782399669      3.22904522186963
  H          -4.54565692487213      1.63930900795660      2.69035032938600
  H          -3.91472201266628     -3.09108718630630      1.99063270926072
  H          -2.71847221700370     -4.27617351235723      2.56994571912594
  H           4.93339608685589     -0.64565136634840      2.98158111412459
  H           4.61579578469939     -2.18323466566573      2.14667416639997
  H           3.97830704250074      6.28429802585328      0.52481301994428
  H          -6.82344883273949      0.00757976437613      2.38039841154749
  H          -3.82649626315849     -5.80603059069673      1.23440569983646
  H           6.93135198884550     -0.60397123606429      1.85336556747985
  C           0.69057141770292     -0.94839799364919      3.21070022753900
  H           1.39778093302692     -0.20818559749608      3.57326632850063
  H           0.43009577841253     -1.72800813303852      3.92476143540379
  O           0.33055102469039     -3.57686101761600      2.28758676748731
  C          -1.07292926970549      0.76967294119402      3.74989415223643
  H          -1.70251748393296      0.25662005426846      4.47140746651517
  H          -0.24914571606389      1.32256124546627      4.19979086633367
  O          -0.52099734674936      3.46238691556830      3.09021206677544
  C          -0.57373093692644     -0.26628696472338      2.75457784346961
  O          -1.38458163251720     -0.86719415495103      2.00139274307529
  O           0.22210395120503      0.98049827681608      1.48387985665752
  O           1.43767648687274      1.61778884235950      1.99682731811988
  H           2.12280678829330      1.33694653760044      1.35758447989009
