19
Coordinates from ORCA-job job.QMRegion
  C          -1.38873087511207      2.89647343876721      2.52728921645366
  C           1.10023753630059     -2.80670671304797      1.72229081428181
  O          -1.85221666621688      1.74335294585420      3.04768028917195
  O           1.48823554464786     -1.61672701720618      2.17170768507953
  C           0.74986293247430     -0.96591140837956      3.22851413541224
  H           1.49713285977337     -0.35748908890338      3.72680371652176
  H           0.27418817465699     -1.72280142679079      3.84812326860595
  O           0.27899119727489     -3.54286179203026      2.22430188723082
  C          -0.90746468318197      0.85552939796987      3.67675330460154
  H          -1.50730136465424      0.27126446980374      4.36693397720705
  H          -0.12099862048741      1.43935637259312      4.15415208605688
  O          -0.49153156842704      3.57639618605128      2.97248503730901
  C          -0.34240818802390     -0.09851505480144      2.62526911272953
  O          -1.17670418963067     -0.67308575379099      1.81795198892505
  O           0.48271233899640      0.97527037074851      1.59757218319934
  O           1.69849509825652      1.50142599532606      2.28455121261459
  H           2.37802208326625      1.40808642711405      1.57895066939849
  H          -1.97234582688163      3.10573522452843      1.63494323718436
  H           1.67878373773984     -2.99370401099559      0.82516386161932
