19
Coordinates from ORCA-job job.QMRegion
  C          -1.42618480029383      2.82946393282579      2.59750406195822
  C           1.08174365789144     -2.80385508463648      1.72444995687550
  O          -1.96180425582482      1.69562309519658      3.09622178280982
  O           1.38218940497793     -1.55817925795732      2.09498637720899
  C           0.68959085242062     -0.94437464377430      3.20432137103922
  H           1.39989606339256     -0.21077405217043      3.57384694285003
  H           0.41770472164658     -1.72383387830147      3.91407865538368
  O           0.33085855899392     -3.57312331971085      2.28405280984045
  C          -1.07207164363657      0.77293716917115      3.74522220717555
  H          -1.70000719175281      0.24991913854660      4.46078397067153
  H          -0.25128973603047      1.32540296508764      4.20114880974521
  O          -0.52301340589778      3.46807973344582      3.09030106528512
  C          -0.56747954544900     -0.25222558214854      2.74019045108216
  O          -1.38159783118435     -0.85621793585549      1.98825115816957
  O           0.21867099895957      0.98022435712304      1.48772908841186
  O           1.43466436939869      1.61636835104295      2.00403240452395
  H           2.12033726695802      1.33614362489345      1.36473274082121
  H          -1.97315793480408      3.07345978571267      1.69174592189808
  H           1.66231732161449     -2.99460528731104      0.83024964471901
