19
Coordinates from ORCA-job job.QMRegion
  C          -1.41472087149213      2.86658769737880      2.55268058177215
  C           1.09749898816553     -2.81101751600332      1.73517609713114
  O          -1.89746280959606      1.71725574633084      3.06591104884650
  O           1.44422594208940     -1.59546334561796      2.15520861679222
  C           0.72892757415979     -0.96933553454339      3.24339639887522
  H           1.45944003866872     -0.28948234448541      3.66932489280151
  H           0.36572030586191     -1.74514293967346      3.91455981215359
  O           0.31291751435120     -3.57077142534946      2.26108536679137
  C          -0.97233007669550      0.82806742915304      3.71869344255220
  H          -1.57592590616026      0.30509384717156      4.45467520208111
  H          -0.15491721178272      1.40570916594262      4.14830886741020
  O          -0.52923336415906      3.54705648098675      3.02083881037078
  C          -0.46439460297529     -0.20194847370049      2.71694041566135
  O          -1.29081718879239     -0.80259601575964      1.95897421266402
  O           0.35791414024109      0.96239504329134      1.53769806890317
  O           1.57383774079554      1.52993162453921      2.14904996065390
  H           2.25952400682329      1.34737423806606      1.47289281467018
  H          -1.98101274866206      3.08282052357366      1.65176090592533
  H           1.67545983267133     -2.99206952609173      0.83616148334903
