19
Coordinates from ORCA-job job.QMRegion
  C          -1.39384774875162      2.89265399181914      2.53239378547520
  C           1.10625265514593     -2.80956067112338      1.73286137655014
  O          -1.85619103600835      1.73760951900892      3.04932399684330
  O           1.48816573599992     -1.61487255633475      2.17631796243357
  C           0.75247324288558     -0.96660502767875      3.23668310225226
  H           1.49732668852554     -0.34616041743752      3.72364274070184
  H           0.29294092474161     -1.72637572556618      3.86501151902716
  O           0.29273710978148     -3.55015797048418      2.24126203591760
  C          -0.91387992911719      0.85168506786836      3.68420346489781
  H          -1.51468542949349      0.27691058907972      4.38172153426916
  H          -0.12354029383106      1.43611580226869      4.15424114483663
  O          -0.50058640472994      3.57507351634499      2.98222242768274
  C          -0.35490639912026     -0.11449887947931      2.64158894821977
  O          -1.18398331733919     -0.69133104612673      1.83748368222130
  O           0.47607519664702      0.97725776691048      1.59604506487225
  O           1.69107941779572      1.50595528796947      2.27523537331135
  H           2.37188042484461      1.40009665285255      1.57353556782629
  H          -1.97529709421054      3.10247053365976      1.63888470521679
  H           1.68255879385612     -2.99527403281228      0.83391502890765
