133
Coordinates from ORCA-job job
  C           0.53229812475030      4.93601171313615     -0.40120714963938
  C          -4.38874934144185      3.36229109635616      0.50421739568976
  C          -5.11745584045046     -1.78584822708495     -0.15320685606104
  C          -0.90880827094360     -4.85814184643720     -0.86931050559403
  C           4.11495512967906     -3.28337275376714     -0.25479896861743
  C           4.77178686725078      1.85078743481284      0.17802722879771
  O          -0.31319169016638      3.93330319003596      0.14448941080014
  O          -4.25411673205527      2.20365087490907     -0.25818291495978
  O          -3.78331281025674     -1.96815618096159     -0.57413762258112
  O           0.03816124336813     -3.81651626993694     -0.79592103203306
  O           4.05233297199094     -2.05110055302579     -0.90255120302110
  O           3.36268869266129      2.05615190722167      0.11055289091624
  C           1.10910633688186      4.39914604427827     -1.71879278312429
  C          -4.00421127278274      4.53900240745580     -0.41409491325891
  C          -5.84096990918411     -0.98918299089579     -1.25211498967166
  C          -1.72447004077279     -4.63690483284451     -2.14917944817018
  C           3.73007828138361     -4.36794321419302     -1.28679298462141
  C           5.36778572960483      1.40130688582362     -1.17182270375799
  O           0.12931578073161      4.11543942943577     -2.67836548426533
  O          -4.79958443366198      4.58552750456156     -1.55972981743563
  O          -5.83724751994940     -1.65754072496169     -2.47979855934094
  O          -0.91957562412170     -4.62003222796257     -3.29686591494854
  O           4.54558768837805     -4.31319399549015     -2.41751025333305
  O           5.24544610767584      2.33661921666194     -2.20096128238119
  C           1.84835582943718      3.10314643228586     -1.37862005280443
  C          -2.51782824234123      4.40728606750140     -0.80465280304064
  C          -5.13738298308706      0.36851665580659     -1.36266979603506
  C          -2.45933325758919     -3.29699926063814     -1.99625341655162
  C           2.24697323910941     -4.20626193575845     -1.67814220141910
  C           4.71390742982337      0.07172543321178     -1.56143276616239
  O           2.46248225956842      2.54703412074708     -2.51301456614476
  O          -2.12337860757287      5.48443673532594     -1.61380558661120
  O          -5.76852685250379      1.20149911837742     -2.29638468659192
  O          -3.31754684124201     -3.04617823664434     -3.07665688314599
  O           1.80993249730453     -5.24951008311458     -2.50877714824995
  O           5.25585895877393     -0.42049893184465     -2.75652680610217
  C           2.92301463410049      3.34631893135542     -0.31249241511989
  C          -1.64135853926492      4.31812072497029      0.45498751609951
  C          -5.10973846201245      1.09498311393285     -0.01327283692822
  C          -3.30323897289968     -3.29353536280379     -0.71756465562435
  C           1.35923491419243     -4.16893103934841     -0.42589955115201
  C           4.89369904900932     -0.98755949833698     -0.46661994032220
  C           2.36834162577785      4.15398943254706      0.88182874377222
  C          -2.20589172488810      3.16868828636796      1.29399858841015
  C          -4.60487979749258      0.18073702555015      1.12276336187112
  C          -2.47093625797343     -3.70739107596261      0.50524193235078
  C           1.90864565449967     -3.06511731499902      0.47344234148446
  C           4.51885936022067     -0.42708680550121      0.92236383317738
  O           1.58394567276674      5.26284839257519      0.45618290710162
  O          -3.54769518397790      3.36215588443716      1.64488037288505
  O          -5.19270879935051     -1.11533913579916      1.07016233111686
  O          -1.74230283161719     -4.89904383885340      0.25396657713495
  O           3.23325087036539     -3.33885980954356      0.85775289312540
  O           5.03863489735135      0.88684193401179      1.14083140258411
  C           3.49993715136349      4.72431424003933      1.75058292224415
  C          -1.41472087149213      2.86658769737880      2.55268058177215
  C          -5.00642491819175      0.70686130823653      2.51187212313814
  C          -3.35777754316349     -4.00647832089217      1.72171081615922
  C           1.09749898816553     -2.81101751600332      1.73517609713114
  C           5.13080564034998     -1.23928330728778      2.08079577687752
  O           4.45566355494733      5.41495903197552      0.99841193354021
  O          -1.89746280959606      1.71725574633084      3.06591104884650
  O          -6.38971866786640      0.87612162609741      2.61105139063851
  O          -4.30258263443279     -4.99577014062364      1.44316030629813
  O           1.44422594208940     -1.59546334561796      2.15520861679222
  O           6.50244769811219     -1.44347070724486      1.90320039649652
  H          -0.02342622102826      5.86709866913518     -0.55495642216190
  H          -5.40474230941831      3.47192247780598      0.90331820817544
  H          -5.60737934572230     -2.75145015597921      0.02317220780308
  H          -0.41099446582252     -5.83549896921770     -0.88834728563945
  H           5.11237970270328     -3.47364342266171      0.16030684963052
  H           5.26567265153498      2.76652287598055      0.52850550298537
  H           1.82859994082119      5.13603653786651     -2.10995215131196
  H          -4.15471535253556      5.48045790140538      0.12429077707721
  H          -6.88913098467031     -0.84143227594904     -0.97280400790523
  H          -2.46953718193633     -5.43980170204476     -2.24373398167043
  H           3.87671837439341     -5.35456627918442     -0.83556946929185
  H           6.44333772556563      1.25203778118007     -1.02079847390079
  H          -0.59984655675717      4.75719077434828     -2.57750950541688
  H          -4.90240870149058      3.68463358594467     -1.90654944373944
  H          -4.94598514554371     -2.01099431102051     -2.65554782498917
  H           0.00780483010362     -4.80020289604069     -3.05371857586492
  H           4.60554060576643     -3.39151626890097     -2.71377074173139
  H           4.30163688717678      2.44800755950544     -2.42721797893466
  H           1.11551525203551      2.38846820137116     -0.95765144341115
  H          -2.38783735504502      3.45894327161292     -1.35358316463213
  H          -4.08791955415170      0.18808855119854     -1.65653960169126
  H          -1.70899588591948     -2.49308547995603     -1.90369534238762
  H           2.12801774803712     -3.23839735658478     -2.19311564215063
  H           3.62787600578907      0.24409769177474     -1.67976486470332
  H           1.89353141247332      2.72525922780917     -3.27921703461560
  H          -2.88343117268583      5.70462473523190     -2.18280460678279
  H          -6.05964184876668      0.63873092486805     -3.03304720966273
  H          -2.84582305586709     -3.28077116248873     -3.89176269420909
  H           2.48160640673725     -5.37968439227772     -3.19956951573030
  H           5.44663872262930      0.34594624837854     -3.32334882729652
  H           3.75774692432692      3.90057140881714     -0.75751882115699
  H          -1.64864507030265      5.25558849056933      1.02448831925202
  H          -6.11809304057199      1.45299719695915      0.23665927070571
  H          -4.14246553619550     -3.99137224346189     -0.83867540790515
  H           1.37436541778257     -5.12683118588678      0.10551725134746
  H           5.93756267139121     -1.33225739189512     -0.45040112628794
  H           1.74194313037568      3.49906567542160      1.49648283116225
  H          -2.09939358029596      2.24654218130044      0.69084523269188
  H          -3.50650423876788      0.09745134977124      1.05967341826284
  H          -1.78993831966308     -2.87735032446420      0.75577146629894
  H           1.87334942950158     -2.11904024597597     -0.09414766130184
  H           3.42324040996473     -0.42458961845070      1.01585497857788
  H           4.00999241048810      3.89865877386872      2.24977248411883
  H           3.04047983977749      5.36904253375539      2.50807854640843
  H          -4.63385704675615     -0.01304769080612      3.25121564198279
  H          -4.53537421047518      1.67133759015419      2.69939028924461
  H          -3.89383839328473     -3.09722906395206      2.00036889947086
  H          -2.69688906684540     -4.29646225218681      2.54813346436324
  H           4.92672439860088     -0.68201331701551      3.00322819637694
  H           4.65555378999414     -2.21710508815065      2.14880005199401
  H           4.02047641521772      6.18365369733887      0.60139804305131
  H          -6.80170558534355      0.01532480477955      2.43966990191590
  H          -3.81842385661864     -5.79749054689324      1.19139076138698
  H           6.93184267161483     -0.57531309171800      1.89384480817921
  C           0.72892757415979     -0.96933553454339      3.24339639887522
  H           1.45944003866872     -0.28948234448541      3.66932489280151
  H           0.36572030586191     -1.74514293967346      3.91455981215359
  O           0.31291751435120     -3.57077142534946      2.26108536679137
  C          -0.97233007669550      0.82806742915304      3.71869344255220
  H          -1.57592590616026      0.30509384717156      4.45467520208111
  H          -0.15491721178272      1.40570916594262      4.14830886741020
  O          -0.52923336415906      3.54705648098675      3.02083881037078
  C          -0.46439460297529     -0.20194847370049      2.71694041566135
  O          -1.29081718879239     -0.80259601575964      1.95897421266402
  O           0.35791414024109      0.96239504329134      1.53769806890317
  O           1.57383774079554      1.52993162453921      2.14904996065390
  H           2.25952400682329      1.34737423806606      1.47289281467018
