19
Coordinates from ORCA-job job.QMRegion
  C          -1.41503132442333      2.86242365228746      2.55439757197258
  C           1.09571174925695     -2.81255119550009      1.73602957988750
  O          -1.89947189431253      1.71342440961727      3.06615282930837
  O           1.43984197834981     -1.59496967883434      2.15391546117480
  C           0.72689306068256     -0.97114292561256      3.24500545819657
  H           1.45460820177185     -0.28338161104234      3.66322660681599
  H           0.37665526691168     -1.74843147258943      3.92147805670870
  O           0.31287357193412     -3.57316956290701      2.26320192036257
  C          -0.97780372417063      0.82405118540300      3.72277959248249
  H          -1.58316629906541      0.30899595360947      4.46312490634623
  H          -0.15709326077529      1.40000244042969      4.14832419975111
  O          -0.53210836746234      3.54393737481095      3.02617791949093
  C          -0.47561664720677     -0.21416067125157      2.72797279677674
  O          -1.29787419710475     -0.81023280601212      1.96742062095750
  O           0.35681210456968      0.96772337499467      1.53388843172133
  O           1.56994617905899      1.53898224124986      2.14260081885842
  H           2.25818278030891      1.34780053269527      1.47207534517438
  H          -1.97961968262655      3.07950074656379      1.65263209003259
  H           1.67358963124790     -2.99302117959481      0.83686345860048
