133
Coordinates from ORCA-job job
  C           0.53617249964994      4.93867256426827     -0.39370981161806
  C          -4.38487760086155      3.35835311247366      0.50234668246262
  C          -5.12017556544887     -1.78849679914446     -0.15731902821172
  C          -0.91116312078321     -4.86258809238657     -0.86631221902658
  C           4.11091739910826     -3.28010581606486     -0.25470672646072
  C           4.78078726575168      1.85459731647845      0.17325408443876
  O          -0.30669216331739      3.93411439371288      0.15352631730527
  O          -4.25054033400708      2.19999863215316     -0.26048466410224
  O          -3.78586139677418     -1.97262789063292     -0.57663560048940
  O           0.03479175013488     -3.81987047464507     -0.79327868575350
  O           4.04587213158675     -2.04715199398024     -0.90147896324913
  O           3.37253860695060      2.06429465316189      0.10962211189731
  C           1.11199531870300      4.40456645460919     -1.71287134779975
  C          -3.99831168098096      4.53581075253197     -0.41396483841148
  C          -5.84124577925097     -0.99060606896613     -1.25690906183244
  C          -1.72637474564884     -4.64366407009000     -2.14689220050034
  C           3.72721058364850     -4.36490493132217     -1.28690307601114
  C           5.37107235139008      1.40135218775209     -1.17779121170164
  O           0.13211287762637      4.11907796873071     -2.67162082494116
  O          -4.79049040585967      4.58297365947185     -1.56179142028792
  O          -5.83703950450774     -1.65874456573795     -2.48475794185056
  O          -0.92104314280928     -4.62755344962168     -3.29434141098264
  O           4.54172066430388     -4.30787734909123     -2.41826963233910
  O           5.24906035803719      2.33615264841680     -2.20739807692506
  C           1.85491544353819      3.11027690545835     -1.37510420492822
  C          -2.51072253683053      4.40624399464443     -0.80100727205185
  C          -5.13574166595509      0.36624103620257     -1.36649663675103
  C          -2.46224368750824     -3.30407919991328     -1.99636076335472
  C           2.24345389761842     -4.20656668366077     -1.67702717548478
  C           4.71041144176611      0.07402258718655     -1.56381064955882
  O           2.46554313951446      2.55473765098922     -2.51149383429885
  O          -2.11678888602560      5.48549953696984     -1.60765378932624
  O          -5.76493451457736      1.19999424974521     -2.30094760786330
  O          -3.32058614890790     -3.05576611106724     -3.07734509854658
  O           1.80805022315711     -5.25128249336320     -2.50671869567537
  O           5.24577590990608     -0.42133611488304     -2.76044461256144
  C           2.93280050267719      3.35474470713728     -0.31249073832263
  C          -1.63691080958140      4.31599709816814      0.46051460912358
  C          -5.10865045628350      1.09264321589976     -0.01704666146101
  C          -3.30633541818487     -3.29849269252419     -0.71778674432561
  C           1.35650569075385     -4.17063339946256     -0.42423321969162
  C           4.89033696893067     -0.98487852497672     -0.46868037110076
  C           2.38063225629559      4.16238731314253      0.88320772697155
  C          -2.20280110996050      3.16427101373862      1.29538832726158
  C          -4.60705308955730      0.17748518146653      1.11968783596841
  C          -2.47430734129168     -3.71081133800518      0.50585692190617
  C           1.90484597072238     -3.06612070934352      0.47496138172986
  C           4.52014241545256     -0.42152580548382      0.92045260812916
  O           1.58909773430343      5.26767986876368      0.46115172802993
  O          -3.54538408673981      3.35687171298508      1.64404019185589
  O          -5.19620573735062     -1.11800071417124      1.06593211222563
  O          -1.74520547998410     -4.90270040922491      0.25641844251325
  O           3.23028495601999     -3.33746378050429      0.85834628898134
  O           5.04652705514920      0.89017048447727      1.13632791839016
  C           3.51402304675072      4.73929605021271      1.74515862244434
  C          -1.41625735509953      2.85955510410746      2.55628731906984
  C          -5.01035585543072      0.70370750172307      2.50826172321735
  C          -3.36167697671661     -4.00839956020293      1.72230348077351
  C           1.09391227571070     -2.81417878500710      1.73728147670297
  C           5.12955642867776     -1.23553092430903      2.07894594314971
  O           4.45903102426955      5.43847289004646      0.98746811311082
  O          -1.90156161013100      1.71005649534380      3.06536013454409
  O          -6.39360455275578      0.87597608110033      2.60465736909579
  O          -4.30575129248067     -4.99880869143605      1.44463900852890
  O           1.43509382176342     -1.59469093171014      2.15344430708810
  O           6.49984139601242     -1.44674772028689      1.89974492242639
  H          -0.02190121323995      5.86870625160350     -0.54540768348464
  H          -5.40128857613615      3.46856888981755      0.90030277392570
  H          -5.61174435045417     -2.75342917742589      0.01822690333862
  H          -0.41242900104285     -5.83948456947229     -0.88398477575458
  H           5.10900686357807     -3.46896689036410      0.15940714802540
  H           5.27898061141011      2.76876579786983      0.52166666012429
  H           1.82916367005233      5.14375778769408     -2.10402482228785
  H          -4.15081808971853      5.47668202410973      0.12491659858592
  H          -6.88952903233395     -0.84138074338488     -0.97881314197346
  H          -2.47075280382510     -5.44732401858738     -2.24061117558023
  H           3.87645982823992     -5.35140155914642     -0.83622553692561
  H           6.44650448145390      1.24784757229964     -1.03017128266149
  H          -0.59708905028186      4.76114534696656     -2.57152698546372
  H          -4.89292260186887      3.68219088226122     -1.90901154033201
  H          -4.94646808438604     -2.01478492885158     -2.65873280719747
  H           0.00619103055427     -4.80812954735257     -3.05076947338067
  H           4.59922419155542     -3.38603371001400     -2.71438928189417
  H           4.30499226718576      2.45145794253498     -2.43040704140244
  H           1.12472171651579      2.39443258825117     -0.95093931501549
  H          -2.37811938462805      3.45904349118918     -1.35129015415900
  H          -4.08623131634050      0.18461751279302     -1.65939759000162
  H          -1.71234673558435     -2.49956662277318     -1.90551144928777
  H           2.12197894815402     -3.23918571521065     -2.19233531294387
  H           3.62456332521306      0.25067624429062     -1.67790862341644
  H           1.89465381487671      2.73410525656778     -3.27608756863928
  H          -2.87684073977405      5.70598003904452     -2.17668308632627
  H          -6.05658717978820      0.63738210105287     -3.03749956496174
  H          -2.84847303116639     -3.29094510599353     -3.89199640789836
  H           2.47933840595904     -5.38051199930686     -3.19802589735962
  H           5.43766434375038      0.34380985466475     -3.32866193743461
  H           3.76650979326597      3.90854200975376     -0.75999467411366
  H          -1.64719008970143      5.25230244107102      1.03194242100479
  H          -6.11674570973428      1.45255367565636      0.23123316515988
  H          -4.14576977853441     -3.99620054595795     -0.83808947946885
  H           1.37335749890249     -5.12860306488876      0.10702909631224
  H           5.93350541349519     -1.33172163082620     -0.45433117340358
  H           1.76037077345992      3.50491842187101      1.50155124121705
  H          -2.09458883880613      2.24371174545937      0.69032796854615
  H          -3.50881532647794      0.09338016737850      1.05814772583852
  H          -1.79326630039517     -2.88075959569376      0.75517361588290
  H           1.86742367026056     -2.11977414475375     -0.09197019847021
  H           3.42448697179952     -0.41348161736840      1.01539487399916
  H           4.03378898547619      3.91657711700945      2.23912384971001
  H           3.05515876308516      5.37923365734900      2.50711770612490
  H          -4.64136531551113     -0.01759355260975      3.24797193112417
  H          -4.53757642464084      1.66702988543273      2.69728677973346
  H          -3.89874292789892     -3.09918358671842      1.99909297898481
  H          -2.70131103267279     -4.29681125092335      2.54967364845839
  H           4.92941466451780     -0.67635469824171      3.00110498275415
  H           4.64947097221662     -2.21092681703473      2.14833140743035
  H           4.01449934441578      6.20348497424325      0.59369488972439
  H          -6.80690364774682      0.01585042392636      2.43313514209492
  H          -3.82084678720536     -5.80054577078032      1.19454466971274
  H           6.93382853567478     -0.58089880373613      1.88917776157411
  C           0.72400238868015     -0.97314259503220      3.24710503744239
  H           1.44864578468855     -0.27734142577715      3.65756361231116
  H           0.38694058617182     -1.75171467725724      3.92893183987299
  O           0.31297005674930     -3.57601212338657      2.26545969447473
  C          -0.98331976070686      0.82075433885656      3.72640082928651
  H          -1.59016151169245      0.31475720426467      4.47199935987913
  H          -0.15896978527735      1.39523040650045      4.14681246341015
  O          -0.53517544469877      3.54133316360685      3.03132203286575
  C          -0.48770647611692     -0.22684294326148      2.73947614746991
  O          -1.30634088587390     -0.81889779237084      1.97715381919044
  O           0.35462236885914      0.97066246728378      1.52850011948362
  O           1.56527131220612      1.54585216089698      2.13410909276310
  H           2.25649069755820      1.34395968888054      1.47050218185601
