19
Coordinates from ORCA-job job.QMRegion
  C          -1.41625735509953      2.85955510410746      2.55628731906984
  C           1.09391227571070     -2.81417878500710      1.73728147670297
  O          -1.90156161013100      1.71005649534380      3.06536013454409
  O           1.43509382176342     -1.59469093171014      2.15344430708810
  C           0.72400238868015     -0.97314259503220      3.24710503744239
  H           1.44864578468855     -0.27734142577715      3.65756361231116
  H           0.38694058617182     -1.75171467725724      3.92893183987299
  O           0.31297005674930     -3.57601212338657      2.26545969447473
  C          -0.98331976070686      0.82075433885656      3.72640082928651
  H          -1.59016151169245      0.31475720426467      4.47199935987913
  H          -0.15896978527735      1.39523040650045      4.14681246341015
  O          -0.53517544469877      3.54133316360685      3.03132203286575
  C          -0.48770647611692     -0.22684294326148      2.73947614746991
  O          -1.30634088587390     -0.81889779237084      1.97715381919044
  O           0.35462236885914      0.97066246728378      1.52850011948362
  O           1.56527131220612      1.54585216089698      2.13410909276310
  H           2.25649069755820      1.34395968888054      1.47050218185601
  H          -1.97923732017868      3.07765988353392      1.65378079481167
  H           1.67172137320145     -2.99369325926854      0.83784908252881
