133
Coordinates from ORCA-job job
  C           0.51894801914726      4.93464847204328     -0.44712440345034
  C          -4.39381599263889      3.37101446785296      0.51250057010464
  C          -5.11097164683314     -1.78071003048199     -0.13933167309948
  C          -0.90902300313399     -4.85360528764894     -0.87916284204660
  C           4.11933935861127     -3.29003977706938     -0.26154691052356
  C           4.73674732474403      1.84314630410939      0.20553591391893
  O          -0.33514599488346      3.93805954333960      0.09133226674350
  O          -4.25652719712274      2.21028006769187     -0.24634923845596
  O          -3.78055482725698     -1.96130664725422     -0.57249212907578
  O           0.04234652998724     -3.81576566766806     -0.81391295790428
  O           4.06045913940878     -2.05646528123701     -0.90601060684344
  O           3.32477588808503      2.03710013334548      0.12393151199163
  C           1.10431415900035      4.38283207927007     -1.75432467807515
  C          -4.02687215555974      4.54475408417756     -0.41784373535412
  C          -5.84309936096593     -0.98391595452650     -1.23241648271091
  C          -1.72904004578053     -4.63046347091665     -2.15584068609789
  C           3.73449422963754     -4.37104791528666     -1.29740716478789
  C           5.35345567348313      1.40643087865998     -1.13909433437289
  O           0.12653658599341      4.10086241965788     -2.71742003761639
  O          -4.83947729031098      4.58077813556750     -1.55180627012596
  O          -5.84658993928501     -1.65210676304349     -2.46013529870486
  O          -0.92733032022313     -4.61499405443516     -3.30571561449566
  O           4.55136018257865     -4.31393327753684     -2.42698938963824
  O           5.24019719641671      2.34626911534235     -2.16480261371306
  C           1.83180487530115      3.08271380769841     -1.39884141971211
  C          -2.54590391158074      4.41114666853655     -0.82647322059542
  C          -5.14059473470251      0.37387572317958     -1.34639247021314
  C          -2.46131169350393     -3.28943833508306     -1.99913519032350
  C           2.25182765675061     -4.20641711035971     -1.68985420046065
  C           4.71495408464249      0.07432653896829     -1.54507886415620
  O           2.46584348702559      2.52552788961433     -2.52192627746208
  O          -2.15424319215251      5.48000684615115     -1.64755489353155
  O          -5.77844742906620      1.20892606207103     -2.27352815456964
  O          -3.32345807583539     -3.03662887535328     -3.07572288862356
  O           1.81306807946049     -5.24715842608029     -2.52261778947808
  O           5.27428704905552     -0.40510678229643     -2.73749396025823
  C           2.88659034975739      3.32381490484600     -0.31226740341435
  C          -1.65429057363940      4.33121052136819      0.42271946426380
  C          -5.10391642279485      1.09757465940040      0.00420101398317
  C          -3.30020544080698     -3.28612295500964     -0.71721120391759
  C           1.36163222316873     -4.16998666707279     -0.43910671993397
  C           4.89125573532424     -0.99040822935128     -0.45502972182958
  C           2.30754429283953      4.13004446220359      0.87016223972210
  C          -2.20410393282523      3.18883473211874      1.28058560228350
  C          -4.58528403377628      0.18344285251073      1.13415476245470
  C          -2.46288353958088     -3.69836266362034      0.50241985737102
  C           1.91220572943831     -3.06915050363625      0.46320632119142
  C           4.49908934143177     -0.44186494531887      0.93397036850298
  O           1.56321325663842      5.25614098695452      0.42256240808755
  O          -3.54201603804411      3.38076405925543      1.64577397667256
  O          -5.17500563199930     -1.11190164398903      1.08597606792484
  O          -1.73752226594670     -4.89058507364426      0.24829549100045
  O           3.23473520212654     -3.34783738008115      0.84892178215369
  O           5.00040881676065      0.87726820688969      1.16585120699800
  C           3.41800906863335      4.66142213014846      1.78889481654523
  C          -1.38873087511207      2.89647343876721      2.52728921645366
  C          -4.97337801311151      0.71044713404398      2.52680522883200
  C          -3.34409409289393     -3.99748412135369      1.72317112482739
  C           1.10023753630059     -2.80670671304797      1.72229081428181
  C           5.11332470572196     -1.25205194867613      2.09251786913535
  O           4.43311150591744      5.31297347471612      1.08098807026959
  O          -1.85221666621688      1.74335294585420      3.04768028917195
  O          -6.35510431567673      0.88230366661464      2.63889398841192
  O          -4.28958153785821     -4.98709369555710      1.44909559511467
  O           1.48823554464786     -1.61672701720618      2.17170768507953
  O           6.48965781631087     -1.43313048839556      1.92552267288674
  H          -0.02890118502634      5.86822245897196     -0.61311301598433
  H          -5.40677652581425      3.47508293324094      0.92036973498692
  H          -5.59881304545464     -2.74676313823521      0.04022403789333
  H          -0.41509631770355     -5.83301197650426     -0.89891652565691
  H           5.11537006748459     -3.48314960161726      0.15576340818960
  H           5.21694052564995      2.76221708750228      0.56695267166044
  H           1.83235450927383      5.11012682385751     -2.14736995844628
  H          -4.17301943584449      5.48921709161363      0.11624038545628
  H          -6.88954875543507     -0.83708618384642     -0.94646574304917
  H          -2.47575135556071     -5.43188467794328     -2.24901964943284
  H           3.87932506007584     -5.35919727512379     -0.84892902061904
  H           6.42774236627514      1.26381475450780     -0.97295510585835
  H          -0.60672839073433      4.73620737251211     -2.61300425864335
  H          -4.94147118120640      3.67788734944632     -1.89382178700995
  H          -4.95560748693793     -2.00259781307796     -2.64283661426406
  H           0.00166425770289     -4.78750505377017     -3.06392272084042
  H           4.61413531846841     -3.39120300691011     -2.71945310726675
  H           4.29958110221373      2.44764527843672     -2.40914453987032
  H           1.08953346358343      2.37052719952272     -0.99189883604336
  H          -2.42364510920771      3.45795218712050     -1.36881892484414
  H          -4.09314207407530      0.19402069395349     -1.64768644103380
  H          -1.70973585733862     -2.48646484408009     -1.90788554340676
  H           2.13494144186054     -3.23735303828306     -2.20308988786225
  H           3.62894549409784      0.23820512959572     -1.67443778367926
  H           1.90655570837645      2.69524398367594     -3.29690185938282
  H          -2.91626537666016      5.69765789948608     -2.21427867665441
  H          -6.07179539994785      0.64868348414708     -3.01123680767099
  H          -2.85494509773199     -3.27057976626798     -3.89299045978082
  H           2.48486497164144     -5.37775146062017     -3.21322649395865
  H           5.46660750738333      0.36729708332149     -3.29579464543147
  H           3.72827581599895      3.88068988205104     -0.74038308156520
  H          -1.65006586107395      5.27368935964854      0.98350993416911
  H          -6.11170838008083      1.44996943130620      0.26425513675510
  H          -4.13951790762432     -3.98457962450482     -0.83456419500149
  H           1.37374223639566     -5.12919686087248      0.08982664480142
  H           5.93700122245114     -1.32901775567371     -0.43109350713474
  H           1.64093024260223      3.48640192220246      1.45270250532112
  H          -2.10347843234981      2.26143451103256      0.68369354262049
  H          -3.48670882623492      0.09908230729837      1.06107354694782
  H          -1.78129182658283     -2.86616339330377      0.74898196691672
  H           1.88072648117493     -2.12297659785942     -0.10526730952038
  H           3.40317054927540     -0.45417702184058      1.01907041361998
  H           3.87225551218624      3.81817098379631      2.31234740130881
  H           2.94798723449489      5.32400360220599      2.52404588515800
  H          -4.59504353254990     -0.00928498064450      3.26342627602537
  H          -4.49888760625544      1.67432804547211      2.70923666468444
  H          -3.87975676567246     -3.08876894280452      2.00436164074887
  H          -2.67870577983488     -4.28733635328155      2.54609024351018
  H           4.89217773213494     -0.70397730044947      3.01648173627845
  H           4.65287055891665     -2.23736653752603      2.15066096656106
  H           4.04995017962697      6.10115713237342      0.66868642210511
  H          -6.77109465814009      0.02308046594666      2.46885269235241
  H          -3.80665487650429     -5.78840798588535      1.19336841119708
  H           6.90424516471596     -0.55768842896147      1.92554198002515
  C           0.74986293247430     -0.96591140837956      3.22851413541224
  H           1.49713285977337     -0.35748908890338      3.72680371652176
  H           0.27418817465699     -1.72280142679079      3.84812326860595
  O           0.27899119727489     -3.54286179203026      2.22430188723082
  C          -0.90746468318197      0.85552939796987      3.67675330460154
  H          -1.50730136465424      0.27126446980374      4.36693397720705
  H          -0.12099862048741      1.43935637259312      4.15415208605688
  O          -0.49153156842704      3.57639618605128      2.97248503730901
  C          -0.34240818802390     -0.09851505480144      2.62526911272953
  O          -1.17670418963067     -0.67308575379099      1.81795198892505
  O           0.48271233899640      0.97527037074851      1.59757218319934
  O           1.69849509825652      1.50142599532606      2.28455121261459
  H           2.37802208326625      1.40808642711405      1.57895066939849
