133
Coordinates from ORCA-job job
  C           0.51910374873805      4.93573145491371     -0.43703026767014
  C          -4.39499304143221      3.36979714408488      0.51299736922430
  C          -5.11309264633995     -1.78041608364416     -0.14937147552793
  C          -0.90792310107585     -4.85238798129242     -0.87423767802390
  C           4.12023650877450     -3.29029705262104     -0.25639039667793
  C           4.74249004961535      1.84501131737342      0.19237170661830
  O          -0.33297273634011      3.93783191601590      0.10316182011055
  O          -4.25813006517762      2.21063907798523     -0.24816737934492
  O          -3.78159896890323     -1.96030853168183     -0.57950443235344
  O           0.04292376808354     -3.81448795794653     -0.79936961133319
  O           4.05707131870261     -2.05764573745990     -0.90267502366786
  O           3.33089379910430      2.04071485994350      0.11433120577014
  C           1.10057674607146      4.38804692775715     -1.74781050525991
  C          -4.02514817541420      4.54524850309422     -0.41380312737243
  C          -5.84245242380925     -0.98215453114461     -1.24323903970948
  C          -1.72201716526366     -4.62778874567249     -2.15461174349156
  C           3.73383106937718     -4.37306445600976     -1.28954646259158
  C           5.35299123661121      1.40303777865300     -1.15326409241527
  O           0.12083557013371      4.10709369948851     -2.70888889984669
  O          -4.83477216440323      4.58396642107156     -1.54980023671094
  O          -5.84068044948298     -1.64835747538629     -2.47215009084354
  O          -0.91621121705776     -4.61193330391645     -3.30156791605790
  O           4.54818550897858     -4.31783739627964     -2.42099748208956
  O           5.23563354921903      2.34003361704751     -2.18115580043512
  C           1.83068554120205      3.08813069017372     -1.39792387708930
  C          -2.54313674757352      4.41273292747786     -0.81959221193246
  C          -5.14140910249036      0.37681607784875     -1.35278636966739
  C          -2.45504604473183     -3.28693599114658     -2.00060384484178
  C           2.25064235399115     -4.20833666042734     -1.67922863861547
  C           4.71078663220759      0.07048368621036     -1.55194902988835
  O           2.45843319766335      2.53171977446585     -2.52470984411870
  O          -2.15135259091839      5.48433918239575     -1.63712284070207
  O          -5.77886450962610      1.21346503613590     -2.27884719086974
  O          -3.31233992615984     -3.03338408544999     -3.08095687350783
  O           1.81147272250291     -5.24903584338775     -2.51188942090860
  O           5.26405877739738     -0.41391832523847     -2.74506018521775
  C           2.89144902304580      3.32849742114886     -0.31716983974932
  C          -1.65394036462865      4.32945600898424      0.43117375778580
  C          -5.10690845328848      1.09802615913689     -0.00075709212811
  C          -3.30003613906718     -3.28476576211474     -0.72269876690809
  C           1.36222028818017     -4.17188753036899     -0.42717111013880
  C           4.89051718168544     -0.99079187719571     -0.45907895756103
  C           2.31828173523454      4.13270186373350      0.86957772538529
  C          -2.20634374385491      3.18470427532745      1.28419439962586
  C          -4.59037367657228      0.18153574904517      1.12814105719424
  C          -2.46825806898836     -3.69836055181319      0.50023125234420
  C           1.91471770600203     -3.07223646723454      0.47567074778020
  C           4.50424857595999     -0.43741644785510      0.92959224602057
  O           1.56638812780781      5.25662261131826      0.42916234587390
  O          -3.54486448075429      3.37639543328160      1.64743359539136
  O          -5.18044618919512     -1.11347360026967      1.07664633188042
  O          -1.74275427423303     -4.89149824938768      0.24824658661227
  O           3.23919338280280     -3.34848275449278      0.85674104322309
  O           5.00790484574983      0.88186566517039      1.15525818036037
  C           3.43342739002369      4.66812745776143      1.78031862678564
  C          -1.39495041831085      2.89001918963408      2.53256746687074
  C          -4.97907515749268      0.70560966063040      2.52167776545049
  C          -3.35438476871933     -3.99722965332621      1.71744638463217
  C           1.10603307368040     -2.81441170130879      1.73821614740024
  C           5.12169487224181     -1.24506131078848      2.08822958303923
  O           4.43881419983539      5.32710947050980      1.06566039243135
  O          -1.85724464555585      1.73414221327583      3.04731159630535
  O          -6.36092495676383      0.87764231064441      2.63337073787055
  O          -4.30010131375651     -4.98553877310465      1.43900307403052
  O           1.48779083522471     -1.61956473086201      2.18323287018100
  O           6.49689377688145     -1.42928069436651      1.91610001391790
  H          -0.03003614697124      5.86932567906904     -0.59860134675157
  H          -5.40840744740992      3.47421995347660      0.91969933530598
  H          -5.60136418443376     -2.74678095208869      0.02731718183800
  H          -0.41367720444112     -5.83160050741940     -0.89342029474310
  H           5.11791508765577     -3.48103325758820      0.15803259905838
  H           5.22552624887259      2.76436770676269      0.54907055350611
  H           1.82658823421172      5.11742210069131     -2.14082904872559
  H          -4.17218944528606      5.48857484440684      0.12205925203682
  H          -6.89006837502413     -0.83723464642929     -0.96063577254271
  H          -2.46855283054786     -5.42919815972420     -2.25058221160028
  H           3.87948341224038     -5.36050177431640     -0.83981326298415
  H           6.42787720041217      1.25971472163295     -0.99191473687895
  H          -0.61166238718202      4.74342294740470     -2.60294719782604
  H          -4.93761136473360      3.68150311438342     -1.89277778035885
  H          -4.94869792127211     -1.99788247092367     -2.65151619507117
  H           0.01095550141642     -4.79204135528387     -3.05762130185142
  H           4.60969080682695     -3.39572246897190     -2.71563007159400
  H           4.29381348655895      2.44403200765831     -2.41938186911741
  H           1.09095133897215      2.37536743746653     -0.98683984724598
  H          -2.41951110620454      3.46125582817412     -1.36457619994336
  H          -4.09341544532418      0.19874502910764     -1.65323960236347
  H          -1.70388400778973     -2.48401915559616     -1.90554850987587
  H           2.13295526015923     -3.23914657330373     -2.19205354053351
  H           3.62439188243436      0.23562634016929     -1.67689515263422
  H           1.89576685379999      2.70375977505674     -3.29682920503031
  H          -2.91343593833401      5.70345837336403     -2.20333649227184
  H          -6.06880353949255      0.65510442910643     -3.01925649945489
  H          -2.84053413772528     -3.26770350874518     -3.89614952589005
  H           2.48295710680854     -5.37920781749901     -3.20294939068581
  H           5.45487462674513      0.35606664954925     -3.30717976034036
  H           3.73093614308897      3.88562205156273     -0.74927221609793
  H          -1.65144116360602      5.27026996344160      0.99483453831179
  H          -6.11489522726156      1.45062403152521      0.25813859438102
  H          -4.13851115571416     -3.98343616650072     -0.84473064254936
  H           1.37331123435751     -5.13162109855591      0.10089835980710
  H           5.93610579847404     -1.33004508579281     -0.43813629508656
  H           1.65914513184093      3.48530421169948      1.45672470166795
  H          -2.10472975489176      2.25912729020831      0.68495654115604
  H          -3.49204980239835      0.09707919279119      1.05547038175395
  H          -1.78563890331145     -2.86809728963336      0.74980648051005
  H           1.87920544435463     -2.12494615594367     -0.09061628741840
  H           3.40847405933089     -0.44831452965439      1.01868708319733
  H           3.89679475839826      3.82619658787670      2.29788618101935
  H           2.96580626380005      5.32631912429040      2.52093610181916
  H          -4.60150883009305     -0.01595856309469      3.25688582295018
  H          -4.50445863402316      1.66894702459434      2.70654776630181
  H          -3.89004251292720     -3.08815493316547      1.99735708907531
  H          -2.69260256688981     -4.28865618732789      2.54270029494362
  H           4.90531422045455     -0.69374786080110      3.01139696520028
  H           4.65961080950068     -2.22936366189810      2.15111251789282
  H           4.04783519758480      6.11464150666484      0.65944277936062
  H          -6.77685307908501      0.01864756257376      2.46217391088028
  H          -3.81713233981783     -5.78732316535261      1.18501415136674
  H           6.91352426369985     -0.55484014099229      1.91170578283085
  C           0.75101196559541     -0.97080055446809      3.24260849650687
  H           1.49306917982086     -0.34115327171745      3.72195427856346
  H           0.30202248250997     -1.73143682289860      3.87765800516774
  O           0.29310836737619     -3.55628352091575      2.24577395180410
  C          -0.91746787777222      0.84928182546214      3.68663090246378
  H          -1.51893938156048      0.28476980639995      4.39215788112947
  H          -0.12201334728810      1.43327152972543      4.14832982918415
  O          -0.50257672369677      3.57262405337610      2.98439377962632
  C          -0.36707661345453     -0.13001326231345      2.65264523663720
  O          -1.19288991077041     -0.70645751058888      1.85154195489532
  O           0.47309290382486      0.97599719895174      1.58805328101508
  O           1.68800142729585      1.50433184566874      2.26229310006168
  H           2.36888742296292      1.39413660666763      1.56206339939181
