133
Coordinates from ORCA-job job
  C           0.53427075863361      4.93733067025311     -0.39764685540594
  C          -4.38645166852779      3.35993178562277      0.50346169722498
  C          -5.11907357802357     -1.78723997112053     -0.15544538365669
  C          -0.91015142224132     -4.86035031948537     -0.86784481699896
  C           4.11281251909016     -3.28191670958742     -0.25485310807258
  C           4.77596131313123      1.85263196572925      0.17604599882438
  O          -0.30958432995615      3.93347537182713      0.14893129750367
  O          -4.25227082079205      2.20160200932965     -0.25944887727305
  O          -3.78477948407715     -1.97036645695061     -0.57538850667479
  O           0.03640285933655     -3.81826247976283     -0.79470933077103
  O           4.04876562326901     -2.04919851351494     -0.90189611370306
  O           3.36726227534294      2.06028621660333      0.11056153458186
  C           1.11061987302961      4.40181267672877     -1.71597109643290
  C          -4.00093775265485      4.53716618208630     -0.41366619052994
  C          -5.84127936454093     -0.98995682447820     -1.25474498761093
  C          -1.72559588261208     -4.64020323818268     -2.14805307685114
  C           3.72854508585273     -4.36652228379772     -1.28704397939435
  C           5.36911751534170      1.40128248041954     -1.17440313466284
  O           0.13083441870846      4.11713261610910     -2.67515878459173
  O          -4.79490935626984      4.58435928632630     -1.56024597341038
  O          -5.83726106078595     -1.65818533238892     -2.48251956861618
  O          -0.92046600983962     -4.62377776178684     -3.29562271319443
  O           4.54351521803993     -4.31047269657730     -2.41810872942557
  O           5.24714529737370      2.33636954350913     -2.20376406555524
  C           1.85165385609902      3.10670500298365     -1.37679262106597
  C          -2.51404543801481      4.40639533134390     -0.80272901526654
  C          -5.13669072736422      0.36730040586511     -1.36476669639529
  C          -2.46085334120967     -3.30040699937603     -1.99631356246743
  C           2.24508228186564     -4.20660575089239     -1.67771745410277
  C           4.71181155342713      0.07286675379071     -1.56229972113930
  O           2.46409905043185      2.55070676708068     -2.51206518735003
  O          -2.11988629945660      5.48463766467918     -1.61059879492240
  O          -5.76683158236440      1.20070801702158     -2.29883482434079
  O          -3.31904037134743     -3.05072851373629     -3.07706005982947
  O           1.80884558988818     -5.25064645765133     -2.50779926160928
  O           5.25048427889073     -0.42086940074720     -2.75818864169209
  C           2.92784058290106      3.35059806054217     -0.31235148902946
  C          -1.63881405303679      4.31650548238769      0.45776860794108
  C          -5.10929439004413      1.09370080272176     -0.01532719219211
  C          -3.30489418626006     -3.29594206154259     -0.71771509785984
  C           1.35776726191683     -4.16994612495625     -0.42517803841533
  C           4.89168826275111     -0.98629021197958     -0.46739881073240
  C           2.37463109498770      4.15868426633368      0.88246897172782
  C          -2.20382217801883      3.16570377488012      1.29453389623879
  C          -4.60625845609557      0.17896403497793      1.12111294971493
  C          -2.47269236936248     -3.70894714385579      0.50552332717179
  C           1.90674198077030     -3.06583414254295      0.47408318906198
  C           4.51943619345488     -0.42442857916130      0.92181700192759
  O           1.58649756354365      5.26556272696860      0.45840176774521
  O          -3.54598397883153      3.35870491246119      1.64449440091274
  O          -5.19484934139347     -1.11676782184104      1.06787174936077
  O          -1.74382421324537     -4.90072439541312      0.25523654227425
  O           3.23170557705421     -3.33858179029565      0.85798405219967
  O           5.04238868957730      0.88845309249725      1.13893295889404
  C           3.50728224760251      4.73277512883537      1.74733400796299
  C          -1.41503132442333      2.86242365228746      2.55439757197258
  C          -5.00875854032381      0.70517101788135      2.50992291261071
  C          -3.35980957838759     -4.00723088065156      1.72198958054355
  C           1.09571174925695     -2.81255119550009      1.73602957988750
  C           5.13061435957586     -1.23746167689217      2.08005480508854
  O           4.45734557909805      5.42758944750097      0.99190575997433
  O          -1.89947189431253      1.71342440961727      3.06615282930837
  O          -6.39199688680840      0.87634683390976      2.60750272815852
  O          -4.30423094869457     -4.99710744816014      1.44392065193735
  O           1.43984197834981     -1.59496967883434      2.15391546117480
  O           6.50160319362300     -1.44473261349554      1.90130758263724
  H          -0.02287997545298      5.86773231136791     -0.55040933931953
  H          -5.40256615062550      3.46989946085199      0.90220206483050
  H          -5.60979016894125     -2.75253516501928      0.02044584618660
  H          -0.41198030108061     -5.83752806126111     -0.88618041723816
  H           5.11062479807032     -3.47144027855539      0.15964374188014
  H           5.27203573829521      2.76757544777846      0.52546774634818
  H           1.82896208399618      5.13983402159875     -2.10714543507514
  H          -4.15222366730718      5.47823731381221      0.12518803688017
  H          -6.88951310632213     -0.84144816365232     -0.97609625357466
  H          -2.47040543572508     -5.44340045822929     -2.24221632217243
  H           3.87658247388213     -5.35310980591498     -0.83618069301788
  H           6.44458920737180      1.24980021688325     -1.02498142655546
  H          -0.59850593966760      4.75884638963091     -2.57454903221138
  H          -4.89762101944780      3.68362223516162     -1.90750535377973
  H          -4.94631968258254     -2.01288070644798     -2.65738353631651
  H           0.00679909682460     -4.80430049178022     -3.05221167904012
  H           4.60219019031817     -3.38867843079884     -2.71420270660277
  H           4.30323975054697      2.44981857171704     -2.42849972821125
  H           1.12006066539790      2.39153227211987     -0.95421792485121
  H          -2.38291168505236      3.45866209324730     -1.35243937555303
  H          -4.08721169636687      0.18625028785717     -1.65816173473975
  H          -1.71069972021967     -2.49623899781580     -1.90452956830235
  H           2.12480291569203     -3.23901270432629     -2.19290012505804
  H           3.62587576615800      0.24738297197031     -1.67852533056391
  H           1.89420470311461      2.72936533509271     -3.27751582395039
  H          -2.88000900172590      5.70506546081623     -2.17948742590305
  H          -6.05824613136266      0.63802872880149     -3.03543898292275
  H          -2.84716170176489     -3.28584988853677     -3.89189515351520
  H           2.48028756274159     -5.38039077493167     -3.19887608917874
  H           5.44179015252740      0.34495105487781     -3.32568577307316
  H           3.76220613016666      3.90433256041850     -0.75871697990222
  H          -1.64773935460071      5.25326179300410      1.02845924932762
  H          -6.11748928537643      1.45280715372704      0.23370570162424
  H          -4.14417232203727     -3.99377328954629     -0.83841949887643
  H           1.37369887121890     -5.12789646053332      0.10613531352455
  H           5.93520814308763     -1.33206530301389     -0.45223498069208
  H           1.75146832042160      3.50273539073151      1.49941907623933
  H          -2.09646617626439      2.24440075937281      0.69035670280309
  H          -3.50795148805730      0.09517972875864      1.05888639507691
  H          -1.79171119953225     -2.87883824205767      0.75538034488200
  H           1.87063017044692     -2.11965962969289     -0.09323884534187
  H           3.42384785796242     -0.41920532206221      1.01653089755862
  H           4.02247162306100      3.90885161802339      2.24409010615672
  H           3.04818103265094      5.37530238948600      2.50693997491821
  H          -4.63833103939822     -0.01560121049161      3.24946260703090
  H          -4.53656892416606      1.66890821760806      2.69833786342286
  H          -3.89639287703968     -3.09798640219694      1.99964095461415
  H          -2.69919828622041     -4.29637146393330      2.54891830038916
  H           4.92855776476293     -0.67938990005863      3.00245721856394
  H           4.65324876025957     -2.21421752927358      2.14875222829684
  H           4.01725503616183      6.19426422962111      0.59638999201755
  H          -6.80487222884485      0.01599655173937      2.43605442428076
  H          -3.81968881116822     -5.79885321054631      1.19306323266245
  H           6.93301923886239     -0.57758840512989      1.89126626906003
  C           0.72689306068256     -0.97114292561256      3.24500545819657
  H           1.45460820177185     -0.28338161104234      3.66322660681599
  H           0.37665526691168     -1.74843147258943      3.92147805670870
  O           0.31287357193412     -3.57316956290701      2.26320192036257
  C          -0.97780372417063      0.82405118540300      3.72277959248249
  H          -1.58316629906541      0.30899595360947      4.46312490634623
  H          -0.15709326077529      1.40000244042969      4.14832419975111
  O          -0.53210836746234      3.54393737481095      3.02617791949093
  C          -0.47561664720677     -0.21416067125157      2.72797279677674
  O          -1.29787419710475     -0.81023280601212      1.96742062095750
  O           0.35681210456968      0.96772337499467      1.53388843172133
  O           1.56994617905899      1.53898224124986      2.14260081885842
  H           2.25818278030891      1.34780053269527      1.47207534517438
