133
Coordinates from ORCA-job job
  C           0.52781089920236      4.93736999753901     -0.41516165830656
  C          -4.39213680337398      3.36777816221952      0.50529685447807
  C          -5.11245210929518     -1.78252494757674     -0.14494274670859
  C          -0.90678318760285     -4.85598655858899     -0.87001459603726
  C           4.12063567738924     -3.28921602026725     -0.25920692537674
  C           4.75659621449952      1.84625343194245      0.18840910602849
  O          -0.32099365587762      3.93730969747977      0.12875157880507
  O          -4.25695321858078      2.20823283327032     -0.25572755145249
  O          -3.77921036279228     -1.96311666751703     -0.56988025957674
  O           0.04327703568927     -3.81743936266714     -0.79654473726568
  O           4.05580300093363     -2.05581280612639     -0.90403996464580
  O           3.34633722381514      2.04793348375489      0.11766483018050
  C           1.10702618366218      4.39489404427165     -1.72927729394814
  C          -4.01208362438376      4.54321018879383     -0.41687592979646
  C          -5.83996311570943     -0.98798576624329     -1.24272553454647
  C          -1.72279910359759     -4.63135833250669     -2.14907376915213
  C           3.73414250776069     -4.37167827704840     -1.29286373254192
  C           5.35895738294533      1.40209460064155     -1.16042176005463
  O           0.12799452923882      4.11390370291568     -2.69078355219701
  O          -4.81211871191796      4.58635230945794     -1.55941726847227
  O          -5.83787439886756     -1.65772610798375     -2.46962482597401
  O          -0.91860575556345     -4.61504710724361     -3.29717607461211
  O           4.54746274537641     -4.31461805667531     -2.42500381227654
  O           5.23912744022357      2.33933258340029     -2.18799830527848
  C           1.83985387699861      3.09606791272728     -1.38377974733011
  C          -2.52716915068430      4.41053770481610     -0.81229996148199
  C          -5.13838736234664      0.37041206973473     -1.35597979930477
  C          -2.45515612785964     -3.29029631995711     -1.99375083515982
  C           2.25025684596054     -4.20918652484279     -1.68130023375700
  C           4.71109074297750      0.07132421921477     -1.55595039029836
  O           2.46001681825735      2.53855997758405     -2.51438369935227
  O          -2.13323036713559      5.48474761184017     -1.62549691740274
  O          -5.77285519621797      1.20238293635562     -2.28822986097897
  O          -3.31311611196801     -3.03619261298957     -3.07344717718313
  O           1.81161337587718     -5.25079702545849     -2.51313079978137
  O           5.25829810056035     -0.41514616408399     -2.75113478157991
  C           2.90817209249444      3.33713632514858     -0.31070580178723
  C          -1.64656949486840      4.32450097977716      0.44459336459716
  C          -5.10853634672491      1.09766562593698     -0.00713144590737
  C          -3.29871521005143     -3.28805115118669     -0.71483269596343
  C           1.36387641180733     -4.17370579351816     -0.42793937485976
  C           4.89239992354223     -0.99012976796211     -0.46349974740521
  C           2.34741746437546      4.14614387544022      0.87943450583757
  C          -2.20744096059681      3.17678829284233      1.28836794117432
  C          -4.59878058665353      0.18551301012939      1.12855294212002
  C          -2.46576064410117     -3.70304523744175      0.50695362290998
  C           1.91610284408737     -3.07277562666413      0.47321652864399
  C           4.51263459582753     -0.43498068265441      0.92636169467241
  O           1.57743181786847      5.26167272815375      0.44602985237312
  O          -3.54799253702710      3.37052445531627      1.64376528223173
  O          -5.18491086177698     -1.11148275410971      1.07836989707133
  O          -1.73969022529134     -4.89572478171421      0.25394222280955
  O           3.24068853335485     -3.34857459426816      0.85485875510437
  O           5.02401654960332      0.88156658893686      1.14962336645823
  C           3.47415017704553      4.70243564111441      1.76346204568947
  C          -1.41044030668654      2.87508332972639      2.54368348668644
  C          -4.99897395990988      0.71277245134328      2.51771641708104
  C          -3.35136505020848     -4.00215016179204      1.72437225471572
  C           1.10555806533136     -2.81580846736721      1.73461351884752
  C           5.12939508154489     -1.24606994237648      2.08297339130071
  O           4.45178385904766      5.37662578242447      1.02453108625545
  O          -1.88952336336288      1.72336249267700      3.05619207582095
  O          -6.38202316682046      0.88207230268843      2.61844401082541
  O          -4.29775300682093     -4.98985017488577      1.44624197849893
  O           1.46353403149796     -1.60660203044937      2.16155966865308
  O           6.50297571554930     -1.43838643709591      1.90628701295803
  H          -0.02468158576835      5.86964740410105     -0.57309938658827
  H          -5.40728018371145      3.47615323044530      0.90678581771439
  H          -5.60039392027838     -2.74874007684191      0.03354942809743
  H          -0.41194412482095     -5.83487048125769     -0.89006614137957
  H           5.11892865174093     -3.47973220604492      0.15375713550291
  H           5.24604973701322      2.76312673050747      0.54237686580639
  H           1.83080898501635      5.12743823170298     -2.12054252154788
  H          -4.16132189579636      5.48577476145341      0.11983241992007
  H          -6.88771043034578     -0.84159028103772     -0.96124407705513
  H          -2.46959366192972     -5.43261058690553     -2.24410055196330
  H           3.88160761479989     -5.35921744847869     -0.84393043732352
  H           6.43424126657529      1.25562515915318     -1.00469014036802
  H          -0.60262192397483      4.75319465365902     -2.58732762988415
  H          -4.91457402442768      3.68465523252703     -1.90428454214006
  H          -4.94593822370755     -2.00822196457759     -2.64776092636028
  H           0.00886672890058     -4.79606246543841     -3.05496691379747
  H           4.60692360741784     -3.39232558992664     -2.71950988602120
  H           4.29622054527957      2.44690182604614     -2.42021138766123
  H           1.10216704055528      2.38372980622689     -0.96814434168166
  H          -2.39958389258103      3.46046505958571     -1.35882480146013
  H          -4.08937853530667      0.19093742509960     -1.65209647860542
  H          -1.70362986789319     -2.48767342170662     -1.89934141970712
  H           2.13061522682729     -3.24038621682189     -2.19436308987391
  H           3.62477044803441      0.23964428658492     -1.67690191548272
  H           1.89387956512194      2.71341088947257     -3.28331291845577
  H          -2.89331096366119      5.70317820976241     -2.19491355889289
  H          -6.06217098462074      0.63981257713668     -3.02574695717130
  H          -2.84210412962659     -3.27073827454379     -3.88905482535715
  H           2.48189844192027     -5.37931088747976     -3.20563245826396
  H           5.44851103599059      0.35401832838210     -3.31450410427657
  H           3.74581267286593      3.89092328784016     -0.75077608660892
  H          -1.65109006175688      5.26340584222419      1.01161414249071
  H          -6.11711599435655      1.45322955719981      0.24550071673518
  H          -4.13787027083317     -3.98598381022365     -0.83616039350463
  H           1.37730736442909     -5.13313916732376      0.10065542210086
  H           5.93748220852052     -1.33111928652091     -0.44620032613580
  H           1.70737912341739      3.49663060524768      1.48520088872683
  H          -2.10369587272129      2.25353404421675      0.68616259503798
  H          -3.50004466123148      0.10325322870095      1.06390916317904
  H          -1.78349253974515     -2.87324576394287      0.75716549300529
  H           1.88150222550298     -2.12632395251786     -0.09413480940205
  H           3.41713365130789     -0.43964332624523      1.01911651666581
  H           3.96392700294214      3.87031496224704      2.27225370379483
  H           3.01282667138869      5.35544232332355      2.51258139642118
  H          -4.62551277436712     -0.00635093825658      3.25735567789280
  H          -4.52775698328462      1.67747712161198      2.70372250015700
  H          -3.88584094534693     -3.09245928610884      2.00466455808247
  H          -2.68949261725670     -4.29390792473179      2.54942480215934
  H           4.91975878522365     -0.69346685318271      3.00694654388117
  H           4.66208461307456     -2.22788176839214      2.14739957636855
  H           4.03667234531140      6.15409547770858      0.62313602734213
  H          -6.79457077515317      0.02129873284729      2.44821831775181
  H          -3.81515834536947     -5.79183530797171      1.19211151576532
  H           6.92458882523229     -0.56637340904124      1.89905963058053
  C           0.73418263698891     -0.96607120385383      3.23145829945386
  H           1.47094053147230     -0.31284746315594      3.68701012476369
  H           0.32176213687787     -1.73251476701623      3.88429418081904
  O           0.31025629833617     -3.56847305051999      2.25428666409675
  C          -0.95759832690798      0.83072553783262      3.69515355249031
  H          -1.56104840014581      0.27436327207915      4.40566234513361
  H          -0.15585548805221      1.40962732812532      4.15211909066026
  O          -0.52182367369901      3.55374866374014      3.00762944778271
  C          -0.41953882911303     -0.15966235676044      2.66578909515370
  O          -1.24847612625999     -0.75683056282547      1.88932188335387
  O           0.38770576886917      0.96799749589730      1.55792429120140
  O           1.60525524602727      1.51948935977198      2.19623522582912
  H           2.28808455139933      1.37068559883896      1.50655932597579
