19
Coordinates from ORCA-job job.QMRegion
  C          -1.40713374360138      2.88194663828677      2.53752500634515
  C           1.11002497033966     -2.81991952480429      1.74399716161547
  O          -1.86897197522617      1.72295197233741      3.04538973575432
  O           1.48051469661483     -1.61710350206582      2.18028541584375
  C           0.75047331347758     -0.97321397440892      3.24769480678414
  H           1.48783438383359     -0.32114490708705      3.70383862391582
  H           0.33480321490970     -1.73848560792173      3.89992594919641
  O           0.30699186098051     -3.56843724801405      2.25768241010440
  C          -0.93348002918389      0.84116087246286      3.69520362905661
  H          -1.53573489166957      0.29751351787513      4.41675570727760
  H          -0.12927602819789      1.42597557292283      4.14007026909828
  O          -0.52039429650643      3.56693037189541      2.99760499515349
  C          -0.39941279663645     -0.16426568908973      2.67944888019867
  O          -1.22196723889053     -0.75105735920877      1.89472466675156
  O           0.44046835161336      0.97586501346038      1.56827759111493
  O           1.66132296053542      1.50277373500026      2.22212037435534
  H           2.33966544399179      1.37513593810380      1.52389704976469
  H          -1.98312177377793      3.09558578725370      1.64183140827137
  H           1.68543580667993     -3.00140822974337      0.84327605641253
