133
Coordinates from ORCA-job job
  C           0.55415940506379      4.97100146083858     -0.33307274666992
  C          -4.36358227669644      3.35086268300802      0.51485862454892
  C          -5.11267488692630     -1.79347603614038     -0.19296174601051
  C          -0.91375288099907     -4.90095779156789     -0.83258854139281
  C           4.10271258988588     -3.27852830213736     -0.25198893716949
  C           4.79645928019252      1.86238938192074      0.14223417804745
  O          -0.28271525700502      3.96369212832285      0.22100958591136
  O          -4.20939739529551      2.19561755518905     -0.25011017552383
  O          -3.77669298373017     -1.99844840998322     -0.59587786919145
  O           0.02934125388358     -3.85465320098141     -0.78087027259965
  O           4.02910040963635     -2.04957148575175     -0.90580124421001
  O           3.39173729919557      2.09090956539357      0.10263263386280
  C           1.11418808457013      4.45098992921382     -1.66537868555648
  C          -3.97583272466659      4.53613946753815     -0.39005268608007
  C          -5.80367685256716     -0.97797099051633     -1.29884892605737
  C          -1.72996493165532     -4.70842042332980     -2.11662926115745
  C           3.72656040182225     -4.37434240360316     -1.27593614564298
  C           5.35826890342842      1.39613488571339     -1.21690251261668
  O           0.12767979325239      4.17575749002444     -2.61991769175661
  O          -4.74661333900767      4.57591572473486     -1.55313354361965
  O          -5.79005620831121     -1.63787137841314     -2.53089836878551
  O          -0.92447558304289     -4.71542205999222     -3.26420089591841
  O           4.53820837825649     -4.31604973620705     -2.40949625763833
  O           5.22602483865193      2.32630899192861     -2.24962550339647
  C           1.85756966892375      3.15276950939924     -1.34823962265782
  C          -2.48002436201246      4.43311577928385     -0.75210311642190
  C          -5.07633617577689      0.36919760065922     -1.38719764569439
  C          -2.46504385537119     -3.36556683000866     -1.99276072938822
  C           2.23975718698979     -4.23924664320527     -1.66536167620082
  C           4.68036673651339      0.07191904202567     -1.58410292779273
  O           2.44265641189303      2.59772510598198     -2.49857030649519
  O          -2.09389896490763      5.53137319377445     -1.53734218638310
  O          -5.67063748228352      1.21434437550009     -2.33420036630128
  O          -3.32451894895134     -3.13889011108219     -3.07763977929434
  O           1.81416400698858     -5.30320248856267     -2.47566707724824
  O           5.19119641535834     -0.43322216472152     -2.78740590213431
  C           2.95784737921224      3.38732982957779     -0.30646305753371
  C          -1.61849548890764      4.33504006570247      0.51855217633738
  C          -5.07463538887011      1.08791822528349     -0.03369131927706
  C          -3.30808897889354     -3.33107763763493     -0.71376348322261
  C           1.35435099036526     -4.19258452898080     -0.41197143355587
  C           4.87329079340358     -0.98185342771848     -0.48611528443027
  C           2.44071071381842      4.20000324679632      0.90260681753608
  C          -2.19036528576685      3.17035246564093      1.33206221203619
  C          -4.59961278405702      0.16165846098164      1.10524795788580
  C          -2.47949914149367     -3.72639127026173      0.51797412091812
  C           1.89655731934809     -3.07156593818804      0.46947289547804
  C           4.51676132915236     -0.40661989744047      0.90198578653772
  O           1.61923210660642      5.29536980771445      0.50730440290320
  O          -3.53823022161134      3.35341271527057      1.66609983111961
  O          -5.19800810114862     -1.12908028823855      1.03317430264983
  O          -1.74706512909715     -4.92073702223128      0.29123785950291
  O           3.22175415138154     -3.33327976180833      0.86094662596467
  O           5.06682371930968      0.89720990944551      1.10437462979792
  C           3.59854438021360      4.80716073006645      1.70992947120738
  C          -1.42618480029383      2.82946393282579      2.59750406195822
  C          -5.02368304092269      0.68359925175536      2.48921734151873
  C          -3.37201468754032     -4.00571384005128      1.73490008956437
  C           1.08174365789144     -2.80385508463648      1.72444995687550
  C           5.11828021282718     -1.22208291848952      2.06353705393079
  O           4.47824431885227      5.54113257174842      0.90743356705679
  O          -1.96180425582482      1.69562309519658      3.09622178280982
  O          -6.40721406530409      0.86601751409296      2.56179981816392
  O          -4.31234270044606     -5.00288529777335      1.46906006596227
  O           1.38218940497793     -1.55817925795732      2.09498637720899
  O           6.48279918244797     -1.46261318259738      1.87697930114150
  H          -0.00620015981656      5.90227475975797     -0.46875207562257
  H          -5.38616214279782      3.45048249286345      0.89949457053550
  H          -5.62262214635436     -2.75122650124136     -0.02994530997842
  H          -0.41289647912064     -5.87694950232409     -0.83090087693039
  H           5.10199251131403     -3.45815853912244      0.16327300482214
  H           5.31442329494776      2.76997357478765      0.47814648058515
  H           1.82831830625341      5.19446260925752     -2.05419855897430
  H          -4.15252895099769      5.47277404140238      0.14882970901694
  H          -6.85391505409557     -0.81393547352882     -1.03659096523107
  H          -2.47441053337755     -5.51368906993326     -2.19380500820479
  H           3.88864902989983     -5.35560988417496     -0.81818975826217
  H           6.43488649351358      1.23353698814863     -1.08858053120014
  H          -0.59505897150963      4.82479181296965     -2.51502948066368
  H          -4.83122678496490      3.67482195292778     -1.90438140638827
  H          -4.90714371406227     -2.02057012091654     -2.68663515252464
  H           0.00287550006898     -4.89067451955435     -3.01720356297367
  H           4.58359692638596     -3.39583759555746     -2.71265550033889
  H           4.27872468431026      2.45638797161428     -2.44947207246665
  H           1.13045900889931      2.43961846651757     -0.91469886727087
  H          -2.32538348894874      3.49655059170458     -1.31501023342874
  H          -4.02227980387391      0.17441363766643     -1.65427287394499
  H          -1.71435145360418     -2.56014409575047     -1.91959741570100
  H           2.10635913371101     -3.28235214110950     -2.19693943290171
  H           3.59398136792991      0.25592925623316     -1.68031201194997
  H           1.86194871524146      2.79030144817403     -3.25244092834483
  H          -2.85141972907571      5.74991931796646     -2.11064426886031
  H          -5.95901585848565      0.65636033366674     -3.07568852321256
  H          -2.85125238437656     -3.38468934654050     -3.88842688278153
  H           2.48401782689897     -5.43723216449072     -3.16730665628150
  H           5.38064790968940      0.32800292426952     -3.36161834864490
  H           3.78716161166202      3.93314717960392     -0.77219869078314
  H          -1.63993772764912      5.26594504949870      1.09847760280216
  H          -6.08683210387051      1.44850756689354      0.19646102615464
  H          -4.15334947156440     -4.02380503436704     -0.82122575650866
  H           1.37947378515128     -5.14287973976235      0.13252518140754
  H           5.91752040545716     -1.32550582592674     -0.47942878205750
  H           1.85682825582017      3.53833252015843      1.55124060689405
  H          -2.07447645162813      2.26168959579256      0.71061391411277
  H          -3.50117151748507      0.06940869546496      1.06252508559788
  H          -1.80105672460252     -2.89184662863111      0.75672800576788
  H           1.85994713259983     -2.13491674312660     -0.11271888794554
  H           3.42186819886156     -0.37867841930098      1.00198397299078
  H           4.17116400795135      4.00095918406401      2.17096902996604
  H           3.15964350173004      5.42960897279697      2.49798104938143
  H          -4.67386345962480     -0.04414907102487      3.23174603447362
  H          -4.54679070750670      1.64226886541843      2.69118945877833
  H          -3.91246797032225     -3.09305092511905      1.99320303850942
  H          -2.71563822823628     -4.27841723761810      2.57071189704950
  H           4.93667678318945     -0.65021175371655      2.98183109928149
  H           4.61968507015916     -2.18721113985485      2.14565205213906
  H           3.98061549723112      6.27902354847086      0.52576713166988
  H          -6.82369668190026      0.00910087793997      2.38219252638636
  H          -3.82426290194778     -5.80738704598651      1.23453947750533
  H           6.93354582017347     -0.60564628703792      1.85180666613827
  C           0.68959085242062     -0.94437464377430      3.20432137103922
  H           1.39989606339256     -0.21077405217043      3.57384694285003
  H           0.41770472164658     -1.72383387830147      3.91407865538368
  O           0.33085855899392     -3.57312331971085      2.28405280984045
  C          -1.07207164363657      0.77293716917115      3.74522220717555
  H          -1.70000719175281      0.24991913854660      4.46078397067153
  H          -0.25128973603047      1.32540296508764      4.20114880974521
  O          -0.52301340589778      3.46807973344582      3.09030106528512
  C          -0.56747954544900     -0.25222558214854      2.74019045108216
  O          -1.38159783118435     -0.85621793585549      1.98825115816957
  O           0.21867099895957      0.98022435712304      1.48772908841186
  O           1.43466436939869      1.61636835104295      2.00403240452395
  H           2.12033726695802      1.33614362489345      1.36473274082121
