19
Coordinates from ORCA-job job.QMRegion
  C          -1.42387929902321      2.82392422352073      2.59643675349921
  C           1.08121723859026     -2.80704422117207      1.72850708842669
  O          -1.95968859175118      1.69017173379949      3.09384142990546
  O           1.38147253291994     -1.56101404234444      2.09963885597313
  C           0.69057141770292     -0.94839799364919      3.21070022753900
  H           1.39778093302692     -0.20818559749608      3.57326632850063
  H           0.43009577841253     -1.72800813303852      3.92476143540379
  O           0.33055102469039     -3.57686101761600      2.28758676748731
  C          -1.07292926970549      0.76967294119402      3.74989415223643
  H          -1.70251748393296      0.25662005426846      4.47140746651517
  H          -0.24914571606389      1.32256124546627      4.19979086633367
  O          -0.52099734674936      3.46238691556830      3.09021206677544
  C          -0.57373093692644     -0.26628696472338      2.75457784346961
  O          -1.38458163251720     -0.86719415495103      2.00139274307529
  O           0.22210395120503      0.98049827681608      1.48387985665752
  O           1.43767648687274      1.61778884235950      1.99682731811988
  H           2.12280678829330      1.33694653760044      1.35758447989009
  H          -1.97105873993748      3.06938228975538      1.69115541706160
  H           1.66127779360902     -2.99643091200621      0.83360894280886
