147
* (null), Energy   -1000.0000000
C     -3.3657830000    2.5378530000   -1.7078200000
O     -3.2792870000    1.2673080000   -1.0928660000
C     -2.7592800000    2.4726920000   -3.1229210000
O     -2.7203710000    3.5173890000   -0.9432240000
C     -4.4686790000    0.7483250000   -0.5297820000
O     -3.3404690000    1.4811100000   -3.9224980000
C     -1.2606230000    2.1618550000   -3.0180550000
C     -1.3335880000    3.2663210000   -0.7296620000
C     -5.2202190000   -0.0944130000   -1.5785060000
C     -4.1016420000   -0.1766610000    0.6471840000
O     -0.6135660000    2.2547660000   -4.2601160000
C     -0.5741650000    3.1442580000   -2.0634260000
C     -0.7885790000    4.4331580000    0.1087900000
C     -6.3667390000   -0.9004290000   -0.9388410000
O     -5.7222060000    0.7618610000   -2.5799060000
O     -5.2538810000   -0.7834160000    1.1835350000
C     -3.3602210000    0.4974980000    1.7933020000
O      0.7403520000    2.6469550000   -1.8391290000
O     -0.8256270000    5.6504370000   -0.5870080000
C     -5.8293930000   -1.6947880000    0.2668570000
O     -6.9771040000   -1.7195450000   -1.8919810000
O     -2.1200140000    0.7873080000    1.4207040000
O     -3.8239090000    0.7206670000    2.8819900000
C      1.8236210000    3.5685690000   -1.8628810000
O     -4.9135610000   -2.6237080000   -0.2234420000
C     -1.1255070000    0.8686560000    2.4296910000
C      2.7451590000    3.2440140000   -3.0514560000
O      2.5310120000    3.5380480000   -0.6660550000
C     -4.7095960000   -3.8536270000    0.4665250000
C     -0.6985980000   -0.6131860000    2.7619240000
O      2.1029680000    3.3592240000   -4.2886850000
C      3.3144840000    1.8349260000   -2.8428080000
C      3.1965520000    2.3157800000   -0.3212780000
C     -4.1777080000   -4.7936460000   -0.6255250000
C     -3.7324450000   -3.7206280000    1.6548970000
C      0.7765070000   -0.5493960000    3.2978620000
O     -0.7902310000   -1.4266110000    1.5134640000
O     -1.5427160000   -1.2738760000    3.6151690000
O      4.2552140000    1.5083370000   -3.8337180000
C      4.0115500000    1.7055760000   -1.4802240000
C      4.0866370000    2.6978850000    0.8759460000
C     -3.6223320000   -6.0955900000   -0.0355160000
O     -5.2194320000   -5.0370420000   -1.5357380000
O     -3.2009550000   -4.9818670000    2.0542320000
C     -4.4189560000   -3.1898110000    2.9226850000
O      1.6702620000   -0.4747570000    2.1999800000
O      4.1879380000    0.2974200000   -1.3441710000
O      5.1806150000    3.4950280000    0.5039100000
C     -2.5826790000   -5.7169850000    1.0347990000
O     -3.0868410000   -6.9107030000   -1.0387370000
O     -5.4840450000   -4.0117300000    3.3186920000
C      2.5897400000   -1.4176050000    2.0650980000
C      5.0562420000   -0.2037370000   -0.3799230000
O     -1.5565320000   -4.9966180000    0.4058400000
C      3.2868050000   -1.2881750000    0.7120600000
O      2.8364120000   -2.2689520000    2.8839370000
C      5.6268210000   -1.5274020000   -0.9322980000
O      4.4088590000   -0.4326310000    0.8622150000
C     -0.2224200000   -5.4512960000    0.5480590000
C      3.7000020000   -2.6743450000    0.2084330000
O      6.3066370000   -1.3366260000   -2.1387090000
C      4.4779730000   -2.5362990000   -1.1058750000
C      0.4276690000   -5.2890780000   -0.8300830000
C      0.5535250000   -4.6492790000    1.6049940000
O      2.5219730000   -3.4347450000   -0.0159920000
O      4.9483770000   -3.8097630000   -1.4848190000
C      1.9216660000   -5.6230030000   -0.7620880000
O     -0.2571610000   -6.1156640000   -1.7365020000
O      1.9287250000   -5.0140500000    1.5855180000
C      0.0473410000   -4.9325650000    3.0224720000
C      2.5645880000   -4.7849430000    0.3555320000
O      2.4945170000   -5.3689770000   -2.0163920000
O      0.1060800000   -6.2947390000    3.3463340000
C     -0.3405440000   -0.5366500000   -0.6578650000
O      0.7673780000    0.2220320000   -0.5576720000
C     -0.2641680000   -1.6145030000   -1.6722450000
C      0.9143530000   -1.7811170000   -2.4458710000
C     -1.4230530000   -2.3227490000   -2.0704390000
C      0.9300290000   -2.6268980000   -3.5345370000
C     -1.3935760000   -3.1620900000   -3.1655080000
C     -0.2135570000   -3.3424390000   -3.8866450000
H     -4.4101620000    2.8642940000   -1.7684580000
H     -2.8923150000    3.4653730000   -3.5825530000
H     -5.1165230000    1.5547240000   -0.1646970000
H     -4.2660100000    1.3323330000   -3.6549510000
H     -1.1660620000    1.1399890000   -2.6252420000
H     -1.2326030000    2.3395760000   -0.1521000000
H     -4.5012070000   -0.7993790000   -2.0213570000
H     -3.4190870000   -0.9559000000    0.2773490000
H     -1.1260010000    1.7538900000   -4.9142760000
H     -0.5314500000    4.1288300000   -2.5423630000
H      0.2607800000    4.2467920000    0.3489800000
H     -1.3634630000    4.4892380000    1.0400140000
H     -7.1322130000   -0.2058240000   -0.5754550000
H     -6.4264720000    0.2843300000   -3.0520580000
H     -1.7494220000    5.9065710000   -0.7212610000
H     -6.6438620000   -2.1792800000    0.8195990000
H     -6.4552780000   -2.5322260000   -2.0024250000
H      1.4448430000    4.5941690000   -1.9459690000
H     -0.2912530000    1.4279230000    2.0045530000
H     -1.5146420000    1.3460300000    3.3314710000
H      3.5654630000    3.9696920000   -3.0638830000
H     -5.6700740000   -4.2326630000    0.8414110000
H      1.2469120000    2.8865470000   -4.2778660000
H      2.4808810000    1.1161570000   -2.8632320000
H      2.4703910000    1.5756600000    0.0267570000
H     -3.3471320000   -4.2794870000   -1.1313190000
H     -2.9049860000   -3.0439680000    1.3972300000
H      0.9079940000    0.3329560000    3.9304040000
H      0.9728060000   -1.4542310000    3.8825700000
H      3.9110840000    1.8084990000   -4.6903440000
H      4.9923620000    2.1981490000   -1.5304170000
H      3.4565190000    3.2152730000    1.6082790000
H      4.4900910000    1.7970810000    1.3391190000
H     -4.4300190000   -6.6637930000    0.4372530000
H     -5.0079110000   -5.8485690000   -2.0267380000
H     -3.6524620000   -3.1033480000    3.7027020000
H     -4.8272620000   -2.1942640000    2.7527370000
H      4.8492070000    4.3559150000    0.2097710000
H     -2.1921650000   -6.6135100000    1.5332720000
H     -2.2089530000   -6.5770090000   -1.3084810000
H     -5.1244610000   -4.8808550000    3.5526330000
H      5.8679750000    0.4987990000   -0.1533590000
H      2.5769260000   -0.8368380000    0.0118840000
H      6.3536320000   -1.9238750000   -0.2159030000
H     -0.2132690000   -6.5113290000    0.8346000000
H      4.3275770000   -3.1536430000    0.9693270000
H      5.7760720000   -0.7597050000   -2.7147730000
H      3.7921880000   -2.1566210000   -1.8752960000
H      0.3273190000   -4.2365460000   -1.1251470000
H      0.4339160000   -3.5759140000    1.4076620000
H      5.6613750000   -3.6832900000   -2.1336380000
H      2.0404170000   -6.6856760000   -0.4973730000
H      0.3197380000   -6.2638150000   -2.5047660000
H     -0.9955900000   -4.6187170000    3.1016470000
H      0.6384510000   -4.3303820000    3.7234560000
H      3.5999240000   -5.1115150000    0.5173540000
H      3.3805920000   -4.9764980000   -1.9078990000
H      1.0386010000   -6.5614450000    3.3607940000
H     -0.5662990000   -1.0954910000    0.5691820000
H      1.7852120000   -1.2041010000   -2.1805720000
H     -2.3257470000   -2.2077130000   -1.4910300000
H      1.8323270000   -2.7365220000   -4.1127320000
H     -2.2857200000   -3.6925210000   -3.4535310000
H     -0.1880230000   -4.0306320000   -4.7147840000
H     -1.3037750000    0.0002600000   -0.6224720000
H      0.5545260000    1.2227200000   -0.7744100000
