130
Coordinates from ORCA-job job
  C          -0.58506033688843      4.65637916385259      0.80945609339087
  C           4.42930866660916      3.16757118495770      0.23075131030124
  C           5.15495275818075     -1.96696036628862      0.46966016392106
  C           0.77138567880834     -4.75303882764403     -0.41541612647709
  C          -4.08456370794770     -3.03199850197367     -1.47471749621876
  C          -4.97837490938477      1.83857786001768      0.07647719315091
  O           0.34116775363155      3.62051888498347      0.58870372614153
  O           4.29586295324053      1.98624680890601      0.95772532734223
  O           3.76413848524364     -2.12296159072141      0.58603328732423
  O          -0.11983128576733     -3.66835459266579     -0.51495879878896
  O          -4.12109437917874     -2.11614928080892     -0.42496118776519
  O          -3.63459547208063      1.92297248813221      0.47603066121554
  C          -1.35556375418333      4.36291683317823      2.10797442101235
  C           3.99638207804352      4.31980704908261      1.15802794362641
  C           5.66613124609439     -1.35583641902196      1.78487453663078
  C           1.27593109920051     -4.84560822500796      1.03471597176910
  C          -3.79424279545276     -4.41460958198334     -0.85880702666977
  C          -5.69549266461200      0.89467049220072      1.05562337902484
  O          -0.50436033937424      4.18644624669084      3.20866786816343
  O           4.77402966194554      4.38148974950214      2.31858923316659
  O           5.40395656898589     -2.18179242712163      2.88600806820470
  O           0.22745184662762     -4.94568824503230      1.96103318726355
  O          -4.77002631828684     -4.79461687146314      0.06767852229332
  O          -5.65274740031569      1.37083785132941      2.37266265077107
  C          -2.17199247323403      3.08151671847444      1.90868104402776
  C           2.50940427831532      4.14374977205960      1.50983109515261
  C           5.00619963051826      0.01928649413064      1.95486859188319
  C           2.08681366506633     -3.58349118720415      1.34715789310515
  C          -2.40443415476951     -4.38246829309060     -0.20087734091673
  C          -5.03797627629571     -0.48785900481588      0.94489029497863
  O          -3.01488186647557      2.81373109228523      3.00147376319845
  O           2.03758499595404      5.23088601777603      2.27420143960901
  O           5.53702281826192      0.71325567980250      3.05534062199971
  O           2.70230962576146     -3.64639669944110      2.60945878897112
  O          -2.04816288317625     -5.65365192735397      0.29530476500556
  O          -5.73113071383593     -1.44949102308265      1.69892249448266
  C          -3.05464726952675      3.20188427594669      0.66196386817058
  C           1.65534572895285      4.01373224323084      0.23707604010556
  C           5.19127011597559      0.90660693880696      0.71582320410033
  C           3.19109247653476     -3.38723070595789      0.30330464268675
  C          -1.33416184632362     -3.91201065654542     -1.20109537807926
  C          -4.98387371684757     -0.98691738868467     -0.50594886839420
  C          -2.22299620933636      3.62871881955166     -0.55864098502786
  C           2.26482171988584      2.91651857232185     -0.64492285661449
  C           4.88832877415060      0.15012568962584     -0.59325973204710
  C           2.61474685468158     -3.44266590857307     -1.12094500847387
  C          -1.80444136756895     -2.59198514729314     -1.82592296271985
  C          -4.47299813497145      0.09930716590266     -1.47397572595596
  O          -1.46743734560915      4.80028876429889     -0.26576529752516
  O           3.62386937773634      3.17235435581143     -0.93182360724597
  O           5.49318424704362     -1.14278904795069     -0.60819447019334
  O           1.84324811105913     -4.62627455733804     -1.30436482811754
  O          -3.07917055167723     -2.72028084215629     -2.41952809661328
  O          -5.09933976955601      1.35898101463212     -1.23139836209647
  C          -3.10722910151202      3.98305542748154     -1.76074022088833
  C           1.53677102007377      2.71601039273986     -1.96510615351004
  C           5.46207092912356      0.85284961759145     -1.83674800134146
  C           3.71703299152180     -3.48413786542881     -2.18678456829807
  C          -0.85305525585943     -2.03240884527045     -2.87157706211027
  C          -4.79616481461702     -0.20922731789813     -2.94714470124042
  O          -3.98935512798349      5.03632501531105     -1.47473132885365
  O           2.22174359058907      1.90000538372987     -2.75642930766745
  O           6.81704022060466      1.18303628647705     -1.68426125602448
  O           4.55910884071007     -4.59640481917565     -2.03409628142468
  O          -1.41855635218261     -1.02862087789755     -3.53020428234241
  O          -6.14370529800058     -0.54917707789002     -3.13880157049000
  H          -0.07290402966353      5.62318980612663      0.89026824554793
  H           5.45592514553731      3.31374755456069     -0.12715741187875
  H           5.64858729640836     -2.92615947133144      0.26880577401668
  H           0.27493352970907     -5.68971300672573     -0.69771745090396
  H          -5.02325410203684     -3.04152431520381     -2.04225949146187
  H          -5.45496974117645      2.82696383604794      0.06905484467271
  H          -2.04610519690777      5.20180348829616      2.29228534842127
  H           4.13641270046624      5.27079300686283      0.63354487782465
  H           6.75339910485559     -1.23748769946378      1.73540736523132
  H           1.93637858231078     -5.72429017576841      1.11200906526608
  H          -3.80442181474092     -5.16771702514035     -1.65366632675565
  H          -6.75363183888900      0.82041251555006      0.78481730230686
  H           0.31946022544598      4.68983581730183      3.07168098398581
  H           4.88503073280155      3.48502221777708      2.67684045118490
  H           4.49827319198657     -2.53817164423963      2.82497322469230
  H          -0.54101213582556     -5.37390945658373      1.54113706342981
  H          -4.97080358689867     -4.04132689773944      0.64751881107550
  H          -4.76285669245626      1.71699484883330      2.57173824861716
  H          -1.46935799018020      2.24872696283811      1.75405584945676
  H           2.39326337991925      3.21078065775045      2.08256870781526
  H           3.92364209749395     -0.13554533099791      2.08948623306856
  H           1.40705411395929     -2.71959561664313      1.29516144766160
  H          -2.42649729290079     -3.65593721172475      0.62597106031217
  H          -3.99896034640185     -0.40144329129058      1.30121796903180
  H          -2.49121276999566      2.88623050373660      3.81504297764639
  H           2.74911019660426      5.49327884611585      2.88374543095485
  H           5.61138901988344      0.09230092215092      3.79761066777009
  H           2.03314395009363     -3.90857861371539      3.26115972752385
  H          -2.85434057177661     -6.07046441268228      0.64600789532566
  H          -5.93651584798244     -1.06433140939493      2.56590864686067
  H          -3.83664079207571      3.95004386757006      0.84773745341802
  H           1.63867583772004      4.96423997291044     -0.31020948076809
  H           6.22316685073329      1.28227045524908      0.68828643928237
  H           3.94191719428521     -4.17954871110648      0.42239859405903
  H          -1.18790963345887     -4.66447228898823     -1.98582824807056
  H          -5.98626706196596     -1.31041645419699     -0.81786931271064
  H          -1.54298144754831      2.81033402223891     -0.82913512579427
  H           2.16658185500366      1.96131632273947     -0.10249394832415
  H           3.79937728084528      0.04401941291287     -0.69611330020087
  H           1.97974220862992     -2.56185076814904     -1.28191047159940
  H          -1.83610572438863     -1.83796813654738     -1.02140636309164
  H          -3.38630309228231      0.20286890142926     -1.34682437662261
  H          -3.72347729699621      3.12204224116445     -2.02475092862501
  H          -2.44878053901213      4.23546917418547     -2.59919987687703
  H           5.31783741843518      0.17798809901417     -2.68767341475340
  H           4.92425036820077      1.78161694650983     -2.02361604340759
  H           4.34789401450960     -2.59891855034906     -2.09103475351123
  H           3.23374605573199     -3.48638769650718     -3.16999812939775
  H          -4.53018360219688      0.67904256118007     -3.53063507356929
  H          -4.20021415513091     -1.05338747034627     -3.29217269876630
  H          -3.46321517249742      5.82415225240804     -1.27283872003674
  H           7.33010325873928      0.36346355210596     -1.63102043152192
  H           4.02886097530702     -5.39725366855802     -2.15974227096325
  H          -6.68859737800214      0.23086498808300     -2.95919247256414
  C          -0.53700212531875     -0.22525422603659     -4.30047534385019
  H          -1.16430483402127      0.49321406412286     -4.83670321379292
  H           0.03876214260328     -0.83229664262077     -5.01215245309041
  O           0.27050276332993     -2.41886413189804     -3.07834403902016
  C           1.51165347508131      1.38215545636857     -3.87125573354809
  H           2.23691545945715      0.81617474185676     -4.46327633609708
  H           1.07292692166223      2.18771026625067     -4.47575503963709
  O           0.47786932750853      3.20814460111009     -2.26605025535778
  C           0.40846707216819      0.47851777697063     -3.33491057946384
  O           0.28366731990060      0.31751983137933     -2.13459719378517
