15
Coordinates from ORCA-job benzoic_acid_opt E -420.879225609248
  O           2.80074974683219      0.63227734140548      0.01098229412407
  C           2.04018301854439     -0.46195297339393      0.08078379676487
  O           2.51138471919814     -1.57129620169273      0.17960928815687
  C           0.58223157760262     -0.17216151492897      0.02597757460065
  C           0.09780768950826      1.12775281714225     -0.09623832091263
  C          -1.26875354658188      1.35329531150961     -0.14385606869348
  C          -2.15301692192092      0.28551807559881     -0.06944485158503
  C          -1.67183306430501     -1.01178097391826      0.05273360999326
  C          -0.30709810122960     -1.24056608000515      0.10019724459565
  H           3.72865572218579      0.36167423835900      0.05365334342272
  H           0.78674045805990      1.95989149406082     -0.15457837485109
  H          -1.64472299480716      2.36463719961755     -0.23878020190999
  H          -3.22102379867934      0.46487771790787     -0.10722884250017
  H          -2.36139243058912     -1.84496386852080      0.11132013501351
  H           0.08008792618174     -2.24720258314155      0.19487037378081
