15
Coordinates from ORCA-job benzoic_acid_opt E -420.877770371376
  O       2.806486      0.649155      0.003677
  C       2.047781     -0.458670      0.082663
  O       2.552014     -1.561542      0.187937
  C       0.594758     -0.168467      0.027034
  C       0.101099      1.136498     -0.095359
  C      -1.276665      1.360916     -0.143754
  C      -2.163030      0.286203     -0.070305
  C      -1.676446     -1.015161      0.051629
  C      -0.299990     -1.243734      0.100353
  H       3.723547      0.306898      0.052431
  H       0.779686      1.983881     -0.153701
  H      -1.658278      2.374589     -0.238787
  H      -3.235275      0.463332     -0.108180
  H      -2.368147     -1.852047      0.108792
  H       0.072460     -2.261851      0.195571
15
Coordinates from ORCA-job benzoic_acid_opt E -420.878953897339
  O       2.805259      0.641788      0.006955
  C       2.039634     -0.457832      0.079951
  O       2.526670     -1.561096      0.184393
  C       0.586287     -0.169101      0.025025
  C       0.098154      1.130601     -0.096568
  C      -1.270401      1.354535     -0.143639
  C      -2.154057      0.284728     -0.069244
  C      -1.670566     -1.012352      0.052329
  C      -0.303318     -1.239308      0.099217
  H       3.720588      0.326876      0.056129
  H       0.778004      1.970066     -0.154893
  H      -1.648289      2.364938     -0.237983
  H      -3.222287      0.462367     -0.106294
  H      -2.358913     -1.846297      0.110806
  H       0.073235     -2.249912      0.193817
15
Coordinates from ORCA-job benzoic_acid_opt E -420.879164838185
  O       2.803708      0.636264      0.006874
  C       2.037783     -0.458907      0.084844
  O       2.513874     -1.565229      0.180766
  C       0.582233     -0.170769      0.027664
  C       0.097292      1.127823     -0.094694
  C      -1.268184      1.352415     -0.143527
  C      -2.151717      0.284684     -0.070283
  C      -1.669951     -1.011650      0.051993
  C      -0.306015     -1.238982      0.100578
  H       3.725407      0.346952      0.049950
  H       0.781791      1.963099     -0.152017
  H      -1.644294      2.363224     -0.238455
  H      -3.219456      0.463378     -0.108998
  H      -2.358361     -1.845254      0.109820
  H       0.075891     -2.247048      0.195488
15
Coordinates from ORCA-job benzoic_acid_opt E -420.879146605693
  O       2.801443      0.632944      0.015080
  C       2.039001     -0.462366      0.067632
  O       2.508355     -1.569585      0.182463
  C       0.581139     -0.173085      0.019123
  C       0.097579      1.126182     -0.101105
  C      -1.267704      1.352167     -0.144047
  C      -2.151860      0.285544     -0.066311
  C      -1.670930     -1.011350      0.054418
  C      -0.307442     -1.240254      0.097103
  H       3.728345      0.363915      0.069717
  H       0.786085      1.958213     -0.162020
  H      -1.643027      2.363693     -0.237825
  H      -3.219739      0.465499     -0.100369
  H      -2.360067     -1.844439      0.115736
  H       0.078823     -2.247079      0.190407
15
Coordinates from ORCA-job benzoic_acid_opt E -420.879223871367
  O       2.801069      0.632398      0.010236
  C       2.039861     -0.461886      0.081191
  O       2.510476     -1.571037      0.179942
  C       0.581790     -0.172622      0.026138
  C       0.097824      1.127168     -0.096037
  C      -1.268386      1.352923     -0.143775
  C      -2.152808      0.285544     -0.069507
  C      -1.671769     -1.011719      0.052646
  C      -0.307406     -1.240623      0.100185
  H       3.729188      0.363351      0.053280
  H       0.786736      1.959294     -0.154232
  H      -1.643924      2.364429     -0.238674
  H      -3.220751      0.465164     -0.107390
  H      -2.361204     -1.844983      0.111196
  H       0.079303     -2.247401      0.194804
15
Coordinates from ORCA-job benzoic_acid_opt E -420.879225448963
  O       2.800857      0.632464      0.010597
  C       2.040105     -0.461916      0.080922
  O       2.511387     -1.571094      0.179842
  C       0.582174     -0.172306      0.026061
  C       0.097852      1.127598     -0.096123
  C      -1.268652      1.353203     -0.143810
  C      -2.152989      0.285530     -0.069484
  C      -1.671820     -1.011768      0.052691
  C      -0.307147     -1.240602      0.100206
  H       3.728700      0.361855      0.053478
  H       0.786630      1.959852     -0.154412
  H      -1.644474      2.364592     -0.238734
  H      -3.220968      0.464964     -0.107324
  H      -2.361309     -1.844997      0.111237
  H       0.079654     -2.247374      0.194854
15
Coordinates from ORCA-job benzoic_acid_opt E -420.879225609248
  O       2.800750      0.632277      0.010982
  C       2.040183     -0.461953      0.080784
  O       2.511385     -1.571296      0.179609
  C       0.582232     -0.172162      0.025978
  C       0.097808      1.127753     -0.096238
  C      -1.268754      1.353295     -0.143856
  C      -2.153017      0.285518     -0.069445
  C      -1.671833     -1.011781      0.052734
  C      -0.307098     -1.240566      0.100197
  H       3.728656      0.361674      0.053653
  H       0.786740      1.959891     -0.154578
  H      -1.644723      2.364637     -0.238780
  H      -3.221024      0.464878     -0.107229
  H      -2.361392     -1.844964      0.111320
  H       0.080088     -2.247203      0.194870
