15
benzoic_acid
O      2.806486     0.649155     0.003677
C      2.047781    -0.458670     0.082663
O      2.552014    -1.561542     0.187937
C      0.594758    -0.168467     0.027034
C      0.101099     1.136498    -0.095359
C     -1.276665     1.360916    -0.143754
C     -2.163030     0.286203    -0.070305
C     -1.676446    -1.015161     0.051629
C     -0.299990    -1.243734     0.100353
H      3.723547     0.306898     0.052431
H      0.779686     1.983881    -0.153701
H     -1.658278     2.374589    -0.238787
H     -3.235275     0.463332    -0.108180
H     -2.368147    -1.852047     0.108792
H      0.072460    -2.261851     0.195571
