8
Coordinates from ORCA-job job.QMRegion
  C           0.42129939992199      0.36999149685592     -2.89956922323812
  O           0.96978305453277     -0.69188213553887     -2.09324973152380
  O          -0.49273346996196      1.15707882124866     -2.18619418980114
  O           1.52833868579319     -0.12095182474335     -0.85851891653147
  H          -1.32313168819118      0.65640045805896     -2.14348499212296
  H           2.31221993450414     -0.70968381651957     -0.74850038810135
  H          -0.10386108486488     -0.21775568669911     -3.66695487026445
  H           1.18931285086951      1.04348817870129     -3.30457202452573
