133
Coordinates from ORCA-job job E -252.618085992060
  C          -0.53912463972093      4.68592207859694      0.84618112425433
  C           4.51720765704575      3.28444401059413      0.38150676873545
  C           5.07493377994192     -1.89831329322318      0.33343135748613
  C           0.72338791341652     -4.79439994466266     -0.41244003598936
  C          -4.20896222084765     -3.18643428392124     -1.35796481957617
  C          -4.86203047320653      1.82275443909969     -0.13193510620273
  O           0.43197705104702      3.71200658931920      0.55000636460037
  O           4.31865747456452      2.05513467192756      1.00727435266399
  O           3.67567266538857     -2.03247801278027      0.40069498691620
  O          -0.21017520982624     -3.75075486019239     -0.54890898209471
  O          -4.18244482922135     -2.19082521978203     -0.38350177898266
  O          -3.49500712872465      1.88233722880869      0.20408073811281
  C          -1.31394952507254      4.23936864721293      2.09890348258539
  C           4.04877350829380      4.37570496654561      1.36455789138386
  C           5.59022707148100     -1.36018685662885      1.68004670175595
  C           1.25673314942007     -4.79655770448874      1.03141684046681
  C          -3.89579602303543     -4.52318129625325     -0.65647306344695
  C          -5.60951835958337      0.97350643782690      0.91196542034585
  O          -0.47078225379590      3.99864170523072      3.19383053952353
  O           4.76625040385593      4.34711863367483      2.56470445645181
  O           5.32299664858962     -2.22853446499552      2.74572084128993
  O           0.23009770376487     -4.88166583414638      1.98348124616479
  O          -4.82508422480118     -4.82373554943867      0.34442916725629
  O          -5.56295284371132      1.52526366929246      2.19807400144406
  C          -2.06170747400013      2.94214793197963      1.76994764553058
  C           2.54247146816207      4.20293852942835      1.63048924966134
  C           4.95744439732071      0.01788947531270      1.91546823359921
  C           2.02970246460657     -3.49459946344250      1.27107282908128
  C          -2.47152710941503     -4.47089591679770     -0.07463036754952
  C          -5.01069918683634     -0.43870130979080      0.89139216574401
  O          -2.88877331125201      2.53084688196123      2.83040364640560
  O           2.04801684895859      5.24418891863276      2.44294357925955
  O           5.48085136772292      0.63643586940393      3.06342440347985
  O           2.66283151920081     -3.48295316228281      2.52697187724543
  O          -2.10279475292978     -5.71585938284228      0.47568808580668
  O          -5.72529506575480     -1.31256593970735      1.72803801310048
  C          -2.94023695486405      3.14549708529178      0.53166665853422
  C           1.75221392621683      4.16823246057966      0.31165585604742
  C           5.19138750558174      0.96428880401007      0.72928010919530
  C           3.10888840839780     -3.31639810317208      0.19846722220664
  C          -1.45069409157822     -4.07311164476464     -1.15367802685993
  C          -5.01133938354740     -1.03982537320789     -0.52155974642289
  C          -2.10516491580923      3.70583729370561     -0.63371137820048
  C           2.40534095996405      3.14026846308090     -0.61598986915327
  C           4.88890742052797      0.28043808797926     -0.61995685200136
  C           2.49890112119388     -3.44449021038527     -1.20844854476034
  C          -1.95123947991296     -2.80233072533698     -1.84455664534652
  C          -4.48948757498169     -0.04084840878765     -1.57564176545571
  O          -1.41321429600754      4.88493725115359     -0.22719168062142
  O           3.77994849819565      3.39558016666633     -0.82162941262352
  O           5.44593966209403     -1.03041762915335     -0.69741666783665
  O           1.77434781474001     -4.66714654925439     -1.32581075741085
  O          -3.25160547847530     -2.96060615404351     -2.37592483442079
  O          -5.03481339124572      1.26615469664457     -1.40136495099920
  C          -2.99025770448219      4.10130528799571     -1.82205165607130
  C           1.72967646953589      3.06336999098390     -1.98490453329534
  C           5.50290155192153      1.02686309421670     -1.81779133950920
  C           3.58206082288660     -3.47278436738621     -2.29390970404784
  C          -1.04082716526633     -2.34337171260518     -2.98361176252274
  C          -4.88574236955171     -0.42765584191585     -3.01225369779379
  O          -3.95772617057774      5.05654575305810     -1.47058670388888
  O           2.14483007921787      1.96599497032155     -2.60468302944673
  O           6.87175997174745      1.27719894502566     -1.63866076624468
  O           4.47469985229475     -4.54342604133355     -2.12490594399830
  O          -1.35690237295137     -1.09505494237799     -3.30053420455421
  O          -6.25956872765405     -0.68554257313872     -3.13348481115497
  H          -0.06994593575685      5.66170692703398      1.02168732914620
  H           5.56523947401482      3.43416810096543      0.09427775979562
  H           5.55369175841815     -2.85560765073587      0.09293482831219
  H           0.25911245045062     -5.76166214042034     -0.64090857613317
  H          -5.17622979548594     -3.22926817593520     -1.87369580660691
  H          -5.29788386511801      2.82754936060959     -0.19342048530576
  H          -2.04735483203317      5.02341060617402      2.34716604333544
  H           4.22789085012440      5.35715447188229      0.91301720796098
  H           6.67955917797289     -1.25740402784073      1.63081510628385
  H           1.94755796929453     -5.64844451164871      1.13827367475367
  H          -3.95575642333067     -5.32955156785791     -1.39505091608683
  H          -6.66863971387281      0.92530856664491      0.63732341757379
  H           0.30668227896313      4.58388036684043      3.14480721498131
  H           4.84755044348208      3.42754849072338      2.86805458920126
  H           4.40332595187933     -2.55353735208391      2.69312606702649
  H          -0.52580418391261     -5.37197166642144      1.61174770684027
  H          -4.98986903945513     -4.02843416074821      0.87747033284388
  H          -4.64772502150036      1.78429459127898      2.42107574160854
  H          -1.31624605404071      2.16540997467432      1.54580911519939
  H           2.38709128832540      3.23688494202711      2.13537923604375
  H           3.86919154004132     -0.11823004701135      2.02241904998182
  H           1.32023453634755     -2.65771219040996      1.19456587796176
  H          -2.44365264522871     -3.69814982411003      0.70908860270757
  H          -3.96193359387667     -0.37090604747757      1.22307236796399
  H          -2.36871471158029      2.55746875111004      3.64909086585158
  H           2.73993896047604      5.46928354696390      3.08857163772058
  H           5.55089674974670     -0.03359531838815      3.76227107590840
  H           2.01508689487185     -3.74848157137296      3.19873769308089
  H          -2.88987876008341     -6.09662986840915      0.90204208520644
  H          -5.93092442414813     -0.84148817879575      2.55164379346191
  H          -3.73792346360813      3.85825395392532      0.77636240180461
  H           1.74302006541793      5.15754023035544     -0.16066637605101
  H           6.23334880937071      1.31086750343030      0.73840580939345
  H           3.87248910718604     -4.09361778470548      0.33040521374845
  H          -1.32833027275322     -4.87920908063027     -1.88654818614019
  H          -6.03170300567396     -1.34876457273373     -0.78567591009754
  H          -1.38074545469811      2.94903980840569     -0.95756155389571
  H           2.28313309059157      2.15445659476911     -0.14235043288589
  H           3.79902697744448      0.21631298177857     -0.73856940316857
  H           1.82487866795465     -2.59865534126004     -1.39008737500440
  H          -1.95860426662324     -2.00154918270756     -1.09027167164834
  H          -3.39584799830328      0.01127003725497     -1.49488885230924
  H          -3.53320334911790      3.22147264129157     -2.17198442320901
  H          -2.33998169261086      4.47197534274843     -2.62162371484914
  H           5.33089467606935      0.41516627007612     -2.71032721938242
  H           5.01783551968835      1.99386257659388     -1.94793920766774
  H           4.17588444276008     -2.55905772529026     -2.23300020391290
  H           3.08486387041767     -3.52210109391176     -3.26862801102371
  H          -4.58301749821735      0.39584572180197     -3.66810188304603
  H          -4.36420786409121     -1.33506585669138     -3.31479675174678
  H          -3.49988272004273      5.87017514922437     -1.21383092341618
  H           7.34152994341069      0.43050654598789     -1.63311275063630
  H           3.97990160947742     -5.36909232709892     -2.23140562568959
  H          -6.74233860920366      0.14207901324086     -2.99439802041824
  C          -0.44528740024725     -0.33074547100675     -4.09492651577355
  H          -1.04158749300602      0.34499537991370     -4.70427024124988
  H           0.17936673567715     -0.99228142801727     -4.69636783747160
  O          -0.18433401430227     -3.00188515696913     -3.50715443053334
  C           1.37896942530052      1.46935507456317     -3.70621976864707
  H           2.07468925415207      0.98720590724961     -4.38939654597003
  H           0.82515275954848      2.28088676806589     -4.17954797571495
  O           0.94805708461189      3.86035523660059     -2.42681778427122
  C           0.41256049911610      0.44602843551664     -3.07689392868985
  O           1.13306608278153     -0.52167137843240     -2.35921203176428
  O          -0.41029579392259      1.18067587824628     -2.20784779280906
  H           1.82268044241063     -0.07272523304655     -1.84768188684130
  H          -1.13555801600757      0.61038147977804     -1.91286625498244
