148
-2.746513
C  0.71130776615267965468 5.00482414727958069278 -0.19561568134503989902
C  -4.13784486848083687960 3.17739904325788646844 0.68958586950538958149
C  -5.17444863619361594687 -1.77393841750645009370 -0.21665732364067985527
C  -0.87384297371556018952 -4.77917785703500719308 -0.63719983279390968178
C  4.05339626216557658012 -3.03094590633414950887 0.11871533019796989827
C  5.04884681101444510176 2.09362244562296995198 -0.58404774284701976850
O  -0.12582766454131008582 3.86927617535052936759 -0.25997818896310981307
O  -4.31294268880552600365 2.22131748928795813569 -0.31126934222609969893
O  -3.82279935479500831974 -1.93070136534545921947 -0.57994872475585967919
O  0.05957377906125960187 -3.73642003081359996841 -0.49167570712067970584
O  3.83098722953195691687 -1.80990987403622982654 -0.51821454630126961849
O  3.72723448493223719069 2.39573122461048049203 -0.94081572077923947273
C  1.36673334302333859824 5.17738746353810963541 -1.57023401112807836633
C  -3.83082197195232687648 4.52142930134692022648 -0.00861440099554997007
C  -5.86696795055896558324 -0.98447702978594020529 -1.33884527976942946381
C  -1.61012054292363893104 -4.57805317038506043303 -1.97033050864001890723
C  3.77326160587263625956 -4.12352537948484876296 -0.93397915008777943058
C  5.59790018606635531029 1.22271087148065049632 -1.73017268935670931462
O  0.41249294889497961636 5.31215455814457548911 -2.59060683846512906925
O  -4.80930237402007687564 4.84002336366017882341 -0.95372222083172941698
O  -5.78582568311042511056 -1.64728677729911021643 -2.57023780092665665720
O  -0.73773614924839026052 -4.55082005612955775575 -3.06837569591808811964
O  4.60494108751403530277 -3.96622878976938064710 -2.04751294360803903771
O  5.51089034068398309074 1.89539249938175013988 -2.95590729180038813695
C  2.21877561653414900888 3.93091745157843019953 -1.83150699881148915082
C  -2.43703341709546794647 4.47105818176657887619 -0.66523693747410916899
C  -5.20475957224313479088 0.39731597485467984310 -1.42006973941786962534
C  -2.38127676782546915391 -3.25302065840269838404 -1.88850281771867911651
C  2.29083818924970739062 -4.03265794157949919452 -1.34196827120711925652
C  4.78374355357373559627 -0.07921556826066936119 -1.75652837800578920380
O  2.95978907701573756839 4.02999105522410960845 -3.02082727297879927164
O  -2.05802748860041750945 5.73612709045024526944 -1.15190620092513951178
O  -5.88058054611833469494 1.22747881263100988569 -2.32923887821376673912
O  -3.19127255102765827743 -3.04457554296714016928 -3.01769493583701819972
O  1.91775986910106821526 -5.08492791013237965814 -2.19872422703288883383
O  5.29532575127568527762 -1.00829228528355963057 -2.67980956684520821298
C  3.21669371315159757785 3.69387210059014980956 -0.69186082520354963421
C  -1.38795551033674868791 3.99685863851938982805 0.35420949320828976070
C  -5.16778178528489551269 1.11072336231340940138 -0.06149807731087994500
C  -3.29265555667351561553 -3.24033602237473994379 -0.65776494554374898005
C  1.38149539713368874061 -4.07715922342435987957 -0.10764441609134994815
C  4.77256626082026613744 -0.75675892258768917564 -0.38217592772181979699
C  2.55256396054111922567 3.77383000390614853359 0.69472730196528931224
C  -1.87658184279176842857 2.62959785738603990524 0.86959042675287956392
C  -4.66995162147994768986 0.17586095834351950229 1.06305633345943961743
C  -2.50721461222832919802 -3.60110911172643000100 0.61297497945516965512
C  1.85352377539312773713 -3.02051341305114995350 0.89710406424008881654
C  4.36577196934167766074 0.23022434129321070473 0.72517060885729955899
O  1.66907167957595858887 4.88692368085399930777 0.81124164518227925846
O  -3.08441362729646728624 2.81665904229748020882 1.56150817661108898271
O  -5.30102626309129565385 -1.10211608872167032835 0.99847272905182959946
O  -1.77848159054403920365 -4.80866574069801888669 0.42941785465123982757
O  3.21002454205557707922 -3.18580015958223006223 1.24237706618064924768
O  5.13256533557428618053 1.42782080075291051280 0.64399374126307928901
C  3.59066688938968736622 3.98044807994619054270 1.80950926664780875619
C  -0.89645500604576855430 1.89000615206742916818 1.74680470073063887071
C  -5.01952751177552602968 0.67278465397587872143 2.47922864883734828112
C  -3.43552903897644679176 -3.83876853711820009707 1.81094492657019912052
C  1.02780373685861881050 -3.05255631487953005276 2.17255950121327856550
C  4.63334413526010635564 -0.33982799439168964728 2.12582775292363868047
O  4.36587551677528651339 5.12623218609484077035 1.58164252684446804409
O  -1.34635178925135901018 1.75509148705510997779 2.99556395054215807150
O  -6.36137881605171440214 1.05950386521692951902 2.58358829301366776932
O  -4.39579169127993640842 -4.82015551998131019928 1.53892222940309930657
O  1.15961021883623871531 -1.88140208249342943958 2.80998166284474804044
O  5.97384117287688454212 -0.72056215651174970738 2.28104190831524888949
H  0.13224704601901035583 5.90028006910375868443 0.06179845111059995011
H  -5.02906546666553655456 3.26944512916705898320 1.32195973471651906372
H  -5.66005365569407548065 -2.74597562429162023179 -0.06617953327339991254
H  -0.37596333589037028711 -5.75629752710907105495 -0.61905323145201962554
H  5.07351651543867454563 -3.11302658157459832822 0.51127945807539909584
H  5.64867625842899290234 3.00541745320616016102 -0.46425305226986962603
H  2.01854436715261886803 6.06436711980527043409 -1.54656827692787923745
H  -3.84115196116301671481 5.32232493097132941529 0.73833328706388945406
H  -6.93123890356386596068 -0.87032777596413046783 -1.10908033325346933040
H  -2.33079476852577860413 -5.39901926729751036049 -2.10116728534805874418
H  3.97846078011181525369 -5.11278456573449080480 -0.51320329701895961438
H  6.65544385173537111910 0.99639818803564983440 -1.56359344794164911718
H  -0.44758121555990915130 5.54738430107657976009 -2.19514784185843891962
H  -4.99862717111371512857 4.04655674109809648797 -1.47877335682354948965
H  -4.87862214394077664537 -1.98151913903146037477 -2.69443521680572883881
H  0.17493009918405943992 -4.73959651674300985746 -2.77483024948440881730
H  4.66410798139857529776 -3.01874084232443751219 -2.26865624666724841063
H  4.64836089514038430792 2.34140600586418878848 -3.00041084851171824255
H  1.54098607645986906967 3.06283758725334953610 -1.87427115174566893963
H  -2.46085499425985743116 3.74585258222391859206 -1.49411825115310925582
H  -4.16019338913851743911 0.25205406388909978865 -1.74488235435312732946
H  -1.65150591338989927159 -2.43341514701178018854 -1.78743297510559906449
H  2.13072481812891645347 -3.06478741669444998408 -1.84269875172082908676
H  3.74246695990955480227 0.17505707611953005842 -2.01366769037927806352
H  2.36276715127818626172 4.34815172937626659433 -3.71377294779213817932
H  -2.81157367692486648281 6.10014489877917043259 -1.64421335474422902756
H  -6.09084081771053398313 0.69029656113981896493 -3.10886487380280840398
H  -2.66909052727224915813 -3.26592044166787065507 -3.80334705793696725706
H  2.58698386619235698447 -5.14749436802668913771 -2.89909019680832802379
H  5.49408568008983611008 -0.53311484335033920701 -3.50050276010526850712
H  4.02144260633307659702 4.43873977070721803528 -0.76158004326704964448
H  -1.33879622191689873212 4.69571097986318886086 1.19890805994787918998
H  -6.17413561112708553225 1.47410559342782954140 0.19007305348557004820
H  -4.09868189285289563628 -3.97092024710498758822 -0.80481580480895953400
H  1.40934724253084797674 -5.07071095687050732437 0.35457577458490985300
H  5.76955099277967686788 -1.16139533236291936369 -0.16672775541378001551
H  1.99677609145850842864 2.83976438078294002310 0.85744948004959942178
H  -2.03432580407637875197 1.97912333649938032565 -0.00933991151863993591
H  -3.58181057813990832983 0.04730107681938962305 0.97286818618691950356
H  -1.81875059986388909472 -2.77601408995254050893 0.84523606295103970165
H  1.70767087459974709063 -2.02632998237252959228 0.44167627387429975183
H  3.29684627784058648103 0.46242992506568020294 0.61428010446683900536
H  4.27684283934914866165 3.13377304722748029064 1.84096947029981894417
H  3.05499576615011703140 4.05618852724160117162 2.76325081195894650676
H  -4.79227452249524610295 -0.15173887546790032488 3.16617738075086840865
H  -4.40898511711660745505 1.53315883400238783807 2.74824849325204567663
H  -3.97170422031588721268 -2.91608560685773054999 2.03992773831826879061
H  -2.81226758138124921516 -4.12058300134711963381 2.66817818299924836012
H  4.35574918530906440850 0.42281946590956998033 2.86286040394648688689
H  4.02684838685082624465 -1.23311937246010971947 2.28407916476905814562
H  3.76320851633328734565 5.88246056441070930276 1.54085400740711886414
H  -6.90736717162538571557 0.28345440568049945496 2.39381796429284854355
H  -3.92388988794632753709 -5.64051884971686945391 1.33424427257381927880
H  6.51908788538571037918 0.06399434512467971903 2.12347478294185876280
C  0.26127497010885958328 -1.58912450335454979999 3.90285766255619792631
H  0.88951598116402896821 -1.18363696298226983572 4.68922404710705720277
H  -0.25570570590976021697 -2.48705044817073872565 4.23160082255163860765
O  0.34924840901390941106 -3.98334818409430990727 2.55358777221210875297
C  -0.58617522855173942453 0.84541176598609990567 3.79519962836908808512
H  -0.99939904616609909205 0.95260657278872973297 4.79784223568303769270
H  0.46887642779151966765 1.11663465419944030188 3.80502509435579794328
O  0.16237772092035962501 1.42572362705916000358 1.35186217851816903313
C  -0.72420064229639979914 -0.57561974826865003330 3.33162747555646809872
O  -1.53646263887656897573 -0.91508322368633943089 2.48476685153011844776
O  5.12016518841188084110 -3.80675011383641637153 3.06030596716629732512
H  4.25869305737139836054 -3.72293329273593265327 2.63580323223809243061
H  5.32062354544112547927 -2.90677049522949593197 3.34175791086644746741
O  -2.07739336173240829453 4.33352014407194108259 3.97883132084589563604
H  -2.35787845356035274946 3.79904446580360399821 3.22714925599252966393
H  -2.03711298227879344935 3.69888340896133804847 4.70338343691660476509
O  1.20861243434111176320 0.84716361011117102819 -2.45015501381522371460
H  1.47563441383520377315 -0.07837486559086279114 -2.48810045468183282935
H  0.38317580702480413812 0.86359757474617560025 -2.94789627442596335882
O  2.57954538705013813882 -5.94619569675729753300 2.93431070549187023033
H  2.65596581105262918854 -6.24703290143068468154 3.84700942856533290026
H  1.73718974537481085640 -5.47753390440847809373 2.92185435155271555629
O  7.29620667321037252862 3.05100343268505413974 1.44429872370218648214
H  7.01503845224758304511 2.20928903027048573193 1.06770429954158507790
H  6.76420353927246242876 3.12816771772275625807 2.24453643964550542123
O  -1.05493549403350583837 -0.20175112183925839049 -1.90578485440609046719
H  -1.23685437313731783071 -0.42092813198437378785 -0.98479135623696145707
H  -1.90977621469210645522 0.09335581160641551191 -2.23973290958756754421
