130
Coordinates from ORCA-job job
  C           0.71130776615268      5.00482414727958     -0.19561568134504
  C          -4.13784486848084      3.17739904325789      0.68958586950539
  C          -5.17444863619362     -1.77393841750645     -0.21665732364068
  C          -0.87384297371556     -4.77917785703501     -0.63719983279391
  C           4.05339626216558     -3.03094590633415      0.11871533019797
  C           5.04884681101445      2.09362244562297     -0.58404774284702
  O          -0.12582766454131      3.86927617535053     -0.25997818896311
  O          -4.31294268880553      2.22131748928796     -0.31126934222610
  O          -3.82279935479501     -1.93070136534546     -0.57994872475586
  O           0.05957377906126     -3.73642003081360     -0.49167570712068
  O           3.83098722953196     -1.80990987403623     -0.51821454630127
  O           3.72723448493224      2.39573122461048     -0.94081572077924
  C           1.36673334302334      5.17738746353811     -1.57023401112808
  C          -3.83082197195233      4.52142930134692     -0.00861440099555
  C          -5.86696795055897     -0.98447702978594     -1.33884527976943
  C          -1.61012054292364     -4.57805317038506     -1.97033050864002
  C           3.77326160587264     -4.12352537948485     -0.93397915008778
  C           5.59790018606636      1.22271087148065     -1.73017268935671
  O           0.41249294889498      5.31215455814458     -2.59060683846513
  O          -4.80930237402008      4.84002336366018     -0.95372222083173
  O          -5.78582568311043     -1.64728677729911     -2.57023780092666
  O          -0.73773614924839     -4.55082005612956     -3.06837569591809
  O           4.60494108751404     -3.96622878976938     -2.04751294360804
  O           5.51089034068399      1.89539249938175     -2.95590729180039
  C           2.21877561653415      3.93091745157843     -1.83150699881149
  C          -2.43703341709547      4.47105818176658     -0.66523693747411
  C          -5.20475957224314      0.39731597485468     -1.42006973941787
  C          -2.38127676782547     -3.25302065840270     -1.88850281771868
  C           2.29083818924971     -4.03265794157950     -1.34196827120712
  C           4.78374355357374     -0.07921556826067     -1.75652837800579
  O           2.95978907701574      4.02999105522411     -3.02082727297880
  O          -2.05802748860042      5.73612709045025     -1.15190620092514
  O          -5.88058054611834      1.22747881263101     -2.32923887821377
  O          -3.19127255102766     -3.04457554296714     -3.01769493583702
  O           1.91775986910107     -5.08492791013238     -2.19872422703289
  O           5.29532575127569     -1.00829228528356     -2.67980956684521
  C           3.21669371315160      3.69387210059015     -0.69186082520355
  C          -1.38795551033675      3.99685863851939      0.35420949320829
  C          -5.16778178528490      1.11072336231341     -0.06149807731088
  C          -3.29265555667352     -3.24033602237474     -0.65776494554375
  C           1.38149539713369     -4.07715922342436     -0.10764441609135
  C           4.77256626082027     -0.75675892258769     -0.38217592772182
  C           2.55256396054112      3.77383000390615      0.69472730196529
  C          -1.87658184279177      2.62959785738604      0.86959042675288
  C          -4.66995162147995      0.17586095834352      1.06305633345944
  C          -2.50721461222833     -3.60110911172643      0.61297497945517
  C           1.85352377539313     -3.02051341305115      0.89710406424009
  C           4.36577196934168      0.23022434129321      0.72517060885730
  O           1.66907167957596      4.88692368085400      0.81124164518228
  O          -3.08441362729647      2.81665904229748      1.56150817661109
  O          -5.30102626309130     -1.10211608872167      0.99847272905183
  O          -1.77848159054404     -4.80866574069802      0.42941785465124
  O           3.21002454205558     -3.18580015958223      1.24237706618065
  O           5.13256533557429      1.42782080075291      0.64399374126308
  C           3.59066688938969      3.98044807994619      1.80950926664781
  C          -0.89645500604577      1.89000615206743      1.74680470073064
  C          -5.01952751177553      0.67278465397588      2.47922864883735
  C          -3.43552903897645     -3.83876853711820      1.81094492657020
  C           1.02780373685862     -3.05255631487953      2.17255950121328
  C           4.63334413526011     -0.33982799439169      2.12582775292364
  O           4.36587551677529      5.12623218609484      1.58164252684447
  O          -1.34635178925136      1.75509148705511      2.99556395054216
  O          -6.36137881605172      1.05950386521693      2.58358829301367
  O          -4.39579169127994     -4.82015551998131      1.53892222940310
  O           1.15961021883624     -1.88140208249343      2.80998166284475
  O           5.97384117287689     -0.72056215651175      2.28104190831525
  H           0.13224704601901      5.90028006910376      0.06179845111060
  H          -5.02906546666554      3.26944512916706      1.32195973471652
  H          -5.66005365569408     -2.74597562429162     -0.06617953327340
  H          -0.37596333589037     -5.75629752710907     -0.61905323145202
  H           5.07351651543868     -3.11302658157460      0.51127945807540
  H           5.64867625842900      3.00541745320616     -0.46425305226987
  H           2.01854436715262      6.06436711980527     -1.54656827692788
  H          -3.84115196116302      5.32232493097133      0.73833328706389
  H          -6.93123890356387     -0.87032777596413     -1.10908033325347
  H          -2.33079476852578     -5.39901926729751     -2.10116728534806
  H           3.97846078011182     -5.11278456573449     -0.51320329701896
  H           6.65544385173538      0.99639818803565     -1.56359344794165
  H          -0.44758121555991      5.54738430107658     -2.19514784185844
  H          -4.99862717111372      4.04655674109810     -1.47877335682355
  H          -4.87862214394078     -1.98151913903146     -2.69443521680573
  H           0.17493009918406     -4.73959651674301     -2.77483024948441
  H           4.66410798139858     -3.01874084232444     -2.26865624666725
  H           4.64836089514039      2.34140600586419     -3.00041084851172
  H           1.54098607645987      3.06283758725335     -1.87427115174567
  H          -2.46085499425986      3.74585258222392     -1.49411825115311
  H          -4.16019338913852      0.25205406388910     -1.74488235435313
  H          -1.65150591338990     -2.43341514701178     -1.78743297510560
  H           2.13072481812892     -3.06478741669445     -1.84269875172083
  H           3.74246695990956      0.17505707611953     -2.01366769037928
  H           2.36276715127819      4.34815172937627     -3.71377294779214
  H          -2.81157367692487      6.10014489877917     -1.64421335474423
  H          -6.09084081771054      0.69029656113982     -3.10886487380281
  H          -2.66909052727225     -3.26592044166787     -3.80334705793697
  H           2.58698386619236     -5.14749436802669     -2.89909019680833
  H           5.49408568008984     -0.53311484335034     -3.50050276010527
  H           4.02144260633308      4.43873977070722     -0.76158004326705
  H          -1.33879622191690      4.69571097986319      1.19890805994788
  H          -6.17413561112709      1.47410559342783      0.19007305348557
  H          -4.09868189285290     -3.97092024710499     -0.80481580480896
  H           1.40934724253085     -5.07071095687051      0.35457577458491
  H           5.76955099277968     -1.16139533236292     -0.16672775541378
  H           1.99677609145851      2.83976438078294      0.85744948004960
  H          -2.03432580407638      1.97912333649938     -0.00933991151864
  H          -3.58181057813991      0.04730107681939      0.97286818618692
  H          -1.81875059986389     -2.77601408995254      0.84523606295104
  H           1.70767087459975     -2.02632998237253      0.44167627387430
  H           3.29684627784059      0.46242992506568      0.61428010446684
  H           4.27684283934915      3.13377304722748      1.84096947029982
  H           3.05499576615012      4.05618852724160      2.76325081195895
  H          -4.79227452249525     -0.15173887546790      3.16617738075087
  H          -4.40898511711661      1.53315883400239      2.74824849325205
  H          -3.97170422031589     -2.91608560685773      2.03992773831827
  H          -2.81226758138125     -4.12058300134712      2.66817818299925
  H           4.35574918530907      0.42281946590957      2.86286040394649
  H           4.02684838685083     -1.23311937246011      2.28407916476906
  H           3.76320851633329      5.88246056441071      1.54085400740712
  H          -6.90736717162539      0.28345440568050      2.39381796429285
  H          -3.92388988794633     -5.64051884971687      1.33424427257382
  H           6.51908788538572      0.06399434512468      2.12347478294186
  C           0.26127497010886     -1.58912450335455      3.90285766255620
  H           0.88951598116403     -1.18363696298227      4.68922404710706
  H          -0.25570570590976     -2.48705044817074      4.23160082255164
  O           0.34924840901391     -3.98334818409431      2.55358777221211
  C          -0.58617522855174      0.84541176598610      3.79519962836909
  H          -0.99939904616610      0.95260657278873      4.79784223568304
  H           0.46887642779152      1.11663465419944      3.80502509435580
  O           0.16237772092036      1.42572362705916      1.35186217851817
  C          -0.72420064229640     -0.57561974826865      3.33162747555647
  O          -1.53646263887657     -0.91508322368634      2.48476685153012
