136
Coordinates from ORCA-job job E -257.737045480200
  C          -0.92348596472869      3.55727575386024      5.63099276543240
  C           1.01749288622321      1.18569978569167      9.89806277353394
  C          -0.49401987207591     -3.76592599535700      9.72415045614400
  C          -2.24943942463074     -4.76471437575525      4.84743770315544
  C          -0.30760737046191     -2.61081283391723      0.49320928214437
  C          -0.55033216238146      2.23862135543627      0.50928025491644
  O          -0.69149607393266      2.38969005830443      6.38347042396637
  O           0.02320141643190      0.21155432318421      9.88482790228215
  O          -1.20128493775854     -3.35622640678585      8.58574604293689
  O          -2.06389097965530     -3.49972630763861      4.21289124949505
  O          -1.27360732913699     -1.68365081661012      0.11697753763414
  O          -0.64157186120407      1.79835462661877      1.84804779860260
  C          -2.23255736313078      3.33880053796254      4.85243831327854
  C           0.29677438197536      2.54031918758358     10.01530574313327
  C          -1.17908239480228     -3.11945049249651     10.93979405179653
  C          -3.38636752258691     -4.61455518613859      5.87027604401998
  C          -1.02511620739689     -3.96976954369298      0.60112327270964
  C          -1.85752655536457      1.95458888761188     -0.25632202838725
  O          -3.28767497805021      2.94887621365630      5.68384192671626
  O          -0.44149104917515      2.63582201288446     11.19952424448749
  O          -2.50063896614432     -3.56102463980332     11.08947672342377
  O          -4.55276843747308     -4.09203206003294      5.30077427374635
  O          -1.69967998402924     -4.29676796534100     -0.57785872041852
  O          -2.94797875533288      2.71520855197740      0.18431023155607
  C          -2.00137690137331      2.30343320110795      3.74253532375247
  C          -0.61297747474798      2.71865334470524      8.78546244601744
  C          -1.12670517994537     -1.59862452514155     10.74857926434023
  C          -2.91155779392780     -3.76306712352914      7.05516604193981
  C          -1.99047179381315     -3.96693307585558      1.80087594156367
  C          -2.14315699973786      0.45432816170358     -0.13312812362043
  O          -3.16317107696508      2.14536819102894      2.96241231713211
  O          -1.19989192857519      3.99524305820047      8.76679452290951
  O          -1.56258174579429     -0.91306927863837     11.89562461954065
  O          -3.86031865179633     -3.74949685036363      8.09261038211532
  O          -2.55576219110160     -5.24368300498355      1.95811414016713
  O          -3.21161289329858      0.06607583365172     -0.95972378479412
  C          -0.83914148712474      2.76563913717324      2.85613607351781
  C           0.19011521755660      2.54213718697553      7.49121555156133
  C           0.28237923225469     -1.08440846897787     10.41615913548106
  C          -1.60498369074005     -4.31979868171925      7.63008438563122
  C          -1.21916080983159     -3.56222853903428      3.06726358735884
  C          -0.93502117425063     -0.43090156322092     -0.49903736049212
  C           0.40268880582723      2.91363019468435      3.75422865262228
  C           1.06284671513950      1.28074744108098      7.53990828334139
  C           1.04114513551375     -1.98003904417766      9.41529021088208
  C          -0.55051265918546     -4.51775657442746      6.52946207063134
  C          -0.58245629064368     -2.18734560218056      2.80071346859516
  C           0.43065647453973      0.15247711569466     -0.07756391400674
  O           0.14198759666594      3.86992970452782      4.77809188505659
  O           1.81675768252719      1.16813207768173      8.73243588572716
  O           0.84859479221480     -3.37020088595726      9.66817843648550
  O          -1.08307185807449     -5.25461442187655      5.42596186409419
  O           0.32039836665769     -2.29183282122120      1.72005564457416
  O           0.48205312743846      1.57741074003139     -0.13732908062409
  C           1.65853298299806      3.40438749668538      3.01893557081895
  C           2.08190494974590      1.34715252817229      6.40458056252427
  C           2.56311037753918     -1.77498019070300      9.49226320107389
  C           0.64850971268895     -5.33760647554884      7.02995781875087
  C           0.21951130544474     -1.65542772699010      4.02012642555703
  C           1.56850742044948     -0.26756862960573     -1.02783491009799
  O           2.33329218504222      2.34440879535853      2.38991478254771
  O           2.25657086507085      0.16639486151642      5.84619501513894
  O           3.05799895574580     -1.96990018847946     10.78989612147893
  O           0.26285502568670     -6.57842923072084      7.55926187783180
  O           1.18049407422137     -2.59533975251769      4.42489107640783
  O           2.81672723266063      0.19610202435197     -0.59335312948719
  H          -1.01778834036652      4.42255914295799      6.30016314643824
  H           1.72379148077277      1.03901567833486     10.72572650870067
  H          -0.47820941582171     -4.85885654524404      9.81984519326498
  H          -2.52344764581847     -5.50658747135878      4.08837282942601
  H           0.51330695066894     -2.68159631928837     -0.22774697847073
  H          -0.30208129321317      3.30631578324980      0.45731385907386
  H          -2.53149070579838      4.28879663684503      4.39592486751326
  H           1.03913739715481      3.34436623895338     10.03708029470866
  H          -0.64920061038989     -3.40137473330607     11.85434756449625
  H          -3.64746572272958     -5.61229278587247      6.24015067708812
  H          -0.27725679085973     -4.75435336203841      0.75918268984126
  H          -1.70069581721938      2.22297963446950     -1.30643210578678
  H          -2.96179181517427      2.27920682999742      6.30417523694198
  H          -0.92004465575161      1.80267367079261     11.34534540253805
  H          -2.95721589800247     -3.51519994730491     10.23094946857409
  H          -4.32496395818618     -3.33875497690592      4.73629380074087
  H          -2.21366986578963     -3.52657879428772     -0.87031371904203
  H          -3.09618275644387      2.54858224356836      1.13675545318703
  H          -1.71957056388484      1.33834258772558      4.19336792813902
  H          -1.38971795681961      1.93953764004722      8.81617314689334
  H          -1.76856263459663     -1.34643981177422      9.88943626193943
  H          -2.71525858334264     -2.73323771399607      6.71624969223324
  H          -2.78245206559090     -3.22277462978376      1.62119825497197
  H          -2.39107482552320      0.25481610275045      0.92283119876972
  H          -3.93198775014926      2.20478192068103      3.55542842251480
  H          -1.53167009237544      4.19258928206350      9.65857732730941
  H          -2.36548610206160     -1.34742239067615     12.22542034478143
  H          -4.74252992089937     -3.63566580376407      7.70336522779074
  H          -2.80660136484944     -5.57533709043481      1.07906827567477
  H          -3.91316644805692      0.73270423286501     -0.88429659685407
  H          -1.08382808176374      3.74013635585676      2.41346485418656
  H           0.83365220306998      3.41730961539290      7.33856389387654
  H           0.86420105594389     -1.00020581296512     11.34424590745347
  H          -1.80511448188928     -5.28157940296724      8.12127761356906
  H          -0.41793298198415     -4.28703488806266      3.26180379386853
  H          -0.95124728805472     -0.57502485606508     -1.58869215450695
  H           0.61087178729116      1.92751388593016      4.19278647605456
  H           0.42490519762596      0.39803115454476      7.39874671462738
  H           0.68783223605310     -1.74458789996946      8.40176457554963
  H          -0.18878020303963     -3.53737113531785      6.19709912417181
  H          -1.35864880998531     -1.44241090819913      2.57375686717570
  H           0.64737352999919     -0.15954752330929      0.95112226608263
  H           2.30559053781575      3.85303484948823      3.78611237741460
  H           1.37989541670979      4.17888562764944      2.30031850210555
  H           3.03082725556517     -2.47032301480102      8.78588200428914
  H           2.81548892684775     -0.75364595068594      9.20643140561424
  H           1.14749065024911     -4.79341844925634      7.83319045492463
  H           1.34511964563009     -5.46241886345491      6.19391322098063
  H           1.58629729841667     -1.35360208191433     -1.15966050488580
  H           1.39137103745230      0.20589101370428     -1.99659041189267
  H           2.65514115913231      2.64202352797492      1.49173862844374
  H           2.92024951447609     -2.89675496730480     11.03586436965723
  H          -0.10063106827286     -7.11927915613157      6.84293463517928
  H           3.02360988987282     -0.19802461645882      0.27031060116692
  C           2.41280423614324     -2.24834623903006      3.82195414021657
  H           2.52085528073997     -2.74767965485303      2.85430640310611
  H           3.20748590793285     -2.52779104184775      4.50896600274940
  O          -0.62958548935059     -1.36382044680178      5.06444285498916
  C           3.05054332936978      0.11142937251525      4.65938658735186
  H           4.01481513574243     -0.34302437790347      4.89244174224293
  H           3.19872699607840      1.12813445175234      4.28097877027239
  O           2.65550109292318      2.35683636424215      6.08079167090134
  C           2.30769181133543     -0.72718784861189      3.58831607070722
  O           0.89908496655126     -0.48398417372852      3.68807748114220
  H           4.09403146775646      3.05357373299784     -0.20831907971707
  H           2.62552854596582      0.58372544212571      2.22853101694863
  H           2.89246071876833      2.10044204663215     -0.42295075041603
  O           3.14662342932808      2.96495474507540     -0.05497827143825
  H          -1.35894702386785     -2.01903416095934      5.05007566576258
  O           2.75585474365983     -0.38855556151291      2.33541435362493
