136
 xtb: 6.7.1 (edcfbbe)
C           -0.93129121498225        3.56500796766730        5.63035940245798
C            1.01739264936535        1.18870844808495        9.89268146472083
C           -0.48358959488379       -3.76750443804868        9.72161451103343
C           -2.24550517075481       -4.77057543519286        4.84809596209748
C           -0.31226392406668       -2.60235759415008        0.49641193134345
C           -0.55881088033067        2.24539856103657        0.51137869015795
O           -0.70106229316833        2.39827600013248        6.38231303140742
O            0.02564110483702        0.21241561430749        9.87921009859981
O           -1.19561350577730       -3.36200937882194        8.58540040569407
O           -2.06491109282207       -3.50458455267052        4.21594915859770
O           -1.27711796751688       -1.66996968671853        0.12474716755259
O           -0.67052309770692        1.80414468309050        1.84850425180086
C           -2.24374020393684        3.35007958410824        4.85587070226193
C            0.29428476971024        2.54176687720532       10.01325315697468
C           -1.16625973850966       -3.12164815446889       10.93895694226926
C           -3.38135900858619       -4.62594795005837        5.87290122162693
C           -1.03119776121865       -3.96101206021823        0.60052030719449
C           -1.86020685905440        1.96263565045533       -0.26439198260047
O           -3.29815423276679        2.96526880756785        5.69245319558211
O           -0.44296217744492        2.63316020779196       11.19839653651242
O           -2.48390055441432       -3.56743029729411       11.09408511619932
O           -4.55019837223618       -4.10906083763957        5.30683265477918
O           -1.70869113238332       -4.28087099204540       -0.57908892852754
O           -2.95348845789967        2.72347119871368        0.17163094020102
C           -2.02015904617566        2.31486276072718        3.74412407005289
C           -0.61724010965015        2.72134482419125        8.78482796083633
C           -1.11851472789654       -1.60084564709823       10.74610240673997
C           -2.90767910495218       -3.77417033932510        7.05804301890709
C           -1.99492172343308       -3.96274251012279        1.80167877790607
C           -2.14728605284402        0.46241162120314       -0.14582809028378
O           -3.18556491651707        2.16824051356136        2.96345643472214
O           -1.20631410820525        3.99769875870281        8.76965201935484
O           -1.55199399979591       -0.91574303178294       11.89325383148565
O           -3.85422899075603       -3.76706278961858        8.09741889245371
O           -2.55972466755364       -5.23979106505504        1.95556841219261
O           -3.20629590060457        0.07601491009482       -0.98767847727903
C           -0.85698299928786        2.77181156655918        2.85678939422127
C            0.18395428035249        2.54799019892935        7.48890630820347
C            0.28846989132210       -1.08347998886189       10.40983654224705
C           -1.59825210618241       -4.32657791683786        7.63067540039017
C           -1.22198009555141       -3.56199788643535        3.06825200920552
C           -0.93572458726697       -0.42290598359446       -0.49923076518647
C            0.38704637904758        2.91592261104561        3.75178753001906
C            1.05754777478453        1.28720027050087        7.53467325860810
C            1.04576446632869       -1.97738011869778        9.40629430267758
C           -0.54502127289684       -4.52077621216080        6.52820033008404
C           -0.58639591170030       -2.18610986353283        2.80488638262051
C            0.42865814329243        0.16177628160959       -0.07380228082167
O            0.13127575242832        3.87565758936774        4.77374479790038
O            1.81394811031728        1.17555321763481        8.72437319331803
O            0.85911213194209       -3.36761473187061        9.65925577722667
O           -1.07600999739312       -5.25833691729548        5.42424517458488
O            0.31604614884404       -2.28709187614709        1.72466408737513
O            0.48110731376581        1.58872482050317       -0.12448798866954
C            1.64162644173218        3.39622590776776        3.00844973023503
C            2.07479043941920        1.35302527711626        6.39772725423927
C            2.56751099732929       -1.76855058628479        9.47758883238797
C            0.65708423143360       -5.33784263444361        7.02579920475782
C            0.21417667136749       -1.65613731510576        4.02586906317558
C            1.56574277212280       -0.25834981157173       -1.02470227917877
O            2.28854703195354        2.32310003701797        2.37273311903773
O            2.25694314027769        0.16974054887526        5.84832199583140
O            3.06918738936074       -1.96086118113080       10.77088650415986
O            0.27767599745228       -6.58045136474753        7.55399183149880
O            1.17184119799541       -2.59772805608351        4.43377731668564
O            2.82333580581478        0.15846315314787       -0.56664065148564
H           -1.01889152451101        4.42492059105981        6.29999152829445
H            1.72436459693525        1.03998356790731       10.72369224604462
H           -0.47414244901228       -4.85925718352529        9.81945699323559
H           -2.52193135063085       -5.50813194133528        4.08828850352286
H            0.51177260040117       -2.67887817497062       -0.22700525076282
H           -0.30494418411287        3.30842851647194        0.45922482188668
H           -2.53440676217622        4.29239274753562        4.39737204086254
H            1.03805163065930        3.34516368295761       10.03670777657215
H           -0.64437940069633       -3.40131921841399       11.85368950207142
H           -3.64479433300620       -5.61598873334503        6.24066461913743
H           -0.27915162258465       -4.75217301773382        0.75782385897410
H           -1.69989041257754        2.22609928013367       -1.30830979615913
H           -2.96430301370999        2.28288964337635        6.30580639478715
H           -0.91966296137102        1.80158202787767       11.34488392114619
H           -2.95380240175502       -3.51753412772512       10.23251265468250
H           -4.32532729628398       -3.34257004791368        4.73800240327297
H           -2.21585598481617       -3.52216112928835       -0.86965838313020
H           -3.09830252970404        2.55080169425255        1.13343716762220
H           -1.72650101491239        1.34099965395783        4.19333094454995
H           -1.39067858530098        1.94008164320507        8.81589160731600
H           -1.76696733647125       -1.34778950863270        9.88911011244539
H           -2.71526044597422       -2.73616126807910        6.71726869587350
H           -2.78394692155082       -3.22150360762672        1.62251875065737
H           -2.39543590574241        0.25691149513189        0.91835385170254
H           -3.93758408379963        2.21014012774814        3.55569780261713
H           -1.53316278122307        4.19258028143898        9.65946093376357
H           -2.36222776592825       -1.34862043748371       12.22550777161683
H           -4.74124872519122       -3.64065535139178        7.70497601612918
H           -2.80840408138028       -5.57346441237626        1.07834500965888
H           -3.91265897670127        0.73442959980553       -0.89226173595454
H           -1.08818238908530        3.74218923989321        2.41373082081147
H            0.83163458186863        3.41921050338594        7.33799694665199
H            0.86676088201423       -0.99975077266895       11.34191457066933
H           -1.80194148844485       -5.28369080092866        8.12163396669595
H           -0.41854978737710       -4.28701483995636        3.26101924306156
H           -0.94970226804681       -0.57467071088089       -1.58850482617705
H            0.60556891042683        1.92814696152331        4.19243762415265
H            0.42343827329188        0.39980037497598        7.39763870280869
H            0.68791754606830       -1.74414807897381        8.39952205168755
H           -0.18813926471215       -3.53785289023030        6.19689758305914
H           -1.35987602672654       -1.44202683417865        2.57532754522415
H            0.64621134597974       -0.15818698613149        0.95195372585531
H            2.30386917669211        3.84899206980791        3.78147668482006
H            1.37552309040282        4.17729253916291        2.29775865485287
H            3.03185226229929       -2.46816995517623        8.78116898271391
H            2.81575095878694       -0.75161454262918        9.20187226425217
H            1.15000579601729       -4.79330667440677        7.83184713902232
H            1.34722457775641       -5.46174000677202        6.19229096323420
H            1.57836177500919       -1.35013283615185       -1.16696247614781
H            1.39566879957811        0.21691312119104       -1.99252104128624
H            2.65690122839609        2.63802463329124        1.49164177113252
H            2.92397697352908       -2.89456503386756       11.03128308450346
H           -0.09698253553132       -7.11980161420262        6.84167451683670
H            3.01881622452069       -0.21197596794033        0.27656816391519
C            2.40735211500532       -2.25252129781715        3.83273258213322
H            2.52013508001073       -2.74981170858769        2.85799368368362
H            3.20525866325656       -2.52844121876636        4.51308198599604
O           -0.63744906715019       -1.36340526050948        5.06935608797544
C            3.04874581535759        0.11068238813852        4.66010527561966
H            4.01452153391049       -0.34279733866234        4.89257040536070
H            3.19752524485950        1.12754293069446        4.27994358611043
O            2.63984734248466        2.36507002338044        6.06425448978200
C            2.30361712236322       -0.73212318546492        3.59394033461672
O            0.89556302221811       -0.48606226868659        3.69628000607976
H            4.14636093187113        3.00865690173967       -0.15756545494822
H            2.62119889986040        0.57999702781744        2.22754715157753
H            2.93024081144984        2.08207453341098       -0.41124762524869
O            3.32183791599532        2.88193290288526        0.00046303512426
H           -1.36074397647735       -2.01907630352070        5.05132792691065
O            2.74981812525016       -0.40084818009194        2.33954857741422
