7
Coordinates from ORCA-job job.QMRegion
  H          -0.72280125467724      2.87002243905693      1.49010525744875
  C          -1.55476385261214      3.27257478412331      2.13485225122152
  O          -2.57010873672223      2.45981923430516      2.33179587895333
  O          -0.68274298972739      3.37867004930299      3.42730250657978
  H          -2.36720666683626      3.02889884148484      4.19994164449434
  O          -1.63602567792414      3.62275590886403      4.50807076389865
  H          -1.77781744229663      4.32798447139645      1.84168789715620
