139
 xtb: 6.7.1 (edcfbbe)
C            0.72266439264245        4.86697883198984       -0.28554723779542
C           -4.27053511087262        3.23551477535801        0.30703608371397
C           -5.02267832525111       -1.85344375463660       -0.42107615260490
C           -0.78681354788660       -4.98214139560209       -0.60785952121993
C            4.14734581843300       -3.18185033236992        0.02511666444759
C            5.10967189300789        1.93221422740482       -0.50116374940826
O           -0.17572121283881        3.78311466440081       -0.21031579582150
O           -4.22176554792269        2.15855690260434       -0.57266607394717
O           -3.64116891009766       -2.05284093035057       -0.67586292266061
O            0.11435635149638       -3.90670044949076       -0.51996713419174
O            4.02123091878300       -2.00375877531356       -0.71522855926145
O            3.75256904070553        2.17133659747737       -0.73615760617463
C            1.40225700824103        4.88711506167999       -1.66818784943428
C           -3.87826192588932        4.50505007162828       -0.47630802397324
C           -5.65055672542585       -1.10070641055298       -1.60689626572006
C           -1.53746237705386       -4.85762165135496       -1.94664756527597
C            3.81955657186303       -4.35347132266488       -0.92024368419698
C            5.66431971705843        1.17140866274725       -1.71840976258850
O            0.47347142691829        4.86641605286276       -2.71786440201145
O           -4.71203223099705        4.71699047331995       -1.57994749776439
O           -5.54119084784520       -1.80005626002163       -2.81521430428581
O           -0.70160815258997       -4.94370204293017       -3.07118353297022
O            4.64516194233531       -4.36544434203504       -2.05189870619324
O            5.56035283124478        1.91871632489848       -2.89807923403532
C            2.31121287498602        3.66261428689395       -1.81889495994550
C           -2.40552999823955        4.42504378742799       -0.92466122967435
C           -4.99923416972761        0.28629956708557       -1.70527849051610
C           -2.24319411410830       -3.49473750935664       -1.93716795483064
C            2.34178592131743       -4.26064631605043       -1.32287469275211
C            4.90057508716648       -0.15740131167162       -1.83247868111945
O            3.14110271221680        3.75957749818345       -2.95386575115601
O           -1.99360029689919        5.65018236503813       -1.49478161007965
O           -5.61861515855667        1.07453643944663       -2.69255144330962
O           -3.03111409620159       -3.28832673259996       -3.08387570985294
O            1.95442816884934       -5.37297566565874       -2.10006589996189
O            5.43188451834892       -0.97623121771044       -2.84360525462329
C            3.23234981595628        3.48567035568698       -0.60595806347312
C           -1.48565780500483        4.08101147275366        0.26045285706254
C           -5.09352475659830        1.04734255775981       -0.37430857685355
C           -3.15347906919612       -3.38948599565385       -0.70863680336781
C            1.43185317293218       -4.17308589371746       -0.08448126350753
C            4.95316550489122       -0.94716883213584       -0.51729632519120
C            2.48976995553763        3.65225389794404        0.73207647914695
C           -2.05515573525844        2.82971166075373        0.93369251277047
C           -4.69387314055627        0.17338229968723        0.83529717033826
C           -2.40056688961234       -3.74497128995077        0.59136129409481
C            1.91903955083012       -3.01375040133484        0.79259147576813
C            4.58961411110135       -0.05698643338043        0.68620795139922
O            1.67740948315390        4.82223041121047        0.73579589770831
O           -3.37843858784534        3.06400722577521        1.39324172081083
O           -5.22808070629599       -1.15458895728330        0.76491745848664
O           -1.71155645833747       -4.98822548531519        0.44313549757513
O            3.28473096963874       -3.21014198642215        1.14427175049416
O            5.30030528557808        1.17908547755186        0.66722263614023
C            3.47642050530350        3.80543015754645        1.89733949998419
C           -1.26458746405461        2.34143451768697        2.15170330594890
C           -5.24124788301308        0.72222743853718        2.16544485682247
C           -3.37251862952635       -3.91533324788004        1.76582251900867
C            1.11813179889864       -2.84427772212588        2.11752225924896
C            4.94758285263513       -0.70191082803634        2.03390102341566
O            4.31859223598461        4.91770263976983        1.73908356351966
O           -1.56723007584342        1.06671669790973        2.33781483202164
O           -6.61948809090626        0.99146802534869        2.11078459340406
O           -4.32423292112995       -4.92302278900836        1.53028172488145
O            1.89387605376958       -2.06251743685268        2.97424044395029
O            6.28936338014338       -1.11163552909520        2.08012756672317
H            0.18871729960421        5.81261668083618       -0.13106758265962
H           -5.26307865065947        3.35343816950478        0.75788683869077
H           -5.53139083736847       -2.81562797828174       -0.27601362588564
H           -0.26687587746399       -5.94495687700320       -0.54637812716274
H            5.16251858442735       -3.28885267164507        0.43545179956157
H            5.66445576897901        2.86552750922413       -0.34000595718342
H            2.02334778397182        5.79622899636760       -1.71707539977908
H           -4.00106759116819        5.37024021590784        0.18403687905278
H           -6.72365015114193       -0.97992763660269       -1.41752576638781
H           -2.28542405487835       -5.66062218500832       -2.00097053338361
H            3.99478183663831       -5.29604109688396       -0.39082436476649
H            6.72979776904671        0.96648343396788       -1.56852786279925
H           -0.33696337794572        5.34048411791611       -2.45200338219927
H           -4.84683472544862        3.87228026253947       -2.04170801964409
H           -4.64852068910135       -2.18719542196202       -2.90576931496036
H            0.22329101486755       -5.08675717130889       -2.79666014914802
H            4.74043857237953       -3.45849710634682       -2.39109099980271
H            4.70933036535857        2.39759031031794       -2.91886357309246
H            1.68314302965026        2.76706018394103       -1.90245436024586
H           -2.31038287819222        3.62386916423583       -1.67221058566441
H           -3.93512764966796        0.15701210733738       -1.94788698175899
H           -1.45775609175420       -2.72884234853273       -1.87920136223415
H            2.20047283841248       -3.33638383687482       -1.90472773233491
H            3.84367485752923        0.06671227623577       -2.04285329103321
H            2.58197016043746        3.95907092225209       -3.72073336771040
H           -2.73529282185742        5.99409738375715       -2.02007303214327
H           -5.75875112255577        0.51844159788592       -3.47508875307553
H           -2.52558070532614       -3.58940596362641       -3.85544369872004
H            2.68273925081441       -5.58094027084782       -2.71079510292103
H            5.59066845080732       -0.42378094622484       -3.62586210050579
H            4.04074695034654        4.22636635260910       -0.66246889652357
H           -1.45469858387183        4.90672006221870        0.97814841927079
H           -6.12290818823372        1.40432100907715       -0.23646274524789
H           -3.98613766327264       -4.09734153661798       -0.83369523505042
H            1.47191072326028       -5.11333822611176        0.48462229954492
H            5.96109523392271       -1.35969640782561       -0.37796360729842
H            1.86790146321280        2.76905853065922        0.91880093131947
H           -2.08334816569721        2.01311709300680        0.20122229118427
H           -3.60128163143248        0.12538383252012        0.90340686223679
H           -1.67102736976619       -2.97197376624801        0.84899133455715
H            1.80829653542585       -2.08688552834577        0.24452854126536
H            3.51169062142519        0.14805936370826        0.63739066176681
H            4.12419162449029        2.92756292218240        1.93816211965379
H            2.89977488746511        3.87515908119204        2.82681441528391
H           -5.01881594259036       -0.01888146075839        2.94158331732810
H           -4.74368258414267        1.65752904664235        2.41898024016041
H           -3.93234977205797       -2.98949571599863        1.91000697221952
H           -2.78032599140397       -4.12869842021868        2.66195964294889
H            4.74116346514425        0.03143511687347        2.82355393581840
H            4.33754924852484       -1.58991219337043        2.20580193918508
H            3.77103173008939        5.71628896624489        1.75445929846219
H           -7.08808257693872        0.15152307890637        2.00575308488097
H           -3.85810979705573       -5.76824386474140        1.46336545137040
H            6.85124030164127       -0.32376137927862        2.03094020037677
C            1.05204262914964       -1.27001833067848        3.77522738251030
H            1.65859072984289       -0.65803749601032        4.40112383324313
H            0.35026209435333       -1.90292727622934        4.33645863569980
O            0.39873711344457       -3.75228640761677        2.56603123657583
C           -0.89964768367734        0.31005396749118        3.33618910312638
H           -1.63005427846431       -0.37098728339820        3.76288180273492
H           -0.48613058641699        0.98419889995922        4.10268741734788
O           -0.52191042498755        3.00874614187555        2.82451100902690
C            0.25059588589649       -0.50962621185971        2.67731316362314
O           -0.06260020364091       -1.39721246847272        1.77236255472495
H           -1.07508727701657       -0.77751170593534        0.67217170808814
O           -1.53758381681868       -0.34281447303173       -0.05353468531141
H           -0.78716558690096        0.10603570607063       -0.57651306081015
O            0.48125668397840        0.97744233551418       -0.65119400255923
H            0.82475122865515        0.80929808235348        0.24258601957649
O            1.13932499752620        0.50991428412288        2.10808596653732
H            2.01933219780032        0.11387736545717        2.08947231119298
H            0.23265083877239        1.92077751836775       -0.65177530834355
H           -2.07973997028662       -1.01446434828974       -0.51156591770547
