139
* (null), Energy   -1000.0000000
C     0.723220    4.868049   -0.285318   -0.000874   -0.000990   -0.000138
C    -4.269789    3.234866    0.307242   -0.000990    0.000452   -0.000504
C    -5.024405   -1.854827   -0.421267   -0.000654    0.000920    0.000804
C    -0.787104   -4.981275   -0.608972    0.000628   -0.000310    0.001814
C     4.153109   -3.182296    0.021260   -0.002452    0.000092    0.000406
C     5.110657    1.932276   -0.500687   -0.001582    0.000112   -0.000776
O    -0.176593    3.783828   -0.209416    0.000626   -0.000904   -0.001018
O    -4.224699    2.159581   -0.575466    0.001578   -0.000578    0.001262
O    -3.650309   -2.059115   -0.680120    0.007050    0.003886    0.001772
O     0.114922   -3.906877   -0.516579    0.001868   -0.000094   -0.002546
O     4.020482   -2.003117   -0.715019    0.000812   -0.000304   -0.000732
O     3.752358    2.171812   -0.735700    0.000768   -0.000450   -0.000418
C     1.402406    4.886895   -1.667886   -0.000220    0.000550   -0.000414
C    -3.878120    4.504677   -0.476330   -0.000372    0.000234    0.000148
C    -5.651589   -1.100386   -1.606569    0.000058   -0.000552   -0.000320
C    -1.536871   -4.856676   -1.946960   -0.000578   -0.000084    0.000164
C     3.821594   -4.354095   -0.921806   -0.001272    0.000536   -0.000166
C     5.664494    1.171373   -1.718245    0.000050    0.000280   -0.000338
O     0.473644    4.867275   -2.718347   -0.000056   -0.000496    0.000416
O    -4.711973    4.716822   -1.579780   -0.000126    0.000158   -0.000182
O    -5.541186   -1.799875   -2.814957   -0.000058    0.000004   -0.000116
O    -0.701646   -4.944013   -3.071304    0.000158    0.000150   -0.000022
O     4.646146   -4.366036   -2.053296    0.000146   -0.000138   -0.000356
O     5.560520    1.918998   -2.898190   -0.000064   -0.000196    0.000228
C     2.311065    3.662618   -1.818304    0.000046   -0.000030   -0.000508
C    -2.405780    4.424789   -0.924295    0.000022   -0.000174   -0.000562
C    -4.999346    0.285408   -1.703643    0.000420    0.000252   -0.000782
C    -2.244157   -3.494657   -1.936045   -0.000318    0.000210   -0.000842
C     2.342948   -4.260776   -1.325260   -0.000414    0.000086    0.001500
C     4.900527   -0.157066   -1.832274    0.000000    0.000000   -0.000386
O     3.140649    3.759779   -2.953715    0.000282   -0.000158   -0.000120
O    -1.994135    5.649393   -1.494388    0.000258    0.000414   -0.000348
O    -5.617113    1.073326   -2.691830   -0.000212    0.000382   -0.000444
O    -3.030824   -3.289887   -3.084083    0.000150    0.000872   -0.000050
O     1.954913   -5.373079   -2.100962    0.000216   -0.000316   -0.000442
O     5.431830   -0.976157   -2.843599    0.000006   -0.000036    0.000094
C     3.232840    3.485519   -0.606175   -0.000312    0.000572    0.000220
C    -1.486000    4.079624    0.259542    0.000106    0.001004    0.000844
C    -5.093172    1.046675   -0.373781   -0.000890    0.000746   -0.000404
C    -3.157159   -3.392263   -0.709296    0.000616   -0.000248   -0.000292
C     1.433906   -4.180359   -0.087313   -0.000890    0.003446    0.001752
C     4.953222   -0.947150   -0.517768   -0.000372    0.000288    0.000282
C     2.489893    3.651777    0.731587   -0.000314    0.000542    0.000136
C    -2.055123    2.828606    0.933361    0.000210    0.000460   -0.000076
C    -4.691180    0.172845    0.834351   -0.000790    0.000014   -0.000234
C    -2.403694   -3.745845    0.589098    0.002090    0.001948    0.001812
C     1.928056   -3.032897    0.799564   -0.002498    0.003616    0.001362
C     4.588563   -0.057114    0.685854    0.001018    0.000348    0.000114
O     1.677021    4.822241    0.734976    0.000492    0.000134    0.000722
O    -3.377937    3.064178    1.391852   -0.000170   -0.000614    0.000458
O    -5.230216   -1.153353    0.763941    0.000956   -0.000744    0.000376
O    -1.709367   -4.985327    0.443843   -0.001124   -0.002276   -0.000656
O     3.295897   -3.211510    1.140135   -0.000380   -0.000802    0.000936
O     5.299813    1.179385    0.666546    0.000482   -0.000548    0.000854
C     3.476199    3.805338    1.897559   -0.000210    0.000000   -0.000386
C    -1.266004    2.342890    2.150038    0.001802   -0.000172    0.002492
C    -5.239350    0.721409    2.164616   -0.000004    0.000158    0.000404
C    -3.372818   -3.916051    1.765264    0.000142    0.000454    0.000338
C     1.191835   -2.924819    2.145803   -0.069118    0.102738   -0.025696
C     4.947562   -0.701558    2.034489    0.000312    0.000004   -0.001020
O     4.318311    4.917630    1.739149    0.000164    0.000090   -0.000004
O    -1.574569    1.074034    2.344449    0.000852   -0.002852   -0.001006
O    -6.617402    0.990702    2.109991   -0.000632    0.000208    0.000008
O    -4.324759   -4.923254    1.530863   -0.000314   -0.000264   -0.000430
O     1.882989   -2.067072    2.947857    0.012720    0.002888    0.017176
O     6.289609   -1.111529    2.079971   -0.000124   -0.000034    0.000080
H     0.188533    5.812798   -0.131119    0.001506    0.000066    0.000522
H    -5.262994    3.352793    0.758074   -0.000114    0.003080   -0.000600
H    -5.532818   -2.815809   -0.275538    0.001366    0.001520   -0.001092
H    -0.267210   -5.944896   -0.547089   -0.000532   -0.001702    0.002144
H     5.164460   -3.288844    0.433547   -0.000344    0.000214   -0.001132
H     5.664604    2.865678   -0.340146   -0.000064   -0.000876    0.001594
H     2.023239    5.796263   -1.717396    0.000790    0.000036    0.001686
H    -4.001178    5.370120    0.183977   -0.000052    0.000452    0.000274
H    -6.724008   -0.979490   -1.418096   -0.000082   -0.001472    0.000892
H    -2.285896   -5.659669   -2.001519    0.003288   -0.004246    0.001864
H     3.995401   -5.296518   -0.391832   -0.001338    0.002650    0.003390
H     6.729929    0.966562   -1.568887   -0.000340   -0.000314    0.001810
H    -0.336909    5.340367   -2.451746   -0.000508    0.000550   -0.001254
H    -4.847373    3.872324   -2.041449    0.001030   -0.000908   -0.000598
H    -4.648456   -2.186924   -2.905073    0.000376   -0.001054   -0.002484
H     0.223597   -5.086659   -2.796801   -0.001316    0.002664   -0.000838
H     4.740539   -3.458833   -2.391798   -0.000150    0.001220    0.000608
H     4.709455    2.397523   -2.918744   -0.001322    0.000744   -0.000342
H     1.682690    2.767210   -1.901610    0.003766   -0.001164   -0.003954
H    -2.310379    3.623055   -1.671401   -0.001436    0.003972   -0.004646
H    -3.934445    0.155942   -1.944977   -0.002546    0.002140   -0.009972
H    -1.460532   -2.726278   -1.876774    0.013256   -0.011600   -0.008118
H     2.200299   -3.336121   -1.904839    0.001864   -0.000818    0.000470
H     3.843638    0.067180   -2.042760    0.000390   -0.002334    0.000302
H     2.582041    3.959259   -3.720686   -0.001262   -0.000238    0.000058
H    -2.735550    5.994267   -2.019750    0.000858   -0.000350   -0.000336
H    -5.758988    0.517826   -3.474739    0.000762    0.001138   -0.000330
H    -2.524515   -3.589476   -3.855200   -0.003468    0.000272   -0.001592
H     2.682573   -5.581408   -2.711201    0.000482    0.000634   -0.001242
H     5.591034   -0.423908   -3.625766   -0.000972    0.001342   -0.000384
H     4.040905    4.226329   -0.662849    0.000014    0.000326    0.001634
H    -1.454972    4.906088    0.978321   -0.000354    0.001760   -0.000752
H    -6.122808    1.404534   -0.236276   -0.001238   -0.001978   -0.000126
H    -3.987493   -4.098035   -0.835044    0.002232   -0.001096    0.002978
H     1.471897   -5.117862    0.479957   -0.000164    0.009430    0.010990
H     5.961123   -1.359718   -0.378530   -0.000332   -0.000126    0.002582
H     1.867197    2.769092    0.916855    0.004726   -0.000758    0.009574
H    -2.079881    2.009182    0.204330   -0.013356    0.013152   -0.008934
H    -3.599625    0.123508    0.897938   -0.005610    0.005454    0.021570
H    -1.675694   -2.967508    0.842722    0.021168   -0.020760    0.031062
H     1.801409   -2.089560    0.253290   -0.001630    0.004718    0.003404
H     3.511486    0.148830    0.635674    0.000406   -0.006536    0.009350
H     4.124406    2.927784    1.937913   -0.002042   -0.001406    0.002348
H     2.899406    3.875464    2.826633    0.001322   -0.001980    0.001098
H    -5.018650   -0.019417    2.941006    0.001234    0.001134    0.001976
H    -4.743019    1.657153    2.418628   -0.001366    0.000740    0.002388
H    -3.931402   -2.989081    1.909300   -0.003832   -0.002666    0.003784
H    -2.780855   -4.129793    2.661763    0.002482    0.005248    0.000796
H     4.741682    0.032037    2.823326   -0.002788   -0.003022    0.001794
H     4.338767   -1.590539    2.205721   -0.006870    0.004778    0.000594
H     3.771099    5.716336    1.754549   -0.001090   -0.000134   -0.000036
H    -7.087737    0.151350    2.005315    0.000044    0.000200    0.000824
H    -3.858199   -5.768463    1.463249   -0.001412    0.000410   -0.000188
H     6.851597   -0.324059    2.031142   -0.001024    0.002158   -0.000628
C     1.028109   -1.277922    3.754153    0.008246    0.003840    0.001294
H     1.651918   -0.660977    4.395496    0.000242    0.008564    0.005892
H     0.344275   -1.905368    4.330272   -0.000462   -0.003532   -0.006330
O     0.396476   -3.739959    2.563477   -0.003528   -0.007098    0.002646
C    -0.902478    0.324394    3.345623    0.001736   -0.005980   -0.007660
H    -1.630206   -0.369280    3.762972    0.008246   -0.006150   -0.002278
H    -0.491750    0.990730    4.106473    0.021170   -0.016006   -0.010272
O    -0.520310    3.007150    2.822239   -0.000010    0.002486    0.000898
C     0.247912   -0.466046    2.685592   -0.004126   -0.046726   -0.016378
O    -0.142114   -1.346425    1.736507    0.048382   -0.044820    0.018736
H    -0.951970   -0.819066    0.808131   -1.228936    0.750542   -1.302102
O    -1.547953   -0.340485   -0.024285    0.062838   -0.031052    0.058458
H    -0.809416    0.073712   -0.580659    0.294596    0.210178    0.009664
O     0.518289    0.996785   -0.662136   -0.022536   -0.014152    0.006084
H     0.823819    0.815083    0.242527    0.003510   -0.026778   -0.000184
O     1.135228    0.508117    2.114102   -0.000464   -0.000312   -0.003306
H     2.018878    0.113009    2.089145   -0.009376   -0.010944   -0.007778
H     0.230171    1.921332   -0.652654   -0.011202   -0.000302    0.000384
H    -2.057543   -1.028442   -0.494089    0.010890   -0.179384    0.167200
139
* Frequency(6) -1276.8900
C     0.723121    4.867936   -0.285334   -0.000874   -0.000990   -0.000138
C    -4.269902    3.234917    0.307185   -0.000990    0.000452   -0.000504
C    -5.024479   -1.854722   -0.421176   -0.000654    0.000920    0.000804
C    -0.787033   -4.981310   -0.608766    0.000628   -0.000310    0.001814
C     4.152830   -3.182286    0.021306   -0.002452    0.000092    0.000406
C     5.110477    1.932289   -0.500775   -0.001582    0.000112   -0.000776
O    -0.176522    3.783725   -0.209532    0.000626   -0.000904   -0.001018
O    -4.224520    2.159515   -0.575323    0.001578   -0.000578    0.001262
O    -3.649508   -2.058673   -0.679919    0.007050    0.003886    0.001772
O     0.115134   -3.906888   -0.516868    0.001868   -0.000094   -0.002546
O     4.020574   -2.003152   -0.715102    0.000812   -0.000304   -0.000732
O     3.752445    2.171761   -0.735748    0.000768   -0.000450   -0.000418
C     1.402381    4.886958   -1.667933   -0.000220    0.000550   -0.000414
C    -3.878162    4.504704   -0.476313   -0.000372    0.000234    0.000148
C    -5.651582   -1.100449   -1.606605    0.000058   -0.000552   -0.000320
C    -1.536937   -4.856686   -1.946941   -0.000578   -0.000084    0.000164
C     3.821449   -4.354034   -0.921825   -0.001272    0.000536   -0.000166
C     5.664500    1.171405   -1.718283    0.000050    0.000280   -0.000338
O     0.473638    4.867219   -2.718300   -0.000056   -0.000496    0.000416
O    -4.711987    4.716840   -1.579801   -0.000126    0.000158   -0.000182
O    -5.541193   -1.799875   -2.814970   -0.000058    0.000004   -0.000116
O    -0.701628   -4.943996   -3.071307    0.000158    0.000150   -0.000022
O     4.646163   -4.366052   -2.053336    0.000146   -0.000138   -0.000356
O     5.560513    1.918976   -2.898164   -0.000064   -0.000196    0.000228
C     2.311070    3.662615   -1.818362    0.000046   -0.000030   -0.000508
C    -2.405777    4.424769   -0.924359    0.000022   -0.000174   -0.000562
C    -4.999298    0.285437   -1.703732    0.000420    0.000252   -0.000782
C    -2.244193   -3.494633   -1.936141   -0.000318    0.000210   -0.000842
C     2.342901   -4.260766   -1.325090   -0.000414    0.000086    0.001500
C     4.900527   -0.157066   -1.832318    0.000000    0.000000   -0.000386
O     3.140681    3.759761   -2.953729    0.000282   -0.000158   -0.000120
O    -1.994106    5.649440   -1.494428    0.000258    0.000414   -0.000348
O    -5.617137    1.073369   -2.691880   -0.000212    0.000382   -0.000444
O    -3.030807   -3.289788   -3.084089    0.000150    0.000872   -0.000050
O     1.954938   -5.373115   -2.101012    0.000216   -0.000316   -0.000442
O     5.431831   -0.976161   -2.843588    0.000006   -0.000036    0.000094
C     3.232805    3.485584   -0.606150   -0.000312    0.000572    0.000220
C    -1.485988    4.079738    0.259638    0.000106    0.001004    0.000844
C    -5.093273    1.046760   -0.373827   -0.000890    0.000746   -0.000404
C    -3.157089   -3.392291   -0.709329    0.000616   -0.000248   -0.000292
C     1.433805   -4.179967   -0.087114   -0.000890    0.003446    0.001752
C     4.953180   -0.947117   -0.517736   -0.000372    0.000288    0.000282
C     2.489857    3.651839    0.731602   -0.000314    0.000542    0.000136
C    -2.055099    2.828658    0.933352    0.000210    0.000460   -0.000076
C    -4.691270    0.172847    0.834324   -0.000790    0.000014   -0.000234
C    -2.403456   -3.745624    0.589304    0.002090    0.001948    0.001812
C     1.927772   -3.032486    0.799719   -0.002498    0.003616    0.001362
C     4.588679   -0.057074    0.685867    0.001018    0.000348    0.000114
O     1.677077    4.822256    0.735058    0.000492    0.000134    0.000722
O    -3.377956    3.064108    1.391904   -0.000170   -0.000614    0.000458
O    -5.230107   -1.153438    0.763984    0.000956   -0.000744    0.000376
O    -1.709495   -4.985586    0.443768   -0.001124   -0.002276   -0.000656
O     3.295854   -3.211601    1.140241   -0.000380   -0.000802    0.000936
O     5.299868    1.179323    0.666643    0.000482   -0.000548    0.000854
C     3.476175    3.805338    1.897515   -0.000210    0.000000   -0.000386
C    -1.265799    2.342870    2.150321    0.001802   -0.000172    0.002492
C    -5.239350    0.721427    2.164662   -0.000004    0.000158    0.000404
C    -3.372802   -3.915999    1.765302    0.000142    0.000454    0.000338
C     1.183980   -2.913143    2.142883   -0.069118    0.102738   -0.025696
C     4.947597   -0.701558    2.034373    0.000312    0.000004   -0.001020
O     4.318330    4.917640    1.739149    0.000164    0.000090   -0.000004
O    -1.574472    1.073710    2.344335    0.000852   -0.002852   -0.001006
O    -6.617474    0.990726    2.109992   -0.000632    0.000208    0.000008
O    -4.324795   -4.923284    1.530814   -0.000314   -0.000264   -0.000430
O     1.884435   -2.066744    2.949809    0.012720    0.002888    0.017176
O     6.289595   -1.111533    2.079980   -0.000124   -0.000034    0.000080
H     0.188704    5.812806   -0.131060    0.001506    0.000066    0.000522
H    -5.263007    3.353143    0.758006   -0.000114    0.003080   -0.000600
H    -5.532663   -2.815636   -0.275662    0.001366    0.001520   -0.001092
H    -0.267270   -5.945089   -0.546845   -0.000532   -0.001702    0.002144
H     5.164421   -3.288820    0.433418   -0.000344    0.000214   -0.001132
H     5.664597    2.865578   -0.339965   -0.000064   -0.000876    0.001594
H     2.023329    5.796267   -1.717204    0.000790    0.000036    0.001686
H    -4.001184    5.370171    0.184008   -0.000052    0.000452    0.000274
H    -6.724017   -0.979657   -1.417995   -0.000082   -0.001472    0.000892
H    -2.285522   -5.660152   -2.001307    0.003288   -0.004246    0.001864
H     3.995249   -5.296217   -0.391447   -0.001338    0.002650    0.003390
H     6.729890    0.966526   -1.568681   -0.000340   -0.000314    0.001810
H    -0.336967    5.340430   -2.451889   -0.000508    0.000550   -0.001254
H    -4.847256    3.872221   -2.041517    0.001030   -0.000908   -0.000598
H    -4.648413   -2.187044   -2.905355    0.000376   -0.001054   -0.002484
H     0.223447   -5.086356   -2.796896   -0.001316    0.002664   -0.000838
H     4.740522   -3.458694   -2.391729   -0.000150    0.001220    0.000608
H     4.709305    2.397608   -2.918783   -0.001322    0.000744   -0.000342
H     1.683118    2.767078   -1.902059    0.003766   -0.001164   -0.003954
H    -2.310542    3.623506   -1.671929   -0.001436    0.003972   -0.004646
H    -3.934734    0.156185   -1.946110   -0.002546    0.002140   -0.009972
H    -1.459026   -2.727596   -1.877697    0.013256   -0.011600   -0.008118
H     2.200511   -3.336214   -1.904786    0.001864   -0.000818    0.000470
H     3.843682    0.066915   -2.042726    0.000390   -0.002334    0.000302
H     2.581898    3.959232   -3.720679   -0.001262   -0.000238    0.000058
H    -2.735452    5.994227   -2.019788    0.000858   -0.000350   -0.000336
H    -5.758901    0.517955   -3.474777    0.000762    0.001138   -0.000330
H    -2.524909   -3.589445   -3.855381   -0.003468    0.000272   -0.001592
H     2.682628   -5.581336   -2.711342    0.000482    0.000634   -0.001242
H     5.590924   -0.423755   -3.625810   -0.000972    0.001342   -0.000384
H     4.040907    4.226366   -0.662663    0.000014    0.000326    0.001634
H    -1.455012    4.906288    0.978236   -0.000354    0.001760   -0.000752
H    -6.122949    1.404309   -0.236290   -0.001238   -0.001978   -0.000126
H    -3.987239   -4.098160   -0.834706    0.002232   -0.001096    0.002978
H     1.471878   -5.116790    0.481206   -0.000164    0.009430    0.010990
H     5.961085   -1.359732   -0.378237   -0.000332   -0.000126    0.002582
H     1.867734    2.769006    0.917943    0.004726   -0.000758    0.009574
H    -2.081399    2.010677    0.203315   -0.013356    0.013152   -0.008934
H    -3.600263    0.124128    0.900389   -0.005610    0.005454    0.021570
H    -1.673288   -2.969867    0.846252    0.021168   -0.020760    0.031062
H     1.801224   -2.089024    0.253677   -0.001630    0.004718    0.003404
H     3.511532    0.148087    0.636737    0.000406   -0.006536    0.009350
H     4.124174    2.927624    1.938180   -0.002042   -0.001406    0.002348
H     2.899556    3.875239    2.826758    0.001322   -0.001980    0.001098
H    -5.018510   -0.019288    2.941231    0.001234    0.001134    0.001976
H    -4.743174    1.657237    2.418899   -0.001366    0.000740    0.002388
H    -3.931837   -2.989384    1.909730   -0.003832   -0.002666    0.003784
H    -2.780573   -4.129197    2.661853    0.002482    0.005248    0.000796
H     4.741365    0.031694    2.823530   -0.002788   -0.003022    0.001794
H     4.337986   -1.589996    2.205789   -0.006870    0.004778    0.000594
H     3.770975    5.716321    1.754545   -0.001090   -0.000134   -0.000036
H    -7.087732    0.151373    2.005409    0.000044    0.000200    0.000824
H    -3.858359   -5.768416    1.463228   -0.001412    0.000410   -0.000188
H     6.851481   -0.323814    2.031071   -0.001024    0.002158   -0.000628
C     1.029046   -1.277486    3.754300    0.008246    0.003840    0.001294
H     1.651946   -0.660004    4.396166    0.000242    0.008564    0.005892
H     0.344222   -1.905769    4.329553   -0.000462   -0.003532   -0.006330
O     0.396075   -3.740766    2.563778   -0.003528   -0.007098    0.002646
C    -0.902281    0.323714    3.344752    0.001736   -0.005980   -0.007660
H    -1.629269   -0.369979    3.762713    0.008246   -0.006150   -0.002278
H    -0.489344    0.988911    4.105306    0.021170   -0.016006   -0.010272
O    -0.520311    3.007433    2.822341   -0.000010    0.002486    0.000898
C     0.247443   -0.471356    2.683731   -0.004126   -0.046726   -0.016378
O    -0.136616   -1.351519    1.738636    0.048382   -0.044820    0.018736
H    -1.091632   -0.733771    0.660154   -1.228936    0.750542   -1.302102
O    -1.540812   -0.344014   -0.017642    0.062838   -0.031052    0.058458
H    -0.775937    0.097598   -0.579561    0.294596    0.210178    0.009664
O     0.515728    0.995177   -0.661445   -0.022536   -0.014152    0.006084
H     0.824218    0.812040    0.242506    0.003510   -0.026778   -0.000184
O     1.135175    0.508082    2.113726   -0.000464   -0.000312   -0.003306
H     2.017812    0.111765    2.088261   -0.009376   -0.010944   -0.007778
H     0.228898    1.921298   -0.652610   -0.011202   -0.000302    0.000384
H    -2.056305   -1.048828   -0.475088    0.010890   -0.179384    0.167200
139
* Frequency(6) -1276.8900
C     0.723032    4.867836   -0.285348   -0.000874   -0.000990   -0.000138
C    -4.270002    3.234963    0.307134   -0.000990    0.000452   -0.000504
C    -5.024546   -1.854629   -0.421094   -0.000654    0.000920    0.000804
C    -0.786969   -4.981342   -0.608582    0.000628   -0.000310    0.001814
C     4.152582   -3.182276    0.021347   -0.002452    0.000092    0.000406
C     5.110317    1.932300   -0.500854   -0.001582    0.000112   -0.000776
O    -0.176458    3.783634   -0.209635    0.000626   -0.000904   -0.001018
O    -4.224360    2.159457   -0.575195    0.001578   -0.000578    0.001262
O    -3.648793   -2.058280   -0.679739    0.007050    0.003886    0.001772
O     0.115324   -3.906897   -0.517126    0.001868   -0.000094   -0.002546
O     4.020657   -2.003182   -0.715176    0.000812   -0.000304   -0.000732
O     3.752523    2.171715   -0.735790    0.000768   -0.000450   -0.000418
C     1.402359    4.887013   -1.667975   -0.000220    0.000550   -0.000414
C    -3.878200    4.504727   -0.476298   -0.000372    0.000234    0.000148
C    -5.651577   -1.100505   -1.606638    0.000058   -0.000552   -0.000320
C    -1.536995   -4.856694   -1.946925   -0.000578   -0.000084    0.000164
C     3.821321   -4.353980   -0.921842   -0.001272    0.000536   -0.000166
C     5.664505    1.171433   -1.718318    0.000050    0.000280   -0.000338
O     0.473632    4.867168   -2.718258   -0.000056   -0.000496    0.000416
O    -4.712000    4.716856   -1.579819   -0.000126    0.000158   -0.000182
O    -5.541198   -1.799874   -2.814982   -0.000058    0.000004   -0.000116
O    -0.701612   -4.943981   -3.071309    0.000158    0.000150   -0.000022
O     4.646177   -4.366066   -2.053373    0.000146   -0.000138   -0.000356
O     5.560506    1.918956   -2.898141   -0.000064   -0.000196    0.000228
C     2.311075    3.662612   -1.818413    0.000046   -0.000030   -0.000508
C    -2.405775    4.424752   -0.924416    0.000022   -0.000174   -0.000562
C    -4.999256    0.285462   -1.703811    0.000420    0.000252   -0.000782
C    -2.244225   -3.494612   -1.936226   -0.000318    0.000210   -0.000842
C     2.342859   -4.260758   -1.324938   -0.000414    0.000086    0.001500
C     4.900527   -0.157066   -1.832357    0.000000    0.000000   -0.000386
O     3.140710    3.759745   -2.953741    0.000282   -0.000158   -0.000120
O    -1.994080    5.649482   -1.494463    0.000258    0.000414   -0.000348
O    -5.617159    1.073408   -2.691925   -0.000212    0.000382   -0.000444
O    -3.030792   -3.289700   -3.084094    0.000150    0.000872   -0.000050
O     1.954959   -5.373147   -2.101057    0.000216   -0.000316   -0.000442
O     5.431831   -0.976165   -2.843579    0.000006   -0.000036    0.000094
C     3.232773    3.485642   -0.606128   -0.000312    0.000572    0.000220
C    -1.485977    4.079840    0.259723    0.000106    0.001004    0.000844
C    -5.093363    1.046835   -0.373868   -0.000890    0.000746   -0.000404
C    -3.157027   -3.392316   -0.709359    0.000616   -0.000248   -0.000292
C     1.433715   -4.179618   -0.086936   -0.000890    0.003446    0.001752
C     4.953142   -0.947088   -0.517707   -0.000372    0.000288    0.000282
C     2.489825    3.651894    0.731616   -0.000314    0.000542    0.000136
C    -2.055078    2.828705    0.933345    0.000210    0.000460   -0.000076
C    -4.691350    0.172848    0.834301   -0.000790    0.000014   -0.000234
C    -2.403245   -3.745426    0.589488    0.002090    0.001948    0.001812
C     1.927519   -3.032120    0.799857   -0.002498    0.003616    0.001362
C     4.588782   -0.057039    0.685879    0.001018    0.000348    0.000114
O     1.677127    4.822270    0.735131    0.000492    0.000134    0.000722
O    -3.377974    3.064046    1.391950   -0.000170   -0.000614    0.000458
O    -5.230010   -1.153513    0.764022    0.000956   -0.000744    0.000376
O    -1.709609   -4.985816    0.443702   -0.001124   -0.002276   -0.000656
O     3.295815   -3.211682    1.140336   -0.000380   -0.000802    0.000936
O     5.299917    1.179267    0.666730    0.000482   -0.000548    0.000854
C     3.476154    3.805338    1.897476   -0.000210    0.000000   -0.000386
C    -1.265617    2.342853    2.150574    0.001802   -0.000172    0.002492
C    -5.239351    0.721443    2.164703   -0.000004    0.000158    0.000404
C    -3.372787   -3.915953    1.765337    0.000142    0.000454    0.000338
C     1.176976   -2.902733    2.140279   -0.069118    0.102738   -0.025696
C     4.947629   -0.701557    2.034270    0.000312    0.000004   -0.001020
O     4.318346    4.917649    1.739148    0.000164    0.000090   -0.000004
O    -1.574386    1.073421    2.344233    0.000852   -0.002852   -0.001006
O    -6.617538    0.990747    2.109993   -0.000632    0.000208    0.000008
O    -4.324827   -4.923311    1.530771   -0.000314   -0.000264   -0.000430
O     1.885723   -2.066451    2.951549    0.012720    0.002888    0.017176
O     6.289582   -1.111536    2.079988   -0.000124   -0.000034    0.000080
H     0.188857    5.812812   -0.131007    0.001506    0.000066    0.000522
H    -5.263019    3.353455    0.757945   -0.000114    0.003080   -0.000600
H    -5.532524   -2.815482   -0.275773    0.001366    0.001520   -0.001092
H    -0.267324   -5.945262   -0.546628   -0.000532   -0.001702    0.002144
H     5.164386   -3.288798    0.433304   -0.000344    0.000214   -0.001132
H     5.664590    2.865490   -0.339803   -0.000064   -0.000876    0.001594
H     2.023409    5.796271   -1.717034    0.000790    0.000036    0.001686
H    -4.001189    5.370217    0.184036   -0.000052    0.000452    0.000274
H    -6.724026   -0.979806   -1.417904   -0.000082   -0.001472    0.000892
H    -2.285189   -5.660582   -2.001118    0.003288   -0.004246    0.001864
H     3.995113   -5.295948   -0.391103   -0.001338    0.002650    0.003390
H     6.729856    0.966494   -1.568498   -0.000340   -0.000314    0.001810
H    -0.337018    5.340485   -2.452016   -0.000508    0.000550   -0.001254
H    -4.847152    3.872129   -2.041578    0.001030   -0.000908   -0.000598
H    -4.648375   -2.187151   -2.905607    0.000376   -0.001054   -0.002484
H     0.223314   -5.086086   -2.796981   -0.001316    0.002664   -0.000838
H     4.740507   -3.458571   -2.391667   -0.000150    0.001220    0.000608
H     4.709171    2.397683   -2.918818   -0.001322    0.000744   -0.000342
H     1.683500    2.766960   -1.902460    0.003766   -0.001164   -0.003954
H    -2.310688    3.623909   -1.672400   -0.001436    0.003972   -0.004646
H    -3.934992    0.156402   -1.947121   -0.002546    0.002140   -0.009972
H    -1.457682   -2.728772   -1.878519    0.013256   -0.011600   -0.008118
H     2.200700   -3.336297   -1.904738    0.001864   -0.000818    0.000470
H     3.843722    0.066678   -2.042695    0.000390   -0.002334    0.000302
H     2.581770    3.959208   -3.720674   -0.001262   -0.000238    0.000058
H    -2.735366    5.994192   -2.019822    0.000858   -0.000350   -0.000336
H    -5.758824    0.518071   -3.474810    0.000762    0.001138   -0.000330
H    -2.525261   -3.589418   -3.855542   -0.003468    0.000272   -0.001592
H     2.682677   -5.581272   -2.711468    0.000482    0.000634   -0.001242
H     5.590825   -0.423620   -3.625849   -0.000972    0.001342   -0.000384
H     4.040908    4.226399   -0.662498    0.000014    0.000326    0.001634
H    -1.455048    4.906466    0.978159   -0.000354    0.001760   -0.000752
H    -6.123074    1.404109   -0.236303   -0.001238   -0.001978   -0.000126
H    -3.987013   -4.098271   -0.834404    0.002232   -0.001096    0.002978
H     1.471862   -5.115835    0.482320   -0.000164    0.009430    0.010990
H     5.961052   -1.359745   -0.377975   -0.000332   -0.000126    0.002582
H     1.868213    2.768929    0.918913    0.004726   -0.000758    0.009574
H    -2.082752    2.012009    0.202409   -0.013356    0.013152   -0.008934
H    -3.600831    0.124680    0.902575   -0.005610    0.005454    0.021570
H    -1.671143   -2.971971    0.849400    0.021168   -0.020760    0.031062
H     1.801059   -2.088546    0.254022   -0.001630    0.004718    0.003404
H     3.511573    0.147425    0.637684    0.000406   -0.006536    0.009350
H     4.123967    2.927482    1.938418   -0.002042   -0.001406    0.002348
H     2.899690    3.875038    2.826869    0.001322   -0.001980    0.001098
H    -5.018385   -0.019173    2.941431    0.001234    0.001134    0.001976
H    -4.743313    1.657312    2.419141   -0.001366    0.000740    0.002388
H    -3.932226   -2.989654    1.910113   -0.003832   -0.002666    0.003784
H    -2.780321   -4.128665    2.661934    0.002482    0.005248    0.000796
H     4.741083    0.031387    2.823712   -0.002788   -0.003022    0.001794
H     4.337290   -1.589512    2.205849   -0.006870    0.004778    0.000594
H     3.770865    5.716307    1.754541   -0.001090   -0.000134   -0.000036
H    -7.087728    0.151393    2.005492    0.000044    0.000200    0.000824
H    -3.858503   -5.768375    1.463209   -0.001412    0.000410   -0.000188
H     6.851377   -0.323595    2.031007   -0.001024    0.002158   -0.000628
C     1.029882   -1.277096    3.754431    0.008246    0.003840    0.001294
H     1.651970   -0.659136    4.396763    0.000242    0.008564    0.005892
H     0.344176   -1.906127    4.328911   -0.000462   -0.003532   -0.006330
O     0.395718   -3.741485    2.564046   -0.003528   -0.007098    0.002646
C    -0.902105    0.323108    3.343976    0.001736   -0.005980   -0.007660
H    -1.628433   -0.370602    3.762482    0.008246   -0.006150   -0.002278
H    -0.487199    0.987289    4.104265    0.021170   -0.016006   -0.010272
O    -0.520312    3.007684    2.822432   -0.000010    0.002486    0.000898
C     0.247025   -0.476091    2.682071   -0.004126   -0.046726   -0.016378
O    -0.131713   -1.356060    1.740535    0.048382   -0.044820    0.018736
H    -1.216160   -0.657719    0.528212   -1.228936    0.750542   -1.302102
O    -1.534444   -0.347160   -0.011718    0.062838   -0.031052    0.058458
H    -0.746085    0.118895   -0.578581    0.294596    0.210178    0.009664
O     0.513444    0.993743   -0.660828   -0.022536   -0.014152    0.006084
H     0.824574    0.809326    0.242487    0.003510   -0.026778   -0.000184
O     1.135128    0.508050    2.113391   -0.000464   -0.000312   -0.003306
H     2.016862    0.110656    2.087473   -0.009376   -0.010944   -0.007778
H     0.227763    1.921267   -0.652571   -0.011202   -0.000302    0.000384
H    -2.055202   -1.067005   -0.458145    0.010890   -0.179384    0.167200
139
* Frequency(6) -1276.8900
C     0.722964    4.867759   -0.285358   -0.000874   -0.000990   -0.000138
C    -4.270079    3.234998    0.307094   -0.000990    0.000452   -0.000504
C    -5.024597   -1.854557   -0.421031   -0.000654    0.000920    0.000804
C    -0.786920   -4.981366   -0.608440    0.000628   -0.000310    0.001814
C     4.152391   -3.182269    0.021379   -0.002452    0.000092    0.000406
C     5.110193    1.932309   -0.500914   -0.001582    0.000112   -0.000776
O    -0.176410    3.783563   -0.209714    0.000626   -0.000904   -0.001018
O    -4.224237    2.159412   -0.575096    0.001578   -0.000578    0.001262
O    -3.648243   -2.057976   -0.679601    0.007050    0.003886    0.001772
O     0.115469   -3.906905   -0.517325    0.001868   -0.000094   -0.002546
O     4.020720   -2.003206   -0.715233    0.000812   -0.000304   -0.000732
O     3.752583    2.171680   -0.735822    0.000768   -0.000450   -0.000418
C     1.402342    4.887056   -1.668007   -0.000220    0.000550   -0.000414
C    -3.878229    4.504746   -0.476287   -0.000372    0.000234    0.000148
C    -5.651572   -1.100548   -1.606663    0.000058   -0.000552   -0.000320
C    -1.537040   -4.856701   -1.946912   -0.000578   -0.000084    0.000164
C     3.821221   -4.353938   -0.921855   -0.001272    0.000536   -0.000166
C     5.664509    1.171455   -1.718344    0.000050    0.000280   -0.000338
O     0.473628    4.867130   -2.718225   -0.000056   -0.000496    0.000416
O    -4.712010    4.716868   -1.579833   -0.000126    0.000158   -0.000182
O    -5.541203   -1.799874   -2.814991   -0.000058    0.000004   -0.000116
O    -0.701600   -4.943969   -3.071310    0.000158    0.000150   -0.000022
O     4.646189   -4.366076   -2.053400    0.000146   -0.000138   -0.000356
O     5.560501    1.918941   -2.898123   -0.000064   -0.000196    0.000228
C     2.311078    3.662609   -1.818453    0.000046   -0.000030   -0.000508
C    -2.405774    4.424738   -0.924460    0.000022   -0.000174   -0.000562
C    -4.999223    0.285482   -1.703872    0.000420    0.000252   -0.000782
C    -2.244250   -3.494595   -1.936292   -0.000318    0.000210   -0.000842
C     2.342827   -4.260751   -1.324820   -0.000414    0.000086    0.001500
C     4.900527   -0.157066   -1.832387    0.000000    0.000000   -0.000386
O     3.140732    3.759733   -2.953750    0.000282   -0.000158   -0.000120
O    -1.994059    5.649514   -1.494490    0.000258    0.000414   -0.000348
O    -5.617175    1.073438   -2.691960   -0.000212    0.000382   -0.000444
O    -3.030780   -3.289631   -3.084098    0.000150    0.000872   -0.000050
O     1.954976   -5.373172   -2.101092    0.000216   -0.000316   -0.000442
O     5.431832   -0.976168   -2.843571    0.000006   -0.000036    0.000094
C     3.232749    3.485687   -0.606111   -0.000312    0.000572    0.000220
C    -1.485969    4.079918    0.259789    0.000106    0.001004    0.000844
C    -5.093433    1.046894   -0.373899   -0.000890    0.000746   -0.000404
C    -3.156979   -3.392336   -0.709382    0.000616   -0.000248   -0.000292
C     1.433645   -4.179349   -0.086800   -0.000890    0.003446    0.001752
C     4.953113   -0.947066   -0.517685   -0.000372    0.000288    0.000282
C     2.489801    3.651936    0.731627   -0.000314    0.000542    0.000136
C    -2.055061    2.828741    0.933339    0.000210    0.000460   -0.000076
C    -4.691411    0.172849    0.834282   -0.000790    0.000014   -0.000234
C    -2.403082   -3.745274    0.589629    0.002090    0.001948    0.001812
C     1.927324   -3.031837    0.799963   -0.002498    0.003616    0.001362
C     4.588861   -0.057012    0.685887    0.001018    0.000348    0.000114
O     1.677165    4.822280    0.735188    0.000492    0.000134    0.000722
O    -3.377987    3.063998    1.391986   -0.000170   -0.000614    0.000458
O    -5.229936   -1.153571    0.764051    0.000956   -0.000744    0.000376
O    -1.709696   -4.985994    0.443651   -0.001124   -0.002276   -0.000656
O     3.295786   -3.211745    1.140409   -0.000380   -0.000802    0.000936
O     5.299954    1.179224    0.666796    0.000482   -0.000548    0.000854
C     3.476137    3.805338    1.897446   -0.000210    0.000000   -0.000386
C    -1.265476    2.342840    2.150768    0.001802   -0.000172    0.002492
C    -5.239351    0.721455    2.164734   -0.000004    0.000158    0.000404
C    -3.372776   -3.915918    1.765363    0.000142    0.000454    0.000338
C     1.171583   -2.894716    2.138274   -0.069118    0.102738   -0.025696
C     4.947653   -0.701557    2.034190    0.000312    0.000004   -0.001020
O     4.318359    4.917656    1.739148    0.000164    0.000090   -0.000004
O    -1.574319    1.073198    2.344154    0.000852   -0.002852   -0.001006
O    -6.617587    0.990763    2.109993   -0.000632    0.000208    0.000008
O    -4.324851   -4.923331    1.530737   -0.000314   -0.000264   -0.000430
O     1.886716   -2.066226    2.952890    0.012720    0.002888    0.017176
O     6.289573   -1.111539    2.079994   -0.000124   -0.000034    0.000080
H     0.188974    5.812817   -0.130966    0.001506    0.000066    0.000522
H    -5.263027    3.353695    0.757898   -0.000114    0.003080   -0.000600
H    -5.532418   -2.815364   -0.275858    0.001366    0.001520   -0.001092
H    -0.267366   -5.945395   -0.546461   -0.000532   -0.001702    0.002144
H     5.164359   -3.288781    0.433215   -0.000344    0.000214   -0.001132
H     5.664585    2.865421   -0.339679   -0.000064   -0.000876    0.001594
H     2.023470    5.796274   -1.716902    0.000790    0.000036    0.001686
H    -4.001193    5.370252    0.184057   -0.000052    0.000452    0.000274
H    -6.724032   -0.979921   -1.417835   -0.000082   -0.001472    0.000892
H    -2.284933   -5.660913   -2.000973    0.003288   -0.004246    0.001864
H     3.995009   -5.295742   -0.390839   -0.001338    0.002650    0.003390
H     6.729829    0.966470   -1.568357   -0.000340   -0.000314    0.001810
H    -0.337058    5.340528   -2.452113   -0.000508    0.000550   -0.001254
H    -4.847071    3.872058   -2.041624    0.001030   -0.000908   -0.000598
H    -4.648346   -2.187233   -2.905801    0.000376   -0.001054   -0.002484
H     0.223211   -5.085878   -2.797047   -0.001316    0.002664   -0.000838
H     4.740495   -3.458476   -2.391620   -0.000150    0.001220    0.000608
H     4.709068    2.397741   -2.918844   -0.001322    0.000744   -0.000342
H     1.683793    2.766869   -1.902769    0.003766   -0.001164   -0.003954
H    -2.310800    3.624219   -1.672762   -0.001436    0.003972   -0.004646
H    -3.935191    0.156569   -1.947899   -0.002546    0.002140   -0.009972
H    -1.456648   -2.729677   -1.879153    0.013256   -0.011600   -0.008118
H     2.200845   -3.336361   -1.904701    0.001864   -0.000818    0.000470
H     3.843752    0.066496   -2.042672    0.000390   -0.002334    0.000302
H     2.581671    3.959189   -3.720669   -0.001262   -0.000238    0.000058
H    -2.735299    5.994164   -2.019848    0.000858   -0.000350   -0.000336
H    -5.758765    0.518159   -3.474836    0.000762    0.001138   -0.000330
H    -2.525531   -3.589396   -3.855666   -0.003468    0.000272   -0.001592
H     2.682714   -5.581222   -2.711565    0.000482    0.000634   -0.001242
H     5.590749   -0.423515   -3.625879   -0.000972    0.001342   -0.000384
H     4.040909    4.226425   -0.662370    0.000014    0.000326    0.001634
H    -1.455076    4.906604    0.978101   -0.000354    0.001760   -0.000752
H    -6.123171    1.403954   -0.236313   -0.001238   -0.001978   -0.000126
H    -3.986839   -4.098356   -0.834171    0.002232   -0.001096    0.002978
H     1.471849   -5.115099    0.483177   -0.000164    0.009430    0.010990
H     5.961026   -1.359755   -0.377773   -0.000332   -0.000126    0.002582
H     1.868582    2.768870    0.919660    0.004726   -0.000758    0.009574
H    -2.083794    2.013036    0.201712   -0.013356    0.013152   -0.008934
H    -3.601269    0.125106    0.904258   -0.005610    0.005454    0.021570
H    -1.669492   -2.973591    0.851823    0.021168   -0.020760    0.031062
H     1.800931   -2.088178    0.254287   -0.001630    0.004718    0.003404
H     3.511605    0.146915    0.638414    0.000406   -0.006536    0.009350
H     4.123808    2.927372    1.938601   -0.002042   -0.001406    0.002348
H     2.899793    3.874884    2.826955    0.001322   -0.001980    0.001098
H    -5.018288   -0.019085    2.941585    0.001234    0.001134    0.001976
H    -4.743419    1.657370    2.419328   -0.001366    0.000740    0.002388
H    -3.932525   -2.989862    1.910409   -0.003832   -0.002666    0.003784
H    -2.780128   -4.128255    2.661996    0.002482    0.005248    0.000796
H     4.740865    0.031152    2.823852   -0.002788   -0.003022    0.001794
H     4.336754   -1.589139    2.205895   -0.006870    0.004778    0.000594
H     3.770780    5.716297    1.754538   -0.001090   -0.000134   -0.000036
H    -7.087724    0.151409    2.005556    0.000044    0.000200    0.000824
H    -3.858613   -5.768343    1.463194   -0.001412    0.000410   -0.000188
H     6.851297   -0.323427    2.030958   -0.001024    0.002158   -0.000628
C     1.030525   -1.276797    3.754532    0.008246    0.003840    0.001294
H     1.651989   -0.658468    4.397222    0.000242    0.008564    0.005892
H     0.344140   -1.906403    4.328417   -0.000462   -0.003532   -0.006330
O     0.395442   -3.742039    2.564252   -0.003528   -0.007098    0.002646
C    -0.901969    0.322642    3.343379    0.001736   -0.005980   -0.007660
H    -1.627790   -0.371082    3.762305    0.008246   -0.006150   -0.002278
H    -0.485547    0.986040    4.103463    0.021170   -0.016006   -0.010272
O    -0.520313    3.007878    2.822502   -0.000010    0.002486    0.000898
C     0.246703   -0.479737    2.680793   -0.004126   -0.046726   -0.016378
O    -0.127938   -1.359558    1.741997    0.048382   -0.044820    0.018736
H    -1.312058   -0.599151    0.426604   -1.228936    0.750542   -1.302102
O    -1.529541   -0.349583   -0.007156    0.062838   -0.031052    0.058458
H    -0.723097    0.135296   -0.577827    0.294596    0.210178    0.009664
O     0.511686    0.992638   -0.660353   -0.022536   -0.014152    0.006084
H     0.824847    0.807237    0.242473    0.003510   -0.026778   -0.000184
O     1.135092    0.508026    2.113133   -0.000464   -0.000312   -0.003306
H     2.016131    0.109802    2.086866   -0.009376   -0.010944   -0.007778
H     0.226889    1.921244   -0.652541   -0.011202   -0.000302    0.000384
H    -2.054352   -1.081003   -0.445098    0.010890   -0.179384    0.167200
139
* Frequency(6) -1276.8900
C     0.722923    4.867713   -0.285365   -0.000874   -0.000990   -0.000138
C    -4.270125    3.235019    0.307071   -0.000990    0.000452   -0.000504
C    -5.024627   -1.854515   -0.420994   -0.000654    0.000920    0.000804
C    -0.786891   -4.981380   -0.608357    0.000628   -0.000310    0.001814
C     4.152277   -3.182265    0.021398   -0.002452    0.000092    0.000406
C     5.110120    1.932314   -0.500950   -0.001582    0.000112   -0.000776
O    -0.176381    3.783521   -0.209761    0.000626   -0.000904   -0.001018
O    -4.224164    2.159385   -0.575038    0.001578   -0.000578    0.001262
O    -3.647917   -2.057797   -0.679519    0.007050    0.003886    0.001772
O     0.115556   -3.906909   -0.517443    0.001868   -0.000094   -0.002546
O     4.020758   -2.003220   -0.715267    0.000812   -0.000304   -0.000732
O     3.752619    2.171659   -0.735842    0.000768   -0.000450   -0.000418
C     1.402331    4.887082   -1.668026   -0.000220    0.000550   -0.000414
C    -3.878246    4.504756   -0.476280   -0.000372    0.000234    0.000148
C    -5.651569   -1.100573   -1.606678    0.000058   -0.000552   -0.000320
C    -1.537067   -4.856705   -1.946904   -0.000578   -0.000084    0.000164
C     3.821162   -4.353913   -0.921862   -0.001272    0.000536   -0.000166
C     5.664511    1.171468   -1.718360    0.000050    0.000280   -0.000338
O     0.473625    4.867107   -2.718206   -0.000056   -0.000496    0.000416
O    -4.712016    4.716876   -1.579842   -0.000126    0.000158   -0.000182
O    -5.541206   -1.799874   -2.814996   -0.000058    0.000004   -0.000116
O    -0.701592   -4.943962   -3.071311    0.000158    0.000150   -0.000022
O     4.646196   -4.366083   -2.053417    0.000146   -0.000138   -0.000356
O     5.560498    1.918931   -2.898113   -0.000064   -0.000196    0.000228
C     2.311081    3.662608   -1.818476    0.000046   -0.000030   -0.000508
C    -2.405773    4.424730   -0.924486    0.000022   -0.000174   -0.000562
C    -4.999203    0.285494   -1.703908    0.000420    0.000252   -0.000782
C    -2.244265   -3.494586   -1.936331   -0.000318    0.000210   -0.000842
C     2.342808   -4.260747   -1.324751   -0.000414    0.000086    0.001500
C     4.900527   -0.157066   -1.832405    0.000000    0.000000   -0.000386
O     3.140745    3.759725   -2.953756    0.000282   -0.000158   -0.000120
O    -1.994047    5.649533   -1.494506    0.000258    0.000414   -0.000348
O    -5.617185    1.073456   -2.691981   -0.000212    0.000382   -0.000444
O    -3.030773   -3.289591   -3.084100    0.000150    0.000872   -0.000050
O     1.954986   -5.373186   -2.101112    0.000216   -0.000316   -0.000442
O     5.431832   -0.976169   -2.843567    0.000006   -0.000036    0.000094
C     3.232734    3.485713   -0.606100   -0.000312    0.000572    0.000220
C    -1.485964    4.079965    0.259828    0.000106    0.001004    0.000844
C    -5.093474    1.046928   -0.373918   -0.000890    0.000746   -0.000404
C    -3.156950   -3.392347   -0.709395    0.000616   -0.000248   -0.000292
C     1.433604   -4.179190   -0.086719   -0.000890    0.003446    0.001752
C     4.953096   -0.947052   -0.517672   -0.000372    0.000288    0.000282
C     2.489786    3.651961    0.731633   -0.000314    0.000542    0.000136
C    -2.055052    2.828762    0.933335    0.000210    0.000460   -0.000076
C    -4.691448    0.172850    0.834272   -0.000790    0.000014   -0.000234
C    -2.402985   -3.745184    0.589713    0.002090    0.001948    0.001812
C     1.927208   -3.031670    0.800026   -0.002498    0.003616    0.001362
C     4.588908   -0.056996    0.685893    0.001018    0.000348    0.000114
O     1.677188    4.822286    0.735221    0.000492    0.000134    0.000722
O    -3.377995    3.063970    1.392007   -0.000170   -0.000614    0.000458
O    -5.229892   -1.153605    0.764069    0.000956   -0.000744    0.000376
O    -1.709748   -4.986099    0.443620   -0.001124   -0.002276   -0.000656
O     3.295768   -3.211782    1.140453   -0.000380   -0.000802    0.000936
O     5.299977    1.179199    0.666836    0.000482   -0.000548    0.000854
C     3.476128    3.805338    1.897428   -0.000210    0.000000   -0.000386
C    -1.265393    2.342832    2.150884    0.001802   -0.000172    0.002492
C    -5.239351    0.721463    2.164753   -0.000004    0.000158    0.000404
C    -3.372770   -3.915897    1.765379    0.000142    0.000454    0.000338
C     1.168384   -2.889961    2.137085   -0.069118    0.102738   -0.025696
C     4.947668   -0.701557    2.034143    0.000312    0.000004   -0.001020
O     4.318367    4.917661    1.739148    0.000164    0.000090   -0.000004
O    -1.574280    1.073066    2.344108    0.000852   -0.002852   -0.001006
O    -6.617616    0.990773    2.109994   -0.000632    0.000208    0.000008
O    -4.324866   -4.923344    1.530717   -0.000314   -0.000264   -0.000430
O     1.887305   -2.066092    2.953685    0.012720    0.002888    0.017176
O     6.289567   -1.111541    2.079998   -0.000124   -0.000034    0.000080
H     0.189044    5.812820   -0.130942    0.001506    0.000066    0.000522
H    -5.263033    3.353838    0.757870   -0.000114    0.003080   -0.000600
H    -5.532355   -2.815293   -0.275909    0.001366    0.001520   -0.001092
H    -0.267391   -5.945473   -0.546362   -0.000532   -0.001702    0.002144
H     5.164343   -3.288771    0.433163   -0.000344    0.000214   -0.001132
H     5.664582    2.865381   -0.339605   -0.000064   -0.000876    0.001594
H     2.023507    5.796275   -1.716824    0.000790    0.000036    0.001686
H    -4.001196    5.370273    0.184070   -0.000052    0.000452    0.000274
H    -6.724036   -0.979989   -1.417793   -0.000082   -0.001472    0.000892
H    -2.284780   -5.661110   -2.000887    0.003288   -0.004246    0.001864
H     3.994947   -5.295619   -0.390682   -0.001338    0.002650    0.003390
H     6.729814    0.966455   -1.568273   -0.000340   -0.000314    0.001810
H    -0.337081    5.340554   -2.452171   -0.000508    0.000550   -0.001254
H    -4.847024    3.872016   -2.041652    0.001030   -0.000908   -0.000598
H    -4.648328   -2.187282   -2.905916    0.000376   -0.001054   -0.002484
H     0.223150   -5.085755   -2.797085   -0.001316    0.002664   -0.000838
H     4.740488   -3.458419   -2.391592   -0.000150    0.001220    0.000608
H     4.709006    2.397775   -2.918860   -0.001322    0.000744   -0.000342
H     1.683968    2.766815   -1.902952    0.003766   -0.001164   -0.003954
H    -2.310866    3.624403   -1.672977   -0.001436    0.003972   -0.004646
H    -3.935309    0.156668   -1.948360   -0.002546    0.002140   -0.009972
H    -1.456034   -2.730214   -1.879528    0.013256   -0.011600   -0.008118
H     2.200931   -3.336399   -1.904680    0.001864   -0.000818    0.000470
H     3.843770    0.066388   -2.042658    0.000390   -0.002334    0.000302
H     2.581613    3.959178   -3.720666   -0.001262   -0.000238    0.000058
H    -2.735259    5.994148   -2.019864    0.000858   -0.000350   -0.000336
H    -5.758729    0.518212   -3.474851    0.000762    0.001138   -0.000330
H    -2.525692   -3.589384   -3.855740   -0.003468    0.000272   -0.001592
H     2.682737   -5.581193   -2.711622    0.000482    0.000634   -0.001242
H     5.590704   -0.423453   -3.625896   -0.000972    0.001342   -0.000384
H     4.040910    4.226440   -0.662295    0.000014    0.000326    0.001634
H    -1.455092    4.906685    0.978066   -0.000354    0.001760   -0.000752
H    -6.123228    1.403863   -0.236319   -0.001238   -0.001978   -0.000126
H    -3.986736   -4.098407   -0.834034    0.002232   -0.001096    0.002978
H     1.471841   -5.114662    0.483686   -0.000164    0.009430    0.010990
H     5.961010   -1.359761   -0.377654   -0.000332   -0.000126    0.002582
H     1.868800    2.768835    0.920103    0.004726   -0.000758    0.009574
H    -2.084413    2.013644    0.201299   -0.013356    0.013152   -0.008934
H    -3.601528    0.125358    0.905256   -0.005610    0.005454    0.021570
H    -1.668512   -2.974552    0.853261    0.021168   -0.020760    0.031062
H     1.800856   -2.087959    0.254445   -0.001630    0.004718    0.003404
H     3.511624    0.146612    0.638846    0.000406   -0.006536    0.009350
H     4.123713    2.927307    1.938710   -0.002042   -0.001406    0.002348
H     2.899855    3.874792    2.827006    0.001322   -0.001980    0.001098
H    -5.018231   -0.019032    2.941676    0.001234    0.001134    0.001976
H    -4.743482    1.657404    2.419438   -0.001366    0.000740    0.002388
H    -3.932702   -2.989986    1.910584   -0.003832   -0.002666    0.003784
H    -2.780013   -4.128012    2.662033    0.002482    0.005248    0.000796
H     4.740736    0.031012    2.823935   -0.002788   -0.003022    0.001794
H     4.336436   -1.588918    2.205923   -0.006870    0.004778    0.000594
H     3.770729    5.716291    1.754537   -0.001090   -0.000134   -0.000036
H    -7.087722    0.151418    2.005595    0.000044    0.000200    0.000824
H    -3.858678   -5.768324    1.463185   -0.001412    0.000410   -0.000188
H     6.851250   -0.323327    2.030929   -0.001024    0.002158   -0.000628
C     1.030907   -1.276619    3.754592    0.008246    0.003840    0.001294
H     1.652000   -0.658071    4.397495    0.000242    0.008564    0.005892
H     0.344118   -1.906566    4.328124   -0.000462   -0.003532   -0.006330
O     0.395279   -3.742367    2.564375   -0.003528   -0.007098    0.002646
C    -0.901889    0.322365    3.343024    0.001736   -0.005980   -0.007660
H    -1.627408   -0.371367    3.762199    0.008246   -0.006150   -0.002278
H    -0.484567    0.985299    4.102988    0.021170   -0.016006   -0.010272
O    -0.520313    3.007993    2.822544   -0.000010    0.002486    0.000898
C     0.246512   -0.481900    2.680035   -0.004126   -0.046726   -0.016378
O    -0.125698   -1.361632    1.742864    0.048382   -0.044820    0.018736
H    -1.368936   -0.564415    0.366341   -1.228936    0.750542   -1.302102
O    -1.526633   -0.351021   -0.004451    0.062838   -0.031052    0.058458
H    -0.709462    0.145023   -0.577380    0.294596    0.210178    0.009664
O     0.510643    0.991983   -0.660072   -0.022536   -0.014152    0.006084
H     0.825010    0.805997    0.242465    0.003510   -0.026778   -0.000184
O     1.135071    0.508011    2.112980   -0.000464   -0.000312   -0.003306
H     2.015697    0.109296    2.086506   -0.009376   -0.010944   -0.007778
H     0.226370    1.921230   -0.652524   -0.011202   -0.000302    0.000384
H    -2.053848   -1.089305   -0.437360    0.010890   -0.179384    0.167200
139
* Frequency(6) -1276.8900
C     0.722915    4.867704   -0.285366   -0.000874   -0.000990   -0.000138
C    -4.270134    3.235024    0.307066   -0.000990    0.000452   -0.000504
C    -5.024633   -1.854506   -0.420987   -0.000654    0.000920    0.000804
C    -0.786885   -4.981383   -0.608339    0.000628   -0.000310    0.001814
C     4.152254   -3.182264    0.021402   -0.002452    0.000092    0.000406
C     5.110105    1.932315   -0.500958   -0.001582    0.000112   -0.000776
O    -0.176375    3.783513   -0.209771    0.000626   -0.000904   -0.001018
O    -4.224149    2.159379   -0.575026    0.001578   -0.000578    0.001262
O    -3.647850   -2.057760   -0.679502    0.007050    0.003886    0.001772
O     0.115574   -3.906910   -0.517467    0.001868   -0.000094   -0.002546
O     4.020765   -2.003223   -0.715274    0.000812   -0.000304   -0.000732
O     3.752626    2.171655   -0.735846    0.000768   -0.000450   -0.000418
C     1.402329    4.887087   -1.668030   -0.000220    0.000550   -0.000414
C    -3.878250    4.504759   -0.476278   -0.000372    0.000234    0.000148
C    -5.651569   -1.100579   -1.606681    0.000058   -0.000552   -0.000320
C    -1.537073   -4.856705   -1.946903   -0.000578   -0.000084    0.000164
C     3.821150   -4.353908   -0.921864   -0.001272    0.000536   -0.000166
C     5.664511    1.171471   -1.718363    0.000050    0.000280   -0.000338
O     0.473624    4.867102   -2.718202   -0.000056   -0.000496    0.000416
O    -4.712017    4.716877   -1.579843   -0.000126    0.000158   -0.000182
O    -5.541206   -1.799874   -2.814997   -0.000058    0.000004   -0.000116
O    -0.701591   -4.943961   -3.071312    0.000158    0.000150   -0.000022
O     4.646197   -4.366084   -2.053420    0.000146   -0.000138   -0.000356
O     5.560498    1.918930   -2.898110   -0.000064   -0.000196    0.000228
C     2.311081    3.662608   -1.818481    0.000046   -0.000030   -0.000508
C    -2.405772    4.424728   -0.924491    0.000022   -0.000174   -0.000562
C    -4.999200    0.285496   -1.703916    0.000420    0.000252   -0.000782
C    -2.244268   -3.494584   -1.936339   -0.000318    0.000210   -0.000842
C     2.342804   -4.260746   -1.324737   -0.000414    0.000086    0.001500
C     4.900527   -0.157066   -1.832409    0.000000    0.000000   -0.000386
O     3.140747    3.759724   -2.953757    0.000282   -0.000158   -0.000120
O    -1.994045    5.649537   -1.494509    0.000258    0.000414   -0.000348
O    -5.617187    1.073459   -2.691985   -0.000212    0.000382   -0.000444
O    -3.030772   -3.289583   -3.084100    0.000150    0.000872   -0.000050
O     1.954988   -5.373189   -2.101116    0.000216   -0.000316   -0.000442
O     5.431832   -0.976170   -2.843566    0.000006   -0.000036    0.000094
C     3.232731    3.485719   -0.606098   -0.000312    0.000572    0.000220
C    -1.485963    4.079974    0.259836    0.000106    0.001004    0.000844
C    -5.093482    1.046935   -0.373922   -0.000890    0.000746   -0.000404
C    -3.156944   -3.392350   -0.709398    0.000616   -0.000248   -0.000292
C     1.433596   -4.179157   -0.086702   -0.000890    0.003446    0.001752
C     4.953092   -0.947050   -0.517670   -0.000372    0.000288    0.000282
C     2.489783    3.651966    0.731634   -0.000314    0.000542    0.000136
C    -2.055050    2.828766    0.933334    0.000210    0.000460   -0.000076
C    -4.691456    0.172850    0.834269   -0.000790    0.000014   -0.000234
C    -2.402965   -3.745166    0.589730    0.002090    0.001948    0.001812
C     1.927185   -3.031636    0.800039   -0.002498    0.003616    0.001362
C     4.588918   -0.056993    0.685894    0.001018    0.000348    0.000114
O     1.677193    4.822288    0.735228    0.000492    0.000134    0.000722
O    -3.377996    3.063964    1.392012   -0.000170   -0.000614    0.000458
O    -5.229883   -1.153613    0.764072    0.000956   -0.000744    0.000376
O    -1.709759   -4.986121    0.443614   -0.001124   -0.002276   -0.000656
O     3.295764   -3.211790    1.140461   -0.000380   -0.000802    0.000936
O     5.299981    1.179194    0.666844    0.000482   -0.000548    0.000854
C     3.476126    3.805338    1.897424   -0.000210    0.000000   -0.000386
C    -1.265375    2.342830    2.150907    0.001802   -0.000172    0.002492
C    -5.239351    0.721464    2.164757   -0.000004    0.000158    0.000404
C    -3.372768   -3.915893    1.765382    0.000142    0.000454    0.000338
C     1.167726   -2.888984    2.136840   -0.069118    0.102738   -0.025696
C     4.947671   -0.701557    2.034133    0.000312    0.000004   -0.001020
O     4.318368    4.917661    1.739148    0.000164    0.000090   -0.000004
O    -1.574272    1.073039    2.344098    0.000852   -0.002852   -0.001006
O    -6.617622    0.990775    2.109994   -0.000632    0.000208    0.000008
O    -4.324869   -4.923346    1.530713   -0.000314   -0.000264   -0.000430
O     1.887426   -2.066065    2.953848    0.012720    0.002888    0.017176
O     6.289566   -1.111541    2.079999   -0.000124   -0.000034    0.000080
H     0.189058    5.812821   -0.130937    0.001506    0.000066    0.000522
H    -5.263034    3.353867    0.757865   -0.000114    0.003080   -0.000600
H    -5.532342   -2.815279   -0.275919    0.001366    0.001520   -0.001092
H    -0.267396   -5.945490   -0.546341   -0.000532   -0.001702    0.002144
H     5.164340   -3.288769    0.433152   -0.000344    0.000214   -0.001132
H     5.664582    2.865372   -0.339590   -0.000064   -0.000876    0.001594
H     2.023515    5.796276   -1.716808    0.000790    0.000036    0.001686
H    -4.001196    5.370278    0.184073   -0.000052    0.000452    0.000274
H    -6.724037   -0.980003   -1.417785   -0.000082   -0.001472    0.000892
H    -2.284749   -5.661150   -2.000869    0.003288   -0.004246    0.001864
H     3.994934   -5.295594   -0.390650   -0.001338    0.002650    0.003390
H     6.729810    0.966452   -1.568256   -0.000340   -0.000314    0.001810
H    -0.337086    5.340559   -2.452183   -0.000508    0.000550   -0.001254
H    -4.847014    3.872007   -2.041658    0.001030   -0.000908   -0.000598
H    -4.648325   -2.187292   -2.905939    0.000376   -0.001054   -0.002484
H     0.223138   -5.085730   -2.797093   -0.001316    0.002664   -0.000838
H     4.740487   -3.458407   -2.391586   -0.000150    0.001220    0.000608
H     4.708994    2.397783   -2.918863   -0.001322    0.000744   -0.000342
H     1.684004    2.766804   -1.902989    0.003766   -0.001164   -0.003954
H    -2.310880    3.624440   -1.673022   -0.001436    0.003972   -0.004646
H    -3.935333    0.156688   -1.948455   -0.002546    0.002140   -0.009972
H    -1.455908   -2.730324   -1.879606    0.013256   -0.011600   -0.008118
H     2.200949   -3.336406   -1.904675    0.001864   -0.000818    0.000470
H     3.843774    0.066366   -2.042655    0.000390   -0.002334    0.000302
H     2.581601    3.959176   -3.720666   -0.001262   -0.000238    0.000058
H    -2.735251    5.994145   -2.019867    0.000858   -0.000350   -0.000336
H    -5.758722    0.518223   -3.474854    0.000762    0.001138   -0.000330
H    -2.525725   -3.589381   -3.855755   -0.003468    0.000272   -0.001592
H     2.682741   -5.581187   -2.711634    0.000482    0.000634   -0.001242
H     5.590695   -0.423440   -3.625900   -0.000972    0.001342   -0.000384
H     4.040910    4.226443   -0.662279    0.000014    0.000326    0.001634
H    -1.455095    4.906702    0.978059   -0.000354    0.001760   -0.000752
H    -6.123240    1.403844   -0.236320   -0.001238   -0.001978   -0.000126
H    -3.986714   -4.098417   -0.834005    0.002232   -0.001096    0.002978
H     1.471840   -5.114573    0.483790   -0.000164    0.009430    0.010990
H     5.961007   -1.359762   -0.377629   -0.000332   -0.000126    0.002582
H     1.868845    2.768828    0.920194    0.004726   -0.000758    0.009574
H    -2.084540    2.013769    0.201214   -0.013356    0.013152   -0.008934
H    -3.601582    0.125410    0.905462   -0.005610    0.005454    0.021570
H    -1.668311   -2.974749    0.853557    0.021168   -0.020760    0.031062
H     1.800840   -2.087914    0.254477   -0.001630    0.004718    0.003404
H     3.511628    0.146550    0.638935    0.000406   -0.006536    0.009350
H     4.123694    2.927294    1.938732   -0.002042   -0.001406    0.002348
H     2.899867    3.874773    2.827016    0.001322   -0.001980    0.001098
H    -5.018220   -0.019021    2.941695    0.001234    0.001134    0.001976
H    -4.743495    1.657411    2.419461   -0.001366    0.000740    0.002388
H    -3.932739   -2.990011    1.910620   -0.003832   -0.002666    0.003784
H    -2.779989   -4.127962    2.662041    0.002482    0.005248    0.000796
H     4.740710    0.030983    2.823952   -0.002788   -0.003022    0.001794
H     4.336371   -1.588872    2.205928   -0.006870    0.004778    0.000594
H     3.770719    5.716289    1.754536   -0.001090   -0.000134   -0.000036
H    -7.087722    0.151420    2.005602    0.000044    0.000200    0.000824
H    -3.858692   -5.768320    1.463183   -0.001412    0.000410   -0.000188
H     6.851240   -0.323306    2.030923   -0.001024    0.002158   -0.000628
C     1.030985   -1.276583    3.754604    0.008246    0.003840    0.001294
H     1.652002   -0.657990    4.397551    0.000242    0.008564    0.005892
H     0.344114   -1.906600    4.328064   -0.000462   -0.003532   -0.006330
O     0.395245   -3.742435    2.564400   -0.003528   -0.007098    0.002646
C    -0.901872    0.322308    3.342951    0.001736   -0.005980   -0.007660
H    -1.627330   -0.371425    3.762177    0.008246   -0.006150   -0.002278
H    -0.484366    0.985147    4.102890    0.021170   -0.016006   -0.010272
O    -0.520313    3.008017    2.822552   -0.000010    0.002486    0.000898
C     0.246473   -0.482344    2.679879   -0.004126   -0.046726   -0.016378
O    -0.125238   -1.362058    1.743042    0.048382   -0.044820    0.018736
H    -1.380628   -0.557274    0.353952   -1.228936    0.750542   -1.302102
O    -1.526035   -0.351316   -0.003895    0.062838   -0.031052    0.058458
H    -0.706660    0.147023   -0.577288    0.294596    0.210178    0.009664
O     0.510428    0.991849   -0.660014   -0.022536   -0.014152    0.006084
H     0.825043    0.805743    0.242463    0.003510   -0.026778   -0.000184
O     1.135066    0.508008    2.112949   -0.000464   -0.000312   -0.003306
H     2.015608    0.109192    2.086432   -0.009376   -0.010944   -0.007778
H     0.226264    1.921227   -0.652520   -0.011202   -0.000302    0.000384
H    -2.053745   -1.091012   -0.435769    0.010890   -0.179384    0.167200
139
* Frequency(6) -1276.8900
C     0.722940    4.867732   -0.285362   -0.000874   -0.000990   -0.000138
C    -4.270106    3.235011    0.307080   -0.000990    0.000452   -0.000504
C    -5.024615   -1.854532   -0.421009   -0.000654    0.000920    0.000804
C    -0.786903   -4.981374   -0.608391    0.000628   -0.000310    0.001814
C     4.152323   -3.182267    0.021390   -0.002452    0.000092    0.000406
C     5.110150    1.932312   -0.500936   -0.001582    0.000112   -0.000776
O    -0.176392    3.783538   -0.209742    0.000626   -0.000904   -0.001018
O    -4.224193    2.159396   -0.575062    0.001578   -0.000578    0.001262
O    -3.648049   -2.057869   -0.679552    0.007050    0.003886    0.001772
O     0.115521   -3.906907   -0.517395    0.001868   -0.000094   -0.002546
O     4.020742   -2.003214   -0.715254    0.000812   -0.000304   -0.000732
O     3.752604    2.171668   -0.735834    0.000768   -0.000450   -0.000418
C     1.402335    4.887071   -1.668019   -0.000220    0.000550   -0.000414
C    -3.878239    4.504752   -0.476283   -0.000372    0.000234    0.000148
C    -5.651570   -1.100563   -1.606672    0.000058   -0.000552   -0.000320
C    -1.537056   -4.856703   -1.946907   -0.000578   -0.000084    0.000164
C     3.821186   -4.353923   -0.921859   -0.001272    0.000536   -0.000166
C     5.664510    1.171463   -1.718353    0.000050    0.000280   -0.000338
O     0.473626    4.867116   -2.718214   -0.000056   -0.000496    0.000416
O    -4.712013    4.716873   -1.579838   -0.000126    0.000158   -0.000182
O    -5.541205   -1.799874   -2.814994   -0.000058    0.000004   -0.000116
O    -0.701595   -4.943965   -3.071311    0.000158    0.000150   -0.000022
O     4.646193   -4.366080   -2.053410    0.000146   -0.000138   -0.000356
O     5.560499    1.918935   -2.898117   -0.000064   -0.000196    0.000228
C     2.311080    3.662608   -1.818467    0.000046   -0.000030   -0.000508
C    -2.405773    4.424733   -0.924475    0.000022   -0.000174   -0.000562
C    -4.999211    0.285489   -1.703894    0.000420    0.000252   -0.000782
C    -2.244259   -3.494590   -1.936315   -0.000318    0.000210   -0.000842
C     2.342815   -4.260748   -1.324779   -0.000414    0.000086    0.001500
C     4.900527   -0.157066   -1.832398    0.000000    0.000000   -0.000386
O     3.140739    3.759728   -2.953753    0.000282   -0.000158   -0.000120
O    -1.994052    5.649526   -1.494500    0.000258    0.000414   -0.000348
O    -5.617181    1.073448   -2.691972   -0.000212    0.000382   -0.000444
O    -3.030776   -3.289608   -3.084099    0.000150    0.000872   -0.000050
O     1.954982   -5.373180   -2.101104    0.000216   -0.000316   -0.000442
O     5.431832   -0.976169   -2.843569    0.000006   -0.000036    0.000094
C     3.232740    3.485702   -0.606104   -0.000312    0.000572    0.000220
C    -1.485966    4.079946    0.259813    0.000106    0.001004    0.000844
C    -5.093457    1.046914   -0.373910   -0.000890    0.000746   -0.000404
C    -3.156962   -3.392342   -0.709390    0.000616   -0.000248   -0.000292
C     1.433621   -4.179254   -0.086751   -0.000890    0.003446    0.001752
C     4.953103   -0.947058   -0.517678   -0.000372    0.000288    0.000282
C     2.489792    3.651951    0.731631   -0.000314    0.000542    0.000136
C    -2.055056    2.828753    0.933337    0.000210    0.000460   -0.000076
C    -4.691433    0.172849    0.834276   -0.000790    0.000014   -0.000234
C    -2.403024   -3.745221    0.589679    0.002090    0.001948    0.001812
C     1.927255   -3.031738    0.800001   -0.002498    0.003616    0.001362
C     4.588889   -0.057002    0.685891    0.001018    0.000348    0.000114
O     1.677179    4.822284    0.735207    0.000492    0.000134    0.000722
O    -3.377991    3.063981    1.391999   -0.000170   -0.000614    0.000458
O    -5.229910   -1.153591    0.764062    0.000956   -0.000744    0.000376
O    -1.709727   -4.986057    0.443633   -0.001124   -0.002276   -0.000656
O     3.295775   -3.211767    1.140435   -0.000380   -0.000802    0.000936
O     5.299967    1.179209    0.666820    0.000482   -0.000548    0.000854
C     3.476132    3.805338    1.897435   -0.000210    0.000000   -0.000386
C    -1.265426    2.342835    2.150837    0.001802   -0.000172    0.002492
C    -5.239351    0.721460    2.164745   -0.000004    0.000158    0.000404
C    -3.372772   -3.915905    1.765372    0.000142    0.000454    0.000338
C     1.169681   -2.891889    2.137567   -0.069118    0.102738   -0.025696
C     4.947662   -0.701557    2.034162    0.000312    0.000004   -0.001020
O     4.318364    4.917659    1.739148    0.000164    0.000090   -0.000004
O    -1.574296    1.073120    2.344127    0.000852   -0.002852   -0.001006
O    -6.617605    0.990769    2.109994   -0.000632    0.000208    0.000008
O    -4.324860   -4.923339    1.530725   -0.000314   -0.000264   -0.000430
O     1.887066   -2.066146    2.953362    0.012720    0.002888    0.017176
O     6.289569   -1.111540    2.079997   -0.000124   -0.000034    0.000080
H     0.189016    5.812819   -0.130952    0.001506    0.000066    0.000522
H    -5.263031    3.353780    0.757882   -0.000114    0.003080   -0.000600
H    -5.532380   -2.815322   -0.275888    0.001366    0.001520   -0.001092
H    -0.267381   -5.945442   -0.546402   -0.000532   -0.001702    0.002144
H     5.164350   -3.288775    0.433184   -0.000344    0.000214   -0.001132
H     5.664583    2.865397   -0.339635   -0.000064   -0.000876    0.001594
H     2.023492    5.796275   -1.716856    0.000790    0.000036    0.001686
H    -4.001195    5.370265    0.184065   -0.000052    0.000452    0.000274
H    -6.724034   -0.979962   -1.417810   -0.000082   -0.001472    0.000892
H    -2.284842   -5.661030   -2.000922    0.003288   -0.004246    0.001864
H     3.994972   -5.295669   -0.390745   -0.001338    0.002650    0.003390
H     6.729820    0.966461   -1.568307   -0.000340   -0.000314    0.001810
H    -0.337072    5.340543   -2.452148   -0.000508    0.000550   -0.001254
H    -4.847043    3.872033   -2.041641    0.001030   -0.000908   -0.000598
H    -4.648335   -2.187262   -2.905869    0.000376   -0.001054   -0.002484
H     0.223175   -5.085805   -2.797070   -0.001316    0.002664   -0.000838
H     4.740491   -3.458442   -2.391603   -0.000150    0.001220    0.000608
H     4.709031    2.397761   -2.918854   -0.001322    0.000744   -0.000342
H     1.683897    2.766837   -1.902877    0.003766   -0.001164   -0.003954
H    -2.310839    3.624328   -1.672890   -0.001436    0.003972   -0.004646
H    -3.935261    0.156628   -1.948173   -0.002546    0.002140   -0.009972
H    -1.456283   -2.729996   -1.879376    0.013256   -0.011600   -0.008118
H     2.200896   -3.336383   -1.904688    0.001864   -0.000818    0.000470
H     3.843763    0.066432   -2.042663    0.000390   -0.002334    0.000302
H     2.581637    3.959183   -3.720667   -0.001262   -0.000238    0.000058
H    -2.735275    5.994155   -2.019858    0.000858   -0.000350   -0.000336
H    -5.758744    0.518191   -3.474845    0.000762    0.001138   -0.000330
H    -2.525627   -3.589389   -3.855710   -0.003468    0.000272   -0.001592
H     2.682727   -5.581205   -2.711599    0.000482    0.000634   -0.001242
H     5.590722   -0.423478   -3.625889   -0.000972    0.001342   -0.000384
H     4.040909    4.226433   -0.662325    0.000014    0.000326    0.001634
H    -1.455085    4.906652    0.978080   -0.000354    0.001760   -0.000752
H    -6.123205    1.403900   -0.236316   -0.001238   -0.001978   -0.000126
H    -3.986778   -4.098386   -0.834089    0.002232   -0.001096    0.002978
H     1.471844   -5.114839    0.483480   -0.000164    0.009430    0.010990
H     5.961017   -1.359758   -0.377702   -0.000332   -0.000126    0.002582
H     1.868712    2.768849    0.919924    0.004726   -0.000758    0.009574
H    -2.084162    2.013397    0.201466   -0.013356    0.013152   -0.008934
H    -3.601423    0.125256    0.904852   -0.005610    0.005454    0.021570
H    -1.668909   -2.974162    0.852678    0.021168   -0.020760    0.031062
H     1.800887   -2.088048    0.254381   -0.001630    0.004718    0.003404
H     3.511616    0.146735    0.638671    0.000406   -0.006536    0.009350
H     4.123751    2.927333    1.938666   -0.002042   -0.001406    0.002348
H     2.899830    3.874829    2.826985    0.001322   -0.001980    0.001098
H    -5.018254   -0.019054    2.941639    0.001234    0.001134    0.001976
H    -4.743457    1.657390    2.419393   -0.001366    0.000740    0.002388
H    -3.932630   -2.989936    1.910513   -0.003832   -0.002666    0.003784
H    -2.780059   -4.128111    2.662018    0.002482    0.005248    0.000796
H     4.740788    0.031068    2.823901   -0.002788   -0.003022    0.001794
H     4.336565   -1.589008    2.205911   -0.006870    0.004778    0.000594
H     3.770750    5.716293    1.754537   -0.001090   -0.000134   -0.000036
H    -7.087723    0.151414    2.005579    0.000044    0.000200    0.000824
H    -3.858652   -5.768332    1.463189   -0.001412    0.000410   -0.000188
H     6.851269   -0.323367    2.030941   -0.001024    0.002158   -0.000628
C     1.030752   -1.276691    3.754568    0.008246    0.003840    0.001294
H     1.651996   -0.658232    4.397385    0.000242    0.008564    0.005892
H     0.344127   -1.906500    4.328243   -0.000462   -0.003532   -0.006330
O     0.395345   -3.742234    2.564325   -0.003528   -0.007098    0.002646
C    -0.901922    0.322477    3.343168    0.001736   -0.005980   -0.007660
H    -1.627563   -0.371251    3.762242    0.008246   -0.006150   -0.002278
H    -0.484965    0.985600    4.103181    0.021170   -0.016006   -0.010272
O    -0.520313    3.007947    2.822527   -0.000010    0.002486    0.000898
C     0.246590   -0.481023    2.680343   -0.004126   -0.046726   -0.016378
O    -0.126607   -1.360791    1.742512    0.048382   -0.044820    0.018736
H    -1.345869   -0.578502    0.390780   -1.228936    0.750542   -1.302102
O    -1.527812   -0.350438   -0.005548    0.062838   -0.031052    0.058458
H    -0.714992    0.141078   -0.577561    0.294596    0.210178    0.009664
O     0.511066    0.992249   -0.660186   -0.022536   -0.014152    0.006084
H     0.824944    0.806500    0.242468    0.003510   -0.026778   -0.000184
O     1.135079    0.508017    2.113042   -0.000464   -0.000312   -0.003306
H     2.015873    0.109501    2.086652   -0.009376   -0.010944   -0.007778
H     0.226581    1.921235   -0.652531   -0.011202   -0.000302    0.000384
H    -2.054053   -1.085938   -0.440498    0.010890   -0.179384    0.167200
139
* Frequency(6) -1276.8900
C     0.722995    4.867794   -0.285354   -0.000874   -0.000990   -0.000138
C    -4.270044    3.234982    0.307112   -0.000990    0.000452   -0.000504
C    -5.024573   -1.854590   -0.421060   -0.000654    0.000920    0.000804
C    -0.786942   -4.981355   -0.608505    0.000628   -0.000310    0.001814
C     4.152478   -3.182272    0.021365   -0.002452    0.000092    0.000406
C     5.110250    1.932305   -0.500887   -0.001582    0.000112   -0.000776
O    -0.176432    3.783595   -0.209678    0.000626   -0.000904   -0.001018
O    -4.224293    2.159432   -0.575141    0.001578   -0.000578    0.001262
O    -3.648494   -2.058114   -0.679664    0.007050    0.003886    0.001772
O     0.115403   -3.906901   -0.517235    0.001868   -0.000094   -0.002546
O     4.020691   -2.003195   -0.715207    0.000812   -0.000304   -0.000732
O     3.752556    2.171696   -0.735808    0.000768   -0.000450   -0.000418
C     1.402349    4.887037   -1.667993   -0.000220    0.000550   -0.000414
C    -3.878216    4.504737   -0.476292   -0.000372    0.000234    0.000148
C    -5.651574   -1.100528   -1.606651    0.000058   -0.000552   -0.000320
C    -1.537020   -4.856698   -1.946918   -0.000578   -0.000084    0.000164
C     3.821266   -4.353957   -0.921849   -0.001272    0.000536   -0.000166
C     5.664507    1.171445   -1.718332    0.000050    0.000280   -0.000338
O     0.473630    4.867147   -2.718240   -0.000056   -0.000496    0.000416
O    -4.712005    4.716863   -1.579827   -0.000126    0.000158   -0.000182
O    -5.541201   -1.799874   -2.814987   -0.000058    0.000004   -0.000116
O    -0.701605   -4.943974   -3.071310    0.000158    0.000150   -0.000022
O     4.646184   -4.366072   -2.053388    0.000146   -0.000138   -0.000356
O     5.560504    1.918948   -2.898131   -0.000064   -0.000196    0.000228
C     2.311077    3.662610   -1.818435    0.000046   -0.000030   -0.000508
C    -2.405774    4.424744   -0.924440    0.000022   -0.000174   -0.000562
C    -4.999238    0.285473   -1.703844    0.000420    0.000252   -0.000782
C    -2.244239   -3.494603   -1.936262   -0.000318    0.000210   -0.000842
C     2.342841   -4.260754   -1.324874   -0.000414    0.000086    0.001500
C     4.900527   -0.157066   -1.832373    0.000000    0.000000   -0.000386
O     3.140722    3.759738   -2.953746    0.000282   -0.000158   -0.000120
O    -1.994069    5.649500   -1.494478    0.000258    0.000414   -0.000348
O    -5.617168    1.073424   -2.691944   -0.000212    0.000382   -0.000444
O    -3.030785   -3.289662   -3.084096    0.000150    0.000872   -0.000050
O     1.954969   -5.373160   -2.101076    0.000216   -0.000316   -0.000442
O     5.431832   -0.976166   -2.843575    0.000006   -0.000036    0.000094
C     3.232760    3.485666   -0.606118   -0.000312    0.000572    0.000220
C    -1.485973    4.079883    0.259759    0.000106    0.001004    0.000844
C    -5.093401    1.046867   -0.373885   -0.000890    0.000746   -0.000404
C    -3.157000   -3.392327   -0.709371    0.000616   -0.000248   -0.000292
C     1.433677   -4.179472   -0.086862   -0.000890    0.003446    0.001752
C     4.953126   -0.947076   -0.517695   -0.000372    0.000288    0.000282
C     2.489812    3.651917    0.731622   -0.000314    0.000542    0.000136
C    -2.055069    2.828724    0.933341    0.000210    0.000460   -0.000076
C    -4.691383    0.172849    0.834291   -0.000790    0.000014   -0.000234
C    -2.403156   -3.745343    0.589565    0.002090    0.001948    0.001812
C     1.927413   -3.031966    0.799915   -0.002498    0.003616    0.001362
C     4.588825   -0.057024    0.685883    0.001018    0.000348    0.000114
O     1.677148    4.822276    0.735162    0.000492    0.000134    0.000722
O    -3.377981    3.064020    1.391970   -0.000170   -0.000614    0.000458
O    -5.229970   -1.153545    0.764038    0.000956   -0.000744    0.000376
O    -1.709656   -4.985913    0.443674   -0.001124   -0.002276   -0.000656
O     3.295799   -3.211717    1.140376   -0.000380   -0.000802    0.000936
O     5.299937    1.179244    0.666766    0.000482   -0.000548    0.000854
C     3.476145    3.805338    1.897460   -0.000210    0.000000   -0.000386
C    -1.265540    2.342846    2.150680    0.001802   -0.000172    0.002492
C    -5.239351    0.721450    2.164720   -0.000004    0.000158    0.000404
C    -3.372781   -3.915934    1.765351    0.000142    0.000454    0.000338
C     1.174037   -2.898364    2.139186   -0.069118    0.102738   -0.025696
C     4.947642   -0.701557    2.034226    0.000312    0.000004   -0.001020
O     4.318353    4.917653    1.739148    0.000164    0.000090   -0.000004
O    -1.574350    1.073300    2.344190    0.000852   -0.002852   -0.001006
O    -6.617565    0.990756    2.109993   -0.000632    0.000208    0.000008
O    -4.324840   -4.923322    1.530752   -0.000314   -0.000264   -0.000430
O     1.886264   -2.066328    2.952280    0.012720    0.002888    0.017176
O     6.289577   -1.111538    2.079992   -0.000124   -0.000034    0.000080
H     0.188921    5.812815   -0.130985    0.001506    0.000066    0.000522
H    -5.263023    3.353586    0.757919   -0.000114    0.003080   -0.000600
H    -5.532466   -2.815418   -0.275819    0.001366    0.001520   -0.001092
H    -0.267347   -5.945334   -0.546537   -0.000532   -0.001702    0.002144
H     5.164371   -3.288789    0.433256   -0.000344    0.000214   -0.001132
H     5.664588    2.865452   -0.339736   -0.000064   -0.000876    0.001594
H     2.023442    5.796272   -1.716962    0.000790    0.000036    0.001686
H    -4.001191    5.370236    0.184048   -0.000052    0.000452    0.000274
H    -6.724029   -0.979869   -1.417866   -0.000082   -0.001472    0.000892
H    -2.285049   -5.660762   -2.001039    0.003288   -0.004246    0.001864
H     3.995056   -5.295836   -0.390959   -0.001338    0.002650    0.003390
H     6.729841    0.966481   -1.568421   -0.000340   -0.000314    0.001810
H    -0.337040    5.340509   -2.452069   -0.000508    0.000550   -0.001254
H    -4.847108    3.872090   -2.041603    0.001030   -0.000908   -0.000598
H    -4.648359   -2.187195   -2.905713    0.000376   -0.001054   -0.002484
H     0.223258   -5.085973   -2.797017   -0.001316    0.002664   -0.000838
H     4.740500   -3.458519   -2.391641   -0.000150    0.001220    0.000608
H     4.709115    2.397715   -2.918832   -0.001322    0.000744   -0.000342
H     1.683660    2.766910   -1.902628    0.003766   -0.001164   -0.003954
H    -2.310749    3.624078   -1.672597   -0.001436    0.003972   -0.004646
H    -3.935101    0.156493   -1.947545   -0.002546    0.002140   -0.009972
H    -1.457119   -2.729265   -1.878864    0.013256   -0.011600   -0.008118
H     2.200779   -3.336332   -1.904718    0.001864   -0.000818    0.000470
H     3.843738    0.066579   -2.042682    0.000390   -0.002334    0.000302
H     2.581716    3.959198   -3.720671   -0.001262   -0.000238    0.000058
H    -2.735329    5.994177   -2.019837    0.000858   -0.000350   -0.000336
H    -5.758792    0.518119   -3.474824    0.000762    0.001138   -0.000330
H    -2.525408   -3.589406   -3.855610   -0.003468    0.000272   -0.001592
H     2.682697   -5.581245   -2.711521    0.000482    0.000634   -0.001242
H     5.590784   -0.423562   -3.625865   -0.000972    0.001342   -0.000384
H     4.040909    4.226413   -0.662428    0.000014    0.000326    0.001634
H    -1.455063    4.906541    0.978127   -0.000354    0.001760   -0.000752
H    -6.123127    1.404025   -0.236308   -0.001238   -0.001978   -0.000126
H    -3.986918   -4.098317   -0.834277    0.002232   -0.001096    0.002978
H     1.471855   -5.115434    0.482787   -0.000164    0.009430    0.010990
H     5.961038   -1.359750   -0.377865   -0.000332   -0.000126    0.002582
H     1.868414    2.768897    0.919320    0.004726   -0.000758    0.009574
H    -2.083320    2.012569    0.202029   -0.013356    0.013152   -0.008934
H    -3.601070    0.124912    0.903492   -0.005610    0.005454    0.021570
H    -1.670243   -2.972854    0.850721    0.021168   -0.020760    0.031062
H     1.800989   -2.088345    0.254167   -0.001630    0.004718    0.003404
H     3.511591    0.147147    0.638082    0.000406   -0.006536    0.009350
H     4.123880    2.927422    1.938518   -0.002042   -0.001406    0.002348
H     2.899746    3.874954    2.826916    0.001322   -0.001980    0.001098
H    -5.018332   -0.019125    2.941515    0.001234    0.001134    0.001976
H    -4.743371    1.657344    2.419243   -0.001366    0.000740    0.002388
H    -3.932389   -2.989768    1.910274   -0.003832   -0.002666    0.003784
H    -2.780216   -4.128442    2.661968    0.002482    0.005248    0.000796
H     4.740964    0.031259    2.823788   -0.002788   -0.003022    0.001794
H     4.336998   -1.589309    2.205874   -0.006870    0.004778    0.000594
H     3.770818    5.716301    1.754540   -0.001090   -0.000134   -0.000036
H    -7.087726    0.151402    2.005527    0.000044    0.000200    0.000824
H    -3.858563   -5.768357    1.463201   -0.001412    0.000410   -0.000188
H     6.851333   -0.323503    2.030980   -0.001024    0.002158   -0.000628
C     1.030232   -1.276933    3.754486    0.008246    0.003840    0.001294
H     1.651980   -0.658772    4.397013    0.000242    0.008564    0.005892
H     0.344156   -1.906278    4.328642   -0.000462   -0.003532   -0.006330
O     0.395568   -3.741787    2.564158   -0.003528   -0.007098    0.002646
C    -0.902031    0.322854    3.343651    0.001736   -0.005980   -0.007660
H    -1.628083   -0.370864    3.762385    0.008246   -0.006150   -0.002278
H    -0.486299    0.986608    4.103828    0.021170   -0.016006   -0.010272
O    -0.520313    3.007790    2.822470   -0.000010    0.002486    0.000898
C     0.246850   -0.478078    2.681375   -0.004126   -0.046726   -0.016378
O    -0.129655   -1.357966    1.741332    0.048382   -0.044820    0.018736
H    -1.268425   -0.625799    0.472835   -1.228936    0.750542   -1.302102
O    -1.531772   -0.348481   -0.009232    0.062838   -0.031052    0.058458
H    -0.733557    0.127834   -0.578170    0.294596    0.210178    0.009664
O     0.512486    0.993141   -0.660569   -0.022536   -0.014152    0.006084
H     0.824723    0.808188    0.242480    0.003510   -0.026778   -0.000184
O     1.135109    0.508037    2.113251   -0.000464   -0.000312   -0.003306
H     2.016464    0.110191    2.087142   -0.009376   -0.010944   -0.007778
H     0.227286    1.921254   -0.652555   -0.011202   -0.000302    0.000384
H    -2.054739   -1.074634   -0.451034    0.010890   -0.179384    0.167200
139
* Frequency(6) -1276.8900
C     0.723074    4.867884   -0.285341   -0.000874   -0.000990   -0.000138
C    -4.269954    3.234941    0.307158   -0.000990    0.000452   -0.000504
C    -5.024514   -1.854674   -0.421133   -0.000654    0.000920    0.000804
C    -0.786999   -4.981327   -0.608670    0.000628   -0.000310    0.001814
C     4.152701   -3.182281    0.021328   -0.002452    0.000092    0.000406
C     5.110393    1.932295   -0.500816   -0.001582    0.000112   -0.000776
O    -0.176489    3.783677   -0.209586    0.000626   -0.000904   -0.001018
O    -4.224436    2.159485   -0.575256    0.001578   -0.000578    0.001262
O    -3.649135   -2.058468   -0.679825    0.007050    0.003886    0.001772
O     0.115233   -3.906893   -0.517003    0.001868   -0.000094   -0.002546
O     4.020617   -2.003168   -0.715141    0.000812   -0.000304   -0.000732
O     3.752486    2.171737   -0.735770    0.000768   -0.000450   -0.000418
C     1.402369    4.886987   -1.667955   -0.000220    0.000550   -0.000414
C    -3.878182    4.504716   -0.476305   -0.000372    0.000234    0.000148
C    -5.651579   -1.100478   -1.606622    0.000058   -0.000552   -0.000320
C    -1.536967   -4.856690   -1.946933   -0.000578   -0.000084    0.000164
C     3.821382   -4.354006   -0.921834   -0.001272    0.000536   -0.000166
C     5.664502    1.171420   -1.718301    0.000050    0.000280   -0.000338
O     0.473635    4.867192   -2.718278   -0.000056   -0.000496    0.000416
O    -4.711994    4.716848   -1.579810   -0.000126    0.000158   -0.000182
O    -5.541196   -1.799874   -2.814976   -0.000058    0.000004   -0.000116
O    -0.701620   -4.943988   -3.071308    0.000158    0.000150   -0.000022
O     4.646170   -4.366059   -2.053355    0.000146   -0.000138   -0.000356
O     5.560509    1.918965   -2.898152   -0.000064   -0.000196    0.000228
C     2.311073    3.662613   -1.818389    0.000046   -0.000030   -0.000508
C    -2.405776    4.424760   -0.924389    0.000022   -0.000174   -0.000562
C    -4.999276    0.285450   -1.703773    0.000420    0.000252   -0.000782
C    -2.244210   -3.494622   -1.936185   -0.000318    0.000210   -0.000842
C     2.342879   -4.260762   -1.325010   -0.000414    0.000086    0.001500
C     4.900527   -0.157066   -1.832338    0.000000    0.000000   -0.000386
O     3.140696    3.759753   -2.953735    0.000282   -0.000158   -0.000120
O    -1.994092    5.649462   -1.494446    0.000258    0.000414   -0.000348
O    -5.617148    1.073390   -2.691904   -0.000212    0.000382   -0.000444
O    -3.030799   -3.289742   -3.084091    0.000150    0.000872   -0.000050
O     1.954949   -5.373132   -2.101036    0.000216   -0.000316   -0.000442
O     5.431831   -0.976163   -2.843583    0.000006   -0.000036    0.000094
C     3.232788    3.485614   -0.606138   -0.000312    0.000572    0.000220
C    -1.485982    4.079791    0.259683    0.000106    0.001004    0.000844
C    -5.093320    1.046799   -0.373848   -0.000890    0.000746   -0.000404
C    -3.157056   -3.392304   -0.709345    0.000616   -0.000248   -0.000292
C     1.433758   -4.179785   -0.087021   -0.000890    0.003446    0.001752
C     4.953160   -0.947102   -0.517721   -0.000372    0.000288    0.000282
C     2.489841    3.651867    0.731610   -0.000314    0.000542    0.000136
C    -2.055088    2.828683    0.933348    0.000210    0.000460   -0.000076
C    -4.691312    0.172847    0.834312   -0.000790    0.000014   -0.000234
C    -2.403346   -3.745520    0.589400    0.002090    0.001948    0.001812
C     1.927640   -3.032295    0.799791   -0.002498    0.003616    0.001362
C     4.588733   -0.057056    0.685873    0.001018    0.000348    0.000114
O     1.677103    4.822263    0.735096    0.000492    0.000134    0.000722
O    -3.377965    3.064076    1.391928   -0.000170   -0.000614    0.000458
O    -5.230057   -1.153477    0.764004    0.000956   -0.000744    0.000376
O    -1.709554   -4.985706    0.443734   -0.001124   -0.002276   -0.000656
O     3.295834   -3.211644    1.140291   -0.000380   -0.000802    0.000936
O     5.299893    1.179294    0.666688    0.000482   -0.000548    0.000854
C     3.476164    3.805338    1.897495   -0.000210    0.000000   -0.000386
C    -1.265704    2.342861    2.150453    0.001802   -0.000172    0.002492
C    -5.239351    0.721435    2.164683   -0.000004    0.000158    0.000404
C    -3.372794   -3.915975    1.765320    0.000142    0.000454    0.000338
C     1.180321   -2.907705    2.141523   -0.069118    0.102738   -0.025696
C     4.947614   -0.701557    2.034319    0.000312    0.000004   -0.001020
O     4.318338    4.917645    1.739148    0.000164    0.000090   -0.000004
O    -1.574427    1.073559    2.344281    0.000852   -0.002852   -0.001006
O    -6.617507    0.990737    2.109992   -0.000632    0.000208    0.000008
O    -4.324811   -4.923298    1.530791   -0.000314   -0.000264   -0.000430
O     1.885108   -2.066591    2.950718    0.012720    0.002888    0.017176
O     6.289588   -1.111535    2.079984   -0.000124   -0.000034    0.000080
H     0.188784    5.812809   -0.131032    0.001506    0.000066    0.000522
H    -5.263013    3.353306    0.757974   -0.000114    0.003080   -0.000600
H    -5.532590   -2.815556   -0.275720    0.001366    0.001520   -0.001092
H    -0.267299   -5.945180   -0.546732   -0.000532   -0.001702    0.002144
H     5.164403   -3.288808    0.433358   -0.000344    0.000214   -0.001132
H     5.664593    2.865532   -0.339880   -0.000064   -0.000876    0.001594
H     2.023371    5.796269   -1.717115    0.000790    0.000036    0.001686
H    -4.001187    5.370195    0.184023   -0.000052    0.000452    0.000274
H    -6.724022   -0.979735   -1.417947   -0.000082   -0.001472    0.000892
H    -2.285348   -5.660376   -2.001208    0.003288   -0.004246    0.001864
H     3.995178   -5.296077   -0.391267   -0.001338    0.002650    0.003390
H     6.729872    0.966510   -1.568585   -0.000340   -0.000314    0.001810
H    -0.336994    5.340459   -2.451955   -0.000508    0.000550   -0.001254
H    -4.847201    3.872173   -2.041549    0.001030   -0.000908   -0.000598
H    -4.648393   -2.187100   -2.905487    0.000376   -0.001054   -0.002484
H     0.223378   -5.086215   -2.796941   -0.001316    0.002664   -0.000838
H     4.740514   -3.458630   -2.391697   -0.000150    0.001220    0.000608
H     4.709235    2.397647   -2.918801   -0.001322    0.000744   -0.000342
H     1.683317    2.767016   -1.902269    0.003766   -0.001164   -0.003954
H    -2.310618    3.623717   -1.672175   -0.001436    0.003972   -0.004646
H    -3.934869    0.156298   -1.946638   -0.002546    0.002140   -0.009972
H    -1.458324   -2.728210   -1.878126    0.013256   -0.011600   -0.008118
H     2.200610   -3.336257   -1.904761    0.001864   -0.000818    0.000470
H     3.843703    0.066791   -2.042710    0.000390   -0.002334    0.000302
H     2.581831    3.959219   -3.720676   -0.001262   -0.000238    0.000058
H    -2.735407    5.994209   -2.019806    0.000858   -0.000350   -0.000336
H    -5.758861    0.518016   -3.474794    0.000762    0.001138   -0.000330
H    -2.525093   -3.589431   -3.855465   -0.003468    0.000272   -0.001592
H     2.682653   -5.581302   -2.711408    0.000482    0.000634   -0.001242
H     5.590872   -0.423684   -3.625830   -0.000972    0.001342   -0.000384
H     4.040907    4.226383   -0.662577    0.000014    0.000326    0.001634
H    -1.455031    4.906381    0.978196   -0.000354    0.001760   -0.000752
H    -6.123014    1.404205   -0.236297   -0.001238   -0.001978   -0.000126
H    -3.987121   -4.098218   -0.834548    0.002232   -0.001096    0.002978
H     1.471870   -5.116291    0.481788   -0.000164    0.009430    0.010990
H     5.961068   -1.359739   -0.378100   -0.000332   -0.000126    0.002582
H     1.867984    2.768966    0.918450    0.004726   -0.000758    0.009574
H    -2.082106    2.011373    0.202842   -0.013356    0.013152   -0.008934
H    -3.600560    0.124417    0.901531   -0.005610    0.005454    0.021570
H    -1.672168   -2.970966    0.847896    0.021168   -0.020760    0.031062
H     1.801137   -2.088774    0.253857   -0.001630    0.004718    0.003404
H     3.511554    0.147741    0.637232    0.000406   -0.006536    0.009350
H     4.124066    2.927550    1.938304   -0.002042   -0.001406    0.002348
H     2.899626    3.875134    2.826816    0.001322   -0.001980    0.001098
H    -5.018444   -0.019228    2.941335    0.001234    0.001134    0.001976
H    -4.743247    1.657276    2.419026   -0.001366    0.000740    0.002388
H    -3.932040   -2.989525    1.909930   -0.003832   -0.002666    0.003784
H    -2.780442   -4.128919    2.661896    0.002482    0.005248    0.000796
H     4.741218    0.031534    2.823625   -0.002788   -0.003022    0.001794
H     4.337623   -1.589743    2.205820   -0.006870    0.004778    0.000594
H     3.770917    5.716314    1.754543   -0.001090   -0.000134   -0.000036
H    -7.087730    0.151383    2.005452    0.000044    0.000200    0.000824
H    -3.858434   -5.768395    1.463218   -0.001412    0.000410   -0.000188
H     6.851426   -0.323700    2.031037   -0.001024    0.002158   -0.000628
C     1.029483   -1.277282    3.754369    0.008246    0.003840    0.001294
H     1.651958   -0.659550    4.396477    0.000242    0.008564    0.005892
H     0.344198   -1.905956    4.329218   -0.000462   -0.003532   -0.006330
O     0.395888   -3.741141    2.563918   -0.003528   -0.007098    0.002646
C    -0.902189    0.323398    3.344347    0.001736   -0.005980   -0.007660
H    -1.628832   -0.370304    3.762593    0.008246   -0.006150   -0.002278
H    -0.488223    0.988064    4.104762    0.021170   -0.016006   -0.010272
O    -0.520312    3.007564    2.822389   -0.000010    0.002486    0.000898
C     0.247225   -0.473830    2.682864   -0.004126   -0.046726   -0.016378
O    -0.134054   -1.353891    1.739628    0.048382   -0.044820    0.018736
H    -1.156688   -0.694040    0.591225   -1.228936    0.750542   -1.302102
O    -1.537485   -0.345658   -0.014547    0.062838   -0.031052    0.058458
H    -0.760342    0.108724   -0.579049    0.294596    0.210178    0.009664
O     0.514535    0.994428   -0.661123   -0.022536   -0.014152    0.006084
H     0.824404    0.810622    0.242496    0.003510   -0.026778   -0.000184
O     1.135151    0.508065    2.113551   -0.000464   -0.000312   -0.003306
H     2.017316    0.111186    2.087849   -0.009376   -0.010944   -0.007778
H     0.228305    1.921282   -0.652590   -0.011202   -0.000302    0.000384
H    -2.055729   -1.058324   -0.466237    0.010890   -0.179384    0.167200
139
* Frequency(6) -1276.8900
C     0.723170    4.867992   -0.285326   -0.000874   -0.000990   -0.000138
C    -4.269846    3.234892    0.307213   -0.000990    0.000452   -0.000504
C    -5.024443   -1.854774   -0.421221   -0.000654    0.000920    0.000804
C    -0.787068   -4.981293   -0.608867    0.000628   -0.000310    0.001814
C     4.152968   -3.182291    0.021283   -0.002452    0.000092    0.000406
C     5.110566    1.932282   -0.500732   -0.001582    0.000112   -0.000776
O    -0.176557    3.783776   -0.209475    0.000626   -0.000904   -0.001018
O    -4.224608    2.159548   -0.575393    0.001578   -0.000578    0.001262
O    -3.649903   -2.058891   -0.680018    0.007050    0.003886    0.001772
O     0.115030   -3.906882   -0.516726    0.001868   -0.000094   -0.002546
O     4.020529   -2.003135   -0.715061    0.000812   -0.000304   -0.000732
O     3.752402    2.171786   -0.735724    0.000768   -0.000450   -0.000418
C     1.402393    4.886927   -1.667910   -0.000220    0.000550   -0.000414
C    -3.878141    4.504690   -0.476321   -0.000372    0.000234    0.000148
C    -5.651586   -1.100418   -1.606587    0.000058   -0.000552   -0.000320
C    -1.536904   -4.856681   -1.946951   -0.000578   -0.000084    0.000164
C     3.821521   -4.354064   -0.921816   -0.001272    0.000536   -0.000166
C     5.664497    1.171389   -1.718264    0.000050    0.000280   -0.000338
O     0.473641    4.867246   -2.718323   -0.000056   -0.000496    0.000416
O    -4.711980    4.716831   -1.579790   -0.000126    0.000158   -0.000182
O    -5.541189   -1.799875   -2.814964   -0.000058    0.000004   -0.000116
O    -0.701637   -4.944004   -3.071305    0.000158    0.000150   -0.000022
O     4.646154   -4.366044   -2.053317    0.000146   -0.000138   -0.000356
O     5.560516    1.918987   -2.898177   -0.000064   -0.000196    0.000228
C     2.311068    3.662616   -1.818333    0.000046   -0.000030   -0.000508
C    -2.405779    4.424779   -0.924327    0.000022   -0.000174   -0.000562
C    -4.999322    0.285423   -1.703688    0.000420    0.000252   -0.000782
C    -2.244175   -3.494645   -1.936094   -0.000318    0.000210   -0.000842
C     2.342924   -4.260771   -1.325174   -0.000414    0.000086    0.001500
C     4.900527   -0.157066   -1.832296    0.000000    0.000000   -0.000386
O     3.140665    3.759770   -2.953722    0.000282   -0.000158   -0.000120
O    -1.994120    5.649417   -1.494408    0.000258    0.000414   -0.000348
O    -5.617125    1.073348   -2.691856   -0.000212    0.000382   -0.000444
O    -3.030815   -3.289837   -3.084086    0.000150    0.000872   -0.000050
O     1.954925   -5.373097   -2.100987    0.000216   -0.000316   -0.000442
O     5.431830   -0.976159   -2.843594    0.000006   -0.000036    0.000094
C     3.232822    3.485552   -0.606162   -0.000312    0.000572    0.000220
C    -1.485994    4.079682    0.259591    0.000106    0.001004    0.000844
C    -5.093223    1.046718   -0.373804   -0.000890    0.000746   -0.000404
C    -3.157124   -3.392277   -0.709313    0.000616   -0.000248   -0.000292
C     1.433855   -4.180160   -0.087212   -0.000890    0.003446    0.001752
C     4.953201   -0.947133   -0.517752   -0.000372    0.000288    0.000282
C     2.489875    3.651808    0.731595   -0.000314    0.000542    0.000136
C    -2.055111    2.828632    0.933357    0.000210    0.000460   -0.000076
C    -4.691226    0.172846    0.834338   -0.000790    0.000014   -0.000234
C    -2.403574   -3.745733    0.589202    0.002090    0.001948    0.001812
C     1.927912   -3.032689    0.799642   -0.002498    0.003616    0.001362
C     4.588622   -0.057094    0.685861    0.001018    0.000348    0.000114
O     1.677049    4.822249    0.735018    0.000492    0.000134    0.000722
O    -3.377947    3.064143    1.391878   -0.000170   -0.000614    0.000458
O    -5.230161   -1.153396    0.763963    0.000956   -0.000744    0.000376
O    -1.709432   -4.985458    0.443805   -0.001124   -0.002276   -0.000656
O     3.295875   -3.211556    1.140189   -0.000380   -0.000802    0.000936
O     5.299841    1.179353    0.666595    0.000482   -0.000548    0.000854
C     3.476187    3.805338    1.897537   -0.000210    0.000000   -0.000386
C    -1.265900    2.342880    2.150182    0.001802   -0.000172    0.002492
C    -5.239350    0.721418    2.164639   -0.000004    0.000158    0.000404
C    -3.372810   -3.916025    1.765283    0.000142    0.000454    0.000338
C     1.187853   -2.918900    2.144323   -0.069118    0.102738   -0.025696
C     4.947580   -0.701558    2.034430    0.000312    0.000004   -0.001020
O     4.318320    4.917635    1.739149    0.000164    0.000090   -0.000004
O    -1.574520    1.073870    2.344391    0.000852   -0.002852   -0.001006
O    -6.617438    0.990714    2.109991   -0.000632    0.000208    0.000008
O    -4.324777   -4.923269    1.530838   -0.000314   -0.000264   -0.000430
O     1.883722   -2.066906    2.948846    0.012720    0.002888    0.017176
O     6.289602   -1.111531    2.079976   -0.000124   -0.000034    0.000080
H     0.188620    5.812802   -0.131089    0.001506    0.000066    0.000522
H    -5.263001    3.352970    0.758039   -0.000114    0.003080   -0.000600
H    -5.532739   -2.815721   -0.275601    0.001366    0.001520   -0.001092
H    -0.267241   -5.944994   -0.546965   -0.000532   -0.001702    0.002144
H     5.164440   -3.288832    0.433482   -0.000344    0.000214   -0.001132
H     5.664600    2.865628   -0.340054   -0.000064   -0.000876    0.001594
H     2.023285    5.796265   -1.717299    0.000790    0.000036    0.001686
H    -4.001181    5.370146    0.183993   -0.000052    0.000452    0.000274
H    -6.724013   -0.979575   -1.418045   -0.000082   -0.001472    0.000892
H    -2.285707   -5.659914   -2.001412    0.003288   -0.004246    0.001864
H     3.995324   -5.296365   -0.391637   -0.001338    0.002650    0.003390
H     6.729909    0.966544   -1.568783   -0.000340   -0.000314    0.001810
H    -0.336938    5.340399   -2.451818   -0.000508    0.000550   -0.001254
H    -4.847314    3.872272   -2.041483    0.001030   -0.000908   -0.000598
H    -4.648434   -2.186985   -2.905216    0.000376   -0.001054   -0.002484
H     0.223521   -5.086506   -2.796849   -0.001316    0.002664   -0.000838
H     4.740530   -3.458763   -2.391763   -0.000150    0.001220    0.000608
H     4.709379    2.397566   -2.918764   -0.001322    0.000744   -0.000342
H     1.682907    2.767143   -1.901838    0.003766   -0.001164   -0.003954
H    -2.310462    3.623284   -1.671669   -0.001436    0.003972   -0.004646
H    -3.934592    0.156065   -1.945551   -0.002546    0.002140   -0.009972
H    -1.459768   -2.726946   -1.877242    0.013256   -0.011600   -0.008118
H     2.200406   -3.336168   -1.904812    0.001864   -0.000818    0.000470
H     3.843660    0.067046   -2.042743    0.000390   -0.002334    0.000302
H     2.581968    3.959245   -3.720683   -0.001262   -0.000238    0.000058
H    -2.735501    5.994247   -2.019769    0.000858   -0.000350   -0.000336
H    -5.758944    0.517892   -3.474758    0.000762    0.001138   -0.000330
H    -2.524715   -3.589460   -3.855292   -0.003468    0.000272   -0.001592
H     2.682601   -5.581371   -2.711273    0.000482    0.000634   -0.001242
H     5.590978   -0.423831   -3.625788   -0.000972    0.001342   -0.000384
H     4.040906    4.226348   -0.662755    0.000014    0.000326    0.001634
H    -1.454992    4.906189    0.978278   -0.000354    0.001760   -0.000752
H    -6.122879    1.404420   -0.236283   -0.001238   -0.001978   -0.000126
H    -3.987364   -4.098098   -0.834872    0.002232   -0.001096    0.002978
H     1.471888   -5.117319    0.480590   -0.000164    0.009430    0.010990
H     5.961104   -1.359725   -0.378381   -0.000332   -0.000126    0.002582
H     1.867469    2.769048    0.917407    0.004726   -0.000758    0.009574
H    -2.080650    2.009940    0.203815   -0.013356    0.013152   -0.008934
H    -3.599948    0.123822    0.899181   -0.005610    0.005454    0.021570
H    -1.674475   -2.968704    0.844511    0.021168   -0.020760    0.031062
H     1.801315   -2.089288    0.253486   -0.001630    0.004718    0.003404
H     3.511509    0.148453    0.636213    0.000406   -0.006536    0.009350
H     4.124288    2.927703    1.938048   -0.002042   -0.001406    0.002348
H     2.899482    3.875350    2.826696    0.001322   -0.001980    0.001098
H    -5.018579   -0.019352    2.941120    0.001234    0.001134    0.001976
H    -4.743098    1.657196    2.418766   -0.001366    0.000740    0.002388
H    -3.931623   -2.989235    1.909518   -0.003832   -0.002666    0.003784
H    -2.780712   -4.129491    2.661809    0.002482    0.005248    0.000796
H     4.741521    0.031863    2.823429   -0.002788   -0.003022    0.001794
H     4.338371   -1.590264    2.205755   -0.006870    0.004778    0.000594
H     3.771036    5.716328    1.754547   -0.001090   -0.000134   -0.000036
H    -7.087734    0.151362    2.005362    0.000044    0.000200    0.000824
H    -3.858280   -5.768439    1.463238   -0.001412    0.000410   -0.000188
H     6.851538   -0.323935    2.031106   -0.001024    0.002158   -0.000628
C     1.028584   -1.277701    3.754228    0.008246    0.003840    0.001294
H     1.651932   -0.660484    4.395835    0.000242    0.008564    0.005892
H     0.344248   -1.905571    4.329907   -0.000462   -0.003532   -0.006330
O     0.396273   -3.740368    2.563629   -0.003528   -0.007098    0.002646
C    -0.902378    0.324050    3.345182    0.001736   -0.005980   -0.007660
H    -1.629731   -0.369634    3.762841    0.008246   -0.006150   -0.002278
H    -0.490530    0.989808    4.105881    0.021170   -0.016006   -0.010272
O    -0.520311    3.007293    2.822291   -0.000010    0.002486    0.000898
C     0.247674   -0.468738    2.684648   -0.004126   -0.046726   -0.016378
O    -0.139327   -1.349007    1.737586    0.048382   -0.044820    0.018736
H    -1.022767   -0.775829    0.733119   -1.228936    0.750542   -1.302102
O    -1.544333   -0.342274   -0.020917    0.062838   -0.031052    0.058458
H    -0.792445    0.085820   -0.580102    0.294596    0.210178    0.009664
O     0.516991    0.995970   -0.661786   -0.022536   -0.014152    0.006084
H     0.824021    0.813540    0.242516    0.003510   -0.026778   -0.000184
O     1.135201    0.508099    2.113912   -0.000464   -0.000312   -0.003306
H     2.018338    0.112379    2.088697   -0.009376   -0.010944   -0.007778
H     0.229526    1.921315   -0.652632   -0.011202   -0.000302    0.000384
H    -2.056916   -1.038776   -0.484457    0.010890   -0.179384    0.167200
139
* Frequency(6) -1276.8900
C     0.723270    4.868106   -0.285310   -0.000874   -0.000990   -0.000138
C    -4.269732    3.234840    0.307271   -0.000990    0.000452   -0.000504
C    -5.024367   -1.854880   -0.421313   -0.000654    0.000920    0.000804
C    -0.787140   -4.981257   -0.609077    0.000628   -0.000310    0.001814
C     4.153250   -3.182301    0.021237   -0.002452    0.000092    0.000406
C     5.110748    1.932270   -0.500642   -0.001582    0.000112   -0.000776
O    -0.176629    3.783880   -0.209357    0.000626   -0.000904   -0.001018
O    -4.224790    2.159614   -0.575539    0.001578   -0.000578    0.001262
O    -3.650715   -2.059339   -0.680222    0.007050    0.003886    0.001772
O     0.114814   -3.906872   -0.516432    0.001868   -0.000094   -0.002546
O     4.020435   -2.003099   -0.714977    0.000812   -0.000304   -0.000732
O     3.752314    2.171838   -0.735676    0.000768   -0.000450   -0.000418
C     1.402419    4.886863   -1.667862   -0.000220    0.000550   -0.000414
C    -3.878099    4.504664   -0.476339   -0.000372    0.000234    0.000148
C    -5.651592   -1.100354   -1.606551    0.000058   -0.000552   -0.000320
C    -1.536838   -4.856671   -1.946969   -0.000578   -0.000084    0.000164
C     3.821667   -4.354126   -0.921796   -0.001272    0.000536   -0.000166
C     5.664491    1.171357   -1.718226    0.000050    0.000280   -0.000338
O     0.473647    4.867304   -2.718371   -0.000056   -0.000496    0.000416
O    -4.711966    4.716813   -1.579770   -0.000126    0.000158   -0.000182
O    -5.541183   -1.799875   -2.814950   -0.000058    0.000004   -0.000116
O    -0.701655   -4.944022   -3.071303    0.000158    0.000150   -0.000022
O     4.646138   -4.366028   -2.053275    0.000146   -0.000138   -0.000356
O     5.560524    1.919009   -2.898203   -0.000064   -0.000196    0.000228
C     2.311062    3.662620   -1.818275    0.000046   -0.000030   -0.000508
C    -2.405781    4.424799   -0.924263    0.000022   -0.000174   -0.000562
C    -4.999370    0.285393   -1.703598    0.000420    0.000252   -0.000782
C    -2.244139   -3.494669   -1.935996   -0.000318    0.000210   -0.000842
C     2.342972   -4.260781   -1.325346   -0.000414    0.000086    0.001500
C     4.900527   -0.157066   -1.832252    0.000000    0.000000   -0.000386
O     3.140633    3.759788   -2.953708    0.000282   -0.000158   -0.000120
O    -1.994150    5.649369   -1.494368    0.000258    0.000414   -0.000348
O    -5.617101    1.073304   -2.691804   -0.000212    0.000382   -0.000444
O    -3.030833   -3.289937   -3.084080    0.000150    0.000872   -0.000050
O     1.954901   -5.373061   -2.100937    0.000216   -0.000316   -0.000442
O     5.431830   -0.976155   -2.843604    0.000006   -0.000036    0.000094
C     3.232858    3.485486   -0.606188   -0.000312    0.000572    0.000220
C    -1.486006    4.079566    0.259493    0.000106    0.001004    0.000844
C    -5.093121    1.046632   -0.373758   -0.000890    0.000746   -0.000404
C    -3.157194   -3.392249   -0.709279    0.000616   -0.000248   -0.000292
C     1.433957   -4.180558   -0.087414   -0.000890    0.003446    0.001752
C     4.953243   -0.947167   -0.517784   -0.000372    0.000288    0.000282
C     2.489911    3.651746    0.731579   -0.000314    0.000542    0.000136
C    -2.055135    2.828580    0.933365    0.000210    0.000460   -0.000076
C    -4.691134    0.172844    0.834364   -0.000790    0.000014   -0.000234
C    -2.403814   -3.745957    0.588994    0.002090    0.001948    0.001812
C     1.928200   -3.033105    0.799486   -0.002498    0.003616    0.001362
C     4.588504   -0.057134    0.685847    0.001018    0.000348    0.000114
O     1.676993    4.822233    0.734934    0.000492    0.000134    0.000722
O    -3.377927    3.064213    1.391826   -0.000170   -0.000614    0.000458
O    -5.230271   -1.153310    0.763919    0.000956   -0.000744    0.000376
O    -1.709302   -4.985196    0.443881   -0.001124   -0.002276   -0.000656
O     3.295919   -3.211464    1.140081   -0.000380   -0.000802    0.000936
O     5.299785    1.179417    0.666497    0.000482   -0.000548    0.000854
C     3.476211    3.805338    1.897581   -0.000210    0.000000   -0.000386
C    -1.266108    2.342900    2.149894    0.001802   -0.000172    0.002492
C    -5.239350    0.721400    2.164593   -0.000004    0.000158    0.000404
C    -3.372826   -3.916077    1.765245    0.000142    0.000454    0.000338
C     1.195817   -2.930738    2.147283   -0.069118    0.102738   -0.025696
C     4.947544   -0.701558    2.034548    0.000312    0.000004   -0.001020
O     4.318302    4.917625    1.739149    0.000164    0.000090   -0.000004
O    -1.574618    1.074198    2.344507    0.000852   -0.002852   -0.001006
O    -6.617366    0.990690    2.109991   -0.000632    0.000208    0.000008
O    -4.324741   -4.923239    1.530888   -0.000314   -0.000264   -0.000430
O     1.882256   -2.067238    2.946868    0.012720    0.002888    0.017176
O     6.289616   -1.111527    2.079966   -0.000124   -0.000034    0.000080
H     0.188446    5.812794   -0.131149    0.001506    0.000066    0.000522
H    -5.262987    3.352616    0.758109   -0.000114    0.003080   -0.000600
H    -5.532897   -2.815897   -0.275475    0.001366    0.001520   -0.001092
H    -0.267179   -5.944798   -0.547213   -0.000532   -0.001702    0.002144
H     5.164480   -3.288856    0.433612   -0.000344    0.000214   -0.001132
H     5.664608    2.865728   -0.340238   -0.000064   -0.000876    0.001594
H     2.023193    5.796261   -1.717493    0.000790    0.000036    0.001686
H    -4.001175    5.370094    0.183961   -0.000052    0.000452    0.000274
H    -6.724003   -0.979405   -1.418147   -0.000082   -0.001472    0.000892
H    -2.286085   -5.659424   -2.001626    0.003288   -0.004246    0.001864
H     3.995478   -5.296671   -0.392027   -0.001338    0.002650    0.003390
H     6.729949    0.966580   -1.568991   -0.000340   -0.000314    0.001810
H    -0.336880    5.340335   -2.451674   -0.000508    0.000550   -0.001254
H    -4.847432    3.872376   -2.041415    0.001030   -0.000908   -0.000598
H    -4.648478   -2.186863   -2.904930    0.000376   -0.001054   -0.002484
H     0.223673   -5.086812   -2.796753   -0.001316    0.002664   -0.000838
H     4.740548   -3.458903   -2.391833   -0.000150    0.001220    0.000608
H     4.709531    2.397480   -2.918724   -0.001322    0.000744   -0.000342
H     1.682473    2.767277   -1.901382    0.003766   -0.001164   -0.003954
H    -2.310296    3.622826   -1.671133   -0.001436    0.003972   -0.004646
H    -3.934298    0.155819   -1.944403   -0.002546    0.002140   -0.009972
H    -1.461296   -2.725610   -1.876306    0.013256   -0.011600   -0.008118
H     2.200192   -3.336074   -1.904866    0.001864   -0.000818    0.000470
H     3.843616    0.067314   -2.042777    0.000390   -0.002334    0.000302
H     2.582114    3.959273   -3.720689   -0.001262   -0.000238    0.000058
H    -2.735599    5.994287   -2.019731    0.000858   -0.000350   -0.000336
H    -5.759032    0.517760   -3.474720    0.000762    0.001138   -0.000330
H    -2.524315   -3.589492   -3.855108   -0.003468    0.000272   -0.001592
H     2.682545   -5.581445   -2.711129    0.000482    0.000634   -0.001242
H     5.591090   -0.423985   -3.625744   -0.000972    0.001342   -0.000384
H     4.040904    4.226310   -0.662943    0.000014    0.000326    0.001634
H    -1.454952    4.905987    0.978364   -0.000354    0.001760   -0.000752
H    -6.122737    1.404648   -0.236269   -0.001238   -0.001978   -0.000126
H    -3.987622   -4.097972   -0.835216    0.002232   -0.001096    0.002978
H     1.471906   -5.118405    0.479324   -0.000164    0.009430    0.010990
H     5.961142   -1.359711   -0.378679   -0.000332   -0.000126    0.002582
H     1.866925    2.769136    0.916303    0.004726   -0.000758    0.009574
H    -2.079112    2.008424    0.204845   -0.013356    0.013152   -0.008934
H    -3.599302    0.123194    0.896695   -0.005610    0.005454    0.021570
H    -1.676913   -2.966312    0.840933    0.021168   -0.020760    0.031062
H     1.801503   -2.089832    0.253094   -0.001630    0.004718    0.003404
H     3.511463    0.149207    0.635135    0.000406   -0.006536    0.009350
H     4.124524    2.927865    1.937778   -0.002042   -0.001406    0.002348
H     2.899330    3.875578    2.826570    0.001322   -0.001980    0.001098
H    -5.018721   -0.019482    2.940892    0.001234    0.001134    0.001976
H    -4.742940    1.657110    2.418490   -0.001366    0.000740    0.002388
H    -3.931181   -2.988927    1.909082   -0.003832   -0.002666    0.003784
H    -2.780998   -4.130095    2.661717    0.002482    0.005248    0.000796
H     4.741843    0.032211    2.823223   -0.002788   -0.003022    0.001794
H     4.339163   -1.590814    2.205687   -0.006870    0.004778    0.000594
H     3.771162    5.716344    1.754551   -0.001090   -0.000134   -0.000036
H    -7.087740    0.151338    2.005268    0.000044    0.000200    0.000824
H    -3.858118   -5.768487    1.463260   -0.001412    0.000410   -0.000188
H     6.851656   -0.324183    2.031178   -0.001024    0.002158   -0.000628
C     1.027634   -1.278143    3.754078    0.008246    0.003840    0.001294
H     1.651904   -0.661470    4.395157    0.000242    0.008564    0.005892
H     0.344302   -1.905165    4.330637   -0.000462   -0.003532   -0.006330
O     0.396679   -3.739550    2.563325   -0.003528   -0.007098    0.002646
C    -0.902578    0.324738    3.346064    0.001736   -0.005980   -0.007660
H    -1.630681   -0.368926    3.763103    0.008246   -0.006150   -0.002278
H    -0.492970    0.991652    4.107065    0.021170   -0.016006   -0.010272
O    -0.520309    3.007007    2.822187   -0.000010    0.002486    0.000898
C     0.248150   -0.463354    2.686536   -0.004126   -0.046726   -0.016378
O    -0.144901   -1.343843    1.735428    0.048382   -0.044820    0.018736
H    -0.881173   -0.862303    0.883143   -1.228936    0.750542   -1.302102
O    -1.551573   -0.338696   -0.027653    0.062838   -0.031052    0.058458
H    -0.826387    0.061604   -0.581216    0.294596    0.210178    0.009664
O     0.519587    0.997600   -0.662486   -0.022536   -0.014152    0.006084
H     0.823617    0.816626    0.242538    0.003510   -0.026778   -0.000184
O     1.135255    0.508135    2.114292   -0.000464   -0.000312   -0.003306
H     2.019418    0.113639    2.089593   -0.009376   -0.010944   -0.007778
H     0.230816    1.921349   -0.652676   -0.011202   -0.000302    0.000384
H    -2.058170   -1.018108   -0.503721    0.010890   -0.179384    0.167200
139
* Frequency(6) -1276.8900
C     0.723366    4.868214   -0.285295   -0.000874   -0.000990   -0.000138
C    -4.269624    3.234791    0.307326   -0.000990    0.000452   -0.000504
C    -5.024296   -1.854980   -0.421401   -0.000654    0.000920    0.000804
C    -0.787209   -4.981223   -0.609274    0.000628   -0.000310    0.001814
C     4.153517   -3.182311    0.021192   -0.002452    0.000092    0.000406
C     5.110921    1.932257   -0.500558   -0.001582    0.000112   -0.000776
O    -0.176697    3.783979   -0.209246    0.000626   -0.000904   -0.001018
O    -4.224962    2.159677   -0.575676    0.001578   -0.000578    0.001262
O    -3.651483   -2.059762   -0.680415    0.007050    0.003886    0.001772
O     0.114611   -3.906861   -0.516155    0.001868   -0.000094   -0.002546
O     4.020347   -2.003066   -0.714897    0.000812   -0.000304   -0.000732
O     3.752230    2.171887   -0.735630    0.000768   -0.000450   -0.000418
C     1.402443    4.886803   -1.667817   -0.000220    0.000550   -0.000414
C    -3.878058    4.504638   -0.476355   -0.000372    0.000234    0.000148
C    -5.651599   -1.100294   -1.606516    0.000058   -0.000552   -0.000320
C    -1.536775   -4.856662   -1.946987   -0.000578   -0.000084    0.000164
C     3.821806   -4.354184   -0.921778   -0.001272    0.000536   -0.000166
C     5.664486    1.171326   -1.718189    0.000050    0.000280   -0.000338
O     0.473653    4.867358   -2.718416   -0.000056   -0.000496    0.000416
O    -4.711952    4.716796   -1.579750   -0.000126    0.000158   -0.000182
O    -5.541176   -1.799876   -2.814938   -0.000058    0.000004   -0.000116
O    -0.701672   -4.944038   -3.071300    0.000158    0.000150   -0.000022
O     4.646122   -4.366013   -2.053237    0.000146   -0.000138   -0.000356
O     5.560531    1.919031   -2.898228   -0.000064   -0.000196    0.000228
C     2.311057    3.662623   -1.818219    0.000046   -0.000030   -0.000508
C    -2.405784    4.424818   -0.924201    0.000022   -0.000174   -0.000562
C    -4.999416    0.285366   -1.703513    0.000420    0.000252   -0.000782
C    -2.244104   -3.494692   -1.935905   -0.000318    0.000210   -0.000842
C     2.343017   -4.260790   -1.325510   -0.000414    0.000086    0.001500
C     4.900527   -0.157066   -1.832210    0.000000    0.000000   -0.000386
O     3.140602    3.759805   -2.953695    0.000282   -0.000158   -0.000120
O    -1.994178    5.649324   -1.494330    0.000258    0.000414   -0.000348
O    -5.617078    1.073262   -2.691756   -0.000212    0.000382   -0.000444
O    -3.030849   -3.290032   -3.084075    0.000150    0.000872   -0.000050
O     1.954877   -5.373026   -2.100888    0.000216   -0.000316   -0.000442
O     5.431829   -0.976151   -2.843615    0.000006   -0.000036    0.000094
C     3.232892    3.485424   -0.606212   -0.000312    0.000572    0.000220
C    -1.486018    4.079457    0.259401    0.000106    0.001004    0.000844
C    -5.093024    1.046551   -0.373714   -0.000890    0.000746   -0.000404
C    -3.157262   -3.392222   -0.709247    0.000616   -0.000248   -0.000292
C     1.434054   -4.180933   -0.087605   -0.000890    0.003446    0.001752
C     4.953284   -0.947198   -0.517815   -0.000372    0.000288    0.000282
C     2.489945    3.651687    0.731564   -0.000314    0.000542    0.000136
C    -2.055158    2.828529    0.933374    0.000210    0.000460   -0.000076
C    -4.691048    0.172843    0.834390   -0.000790    0.000014   -0.000234
C    -2.404042   -3.746170    0.588796    0.002090    0.001948    0.001812
C     1.928472   -3.033499    0.799337   -0.002498    0.003616    0.001362
C     4.588393   -0.057172    0.685835    0.001018    0.000348    0.000114
O     1.676939    4.822219    0.734856    0.000492    0.000134    0.000722
O    -3.377909    3.064280    1.391776   -0.000170   -0.000614    0.000458
O    -5.230375   -1.153229    0.763878    0.000956   -0.000744    0.000376
O    -1.709180   -4.984948    0.443952   -0.001124   -0.002276   -0.000656
O     3.295960   -3.211376    1.139979   -0.000380   -0.000802    0.000936
O     5.299733    1.179476    0.666404    0.000482   -0.000548    0.000854
C     3.476234    3.805338    1.897623   -0.000210    0.000000   -0.000386
C    -1.266304    2.342919    2.149623    0.001802   -0.000172    0.002492
C    -5.239349    0.721383    2.164549   -0.000004    0.000158    0.000404
C    -3.372842   -3.916127    1.765208    0.000142    0.000454    0.000338
C     1.203349   -2.941933    2.150083   -0.069118    0.102738   -0.025696
C     4.947510   -0.701559    2.034659    0.000312    0.000004   -0.001020
O     4.318284    4.917615    1.739150    0.000164    0.000090   -0.000004
O    -1.574711    1.074509    2.344617    0.000852   -0.002852   -0.001006
O    -6.617297    0.990667    2.109990   -0.000632    0.000208    0.000008
O    -4.324707   -4.923210    1.530935   -0.000314   -0.000264   -0.000430
O     1.880870   -2.067553    2.944996    0.012720    0.002888    0.017176
O     6.289630   -1.111523    2.079958   -0.000124   -0.000034    0.000080
H     0.188282    5.812787   -0.131206    0.001506    0.000066    0.000522
H    -5.262975    3.352280    0.758174   -0.000114    0.003080   -0.000600
H    -5.533046   -2.816062   -0.275356    0.001366    0.001520   -0.001092
H    -0.267121   -5.944612   -0.547446   -0.000532   -0.001702    0.002144
H     5.164517   -3.288880    0.433736   -0.000344    0.000214   -0.001132
H     5.664615    2.865824   -0.340412   -0.000064   -0.000876    0.001594
H     2.023107    5.796257   -1.717677    0.000790    0.000036    0.001686
H    -4.001169    5.370045    0.183931   -0.000052    0.000452    0.000274
H    -6.723994   -0.979245   -1.418245   -0.000082   -0.001472    0.000892
H    -2.286444   -5.658962   -2.001830    0.003288   -0.004246    0.001864
H     3.995624   -5.296959   -0.392397   -0.001338    0.002650    0.003390
H     6.729986    0.966614   -1.569189   -0.000340   -0.000314    0.001810
H    -0.336824    5.340275   -2.451537   -0.000508    0.000550   -0.001254
H    -4.847545    3.872475   -2.041349    0.001030   -0.000908   -0.000598
H    -4.648519   -2.186748   -2.904659    0.000376   -0.001054   -0.002484
H     0.223816   -5.087103   -2.796661   -0.001316    0.002664   -0.000838
H     4.740564   -3.459036   -2.391899   -0.000150    0.001220    0.000608
H     4.709675    2.397399   -2.918687   -0.001322    0.000744   -0.000342
H     1.682063    2.767404   -1.900951    0.003766   -0.001164   -0.003954
H    -2.310140    3.622393   -1.670627   -0.001436    0.003972   -0.004646
H    -3.934021    0.155586   -1.943316   -0.002546    0.002140   -0.009972
H    -1.462740   -2.724346   -1.875422    0.013256   -0.011600   -0.008118
H     2.199988   -3.335985   -1.904917    0.001864   -0.000818    0.000470
H     3.843573    0.067569   -2.042810    0.000390   -0.002334    0.000302
H     2.582251    3.959299   -3.720696   -0.001262   -0.000238    0.000058
H    -2.735693    5.994325   -2.019694    0.000858   -0.000350   -0.000336
H    -5.759115    0.517636   -3.474684    0.000762    0.001138   -0.000330
H    -2.523937   -3.589521   -3.854935   -0.003468    0.000272   -0.001592
H     2.682493   -5.581514   -2.710994    0.000482    0.000634   -0.001242
H     5.591196   -0.424132   -3.625702   -0.000972    0.001342   -0.000384
H     4.040903    4.226275   -0.663121    0.000014    0.000326    0.001634
H    -1.454913    4.905795    0.978446   -0.000354    0.001760   -0.000752
H    -6.122602    1.404863   -0.236255   -0.001238   -0.001978   -0.000126
H    -3.987865   -4.097852   -0.835540    0.002232   -0.001096    0.002978
H     1.471924   -5.119433    0.478126   -0.000164    0.009430    0.010990
H     5.961178   -1.359697   -0.378960   -0.000332   -0.000126    0.002582
H     1.866410    2.769218    0.915260    0.004726   -0.000758    0.009574
H    -2.077656    2.006991    0.205818   -0.013356    0.013152   -0.008934
H    -3.598690    0.122599    0.894345   -0.005610    0.005454    0.021570
H    -1.679220   -2.964050    0.837548    0.021168   -0.020760    0.031062
H     1.801681   -2.090346    0.252723   -0.001630    0.004718    0.003404
H     3.511418    0.149919    0.634116    0.000406   -0.006536    0.009350
H     4.124746    2.928018    1.937522   -0.002042   -0.001406    0.002348
H     2.899186    3.875794    2.826450    0.001322   -0.001980    0.001098
H    -5.018856   -0.019606    2.940677    0.001234    0.001134    0.001976
H    -4.742791    1.657030    2.418230   -0.001366    0.000740    0.002388
H    -3.930764   -2.988637    1.908670   -0.003832   -0.002666    0.003784
H    -2.781268   -4.130667    2.661630    0.002482    0.005248    0.000796
H     4.742146    0.032540    2.823027   -0.002788   -0.003022    0.001794
H     4.339911   -1.591335    2.205622   -0.006870    0.004778    0.000594
H     3.771281    5.716358    1.754555   -0.001090   -0.000134   -0.000036
H    -7.087744    0.151317    2.005178    0.000044    0.000200    0.000824
H    -3.857964   -5.768531    1.463280   -0.001412    0.000410   -0.000188
H     6.851768   -0.324418    2.031247   -0.001024    0.002158   -0.000628
C     1.026735   -1.278562    3.753937    0.008246    0.003840    0.001294
H     1.651878   -0.662404    4.394515    0.000242    0.008564    0.005892
H     0.344352   -1.904780    4.331326   -0.000462   -0.003532   -0.006330
O     0.397064   -3.738777    2.563036   -0.003528   -0.007098    0.002646
C    -0.902767    0.325390    3.346899    0.001736   -0.005980   -0.007660
H    -1.631580   -0.368256    3.763351    0.008246   -0.006150   -0.002278
H    -0.495277    0.993396    4.108184    0.021170   -0.016006   -0.010272
O    -0.520308    3.006736    2.822089   -0.000010    0.002486    0.000898
C     0.248599   -0.458262    2.688320   -0.004126   -0.046726   -0.016378
O    -0.150174   -1.338959    1.733386    0.048382   -0.044820    0.018736
H    -0.747252   -0.944092    1.025037   -1.228936    0.750542   -1.302102
O    -1.558421   -0.335312   -0.034023    0.062838   -0.031052    0.058458
H    -0.858490    0.038700   -0.582269    0.294596    0.210178    0.009664
O     0.522043    0.999142   -0.663149   -0.022536   -0.014152    0.006084
H     0.823234    0.819544    0.242558    0.003510   -0.026778   -0.000184
O     1.135305    0.508169    2.114653   -0.000464   -0.000312   -0.003306
H     2.020440    0.114832    2.090441   -0.009376   -0.010944   -0.007778
H     0.232037    1.921382   -0.652718   -0.011202   -0.000302    0.000384
H    -2.059357   -0.998560   -0.521941    0.010890   -0.179384    0.167200
139
* Frequency(6) -1276.8900
C     0.723445    4.868304   -0.285282   -0.000874   -0.000990   -0.000138
C    -4.269534    3.234750    0.307372   -0.000990    0.000452   -0.000504
C    -5.024237   -1.855064   -0.421474   -0.000654    0.000920    0.000804
C    -0.787266   -4.981195   -0.609439    0.000628   -0.000310    0.001814
C     4.153740   -3.182320    0.021155   -0.002452    0.000092    0.000406
C     5.111064    1.932247   -0.500487   -0.001582    0.000112   -0.000776
O    -0.176754    3.784061   -0.209154    0.000626   -0.000904   -0.001018
O    -4.225105    2.159730   -0.575791    0.001578   -0.000578    0.001262
O    -3.652124   -2.060116   -0.680576    0.007050    0.003886    0.001772
O     0.114441   -3.906853   -0.515923    0.001868   -0.000094   -0.002546
O     4.020273   -2.003039   -0.714831    0.000812   -0.000304   -0.000732
O     3.752160    2.171928   -0.735592    0.000768   -0.000450   -0.000418
C     1.402463    4.886753   -1.667779   -0.000220    0.000550   -0.000414
C    -3.878024    4.504617   -0.476368   -0.000372    0.000234    0.000148
C    -5.651604   -1.100244   -1.606487    0.000058   -0.000552   -0.000320
C    -1.536722   -4.856654   -1.947002   -0.000578   -0.000084    0.000164
C     3.821922   -4.354233   -0.921763   -0.001272    0.000536   -0.000166
C     5.664481    1.171301   -1.718158    0.000050    0.000280   -0.000338
O     0.473658    4.867403   -2.718454   -0.000056   -0.000496    0.000416
O    -4.711941    4.716781   -1.579733   -0.000126    0.000158   -0.000182
O    -5.541171   -1.799876   -2.814927   -0.000058    0.000004   -0.000116
O    -0.701687   -4.944052   -3.071298    0.000158    0.000150   -0.000022
O     4.646108   -4.366000   -2.053204    0.000146   -0.000138   -0.000356
O     5.560536    1.919048   -2.898249   -0.000064   -0.000196    0.000228
C     2.311053    3.662626   -1.818173    0.000046   -0.000030   -0.000508
C    -2.405786    4.424834   -0.924150    0.000022   -0.000174   -0.000562
C    -4.999454    0.285343   -1.703442    0.000420    0.000252   -0.000782
C    -2.244075   -3.494711   -1.935828   -0.000318    0.000210   -0.000842
C     2.343055   -4.260798   -1.325646   -0.000414    0.000086    0.001500
C     4.900527   -0.157066   -1.832175    0.000000    0.000000   -0.000386
O     3.140576    3.759820   -2.953684    0.000282   -0.000158   -0.000120
O    -1.994201    5.649286   -1.494298    0.000258    0.000414   -0.000348
O    -5.617058    1.073228   -2.691716   -0.000212    0.000382   -0.000444
O    -3.030863   -3.290112   -3.084070    0.000150    0.000872   -0.000050
O     1.954857   -5.372998   -2.100848    0.000216   -0.000316   -0.000442
O     5.431828   -0.976148   -2.843623    0.000006   -0.000036    0.000094
C     3.232920    3.485372   -0.606232   -0.000312    0.000572    0.000220
C    -1.486027    4.079365    0.259325    0.000106    0.001004    0.000844
C    -5.092943    1.046483   -0.373677   -0.000890    0.000746   -0.000404
C    -3.157318   -3.392199   -0.709221    0.000616   -0.000248   -0.000292
C     1.434135   -4.181246   -0.087764   -0.000890    0.003446    0.001752
C     4.953318   -0.947224   -0.517841   -0.000372    0.000288    0.000282
C     2.489974    3.651637    0.731552   -0.000314    0.000542    0.000136
C    -2.055177    2.828488    0.933381    0.000210    0.000460   -0.000076
C    -4.690977    0.172841    0.834411   -0.000790    0.000014   -0.000234
C    -2.404232   -3.746347    0.588631    0.002090    0.001948    0.001812
C     1.928699   -3.033828    0.799213   -0.002498    0.003616    0.001362
C     4.588301   -0.057204    0.685825    0.001018    0.000348    0.000114
O     1.676894    4.822206    0.734790    0.000492    0.000134    0.000722
O    -3.377893    3.064336    1.391734   -0.000170   -0.000614    0.000458
O    -5.230462   -1.153161    0.763844    0.000956   -0.000744    0.000376
O    -1.709078   -4.984741    0.444012   -0.001124   -0.002276   -0.000656
O     3.295995   -3.211303    1.139894   -0.000380   -0.000802    0.000936
O     5.299689    1.179526    0.666326    0.000482   -0.000548    0.000854
C     3.476253    3.805338    1.897658   -0.000210    0.000000   -0.000386
C    -1.266468    2.342934    2.149396    0.001802   -0.000172    0.002492
C    -5.239349    0.721368    2.164512   -0.000004    0.000158    0.000404
C    -3.372855   -3.916168    1.765177    0.000142    0.000454    0.000338
C     1.209633   -2.951274    2.152420   -0.069118    0.102738   -0.025696
C     4.947482   -0.701559    2.034752    0.000312    0.000004   -0.001020
O     4.318269    4.917607    1.739150    0.000164    0.000090   -0.000004
O    -1.574788    1.074768    2.344708    0.000852   -0.002852   -0.001006
O    -6.617239    0.990648    2.109989   -0.000632    0.000208    0.000008
O    -4.324678   -4.923186    1.530974   -0.000314   -0.000264   -0.000430
O     1.879714   -2.067816    2.943434    0.012720    0.002888    0.017176
O     6.289641   -1.111520    2.079950   -0.000124   -0.000034    0.000080
H     0.188145    5.812781   -0.131253    0.001506    0.000066    0.000522
H    -5.262965    3.352000    0.758229   -0.000114    0.003080   -0.000600
H    -5.533170   -2.816200   -0.275257    0.001366    0.001520   -0.001092
H    -0.267073   -5.944458   -0.547641   -0.000532   -0.001702    0.002144
H     5.164549   -3.288899    0.433838   -0.000344    0.000214   -0.001132
H     5.664620    2.865904   -0.340556   -0.000064   -0.000876    0.001594
H     2.023036    5.796254   -1.717830    0.000790    0.000036    0.001686
H    -4.001165    5.370004    0.183906   -0.000052    0.000452    0.000274
H    -6.723987   -0.979111   -1.418326   -0.000082   -0.001472    0.000892
H    -2.286743   -5.658576   -2.001999    0.003288   -0.004246    0.001864
H     3.995746   -5.297200   -0.392705   -0.001338    0.002650    0.003390
H     6.730017    0.966643   -1.569353   -0.000340   -0.000314    0.001810
H    -0.336778    5.340225   -2.451423   -0.000508    0.000550   -0.001254
H    -4.847638    3.872558   -2.041295    0.001030   -0.000908   -0.000598
H    -4.648553   -2.186653   -2.904433    0.000376   -0.001054   -0.002484
H     0.223936   -5.087345   -2.796585   -0.001316    0.002664   -0.000838
H     4.740578   -3.459147   -2.391955   -0.000150    0.001220    0.000608
H     4.709795    2.397331   -2.918656   -0.001322    0.000744   -0.000342
H     1.681720    2.767510   -1.900592    0.003766   -0.001164   -0.003954
H    -2.310009    3.622032   -1.670205   -0.001436    0.003972   -0.004646
H    -3.933789    0.155391   -1.942409   -0.002546    0.002140   -0.009972
H    -1.463945   -2.723291   -1.874684    0.013256   -0.011600   -0.008118
H     2.199819   -3.335910   -1.904960    0.001864   -0.000818    0.000470
H     3.843538    0.067781   -2.042838    0.000390   -0.002334    0.000302
H     2.582366    3.959320   -3.720701   -0.001262   -0.000238    0.000058
H    -2.735771    5.994357   -2.019663    0.000858   -0.000350   -0.000336
H    -5.759184    0.517533   -3.474654    0.000762    0.001138   -0.000330
H    -2.523622   -3.589546   -3.854790   -0.003468    0.000272   -0.001592
H     2.682449   -5.581571   -2.710881    0.000482    0.000634   -0.001242
H     5.591284   -0.424254   -3.625667   -0.000972    0.001342   -0.000384
H     4.040901    4.226245   -0.663270    0.000014    0.000326    0.001634
H    -1.454881    4.905635    0.978515   -0.000354    0.001760   -0.000752
H    -6.122489    1.405043   -0.236244   -0.001238   -0.001978   -0.000126
H    -3.988068   -4.097753   -0.835811    0.002232   -0.001096    0.002978
H     1.471939   -5.120290    0.477127   -0.000164    0.009430    0.010990
H     5.961208   -1.359686   -0.379195   -0.000332   -0.000126    0.002582
H     1.865980    2.769287    0.914390    0.004726   -0.000758    0.009574
H    -2.076442    2.005795    0.206631   -0.013356    0.013152   -0.008934
H    -3.598180    0.122104    0.892384   -0.005610    0.005454    0.021570
H    -1.681145   -2.962162    0.834723    0.021168   -0.020760    0.031062
H     1.801829   -2.090775    0.252413   -0.001630    0.004718    0.003404
H     3.511381    0.150513    0.633266    0.000406   -0.006536    0.009350
H     4.124932    2.928146    1.937308   -0.002042   -0.001406    0.002348
H     2.899066    3.875974    2.826350    0.001322   -0.001980    0.001098
H    -5.018968   -0.019709    2.940497    0.001234    0.001134    0.001976
H    -4.742667    1.656962    2.418013   -0.001366    0.000740    0.002388
H    -3.930415   -2.988394    1.908326   -0.003832   -0.002666    0.003784
H    -2.781494   -4.131144    2.661558    0.002482    0.005248    0.000796
H     4.742400    0.032815    2.822864   -0.002788   -0.003022    0.001794
H     4.340536   -1.591769    2.205568   -0.006870    0.004778    0.000594
H     3.771380    5.716371    1.754558   -0.001090   -0.000134   -0.000036
H    -7.087748    0.151298    2.005103    0.000044    0.000200    0.000824
H    -3.857835   -5.768569    1.463297   -0.001412    0.000410   -0.000188
H     6.851861   -0.324615    2.031304   -0.001024    0.002158   -0.000628
C     1.025986   -1.278911    3.753820    0.008246    0.003840    0.001294
H     1.651856   -0.663182    4.393979    0.000242    0.008564    0.005892
H     0.344394   -1.904458    4.331902   -0.000462   -0.003532   -0.006330
O     0.397384   -3.738131    2.562796   -0.003528   -0.007098    0.002646
C    -0.902925    0.325934    3.347595    0.001736   -0.005980   -0.007660
H    -1.632329   -0.367696    3.763559    0.008246   -0.006150   -0.002278
H    -0.497201    0.994852    4.109118    0.021170   -0.016006   -0.010272
O    -0.520307    3.006510    2.822008   -0.000010    0.002486    0.000898
C     0.248974   -0.454014    2.689809   -0.004126   -0.046726   -0.016378
O    -0.154573   -1.334884    1.731682    0.048382   -0.044820    0.018736
H    -0.635515   -1.012333    1.143427   -1.228936    0.750542   -1.302102
O    -1.564134   -0.332489   -0.039338    0.062838   -0.031052    0.058458
H    -0.885275    0.019590   -0.583148    0.294596    0.210178    0.009664
O     0.524092    1.000429   -0.663703   -0.022536   -0.014152    0.006084
H     0.822915    0.821978    0.242574    0.003510   -0.026778   -0.000184
O     1.135347    0.508197    2.114953   -0.000464   -0.000312   -0.003306
H     2.021292    0.115827    2.091148   -0.009376   -0.010944   -0.007778
H     0.233056    1.921410   -0.652753   -0.011202   -0.000302    0.000384
H    -2.060347   -0.982250   -0.537144    0.010890   -0.179384    0.167200
139
* Frequency(6) -1276.8900
C     0.723500    4.868366   -0.285274   -0.000874   -0.000990   -0.000138
C    -4.269472    3.234721    0.307404   -0.000990    0.000452   -0.000504
C    -5.024195   -1.855122   -0.421525   -0.000654    0.000920    0.000804
C    -0.787305   -4.981176   -0.609553    0.000628   -0.000310    0.001814
C     4.153895   -3.182325    0.021130   -0.002452    0.000092    0.000406
C     5.111164    1.932240   -0.500438   -0.001582    0.000112   -0.000776
O    -0.176794    3.784118   -0.209090    0.000626   -0.000904   -0.001018
O    -4.225205    2.159766   -0.575870    0.001578   -0.000578    0.001262
O    -3.652569   -2.060361   -0.680688    0.007050    0.003886    0.001772
O     0.114323   -3.906847   -0.515763    0.001868   -0.000094   -0.002546
O     4.020222   -2.003020   -0.714784    0.000812   -0.000304   -0.000732
O     3.752112    2.171956   -0.735566    0.000768   -0.000450   -0.000418
C     1.402477    4.886719   -1.667753   -0.000220    0.000550   -0.000414
C    -3.878001    4.504602   -0.476377   -0.000372    0.000234    0.000148
C    -5.651608   -1.100209   -1.606466    0.000058   -0.000552   -0.000320
C    -1.536686   -4.856649   -1.947013   -0.000578   -0.000084    0.000164
C     3.822002   -4.354267   -0.921753   -0.001272    0.000536   -0.000166
C     5.664478    1.171283   -1.718137    0.000050    0.000280   -0.000338
O     0.473662    4.867434   -2.718480   -0.000056   -0.000496    0.000416
O    -4.711933    4.716771   -1.579722   -0.000126    0.000158   -0.000182
O    -5.541167   -1.799876   -2.814920   -0.000058    0.000004   -0.000116
O    -0.701697   -4.944061   -3.071297    0.000158    0.000150   -0.000022
O     4.646099   -4.365992   -2.053182    0.000146   -0.000138   -0.000356
O     5.560541    1.919061   -2.898263   -0.000064   -0.000196    0.000228
C     2.311050    3.662628   -1.818141    0.000046   -0.000030   -0.000508
C    -2.405787    4.424845   -0.924115    0.000022   -0.000174   -0.000562
C    -4.999481    0.285327   -1.703392    0.000420    0.000252   -0.000782
C    -2.244055   -3.494724   -1.935775   -0.000318    0.000210   -0.000842
C     2.343081   -4.260804   -1.325741   -0.000414    0.000086    0.001500
C     4.900527   -0.157066   -1.832150    0.000000    0.000000   -0.000386
O     3.140559    3.759830   -2.953677    0.000282   -0.000158   -0.000120
O    -1.994218    5.649260   -1.494276    0.000258    0.000414   -0.000348
O    -5.617045    1.073204   -2.691688   -0.000212    0.000382   -0.000444
O    -3.030872   -3.290166   -3.084067    0.000150    0.000872   -0.000050
O     1.954844   -5.372978   -2.100820    0.000216   -0.000316   -0.000442
O     5.431828   -0.976145   -2.843629    0.000006   -0.000036    0.000094
C     3.232940    3.485336   -0.606246   -0.000312    0.000572    0.000220
C    -1.486034    4.079302    0.259271    0.000106    0.001004    0.000844
C    -5.092887    1.046436   -0.373652   -0.000890    0.000746   -0.000404
C    -3.157356   -3.392184   -0.709202    0.000616   -0.000248   -0.000292
C     1.434191   -4.181464   -0.087875   -0.000890    0.003446    0.001752
C     4.953341   -0.947242   -0.517858   -0.000372    0.000288    0.000282
C     2.489994    3.651603    0.731543   -0.000314    0.000542    0.000136
C    -2.055190    2.828459    0.933385    0.000210    0.000460   -0.000076
C    -4.690927    0.172841    0.834426   -0.000790    0.000014   -0.000234
C    -2.404364   -3.746469    0.588517    0.002090    0.001948    0.001812
C     1.928857   -3.034056    0.799127   -0.002498    0.003616    0.001362
C     4.588237   -0.057226    0.685817    0.001018    0.000348    0.000114
O     1.676863    4.822198    0.734745    0.000492    0.000134    0.000722
O    -3.377883    3.064375    1.391705   -0.000170   -0.000614    0.000458
O    -5.230522   -1.153115    0.763820    0.000956   -0.000744    0.000376
O    -1.709007   -4.984597    0.444053   -0.001124   -0.002276   -0.000656
O     3.296019   -3.211253    1.139835   -0.000380   -0.000802    0.000936
O     5.299659    1.179561    0.666272    0.000482   -0.000548    0.000854
C     3.476266    3.805338    1.897683   -0.000210    0.000000   -0.000386
C    -1.266582    2.342945    2.149239    0.001802   -0.000172    0.002492
C    -5.239349    0.721358    2.164487   -0.000004    0.000158    0.000404
C    -3.372864   -3.916197    1.765156    0.000142    0.000454    0.000338
C     1.213989   -2.957749    2.154039   -0.069118    0.102738   -0.025696
C     4.947462   -0.701559    2.034816    0.000312    0.000004   -0.001020
O     4.318258    4.917601    1.739150    0.000164    0.000090   -0.000004
O    -1.574842    1.074948    2.344771    0.000852   -0.002852   -0.001006
O    -6.617199    0.990635    2.109988   -0.000632    0.000208    0.000008
O    -4.324658   -4.923169    1.531001   -0.000314   -0.000264   -0.000430
O     1.878912   -2.067998    2.942352    0.012720    0.002888    0.017176
O     6.289649   -1.111518    2.079945   -0.000124   -0.000034    0.000080
H     0.188050    5.812777   -0.131286    0.001506    0.000066    0.000522
H    -5.262957    3.351806    0.758266   -0.000114    0.003080   -0.000600
H    -5.533256   -2.816296   -0.275188    0.001366    0.001520   -0.001092
H    -0.267039   -5.944350   -0.547776   -0.000532   -0.001702    0.002144
H     5.164570   -3.288913    0.433910   -0.000344    0.000214   -0.001132
H     5.664625    2.865959   -0.340657   -0.000064   -0.000876    0.001594
H     2.022986    5.796251   -1.717936    0.000790    0.000036    0.001686
H    -4.001161    5.369975    0.183889   -0.000052    0.000452    0.000274
H    -6.723982   -0.979018   -1.418382   -0.000082   -0.001472    0.000892
H    -2.286950   -5.658308   -2.002116    0.003288   -0.004246    0.001864
H     3.995830   -5.297367   -0.392919   -0.001338    0.002650    0.003390
H     6.730038    0.966663   -1.569467   -0.000340   -0.000314    0.001810
H    -0.336746    5.340191   -2.451344   -0.000508    0.000550   -0.001254
H    -4.847703    3.872615   -2.041257    0.001030   -0.000908   -0.000598
H    -4.648577   -2.186586   -2.904277    0.000376   -0.001054   -0.002484
H     0.224019   -5.087513   -2.796532   -0.001316    0.002664   -0.000838
H     4.740587   -3.459224   -2.391993   -0.000150    0.001220    0.000608
H     4.709879    2.397285   -2.918634   -0.001322    0.000744   -0.000342
H     1.681483    2.767583   -1.900343    0.003766   -0.001164   -0.003954
H    -2.309919    3.621782   -1.669912   -0.001436    0.003972   -0.004646
H    -3.933629    0.155256   -1.941781   -0.002546    0.002140   -0.009972
H    -1.464781   -2.722560   -1.874172    0.013256   -0.011600   -0.008118
H     2.199702   -3.335859   -1.904990    0.001864   -0.000818    0.000470
H     3.843513    0.067928   -2.042857    0.000390   -0.002334    0.000302
H     2.582445    3.959335   -3.720705   -0.001262   -0.000238    0.000058
H    -2.735825    5.994379   -2.019642    0.000858   -0.000350   -0.000336
H    -5.759232    0.517461   -3.474633    0.000762    0.001138   -0.000330
H    -2.523403   -3.589563   -3.854690   -0.003468    0.000272   -0.001592
H     2.682419   -5.581611   -2.710803    0.000482    0.000634   -0.001242
H     5.591346   -0.424338   -3.625643   -0.000972    0.001342   -0.000384
H     4.040901    4.226225   -0.663373    0.000014    0.000326    0.001634
H    -1.454859    4.905524    0.978562   -0.000354    0.001760   -0.000752
H    -6.122411    1.405168   -0.236236   -0.001238   -0.001978   -0.000126
H    -3.988208   -4.097684   -0.835999    0.002232   -0.001096    0.002978
H     1.471950   -5.120885    0.476434   -0.000164    0.009430    0.010990
H     5.961229   -1.359678   -0.379358   -0.000332   -0.000126    0.002582
H     1.865682    2.769335    0.913786    0.004726   -0.000758    0.009574
H    -2.075600    2.004967    0.207194   -0.013356    0.013152   -0.008934
H    -3.597827    0.121760    0.891024   -0.005610    0.005454    0.021570
H    -1.682479   -2.960854    0.832766    0.021168   -0.020760    0.031062
H     1.801931   -2.091072    0.252199   -0.001630    0.004718    0.003404
H     3.511356    0.150925    0.632677    0.000406   -0.006536    0.009350
H     4.125061    2.928235    1.937160   -0.002042   -0.001406    0.002348
H     2.898982    3.876099    2.826281    0.001322   -0.001980    0.001098
H    -5.019046   -0.019780    2.940373    0.001234    0.001134    0.001976
H    -4.742581    1.656916    2.417863   -0.001366    0.000740    0.002388
H    -3.930174   -2.988226    1.908087   -0.003832   -0.002666    0.003784
H    -2.781651   -4.131475    2.661508    0.002482    0.005248    0.000796
H     4.742576    0.033006    2.822751   -0.002788   -0.003022    0.001794
H     4.340969   -1.592070    2.205531   -0.006870    0.004778    0.000594
H     3.771448    5.716379    1.754561   -0.001090   -0.000134   -0.000036
H    -7.087751    0.151286    2.005051    0.000044    0.000200    0.000824
H    -3.857746   -5.768594    1.463309   -0.001412    0.000410   -0.000188
H     6.851925   -0.324751    2.031343   -0.001024    0.002158   -0.000628
C     1.025466   -1.279153    3.753738    0.008246    0.003840    0.001294
H     1.651840   -0.663722    4.393607    0.000242    0.008564    0.005892
H     0.344423   -1.904236    4.332301   -0.000462   -0.003532   -0.006330
O     0.397607   -3.737684    2.562629   -0.003528   -0.007098    0.002646
C    -0.903034    0.326311    3.348078    0.001736   -0.005980   -0.007660
H    -1.632849   -0.367309    3.763702    0.008246   -0.006150   -0.002278
H    -0.498535    0.995860    4.109765    0.021170   -0.016006   -0.010272
O    -0.520307    3.006353    2.821951   -0.000010    0.002486    0.000898
C     0.249234   -0.451069    2.690841   -0.004126   -0.046726   -0.016378
O    -0.157621   -1.332059    1.730502    0.048382   -0.044820    0.018736
H    -0.558071   -1.059630    1.225482   -1.228936    0.750542   -1.302102
O    -1.568094   -0.330532   -0.043022    0.062838   -0.031052    0.058458
H    -0.903840    0.006346   -0.583757    0.294596    0.210178    0.009664
O     0.525512    1.001321   -0.664086   -0.022536   -0.014152    0.006084
H     0.822694    0.823666    0.242586    0.003510   -0.026778   -0.000184
O     1.135377    0.508217    2.115162   -0.000464   -0.000312   -0.003306
H     2.021883    0.116517    2.091638   -0.009376   -0.010944   -0.007778
H     0.233761    1.921429   -0.652777   -0.011202   -0.000302    0.000384
H    -2.061033   -0.970946   -0.547680    0.010890   -0.179384    0.167200
139
* Frequency(6) -1276.8900
C     0.723525    4.868394   -0.285270   -0.000874   -0.000990   -0.000138
C    -4.269444    3.234708    0.307418   -0.000990    0.000452   -0.000504
C    -5.024177   -1.855148   -0.421547   -0.000654    0.000920    0.000804
C    -0.787323   -4.981167   -0.609605    0.000628   -0.000310    0.001814
C     4.153964   -3.182328    0.021118   -0.002452    0.000092    0.000406
C     5.111209    1.932237   -0.500416   -0.001582    0.000112   -0.000776
O    -0.176811    3.784143   -0.209061    0.000626   -0.000904   -0.001018
O    -4.225249    2.159783   -0.575906    0.001578   -0.000578    0.001262
O    -3.652768   -2.060470   -0.680738    0.007050    0.003886    0.001772
O     0.114270   -3.906844   -0.515691    0.001868   -0.000094   -0.002546
O     4.020199   -2.003011   -0.714764    0.000812   -0.000304   -0.000732
O     3.752090    2.171969   -0.735554    0.000768   -0.000450   -0.000418
C     1.402483    4.886703   -1.667742   -0.000220    0.000550   -0.000414
C    -3.877990    4.504595   -0.476382   -0.000372    0.000234    0.000148
C    -5.651609   -1.100193   -1.606457    0.000058   -0.000552   -0.000320
C    -1.536669   -4.856647   -1.947017   -0.000578   -0.000084    0.000164
C     3.822038   -4.354282   -0.921748   -0.001272    0.000536   -0.000166
C     5.664477    1.171275   -1.718127    0.000050    0.000280   -0.000338
O     0.473664    4.867448   -2.718492   -0.000056   -0.000496    0.000416
O    -4.711929    4.716767   -1.579717   -0.000126    0.000158   -0.000182
O    -5.541166   -1.799876   -2.814917   -0.000058    0.000004   -0.000116
O    -0.701701   -4.944065   -3.071296    0.000158    0.000150   -0.000022
O     4.646095   -4.365988   -2.053172    0.000146   -0.000138   -0.000356
O     5.560542    1.919066   -2.898270   -0.000064   -0.000196    0.000228
C     2.311049    3.662628   -1.818127    0.000046   -0.000030   -0.000508
C    -2.405788    4.424850   -0.924099    0.000022   -0.000174   -0.000562
C    -4.999492    0.285320   -1.703370    0.000420    0.000252   -0.000782
C    -2.244046   -3.494730   -1.935751   -0.000318    0.000210   -0.000842
C     2.343092   -4.260806   -1.325783   -0.000414    0.000086    0.001500
C     4.900527   -0.157066   -1.832139    0.000000    0.000000   -0.000386
O     3.140551    3.759834   -2.953673    0.000282   -0.000158   -0.000120
O    -1.994225    5.649249   -1.494267    0.000258    0.000414   -0.000348
O    -5.617039    1.073193   -2.691675   -0.000212    0.000382   -0.000444
O    -3.030876   -3.290191   -3.084066    0.000150    0.000872   -0.000050
O     1.954838   -5.372969   -2.100808    0.000216   -0.000316   -0.000442
O     5.431828   -0.976144   -2.843632    0.000006   -0.000036    0.000094
C     3.232949    3.485319   -0.606252   -0.000312    0.000572    0.000220
C    -1.486037    4.079274    0.259248    0.000106    0.001004    0.000844
C    -5.092862    1.046415   -0.373640   -0.000890    0.000746   -0.000404
C    -3.157374   -3.392176   -0.709194    0.000616   -0.000248   -0.000292
C     1.434216   -4.181561   -0.087924   -0.000890    0.003446    0.001752
C     4.953352   -0.947250   -0.517866   -0.000372    0.000288    0.000282
C     2.490003    3.651588    0.731540   -0.000314    0.000542    0.000136
C    -2.055196    2.828446    0.933388    0.000210    0.000460   -0.000076
C    -4.690904    0.172840    0.834433   -0.000790    0.000014   -0.000234
C    -2.404423   -3.746524    0.588466    0.002090    0.001948    0.001812
C     1.928927   -3.034158    0.799089   -0.002498    0.003616    0.001362
C     4.588208   -0.057235    0.685814    0.001018    0.000348    0.000114
O     1.676849    4.822194    0.734724    0.000492    0.000134    0.000722
O    -3.377878    3.064392    1.391692   -0.000170   -0.000614    0.000458
O    -5.230549   -1.153093    0.763810    0.000956   -0.000744    0.000376
O    -1.708975   -4.984533    0.444072   -0.001124   -0.002276   -0.000656
O     3.296030   -3.211230    1.139809   -0.000380   -0.000802    0.000936
O     5.299645    1.179576    0.666248    0.000482   -0.000548    0.000854
C     3.476272    3.805338    1.897694   -0.000210    0.000000   -0.000386
C    -1.266633    2.342950    2.149169    0.001802   -0.000172    0.002492
C    -5.239349    0.721354    2.164475   -0.000004    0.000158    0.000404
C    -3.372868   -3.916209    1.765146    0.000142    0.000454    0.000338
C     1.215944   -2.960654    2.154766   -0.069118    0.102738   -0.025696
C     4.947453   -0.701559    2.034845    0.000312    0.000004   -0.001020
O     4.318254    4.917599    1.739150    0.000164    0.000090   -0.000004
O    -1.574866    1.075029    2.344800    0.000852   -0.002852   -0.001006
O    -6.617182    0.990629    2.109988   -0.000632    0.000208    0.000008
O    -4.324649   -4.923162    1.531013   -0.000314   -0.000264   -0.000430
O     1.878552   -2.068079    2.941866    0.012720    0.002888    0.017176
O     6.289652   -1.111517    2.079943   -0.000124   -0.000034    0.000080
H     0.188008    5.812775   -0.131301    0.001506    0.000066    0.000522
H    -5.262954    3.351719    0.758283   -0.000114    0.003080   -0.000600
H    -5.533294   -2.816339   -0.275157    0.001366    0.001520   -0.001092
H    -0.267024   -5.944302   -0.547837   -0.000532   -0.001702    0.002144
H     5.164580   -3.288919    0.433942   -0.000344    0.000214   -0.001132
H     5.664626    2.865984   -0.340702   -0.000064   -0.000876    0.001594
H     2.022963    5.796250   -1.717984    0.000790    0.000036    0.001686
H    -4.001160    5.369962    0.183881   -0.000052    0.000452    0.000274
H    -6.723979   -0.978977   -1.418407   -0.000082   -0.001472    0.000892
H    -2.287043   -5.658188   -2.002169    0.003288   -0.004246    0.001864
H     3.995868   -5.297442   -0.393014   -0.001338    0.002650    0.003390
H     6.730048    0.966672   -1.569518   -0.000340   -0.000314    0.001810
H    -0.336732    5.340175   -2.451309   -0.000508    0.000550   -0.001254
H    -4.847732    3.872641   -2.041240    0.001030   -0.000908   -0.000598
H    -4.648587   -2.186556   -2.904207    0.000376   -0.001054   -0.002484
H     0.224056   -5.087588   -2.796509   -0.001316    0.002664   -0.000838
H     4.740591   -3.459259   -2.392010   -0.000150    0.001220    0.000608
H     4.709916    2.397263   -2.918625   -0.001322    0.000744   -0.000342
H     1.681376    2.767616   -1.900231    0.003766   -0.001164   -0.003954
H    -2.309878    3.621670   -1.669780   -0.001436    0.003972   -0.004646
H    -3.933557    0.155196   -1.941499   -0.002546    0.002140   -0.009972
H    -1.465156   -2.722232   -1.873942    0.013256   -0.011600   -0.008118
H     2.199649   -3.335836   -1.905003    0.001864   -0.000818    0.000470
H     3.843502    0.067994   -2.042865    0.000390   -0.002334    0.000302
H     2.582481    3.959342   -3.720706   -0.001262   -0.000238    0.000058
H    -2.735849    5.994389   -2.019633    0.000858   -0.000350   -0.000336
H    -5.759254    0.517429   -3.474624    0.000762    0.001138   -0.000330
H    -2.523305   -3.589571   -3.854645   -0.003468    0.000272   -0.001592
H     2.682405   -5.581629   -2.710768    0.000482    0.000634   -0.001242
H     5.591373   -0.424376   -3.625632   -0.000972    0.001342   -0.000384
H     4.040900    4.226215   -0.663419    0.000014    0.000326    0.001634
H    -1.454849    4.905474    0.978583   -0.000354    0.001760   -0.000752
H    -6.122376    1.405224   -0.236232   -0.001238   -0.001978   -0.000126
H    -3.988272   -4.097653   -0.836083    0.002232   -0.001096    0.002978
H     1.471954   -5.121151    0.476124   -0.000164    0.009430    0.010990
H     5.961239   -1.359674   -0.379431   -0.000332   -0.000126    0.002582
H     1.865549    2.769356    0.913516    0.004726   -0.000758    0.009574
H    -2.075222    2.004595    0.207446   -0.013356    0.013152   -0.008934
H    -3.597668    0.121606    0.890414   -0.005610    0.005454    0.021570
H    -1.683077   -2.960267    0.831887    0.021168   -0.020760    0.031062
H     1.801978   -2.091206    0.252103   -0.001630    0.004718    0.003404
H     3.511344    0.151110    0.632413    0.000406   -0.006536    0.009350
H     4.125118    2.928274    1.937094   -0.002042   -0.001406    0.002348
H     2.898945    3.876155    2.826250    0.001322   -0.001980    0.001098
H    -5.019080   -0.019813    2.940317    0.001234    0.001134    0.001976
H    -4.742543    1.656895    2.417795   -0.001366    0.000740    0.002388
H    -3.930065   -2.988151    1.907980   -0.003832   -0.002666    0.003784
H    -2.781721   -4.131624    2.661485    0.002482    0.005248    0.000796
H     4.742654    0.033091    2.822700   -0.002788   -0.003022    0.001794
H     4.341163   -1.592206    2.205514   -0.006870    0.004778    0.000594
H     3.771479    5.716383    1.754562   -0.001090   -0.000134   -0.000036
H    -7.087752    0.151280    2.005028    0.000044    0.000200    0.000824
H    -3.857706   -5.768606    1.463315   -0.001412    0.000410   -0.000188
H     6.851954   -0.324812    2.031361   -0.001024    0.002158   -0.000628
C     1.025233   -1.279261    3.753702    0.008246    0.003840    0.001294
H     1.651834   -0.663964    4.393441    0.000242    0.008564    0.005892
H     0.344436   -1.904136    4.332480   -0.000462   -0.003532   -0.006330
O     0.397707   -3.737483    2.562554   -0.003528   -0.007098    0.002646
C    -0.903084    0.326480    3.348295    0.001736   -0.005980   -0.007660
H    -1.633082   -0.367135    3.763767    0.008246   -0.006150   -0.002278
H    -0.499134    0.996313    4.110056    0.021170   -0.016006   -0.010272
O    -0.520307    3.006283    2.821926   -0.000010    0.002486    0.000898
C     0.249351   -0.449748    2.691305   -0.004126   -0.046726   -0.016378
O    -0.158990   -1.330792    1.729972    0.048382   -0.044820    0.018736
H    -0.523312   -1.080858    1.262310   -1.228936    0.750542   -1.302102
O    -1.569871   -0.329654   -0.044675    0.062838   -0.031052    0.058458
H    -0.912172    0.000401   -0.584030    0.294596    0.210178    0.009664
O     0.526150    1.001721   -0.664258   -0.022536   -0.014152    0.006084
H     0.822595    0.824423    0.242591    0.003510   -0.026778   -0.000184
O     1.135390    0.508226    2.115255   -0.000464   -0.000312   -0.003306
H     2.022148    0.116826    2.091858   -0.009376   -0.010944   -0.007778
H     0.234078    1.921437   -0.652788   -0.011202   -0.000302    0.000384
H    -2.061341   -0.965872   -0.552409    0.010890   -0.179384    0.167200
139
* Frequency(6) -1276.8900
C     0.723517    4.868385   -0.285271   -0.000874   -0.000990   -0.000138
C    -4.269453    3.234713    0.307413   -0.000990    0.000452   -0.000504
C    -5.024183   -1.855139   -0.421540   -0.000654    0.000920    0.000804
C    -0.787317   -4.981170   -0.609587    0.000628   -0.000310    0.001814
C     4.153941   -3.182327    0.021122   -0.002452    0.000092    0.000406
C     5.111194    1.932238   -0.500424   -0.001582    0.000112   -0.000776
O    -0.176805    3.784135   -0.209071    0.000626   -0.000904   -0.001018
O    -4.225234    2.159777   -0.575894    0.001578   -0.000578    0.001262
O    -3.652701   -2.060433   -0.680721    0.007050    0.003886    0.001772
O     0.114288   -3.906845   -0.515715    0.001868   -0.000094   -0.002546
O     4.020206   -2.003014   -0.714771    0.000812   -0.000304   -0.000732
O     3.752097    2.171965   -0.735558    0.000768   -0.000450   -0.000418
C     1.402481    4.886708   -1.667746   -0.000220    0.000550   -0.000414
C    -3.877994    4.504598   -0.476380   -0.000372    0.000234    0.000148
C    -5.651609   -1.100199   -1.606460    0.000058   -0.000552   -0.000320
C    -1.536675   -4.856647   -1.947016   -0.000578   -0.000084    0.000164
C     3.822026   -4.354277   -0.921750   -0.001272    0.000536   -0.000166
C     5.664477    1.171278   -1.718130    0.000050    0.000280   -0.000338
O     0.473663    4.867443   -2.718488   -0.000056   -0.000496    0.000416
O    -4.711930    4.716768   -1.579718   -0.000126    0.000158   -0.000182
O    -5.541166   -1.799876   -2.814918   -0.000058    0.000004   -0.000116
O    -0.701700   -4.944064   -3.071297    0.000158    0.000150   -0.000022
O     4.646096   -4.365989   -2.053175    0.000146   -0.000138   -0.000356
O     5.560542    1.919065   -2.898267   -0.000064   -0.000196    0.000228
C     2.311049    3.662628   -1.818132    0.000046   -0.000030   -0.000508
C    -2.405787    4.424848   -0.924104    0.000022   -0.000174   -0.000562
C    -4.999489    0.285322   -1.703378    0.000420    0.000252   -0.000782
C    -2.244049   -3.494728   -1.935759   -0.000318    0.000210   -0.000842
C     2.343088   -4.260805   -1.325769   -0.000414    0.000086    0.001500
C     4.900527   -0.157066   -1.832143    0.000000    0.000000   -0.000386
O     3.140553    3.759833   -2.953674    0.000282   -0.000158   -0.000120
O    -1.994223    5.649253   -1.494270    0.000258    0.000414   -0.000348
O    -5.617041    1.073196   -2.691679   -0.000212    0.000382   -0.000444
O    -3.030875   -3.290183   -3.084066    0.000150    0.000872   -0.000050
O     1.954840   -5.372972   -2.100812    0.000216   -0.000316   -0.000442
O     5.431828   -0.976145   -2.843631    0.000006   -0.000036    0.000094
C     3.232946    3.485325   -0.606250   -0.000312    0.000572    0.000220
C    -1.486036    4.079283    0.259256    0.000106    0.001004    0.000844
C    -5.092870    1.046422   -0.373644   -0.000890    0.000746   -0.000404
C    -3.157368   -3.392179   -0.709197    0.000616   -0.000248   -0.000292
C     1.434208   -4.181528   -0.087907   -0.000890    0.003446    0.001752
C     4.953348   -0.947248   -0.517864   -0.000372    0.000288    0.000282
C     2.490000    3.651593    0.731541   -0.000314    0.000542    0.000136
C    -2.055194    2.828450    0.933387    0.000210    0.000460   -0.000076
C    -4.690912    0.172840    0.834430   -0.000790    0.000014   -0.000234
C    -2.404403   -3.746506    0.588483    0.002090    0.001948    0.001812
C     1.928904   -3.034124    0.799102   -0.002498    0.003616    0.001362
C     4.588218   -0.057232    0.685815    0.001018    0.000348    0.000114
O     1.676854    4.822196    0.734731    0.000492    0.000134    0.000722
O    -3.377879    3.064386    1.391697   -0.000170   -0.000614    0.000458
O    -5.230540   -1.153101    0.763813    0.000956   -0.000744    0.000376
O    -1.708986   -4.984555    0.444066   -0.001124   -0.002276   -0.000656
O     3.296026   -3.211238    1.139817   -0.000380   -0.000802    0.000936
O     5.299649    1.179571    0.666256    0.000482   -0.000548    0.000854
C     3.476270    3.805338    1.897690   -0.000210    0.000000   -0.000386
C    -1.266615    2.342948    2.149192    0.001802   -0.000172    0.002492
C    -5.239349    0.721355    2.164479   -0.000004    0.000158    0.000404
C    -3.372866   -3.916205    1.765149    0.000142    0.000454    0.000338
C     1.215286   -2.959677    2.154521   -0.069118    0.102738   -0.025696
C     4.947456   -0.701559    2.034835    0.000312    0.000004   -0.001020
O     4.318255    4.917599    1.739150    0.000164    0.000090   -0.000004
O    -1.574858    1.075002    2.344790    0.000852   -0.002852   -0.001006
O    -6.617188    0.990631    2.109988   -0.000632    0.000208    0.000008
O    -4.324652   -4.923164    1.531009   -0.000314   -0.000264   -0.000430
O     1.878673   -2.068052    2.942029    0.012720    0.002888    0.017176
O     6.289651   -1.111517    2.079944   -0.000124   -0.000034    0.000080
H     0.188022    5.812776   -0.131296    0.001506    0.000066    0.000522
H    -5.262955    3.351748    0.758278   -0.000114    0.003080   -0.000600
H    -5.533281   -2.816325   -0.275167    0.001366    0.001520   -0.001092
H    -0.267029   -5.944319   -0.547816   -0.000532   -0.001702    0.002144
H     5.164577   -3.288917    0.433931   -0.000344    0.000214   -0.001132
H     5.664626    2.865975   -0.340687   -0.000064   -0.000876    0.001594
H     2.022971    5.796251   -1.717968    0.000790    0.000036    0.001686
H    -4.001160    5.369967    0.183884   -0.000052    0.000452    0.000274
H    -6.723980   -0.978991   -1.418399   -0.000082   -0.001472    0.000892
H    -2.287012   -5.658228   -2.002151    0.003288   -0.004246    0.001864
H     3.995855   -5.297417   -0.392982   -0.001338    0.002650    0.003390
H     6.730044    0.966669   -1.569501   -0.000340   -0.000314    0.001810
H    -0.336737    5.340180   -2.451321   -0.000508    0.000550   -0.001254
H    -4.847722    3.872632   -2.041246    0.001030   -0.000908   -0.000598
H    -4.648584   -2.186566   -2.904230    0.000376   -0.001054   -0.002484
H     0.224044   -5.087563   -2.796517   -0.001316    0.002664   -0.000838
H     4.740590   -3.459247   -2.392004   -0.000150    0.001220    0.000608
H     4.709904    2.397271   -2.918628   -0.001322    0.000744   -0.000342
H     1.681412    2.767605   -1.900268    0.003766   -0.001164   -0.003954
H    -2.309892    3.621707   -1.669825   -0.001436    0.003972   -0.004646
H    -3.933581    0.155216   -1.941594   -0.002546    0.002140   -0.009972
H    -1.465030   -2.722342   -1.874020    0.013256   -0.011600   -0.008118
H     2.199667   -3.335843   -1.904998    0.001864   -0.000818    0.000470
H     3.843506    0.067972   -2.042862    0.000390   -0.002334    0.000302
H     2.582469    3.959340   -3.720706   -0.001262   -0.000238    0.000058
H    -2.735841    5.994386   -2.019636    0.000858   -0.000350   -0.000336
H    -5.759247    0.517440   -3.474627    0.000762    0.001138   -0.000330
H    -2.523338   -3.589568   -3.854660   -0.003468    0.000272   -0.001592
H     2.682409   -5.581623   -2.710780    0.000482    0.000634   -0.001242
H     5.591364   -0.424363   -3.625636   -0.000972    0.001342   -0.000384
H     4.040900    4.226218   -0.663403    0.000014    0.000326    0.001634
H    -1.454852    4.905491    0.978576   -0.000354    0.001760   -0.000752
H    -6.122388    1.405205   -0.236233   -0.001238   -0.001978   -0.000126
H    -3.988250   -4.097663   -0.836054    0.002232   -0.001096    0.002978
H     1.471953   -5.121062    0.476228   -0.000164    0.009430    0.010990
H     5.961236   -1.359675   -0.379406   -0.000332   -0.000126    0.002582
H     1.865594    2.769349    0.913607    0.004726   -0.000758    0.009574
H    -2.075349    2.004720    0.207361   -0.013356    0.013152   -0.008934
H    -3.597722    0.121658    0.890620   -0.005610    0.005454    0.021570
H    -1.682876   -2.960464    0.832183    0.021168   -0.020760    0.031062
H     1.801962   -2.091161    0.252135   -0.001630    0.004718    0.003404
H     3.511348    0.151048    0.632502    0.000406   -0.006536    0.009350
H     4.125099    2.928261    1.937116   -0.002042   -0.001406    0.002348
H     2.898957    3.876136    2.826260    0.001322   -0.001980    0.001098
H    -5.019069   -0.019802    2.940336    0.001234    0.001134    0.001976
H    -4.742556    1.656902    2.417818   -0.001366    0.000740    0.002388
H    -3.930102   -2.988176    1.908016   -0.003832   -0.002666    0.003784
H    -2.781697   -4.131574    2.661493    0.002482    0.005248    0.000796
H     4.742628    0.033062    2.822717   -0.002788   -0.003022    0.001794
H     4.341098   -1.592160    2.205519   -0.006870    0.004778    0.000594
H     3.771469    5.716381    1.754561   -0.001090   -0.000134   -0.000036
H    -7.087752    0.151282    2.005035    0.000044    0.000200    0.000824
H    -3.857720   -5.768602    1.463313   -0.001412    0.000410   -0.000188
H     6.851944   -0.324791    2.031355   -0.001024    0.002158   -0.000628
C     1.025311   -1.279225    3.753714    0.008246    0.003840    0.001294
H     1.651836   -0.663883    4.393497    0.000242    0.008564    0.005892
H     0.344432   -1.904170    4.332420   -0.000462   -0.003532   -0.006330
O     0.397673   -3.737551    2.562579   -0.003528   -0.007098    0.002646
C    -0.903067    0.326423    3.348222    0.001736   -0.005980   -0.007660
H    -1.633004   -0.367193    3.763745    0.008246   -0.006150   -0.002278
H    -0.498933    0.996161    4.109958    0.021170   -0.016006   -0.010272
O    -0.520307    3.006307    2.821934   -0.000010    0.002486    0.000898
C     0.249312   -0.450192    2.691149   -0.004126   -0.046726   -0.016378
O    -0.158530   -1.331218    1.730150    0.048382   -0.044820    0.018736
H    -0.535004   -1.073717    1.249921   -1.228936    0.750542   -1.302102
O    -1.569273   -0.329949   -0.044119    0.062838   -0.031052    0.058458
H    -0.909370    0.002401   -0.583938    0.294596    0.210178    0.009664
O     0.525935    1.001587   -0.664200   -0.022536   -0.014152    0.006084
H     0.822628    0.824169    0.242589    0.003510   -0.026778   -0.000184
O     1.135385    0.508223    2.115224   -0.000464   -0.000312   -0.003306
H     2.022059    0.116722    2.091784   -0.009376   -0.010944   -0.007778
H     0.233972    1.921434   -0.652784   -0.011202   -0.000302    0.000384
H    -2.061238   -0.967579   -0.550818    0.010890   -0.179384    0.167200
139
* Frequency(6) -1276.8900
C     0.723476    4.868339   -0.285278   -0.000874   -0.000990   -0.000138
C    -4.269499    3.234734    0.307390   -0.000990    0.000452   -0.000504
C    -5.024213   -1.855097   -0.421503   -0.000654    0.000920    0.000804
C    -0.787288   -4.981184   -0.609504    0.000628   -0.000310    0.001814
C     4.153827   -3.182323    0.021141   -0.002452    0.000092    0.000406
C     5.111121    1.932243   -0.500460   -0.001582    0.000112   -0.000776
O    -0.176776    3.784093   -0.209118    0.000626   -0.000904   -0.001018
O    -4.225161    2.159750   -0.575836    0.001578   -0.000578    0.001262
O    -3.652375   -2.060254   -0.680639    0.007050    0.003886    0.001772
O     0.114375   -3.906849   -0.515833    0.001868   -0.000094   -0.002546
O     4.020244   -2.003028   -0.714805    0.000812   -0.000304   -0.000732
O     3.752133    2.171944   -0.735578    0.000768   -0.000450   -0.000418
C     1.402470    4.886734   -1.667765   -0.000220    0.000550   -0.000414
C    -3.878011    4.504608   -0.476373   -0.000372    0.000234    0.000148
C    -5.651606   -1.100224   -1.606475    0.000058   -0.000552   -0.000320
C    -1.536702   -4.856651   -1.947008   -0.000578   -0.000084    0.000164
C     3.821967   -4.354252   -0.921757   -0.001272    0.000536   -0.000166
C     5.664479    1.171291   -1.718146    0.000050    0.000280   -0.000338
O     0.473660    4.867420   -2.718469   -0.000056   -0.000496    0.000416
O    -4.711936    4.716776   -1.579727   -0.000126    0.000158   -0.000182
O    -5.541169   -1.799876   -2.814923   -0.000058    0.000004   -0.000116
O    -0.701692   -4.944057   -3.071298    0.000158    0.000150   -0.000022
O     4.646103   -4.365996   -2.053192    0.000146   -0.000138   -0.000356
O     5.560539    1.919055   -2.898257   -0.000064   -0.000196    0.000228
C     2.311052    3.662627   -1.818155    0.000046   -0.000030   -0.000508
C    -2.405786    4.424840   -0.924130    0.000022   -0.000174   -0.000562
C    -4.999469    0.285334   -1.703414    0.000420    0.000252   -0.000782
C    -2.244064   -3.494719   -1.935798   -0.000318    0.000210   -0.000842
C     2.343069   -4.260801   -1.325700   -0.000414    0.000086    0.001500
C     4.900527   -0.157066   -1.832161    0.000000    0.000000   -0.000386
O     3.140566    3.759825   -2.953680    0.000282   -0.000158   -0.000120
O    -1.994211    5.649272   -1.494286    0.000258    0.000414   -0.000348
O    -5.617051    1.073214   -2.691700   -0.000212    0.000382   -0.000444
O    -3.030868   -3.290143   -3.084068    0.000150    0.000872   -0.000050
O     1.954850   -5.372986   -2.100832    0.000216   -0.000316   -0.000442
O     5.431828   -0.976146   -2.843627    0.000006   -0.000036    0.000094
C     3.232931    3.485351   -0.606239   -0.000312    0.000572    0.000220
C    -1.486031    4.079330    0.259295    0.000106    0.001004    0.000844
C    -5.092911    1.046456   -0.373663   -0.000890    0.000746   -0.000404
C    -3.157339   -3.392190   -0.709210    0.000616   -0.000248   -0.000292
C     1.434167   -4.181369   -0.087826   -0.000890    0.003446    0.001752
C     4.953331   -0.947234   -0.517851   -0.000372    0.000288    0.000282
C     2.489985    3.651618    0.731547   -0.000314    0.000542    0.000136
C    -2.055185    2.828471    0.933383    0.000210    0.000460   -0.000076
C    -4.690949    0.172841    0.834420   -0.000790    0.000014   -0.000234
C    -2.404306   -3.746416    0.588567    0.002090    0.001948    0.001812
C     1.928788   -3.033957    0.799165   -0.002498    0.003616    0.001362
C     4.588265   -0.057216    0.685821    0.001018    0.000348    0.000114
O     1.676877    4.822202    0.734764    0.000492    0.000134    0.000722
O    -3.377887    3.064358    1.391718   -0.000170   -0.000614    0.000458
O    -5.230496   -1.153135    0.763831    0.000956   -0.000744    0.000376
O    -1.709038   -4.984660    0.444035   -0.001124   -0.002276   -0.000656
O     3.296008   -3.211275    1.139861   -0.000380   -0.000802    0.000936
O     5.299672    1.179546    0.666296    0.000482   -0.000548    0.000854
C     3.476261    3.805338    1.897672   -0.000210    0.000000   -0.000386
C    -1.266532    2.342940    2.149308    0.001802   -0.000172    0.002492
C    -5.239349    0.721363    2.164498   -0.000004    0.000158    0.000404
C    -3.372860   -3.916184    1.765165    0.000142    0.000454    0.000338
C     1.212087   -2.954922    2.153332   -0.069118    0.102738   -0.025696
C     4.947471   -0.701559    2.034788    0.000312    0.000004   -0.001020
O     4.318263    4.917604    1.739150    0.000164    0.000090   -0.000004
O    -1.574819    1.074870    2.344744    0.000852   -0.002852   -0.001006
O    -6.617217    0.990641    2.109989   -0.000632    0.000208    0.000008
O    -4.324667   -4.923177    1.530989   -0.000314   -0.000264   -0.000430
O     1.879262   -2.067918    2.942824    0.012720    0.002888    0.017176
O     6.289645   -1.111519    2.079948   -0.000124   -0.000034    0.000080
H     0.188092    5.812779   -0.131272    0.001506    0.000066    0.000522
H    -5.262961    3.351891    0.758250   -0.000114    0.003080   -0.000600
H    -5.533218   -2.816254   -0.275218    0.001366    0.001520   -0.001092
H    -0.267054   -5.944397   -0.547717   -0.000532   -0.001702    0.002144
H     5.164561   -3.288907    0.433879   -0.000344    0.000214   -0.001132
H     5.664623    2.865935   -0.340613   -0.000064   -0.000876    0.001594
H     2.023008    5.796252   -1.717890    0.000790    0.000036    0.001686
H    -4.001163    5.369988    0.183897   -0.000052    0.000452    0.000274
H    -6.723984   -0.979059   -1.418357   -0.000082   -0.001472    0.000892
H    -2.286859   -5.658425   -2.002065    0.003288   -0.004246    0.001864
H     3.995793   -5.297294   -0.392825   -0.001338    0.002650    0.003390
H     6.730029    0.966654   -1.569417   -0.000340   -0.000314    0.001810
H    -0.336760    5.340206   -2.451379   -0.000508    0.000550   -0.001254
H    -4.847675    3.872590   -2.041274    0.001030   -0.000908   -0.000598
H    -4.648566   -2.186615   -2.904345    0.000376   -0.001054   -0.002484
H     0.223983   -5.087440   -2.796555   -0.001316    0.002664   -0.000838
H     4.740583   -3.459190   -2.391976   -0.000150    0.001220    0.000608
H     4.709842    2.397305   -2.918644   -0.001322    0.000744   -0.000342
H     1.681587    2.767551   -1.900451    0.003766   -0.001164   -0.003954
H    -2.309958    3.621891   -1.670040   -0.001436    0.003972   -0.004646
H    -3.933699    0.155315   -1.942055   -0.002546    0.002140   -0.009972
H    -1.464416   -2.722879   -1.874395    0.013256   -0.011600   -0.008118
H     2.199753   -3.335881   -1.904977    0.001864   -0.000818    0.000470
H     3.843524    0.067864   -2.042848    0.000390   -0.002334    0.000302
H     2.582411    3.959329   -3.720703   -0.001262   -0.000238    0.000058
H    -2.735801    5.994370   -2.019652    0.000858   -0.000350   -0.000336
H    -5.759211    0.517493   -3.474642    0.000762    0.001138   -0.000330
H    -2.523499   -3.589556   -3.854734   -0.003468    0.000272   -0.001592
H     2.682432   -5.581594   -2.710837    0.000482    0.000634   -0.001242
H     5.591319   -0.424301   -3.625653   -0.000972    0.001342   -0.000384
H     4.040901    4.226233   -0.663328    0.000014    0.000326    0.001634
H    -1.454868    4.905572    0.978541   -0.000354    0.001760   -0.000752
H    -6.122445    1.405114   -0.236239   -0.001238   -0.001978   -0.000126
H    -3.988147   -4.097714   -0.835917    0.002232   -0.001096    0.002978
H     1.471945   -5.120625    0.476737   -0.000164    0.009430    0.010990
H     5.961220   -1.359681   -0.379287   -0.000332   -0.000126    0.002582
H     1.865812    2.769314    0.914050    0.004726   -0.000758    0.009574
H    -2.075968    2.005328    0.206948   -0.013356    0.013152   -0.008934
H    -3.597981    0.121910    0.891618   -0.005610    0.005454    0.021570
H    -1.681896   -2.961425    0.833621    0.021168   -0.020760    0.031062
H     1.801887   -2.090942    0.252293   -0.001630    0.004718    0.003404
H     3.511367    0.150745    0.632934    0.000406   -0.006536    0.009350
H     4.125004    2.928196    1.937225   -0.002042   -0.001406    0.002348
H     2.899019    3.876044    2.826311    0.001322   -0.001980    0.001098
H    -5.019012   -0.019749    2.940427    0.001234    0.001134    0.001976
H    -4.742619    1.656936    2.417928   -0.001366    0.000740    0.002388
H    -3.930279   -2.988300    1.908191   -0.003832   -0.002666    0.003784
H    -2.781582   -4.131331    2.661530    0.002482    0.005248    0.000796
H     4.742499    0.032922    2.822800   -0.002788   -0.003022    0.001794
H     4.340780   -1.591939    2.205547   -0.006870    0.004778    0.000594
H     3.771418    5.716375    1.754560   -0.001090   -0.000134   -0.000036
H    -7.087750    0.151291    2.005074    0.000044    0.000200    0.000824
H    -3.857785   -5.768583    1.463304   -0.001412    0.000410   -0.000188
H     6.851897   -0.324691    2.031326   -0.001024    0.002158   -0.000628
C     1.025693   -1.279047    3.753774    0.008246    0.003840    0.001294
H     1.651847   -0.663486    4.393770    0.000242    0.008564    0.005892
H     0.344410   -1.904333    4.332127   -0.000462   -0.003532   -0.006330
O     0.397510   -3.737879    2.562702   -0.003528   -0.007098    0.002646
C    -0.902987    0.326146    3.347867    0.001736   -0.005980   -0.007660
H    -1.632622   -0.367478    3.763639    0.008246   -0.006150   -0.002278
H    -0.497953    0.995420    4.109483    0.021170   -0.016006   -0.010272
O    -0.520307    3.006422    2.821976   -0.000010    0.002486    0.000898
C     0.249121   -0.452355    2.690391   -0.004126   -0.046726   -0.016378
O    -0.156290   -1.333292    1.731017    0.048382   -0.044820    0.018736
H    -0.591882   -1.038981    1.189658   -1.228936    0.750542   -1.302102
O    -1.566365   -0.331387   -0.041414    0.062838   -0.031052    0.058458
H    -0.895735    0.012128   -0.583491    0.294596    0.210178    0.009664
O     0.524892    1.000932   -0.663919   -0.022536   -0.014152    0.006084
H     0.822791    0.822929    0.242581    0.003510   -0.026778   -0.000184
O     1.135364    0.508208    2.115071   -0.000464   -0.000312   -0.003306
H     2.021625    0.116216    2.091424   -0.009376   -0.010944   -0.007778
H     0.233453    1.921420   -0.652767   -0.011202   -0.000302    0.000384
H    -2.060734   -0.975881   -0.543080    0.010890   -0.179384    0.167200
139
* Frequency(6) -1276.8900
C     0.723408    4.868262   -0.285288   -0.000874   -0.000990   -0.000138
C    -4.269576    3.234769    0.307350   -0.000990    0.000452   -0.000504
C    -5.024264   -1.855025   -0.421440   -0.000654    0.000920    0.000804
C    -0.787239   -4.981208   -0.609362    0.000628   -0.000310    0.001814
C     4.153636   -3.182316    0.021173   -0.002452    0.000092    0.000406
C     5.110997    1.932252   -0.500520   -0.001582    0.000112   -0.000776
O    -0.176728    3.784022   -0.209197    0.000626   -0.000904   -0.001018
O    -4.225038    2.159705   -0.575737    0.001578   -0.000578    0.001262
O    -3.651825   -2.059950   -0.680501    0.007050    0.003886    0.001772
O     0.114520   -3.906857   -0.516032    0.001868   -0.000094   -0.002546
O     4.020307   -2.003052   -0.714862    0.000812   -0.000304   -0.000732
O     3.752193    2.171909   -0.735610    0.000768   -0.000450   -0.000418
C     1.402453    4.886777   -1.667797   -0.000220    0.000550   -0.000414
C    -3.878040    4.504627   -0.476362   -0.000372    0.000234    0.000148
C    -5.651601   -1.100267   -1.606500    0.000058   -0.000552   -0.000320
C    -1.536747   -4.856658   -1.946995   -0.000578   -0.000084    0.000164
C     3.821867   -4.354210   -0.921770   -0.001272    0.000536   -0.000166
C     5.664483    1.171313   -1.718172    0.000050    0.000280   -0.000338
O     0.473656    4.867382   -2.718436   -0.000056   -0.000496    0.000416
O    -4.711946    4.716788   -1.579741   -0.000126    0.000158   -0.000182
O    -5.541174   -1.799876   -2.814932   -0.000058    0.000004   -0.000116
O    -0.701680   -4.944045   -3.071299    0.000158    0.000150   -0.000022
O     4.646115   -4.366006   -2.053219    0.000146   -0.000138   -0.000356
O     5.560534    1.919040   -2.898239   -0.000064   -0.000196    0.000228
C     2.311055    3.662624   -1.818195    0.000046   -0.000030   -0.000508
C    -2.405785    4.424826   -0.924174    0.000022   -0.000174   -0.000562
C    -4.999436    0.285354   -1.703475    0.000420    0.000252   -0.000782
C    -2.244089   -3.494702   -1.935864   -0.000318    0.000210   -0.000842
C     2.343037   -4.260794   -1.325582   -0.000414    0.000086    0.001500
C     4.900527   -0.157066   -1.832191    0.000000    0.000000   -0.000386
O     3.140588    3.759813   -2.953689    0.000282   -0.000158   -0.000120
O    -1.994190    5.649304   -1.494313    0.000258    0.000414   -0.000348
O    -5.617067    1.073244   -2.691735   -0.000212    0.000382   -0.000444
O    -3.030856   -3.290074   -3.084072    0.000150    0.000872   -0.000050
O     1.954867   -5.373011   -2.100867    0.000216   -0.000316   -0.000442
O     5.431829   -0.976149   -2.843619    0.000006   -0.000036    0.000094
C     3.232907    3.485396   -0.606222   -0.000312    0.000572    0.000220
C    -1.486023    4.079408    0.259361    0.000106    0.001004    0.000844
C    -5.092981    1.046515   -0.373694   -0.000890    0.000746   -0.000404
C    -3.157291   -3.392210   -0.709233    0.000616   -0.000248   -0.000292
C     1.434097   -4.181100   -0.087690   -0.000890    0.003446    0.001752
C     4.953302   -0.947212   -0.517829   -0.000372    0.000288    0.000282
C     2.489961    3.651660    0.731558   -0.000314    0.000542    0.000136
C    -2.055168    2.828507    0.933377    0.000210    0.000460   -0.000076
C    -4.691010    0.172842    0.834401   -0.000790    0.000014   -0.000234
C    -2.404143   -3.746264    0.588708    0.002090    0.001948    0.001812
C     1.928593   -3.033674    0.799271   -0.002498    0.003616    0.001362
C     4.588344   -0.057189    0.685829    0.001018    0.000348    0.000114
O     1.676915    4.822212    0.734821    0.000492    0.000134    0.000722
O    -3.377900    3.064310    1.391754   -0.000170   -0.000614    0.000458
O    -5.230422   -1.153193    0.763860    0.000956   -0.000744    0.000376
O    -1.709125   -4.984838    0.443984   -0.001124   -0.002276   -0.000656
O     3.295979   -3.211338    1.139934   -0.000380   -0.000802    0.000936
O     5.299709    1.179503    0.666362    0.000482   -0.000548    0.000854
C     3.476244    3.805338    1.897642   -0.000210    0.000000   -0.000386
C    -1.266391    2.342927    2.149502    0.001802   -0.000172    0.002492
C    -5.239349    0.721375    2.164529   -0.000004    0.000158    0.000404
C    -3.372849   -3.916149    1.765191    0.000142    0.000454    0.000338
C     1.206694   -2.946905    2.151327   -0.069118    0.102738   -0.025696
C     4.947495   -0.701559    2.034708    0.000312    0.000004   -0.001020
O     4.318276    4.917611    1.739150    0.000164    0.000090   -0.000004
O    -1.574752    1.074647    2.344665    0.000852   -0.002852   -0.001006
O    -6.617266    0.990657    2.109989   -0.000632    0.000208    0.000008
O    -4.324691   -4.923197    1.530955   -0.000314   -0.000264   -0.000430
O     1.880255   -2.067693    2.944165    0.012720    0.002888    0.017176
O     6.289636   -1.111522    2.079954   -0.000124   -0.000034    0.000080
H     0.188209    5.812784   -0.131231    0.001506    0.000066    0.000522
H    -5.262969    3.352131    0.758203   -0.000114    0.003080   -0.000600
H    -5.533112   -2.816136   -0.275303    0.001366    0.001520   -0.001092
H    -0.267096   -5.944530   -0.547550   -0.000532   -0.001702    0.002144
H     5.164534   -3.288890    0.433790   -0.000344    0.000214   -0.001132
H     5.664618    2.865866   -0.340489   -0.000064   -0.000876    0.001594
H     2.023069    5.796255   -1.717758    0.000790    0.000036    0.001686
H    -4.001167    5.370023    0.183918   -0.000052    0.000452    0.000274
H    -6.723990   -0.979174   -1.418288   -0.000082   -0.001472    0.000892
H    -2.286603   -5.658756   -2.001920    0.003288   -0.004246    0.001864
H     3.995689   -5.297088   -0.392561   -0.001338    0.002650    0.003390
H     6.730002    0.966630   -1.569276   -0.000340   -0.000314    0.001810
H    -0.336800    5.340249   -2.451476   -0.000508    0.000550   -0.001254
H    -4.847594    3.872519   -2.041320    0.001030   -0.000908   -0.000598
H    -4.648537   -2.186697   -2.904539    0.000376   -0.001054   -0.002484
H     0.223880   -5.087232   -2.796621   -0.001316    0.002664   -0.000838
H     4.740571   -3.459095   -2.391929   -0.000150    0.001220    0.000608
H     4.709739    2.397363   -2.918670   -0.001322    0.000744   -0.000342
H     1.681880    2.767460   -1.900760    0.003766   -0.001164   -0.003954
H    -2.310070    3.622201   -1.670402   -0.001436    0.003972   -0.004646
H    -3.933898    0.155482   -1.942833   -0.002546    0.002140   -0.009972
H    -1.463382   -2.723784   -1.875029    0.013256   -0.011600   -0.008118
H     2.199898   -3.335945   -1.904940    0.001864   -0.000818    0.000470
H     3.843554    0.067682   -2.042825    0.000390   -0.002334    0.000302
H     2.582312    3.959310   -3.720698   -0.001262   -0.000238    0.000058
H    -2.735734    5.994342   -2.019678    0.000858   -0.000350   -0.000336
H    -5.759152    0.517581   -3.474668    0.000762    0.001138   -0.000330
H    -2.523769   -3.589534   -3.854858   -0.003468    0.000272   -0.001592
H     2.682469   -5.581544   -2.710934    0.000482    0.000634   -0.001242
H     5.591243   -0.424196   -3.625683   -0.000972    0.001342   -0.000384
H     4.040902    4.226259   -0.663200    0.000014    0.000326    0.001634
H    -1.454896    4.905710    0.978483   -0.000354    0.001760   -0.000752
H    -6.122542    1.404959   -0.236249   -0.001238   -0.001978   -0.000126
H    -3.987973   -4.097799   -0.835684    0.002232   -0.001096    0.002978
H     1.471932   -5.119889    0.477594   -0.000164    0.009430    0.010990
H     5.961194   -1.359691   -0.379085   -0.000332   -0.000126    0.002582
H     1.866181    2.769255    0.914797    0.004726   -0.000758    0.009574
H    -2.077010    2.006355    0.206251   -0.013356    0.013152   -0.008934
H    -3.598419    0.122336    0.893301   -0.005610    0.005454    0.021570
H    -1.680245   -2.963045    0.836044    0.021168   -0.020760    0.031062
H     1.801759   -2.090574    0.252558   -0.001630    0.004718    0.003404
H     3.511399    0.150235    0.633664    0.000406   -0.006536    0.009350
H     4.124845    2.928086    1.937408   -0.002042   -0.001406    0.002348
H     2.899122    3.875890    2.826397    0.001322   -0.001980    0.001098
H    -5.018915   -0.019661    2.940581    0.001234    0.001134    0.001976
H    -4.742725    1.656994    2.418115   -0.001366    0.000740    0.002388
H    -3.930578   -2.988508    1.908487   -0.003832   -0.002666    0.003784
H    -2.781389   -4.130921    2.661592    0.002482    0.005248    0.000796
H     4.742281    0.032687    2.822940   -0.002788   -0.003022    0.001794
H     4.340244   -1.591566    2.205593   -0.006870    0.004778    0.000594
H     3.771333    5.716365    1.754557   -0.001090   -0.000134   -0.000036
H    -7.087746    0.151307    2.005138    0.000044    0.000200    0.000824
H    -3.857895   -5.768551    1.463289   -0.001412    0.000410   -0.000188
H     6.851817   -0.324523    2.031277   -0.001024    0.002158   -0.000628
C     1.026336   -1.278748    3.753875    0.008246    0.003840    0.001294
H     1.651866   -0.662818    4.394229    0.000242    0.008564    0.005892
H     0.344374   -1.904609    4.331633   -0.000462   -0.003532   -0.006330
O     0.397234   -3.738433    2.562908   -0.003528   -0.007098    0.002646
C    -0.902851    0.325680    3.347270    0.001736   -0.005980   -0.007660
H    -1.631979   -0.367958    3.763462    0.008246   -0.006150   -0.002278
H    -0.496301    0.994171    4.108681    0.021170   -0.016006   -0.010272
O    -0.520308    3.006616    2.822046   -0.000010    0.002486    0.000898
C     0.248799   -0.456001    2.689113   -0.004126   -0.046726   -0.016378
O    -0.152515   -1.336790    1.732479    0.048382   -0.044820    0.018736
H    -0.687780   -0.980413    1.088050   -1.228936    0.750542   -1.302102
O    -1.561462   -0.333810   -0.036852    0.062838   -0.031052    0.058458
H    -0.872747    0.028529   -0.582737    0.294596    0.210178    0.009664
O     0.523134    0.999827   -0.663444   -0.022536   -0.014152    0.006084
H     0.823064    0.820840    0.242567    0.003510   -0.026778   -0.000184
O     1.135328    0.508184    2.114813   -0.000464   -0.000312   -0.003306
H     2.020894    0.115362    2.090817   -0.009376   -0.010944   -0.007778
H     0.232579    1.921397   -0.652737   -0.011202   -0.000302    0.000384
H    -2.059884   -0.989879   -0.530033    0.010890   -0.179384    0.167200
139
* Frequency(6) -1276.8900
C     0.723319    4.868162   -0.285302   -0.000874   -0.000990   -0.000138
C    -4.269676    3.234815    0.307299   -0.000990    0.000452   -0.000504
C    -5.024331   -1.854932   -0.421358   -0.000654    0.000920    0.000804
C    -0.787175   -4.981240   -0.609178    0.000628   -0.000310    0.001814
C     4.153388   -3.182306    0.021214   -0.002452    0.000092    0.000406
C     5.110837    1.932263   -0.500599   -0.001582    0.000112   -0.000776
O    -0.176664    3.783931   -0.209300    0.000626   -0.000904   -0.001018
O    -4.224878    2.159647   -0.575609    0.001578   -0.000578    0.001262
O    -3.651110   -2.059557   -0.680321    0.007050    0.003886    0.001772
O     0.114710   -3.906866   -0.516290    0.001868   -0.000094   -0.002546
O     4.020390   -2.003082   -0.714936    0.000812   -0.000304   -0.000732
O     3.752271    2.171863   -0.735652    0.000768   -0.000450   -0.000418
C     1.402431    4.886832   -1.667839   -0.000220    0.000550   -0.000414
C    -3.878078    4.504650   -0.476347   -0.000372    0.000234    0.000148
C    -5.651596   -1.100323   -1.606533    0.000058   -0.000552   -0.000320
C    -1.536805   -4.856666   -1.946979   -0.000578   -0.000084    0.000164
C     3.821739   -4.354156   -0.921787   -0.001272    0.000536   -0.000166
C     5.664488    1.171341   -1.718207    0.000050    0.000280   -0.000338
O     0.473650    4.867331   -2.718394   -0.000056   -0.000496    0.000416
O    -4.711959    4.716804   -1.579759   -0.000126    0.000158   -0.000182
O    -5.541179   -1.799875   -2.814944   -0.000058    0.000004   -0.000116
O    -0.701664   -4.944030   -3.071301    0.000158    0.000150   -0.000022
O     4.646129   -4.366020   -2.053256    0.000146   -0.000138   -0.000356
O     5.560527    1.919020   -2.898216   -0.000064   -0.000196    0.000228
C     2.311060    3.662621   -1.818246    0.000046   -0.000030   -0.000508
C    -2.405783    4.424809   -0.924231    0.000022   -0.000174   -0.000562
C    -4.999394    0.285379   -1.703554    0.000420    0.000252   -0.000782
C    -2.244121   -3.494681   -1.935949   -0.000318    0.000210   -0.000842
C     2.342995   -4.260786   -1.325430   -0.000414    0.000086    0.001500
C     4.900527   -0.157066   -1.832230    0.000000    0.000000   -0.000386
O     3.140617    3.759797   -2.953701    0.000282   -0.000158   -0.000120
O    -1.994164    5.649346   -1.494348    0.000258    0.000414   -0.000348
O    -5.617089    1.073283   -2.691780   -0.000212    0.000382   -0.000444
O    -3.030841   -3.289986   -3.084077    0.000150    0.000872   -0.000050
O     1.954888   -5.373043   -2.100912    0.000216   -0.000316   -0.000442
O     5.431829   -0.976153   -2.843610    0.000006   -0.000036    0.000094
C     3.232875    3.485454   -0.606200   -0.000312    0.000572    0.000220
C    -1.486012    4.079510    0.259446    0.000106    0.001004    0.000844
C    -5.093071    1.046590   -0.373735   -0.000890    0.000746   -0.000404
C    -3.157229   -3.392235   -0.709263    0.000616   -0.000248   -0.000292
C     1.434007   -4.180751   -0.087512   -0.000890    0.003446    0.001752
C     4.953264   -0.947183   -0.517800   -0.000372    0.000288    0.000282
C     2.489929    3.651715    0.731572   -0.000314    0.000542    0.000136
C    -2.055147    2.828554    0.933370    0.000210    0.000460   -0.000076
C    -4.691090    0.172843    0.834378   -0.000790    0.000014   -0.000234
C    -2.403932   -3.746066    0.588892    0.002090    0.001948    0.001812
C     1.928340   -3.033308    0.799409   -0.002498    0.003616    0.001362
C     4.588447   -0.057154    0.685841    0.001018    0.000348    0.000114
O     1.676965    4.822226    0.734894    0.000492    0.000134    0.000722
O    -3.377918    3.064248    1.391800   -0.000170   -0.000614    0.000458
O    -5.230325   -1.153268    0.763898    0.000956   -0.000744    0.000376
O    -1.709239   -4.985068    0.443918   -0.001124   -0.002276   -0.000656
O     3.295940   -3.211419    1.140029   -0.000380   -0.000802    0.000936
O     5.299758    1.179447    0.666449    0.000482   -0.000548    0.000854
C     3.476223    3.805338    1.897603   -0.000210    0.000000   -0.000386
C    -1.266209    2.342910    2.149755    0.001802   -0.000172    0.002492
C    -5.239350    0.721391    2.164570   -0.000004    0.000158    0.000404
C    -3.372834   -3.916103    1.765226    0.000142    0.000454    0.000338
C     1.199690   -2.936495    2.148723   -0.069118    0.102738   -0.025696
C     4.947527   -0.701558    2.034605    0.000312    0.000004   -0.001020
O     4.318292    4.917620    1.739149    0.000164    0.000090   -0.000004
O    -1.574666    1.074358    2.344563    0.000852   -0.002852   -0.001006
O    -6.617330    0.990678    2.109990   -0.000632    0.000208    0.000008
O    -4.324723   -4.923224    1.530912   -0.000314   -0.000264   -0.000430
O     1.881543   -2.067400    2.945905    0.012720    0.002888    0.017176
O     6.289623   -1.111525    2.079962   -0.000124   -0.000034    0.000080
H     0.188362    5.812790   -0.131178    0.001506    0.000066    0.000522
H    -5.262981    3.352443    0.758142   -0.000114    0.003080   -0.000600
H    -5.532973   -2.815982   -0.275414    0.001366    0.001520   -0.001092
H    -0.267150   -5.944703   -0.547333   -0.000532   -0.001702    0.002144
H     5.164499   -3.288868    0.433676   -0.000344    0.000214   -0.001132
H     5.664611    2.865778   -0.340327   -0.000064   -0.000876    0.001594
H     2.023149    5.796259   -1.717588    0.000790    0.000036    0.001686
H    -4.001172    5.370069    0.183946   -0.000052    0.000452    0.000274
H    -6.723999   -0.979323   -1.418197   -0.000082   -0.001472    0.000892
H    -2.286270   -5.659186   -2.001731    0.003288   -0.004246    0.001864
H     3.995553   -5.296819   -0.392217   -0.001338    0.002650    0.003390
H     6.729968    0.966598   -1.569093   -0.000340   -0.000314    0.001810
H    -0.336851    5.340304   -2.451603   -0.000508    0.000550   -0.001254
H    -4.847490    3.872427   -2.041381    0.001030   -0.000908   -0.000598
H    -4.648499   -2.186804   -2.904791    0.000376   -0.001054   -0.002484
H     0.223747   -5.086962   -2.796706   -0.001316    0.002664   -0.000838
H     4.740556   -3.458972   -2.391867   -0.000150    0.001220    0.000608
H     4.709605    2.397438   -2.918705   -0.001322    0.000744   -0.000342
H     1.682262    2.767342   -1.901161    0.003766   -0.001164   -0.003954
H    -2.310216    3.622604   -1.670873   -0.001436    0.003972   -0.004646
H    -3.934156    0.155699   -1.943844   -0.002546    0.002140   -0.009972
H    -1.462038   -2.724960   -1.875851    0.013256   -0.011600   -0.008118
H     2.200087   -3.336028   -1.904892    0.001864   -0.000818    0.000470
H     3.843594    0.067445   -2.042794    0.000390   -0.002334    0.000302
H     2.582184    3.959286   -3.720693   -0.001262   -0.000238    0.000058
H    -2.735648    5.994307   -2.019712    0.000858   -0.000350   -0.000336
H    -5.759075    0.517697   -3.474701    0.000762    0.001138   -0.000330
H    -2.524121   -3.589507   -3.855019   -0.003468    0.000272   -0.001592
H     2.682518   -5.581480   -2.711060    0.000482    0.000634   -0.001242
H     5.591144   -0.424061   -3.625722   -0.000972    0.001342   -0.000384
H     4.040903    4.226292   -0.663035    0.000014    0.000326    0.001634
H    -1.454932    4.905888    0.978406   -0.000354    0.001760   -0.000752
H    -6.122667    1.404759   -0.236262   -0.001238   -0.001978   -0.000126
H    -3.987747   -4.097910   -0.835382    0.002232   -0.001096    0.002978
H     1.471916   -5.118934    0.478708   -0.000164    0.009430    0.010990
H     5.961161   -1.359704   -0.378823   -0.000332   -0.000126    0.002582
H     1.866660    2.769178    0.915767    0.004726   -0.000758    0.009574
H    -2.078363    2.007687    0.205345   -0.013356    0.013152   -0.008934
H    -3.598987    0.122888    0.895487   -0.005610    0.005454    0.021570
H    -1.678100   -2.965149    0.839192    0.021168   -0.020760    0.031062
H     1.801594   -2.090096    0.252903   -0.001630    0.004718    0.003404
H     3.511440    0.149573    0.634611    0.000406   -0.006536    0.009350
H     4.124638    2.927944    1.937646   -0.002042   -0.001406    0.002348
H     2.899256    3.875689    2.826508    0.001322   -0.001980    0.001098
H    -5.018790   -0.019546    2.940781    0.001234    0.001134    0.001976
H    -4.742864    1.657069    2.418357   -0.001366    0.000740    0.002388
H    -3.930967   -2.988778    1.908870   -0.003832   -0.002666    0.003784
H    -2.781137   -4.130389    2.661673    0.002482    0.005248    0.000796
H     4.741999    0.032380    2.823122   -0.002788   -0.003022    0.001794
H     4.339548   -1.591082    2.205653   -0.006870    0.004778    0.000594
H     3.771223    5.716351    1.754553   -0.001090   -0.000134   -0.000036
H    -7.087742    0.151327    2.005221    0.000044    0.000200    0.000824
H    -3.858039   -5.768510    1.463270   -0.001412    0.000410   -0.000188
H     6.851713   -0.324304    2.031213   -0.001024    0.002158   -0.000628
C     1.027172   -1.278358    3.754006    0.008246    0.003840    0.001294
H     1.651890   -0.661950    4.394826    0.000242    0.008564    0.005892
H     0.344328   -1.904967    4.330991   -0.000462   -0.003532   -0.006330
O     0.396877   -3.739152    2.563176   -0.003528   -0.007098    0.002646
C    -0.902675    0.325074    3.346494    0.001736   -0.005980   -0.007660
H    -1.631143   -0.368581    3.763231    0.008246   -0.006150   -0.002278
H    -0.494156    0.992549    4.107640    0.021170   -0.016006   -0.010272
O    -0.520309    3.006867    2.822137   -0.000010    0.002486    0.000898
C     0.248381   -0.460736    2.687453   -0.004126   -0.046726   -0.016378
O    -0.147612   -1.341331    1.734378    0.048382   -0.044820    0.018736
H    -0.812308   -0.904361    0.956108   -1.228936    0.750542   -1.302102
O    -1.555094   -0.336956   -0.030928    0.062838   -0.031052    0.058458
H    -0.842895    0.049826   -0.581757    0.294596    0.210178    0.009664
O     0.520850    0.998393   -0.662827   -0.022536   -0.014152    0.006084
H     0.823420    0.818126    0.242548    0.003510   -0.026778   -0.000184
O     1.135281    0.508152    2.114478   -0.000464   -0.000312   -0.003306
H     2.019944    0.114253    2.090029   -0.009376   -0.010944   -0.007778
H     0.231444    1.921366   -0.652698   -0.011202   -0.000302    0.000384
H    -2.058781   -1.008056   -0.513090    0.010890   -0.179384    0.167200
139
* Frequency(6) -1276.8900
C     0.723220    4.868049   -0.285318   -0.000874   -0.000990   -0.000138
C    -4.269789    3.234866    0.307242   -0.000990    0.000452   -0.000504
C    -5.024405   -1.854827   -0.421267   -0.000654    0.000920    0.000804
C    -0.787104   -4.981275   -0.608972    0.000628   -0.000310    0.001814
C     4.153109   -3.182296    0.021260   -0.002452    0.000092    0.000406
C     5.110657    1.932276   -0.500687   -0.001582    0.000112   -0.000776
O    -0.176593    3.783828   -0.209416    0.000626   -0.000904   -0.001018
O    -4.224699    2.159581   -0.575466    0.001578   -0.000578    0.001262
O    -3.650309   -2.059115   -0.680120    0.007050    0.003886    0.001772
O     0.114922   -3.906877   -0.516579    0.001868   -0.000094   -0.002546
O     4.020482   -2.003117   -0.715019    0.000812   -0.000304   -0.000732
O     3.752358    2.171812   -0.735700    0.000768   -0.000450   -0.000418
C     1.402406    4.886895   -1.667886   -0.000220    0.000550   -0.000414
C    -3.878120    4.504677   -0.476330   -0.000372    0.000234    0.000148
C    -5.651589   -1.100386   -1.606569    0.000058   -0.000552   -0.000320
C    -1.536871   -4.856676   -1.946960   -0.000578   -0.000084    0.000164
C     3.821594   -4.354095   -0.921806   -0.001272    0.000536   -0.000166
C     5.664494    1.171373   -1.718245    0.000050    0.000280   -0.000338
O     0.473644    4.867275   -2.718347   -0.000056   -0.000496    0.000416
O    -4.711973    4.716822   -1.579780   -0.000126    0.000158   -0.000182
O    -5.541186   -1.799875   -2.814957   -0.000058    0.000004   -0.000116
O    -0.701646   -4.944013   -3.071304    0.000158    0.000150   -0.000022
O     4.646146   -4.366036   -2.053296    0.000146   -0.000138   -0.000356
O     5.560520    1.918998   -2.898190   -0.000064   -0.000196    0.000228
C     2.311065    3.662618   -1.818304    0.000046   -0.000030   -0.000508
C    -2.405780    4.424789   -0.924295    0.000022   -0.000174   -0.000562
C    -4.999346    0.285408   -1.703643    0.000420    0.000252   -0.000782
C    -2.244157   -3.494657   -1.936045   -0.000318    0.000210   -0.000842
C     2.342948   -4.260776   -1.325260   -0.000414    0.000086    0.001500
C     4.900527   -0.157066   -1.832274    0.000000    0.000000   -0.000386
O     3.140649    3.759779   -2.953715    0.000282   -0.000158   -0.000120
O    -1.994135    5.649393   -1.494388    0.000258    0.000414   -0.000348
O    -5.617113    1.073326   -2.691830   -0.000212    0.000382   -0.000444
O    -3.030824   -3.289887   -3.084083    0.000150    0.000872   -0.000050
O     1.954913   -5.373079   -2.100962    0.000216   -0.000316   -0.000442
O     5.431830   -0.976157   -2.843599    0.000006   -0.000036    0.000094
C     3.232840    3.485519   -0.606175   -0.000312    0.000572    0.000220
C    -1.486000    4.079624    0.259542    0.000106    0.001004    0.000844
C    -5.093172    1.046675   -0.373781   -0.000890    0.000746   -0.000404
C    -3.157159   -3.392263   -0.709296    0.000616   -0.000248   -0.000292
C     1.433906   -4.180359   -0.087313   -0.000890    0.003446    0.001752
C     4.953222   -0.947150   -0.517768   -0.000372    0.000288    0.000282
C     2.489893    3.651777    0.731587   -0.000314    0.000542    0.000136
C    -2.055123    2.828606    0.933361    0.000210    0.000460   -0.000076
C    -4.691180    0.172845    0.834351   -0.000790    0.000014   -0.000234
C    -2.403694   -3.745845    0.589098    0.002090    0.001948    0.001812
C     1.928056   -3.032897    0.799564   -0.002498    0.003616    0.001362
C     4.588563   -0.057114    0.685854    0.001018    0.000348    0.000114
O     1.677021    4.822241    0.734976    0.000492    0.000134    0.000722
O    -3.377937    3.064178    1.391852   -0.000170   -0.000614    0.000458
O    -5.230216   -1.153353    0.763941    0.000956   -0.000744    0.000376
O    -1.709367   -4.985327    0.443843   -0.001124   -0.002276   -0.000656
O     3.295897   -3.211510    1.140135   -0.000380   -0.000802    0.000936
O     5.299813    1.179385    0.666546    0.000482   -0.000548    0.000854
C     3.476199    3.805338    1.897559   -0.000210    0.000000   -0.000386
C    -1.266004    2.342890    2.150038    0.001802   -0.000172    0.002492
C    -5.239350    0.721409    2.164616   -0.000004    0.000158    0.000404
C    -3.372818   -3.916051    1.765264    0.000142    0.000454    0.000338
C     1.191835   -2.924819    2.145803   -0.069118    0.102738   -0.025696
C     4.947562   -0.701558    2.034489    0.000312    0.000004   -0.001020
O     4.318311    4.917630    1.739149    0.000164    0.000090   -0.000004
O    -1.574569    1.074034    2.344449    0.000852   -0.002852   -0.001006
O    -6.617402    0.990702    2.109991   -0.000632    0.000208    0.000008
O    -4.324759   -4.923254    1.530863   -0.000314   -0.000264   -0.000430
O     1.882989   -2.067072    2.947857    0.012720    0.002888    0.017176
O     6.289609   -1.111529    2.079971   -0.000124   -0.000034    0.000080
H     0.188533    5.812798   -0.131119    0.001506    0.000066    0.000522
H    -5.262994    3.352793    0.758074   -0.000114    0.003080   -0.000600
H    -5.532818   -2.815809   -0.275538    0.001366    0.001520   -0.001092
H    -0.267210   -5.944896   -0.547089   -0.000532   -0.001702    0.002144
H     5.164460   -3.288844    0.433547   -0.000344    0.000214   -0.001132
H     5.664604    2.865678   -0.340146   -0.000064   -0.000876    0.001594
H     2.023239    5.796263   -1.717396    0.000790    0.000036    0.001686
H    -4.001178    5.370120    0.183977   -0.000052    0.000452    0.000274
H    -6.724008   -0.979490   -1.418096   -0.000082   -0.001472    0.000892
H    -2.285896   -5.659669   -2.001519    0.003288   -0.004246    0.001864
H     3.995401   -5.296518   -0.391832   -0.001338    0.002650    0.003390
H     6.729929    0.966562   -1.568887   -0.000340   -0.000314    0.001810
H    -0.336909    5.340367   -2.451746   -0.000508    0.000550   -0.001254
H    -4.847373    3.872324   -2.041449    0.001030   -0.000908   -0.000598
H    -4.648456   -2.186924   -2.905073    0.000376   -0.001054   -0.002484
H     0.223597   -5.086659   -2.796801   -0.001316    0.002664   -0.000838
H     4.740539   -3.458833   -2.391798   -0.000150    0.001220    0.000608
H     4.709455    2.397523   -2.918744   -0.001322    0.000744   -0.000342
H     1.682690    2.767210   -1.901610    0.003766   -0.001164   -0.003954
H    -2.310379    3.623055   -1.671401   -0.001436    0.003972   -0.004646
H    -3.934445    0.155942   -1.944977   -0.002546    0.002140   -0.009972
H    -1.460532   -2.726278   -1.876774    0.013256   -0.011600   -0.008118
H     2.200299   -3.336121   -1.904839    0.001864   -0.000818    0.000470
H     3.843638    0.067180   -2.042760    0.000390   -0.002334    0.000302
H     2.582041    3.959259   -3.720686   -0.001262   -0.000238    0.000058
H    -2.735550    5.994267   -2.019750    0.000858   -0.000350   -0.000336
H    -5.758988    0.517826   -3.474739    0.000762    0.001138   -0.000330
H    -2.524515   -3.589476   -3.855200   -0.003468    0.000272   -0.001592
H     2.682573   -5.581408   -2.711201    0.000482    0.000634   -0.001242
H     5.591034   -0.423908   -3.625766   -0.000972    0.001342   -0.000384
H     4.040905    4.226329   -0.662849    0.000014    0.000326    0.001634
H    -1.454972    4.906088    0.978321   -0.000354    0.001760   -0.000752
H    -6.122808    1.404534   -0.236276   -0.001238   -0.001978   -0.000126
H    -3.987493   -4.098035   -0.835044    0.002232   -0.001096    0.002978
H     1.471897   -5.117862    0.479957   -0.000164    0.009430    0.010990
H     5.961123   -1.359718   -0.378530   -0.000332   -0.000126    0.002582
H     1.867197    2.769092    0.916855    0.004726   -0.000758    0.009574
H    -2.079881    2.009182    0.204330   -0.013356    0.013152   -0.008934
H    -3.599625    0.123508    0.897938   -0.005610    0.005454    0.021570
H    -1.675694   -2.967508    0.842722    0.021168   -0.020760    0.031062
H     1.801409   -2.089560    0.253290   -0.001630    0.004718    0.003404
H     3.511486    0.148830    0.635674    0.000406   -0.006536    0.009350
H     4.124406    2.927784    1.937913   -0.002042   -0.001406    0.002348
H     2.899406    3.875464    2.826633    0.001322   -0.001980    0.001098
H    -5.018650   -0.019417    2.941006    0.001234    0.001134    0.001976
H    -4.743019    1.657153    2.418628   -0.001366    0.000740    0.002388
H    -3.931402   -2.989081    1.909300   -0.003832   -0.002666    0.003784
H    -2.780855   -4.129793    2.661763    0.002482    0.005248    0.000796
H     4.741682    0.032037    2.823326   -0.002788   -0.003022    0.001794
H     4.338767   -1.590539    2.205721   -0.006870    0.004778    0.000594
H     3.771099    5.716336    1.754549   -0.001090   -0.000134   -0.000036
H    -7.087737    0.151350    2.005315    0.000044    0.000200    0.000824
H    -3.858199   -5.768463    1.463249   -0.001412    0.000410   -0.000188
H     6.851597   -0.324059    2.031142   -0.001024    0.002158   -0.000628
C     1.028109   -1.277922    3.754153    0.008246    0.003840    0.001294
H     1.651918   -0.660977    4.395496    0.000242    0.008564    0.005892
H     0.344275   -1.905368    4.330272   -0.000462   -0.003532   -0.006330
O     0.396476   -3.739959    2.563477   -0.003528   -0.007098    0.002646
C    -0.902478    0.324394    3.345623    0.001736   -0.005980   -0.007660
H    -1.630206   -0.369280    3.762972    0.008246   -0.006150   -0.002278
H    -0.491750    0.990730    4.106473    0.021170   -0.016006   -0.010272
O    -0.520310    3.007150    2.822239   -0.000010    0.002486    0.000898
C     0.247912   -0.466046    2.685592   -0.004126   -0.046726   -0.016378
O    -0.142114   -1.346425    1.736507    0.048382   -0.044820    0.018736
H    -0.951970   -0.819066    0.808131   -1.228936    0.750542   -1.302102
O    -1.547953   -0.340485   -0.024285    0.062838   -0.031052    0.058458
H    -0.809416    0.073712   -0.580659    0.294596    0.210178    0.009664
O     0.518289    0.996785   -0.662136   -0.022536   -0.014152    0.006084
H     0.823819    0.815083    0.242527    0.003510   -0.026778   -0.000184
O     1.135228    0.508117    2.114102   -0.000464   -0.000312   -0.003306
H     2.018878    0.113009    2.089145   -0.009376   -0.010944   -0.007778
H     0.230171    1.921332   -0.652654   -0.011202   -0.000302    0.000384
H    -2.057543   -1.028442   -0.494089    0.010890   -0.179384    0.167200
