139
Coordinates from ORCA-job job E -262.785367989020
  C           0.72321990358007      4.86804943496107     -0.28531777379399
  C          -4.26978885012136      3.23486617205630      0.30724217808583
  C          -5.02440473971354     -1.85482749842419     -0.42126728187564
  C          -0.78710403450438     -4.98127526335615     -0.60897191123003
  C           4.15310862918950     -3.18229604007254      0.02126037428383
  C           5.11065731694879      1.93227645365440     -0.50068692533901
  O          -0.17659289305261      3.78382825826166     -0.20941622839112
  O          -4.22469918823021      2.15958145675292     -0.57546605391462
  O          -3.65030921700305     -2.05911490808998     -0.68012038569649
  O           0.11492220188310     -3.90687713746522     -0.51657873751672
  O           4.02048154563175     -2.00311704487572     -0.71501914514884
  O           3.75235827143845      2.17181202370018     -0.73569968443288
  C           1.40240557849667      4.88689470675593     -1.66788603105089
  C          -3.87812031902040      4.50467672364496     -0.47633020656016
  C          -5.65158931751437     -1.10038551514330     -1.60656866792534
  C          -1.53687056709202     -4.85667550476606     -1.94695955836509
  C           3.82159370245964     -4.35409463822030     -0.92180615980589
  C           5.66449417627993      1.17137273502849     -1.71824464708084
  O           0.47364369043440      4.86727474623369     -2.71834661445134
  O          -4.71197288379077      4.71682170778500     -1.57977971460279
  O          -5.54118594241092     -1.79987473464571     -2.81495699812775
  O          -0.70164586343147     -4.94401293298520     -3.07130368751206
  O           4.64614622271790     -4.36603581530378     -2.05329586736529
  O           5.56052006792791      1.91899814041889     -2.89818998349532
  C           2.31106470764498      3.66261786656865     -1.81830438417737
  C          -2.40578031385062      4.42478892915897     -0.92429511160922
  C          -4.99934646262333      0.28540761248395     -1.70364317867395
  C          -2.24415714438415     -3.49465733652127     -1.93604529878278
  C           2.34294823067734     -4.26077565162660     -1.32526025327655
  C           4.90052734425807     -0.15706577867725     -1.83227378676465
  O           3.14064859924346      3.75977927858539     -2.95371499151137
  O          -1.99413517753609      5.64939343612375     -1.49438832566028
  O          -5.61711333164402      1.07332579531862     -2.69183027292673
  O          -3.03082404994906     -3.28988690200249     -3.08408257752311
  O           1.95491338967789     -5.37307938000989     -2.10096228347218
  O           5.43182964491702     -0.97615694479655     -2.84359925988401
  C           3.23283998491595      3.48551880573870     -0.60617514356122
  C          -1.48599966869951      4.07962435483924      0.25954224375747
  C          -5.09317153339609      1.04667518547039     -0.37378071499970
  C          -3.15715926090982     -3.39226329315201     -0.70929642618576
  C           1.43390591489407     -4.18035923458086     -0.08731273653898
  C           4.95322238417120     -0.94714950698576     -0.51776754479632
  C           2.48989335541202      3.65177700442444      0.73158745986726
  C          -2.05512302649687      2.82860592109958      0.93336075047145
  C          -4.69118035146139      0.17284452788161      0.83435066508326
  C          -2.40369354850695     -3.74584514440906      0.58909809899474
  C           1.92805552733500     -3.03289745821506      0.79956350661904
  C           4.58856335301929     -0.05711379609442      0.68585361188202
  O           1.67702119137511      4.82224055539998      0.73497567271221
  O          -3.37793717225193      3.06417849741073      1.39185218188141
  O          -5.23021576968489     -1.15335295230301      0.76394111436893
  O          -1.70936733066800     -4.98532739998194      0.44384251861662
  O           3.29589749065604     -3.21151027242914      1.14013476576074
  O           5.29981265324306      1.17938484296581      0.66654585727808
  C           3.47619890230051      3.80533843331591      1.89755881070782
  C          -1.26600422740882      2.34289018623303      2.15003836498397
  C          -5.23934951452811      0.72140891185175      2.16461567930114
  C          -3.37281779160548     -3.91605067637181      1.76526392126228
  C           1.19183474862507     -2.92481850346927      2.14580276520755
  C           4.94756222884470     -0.70155843510144      2.03448936755433
  O           4.31831130475341      4.91763036897855      1.73914940120155
  O          -1.57456915024461      1.07403403171116      2.34444926643889
  O          -6.61740231989381      0.99070173176952      2.10999145974089
  O          -4.32475907934900     -4.92325441961520      1.53086280301991
  O           1.88298885551735     -2.06707171453773      2.94785675336149
  O           6.28960888115871     -1.11152852772094      2.07997120723528
  H           0.18853309565086      5.81279839345111     -0.13111900593700
  H          -5.26299426807395      3.35279332818617      0.75807377131703
  H          -5.53281751579728     -2.81580888017486     -0.27553798976453
  H          -0.26720993896235     -5.94489551932658     -0.54708889173090
  H           5.16446035641755     -3.28884352374397      0.43354666245445
  H           5.66460438809227      2.86567836253467     -0.34014583508500
  H           2.02323898491952      5.79626256200272     -1.71739614606488
  H          -4.00117750701154      5.37012033061786      0.18397682739713
  H          -6.72400772340244     -0.97948997130928     -1.41809555391876
  H          -2.28589557140706     -5.65966933413676     -2.00151854908025
  H           3.99540133596837     -5.29651757544235     -0.39183205014951
  H           6.72992919805450      0.96656161078800     -1.56888698876778
  H          -0.33690948256550      5.34036656386700     -2.45174642042228
  H          -4.84737298605103      3.87232430899696     -2.04144872300700
  H          -4.64845571930262     -2.18692373907453     -2.90507251600298
  H           0.22359697043001     -5.08665888306100     -2.79680078717194
  H           4.74053851753733     -3.45883304066442     -2.39179772209546
  H           4.70945506069137      2.39752341055161     -2.91874415134775
  H           1.68268951970622      2.76721025979041     -1.90161030619003
  H          -2.31037947566622      3.62305464123734     -1.67140089178656
  H          -3.93444493735687      0.15594191327160     -1.94497667436373
  H          -1.46053169095046     -2.72627802786930     -1.87677381143046
  H           2.20029921853254     -3.33612050849293     -1.90483922837699
  H           3.84363825693079      0.06718030082964     -2.04276035788722
  H           2.58204059784045      3.95925892154626     -3.72068598791780
  H          -2.73554972393244      5.99426728899038     -2.01974979440081
  H          -5.75898758334818      0.51782599201557     -3.47473873790857
  H          -2.52451456199419     -3.58947592474970     -3.85520016084317
  H           2.68257295187071     -5.58140811522898     -2.71120140152144
  H           5.59103434768467     -0.42390791615330     -3.62576599664163
  H           4.04090469908218      4.22632891785200     -0.66284871338168
  H          -1.45497178478211      4.90608840066845      0.97832103588520
  H          -6.12280783801857      1.40453354621380     -0.23627622285330
  H          -3.98749308524019     -4.09803530358271     -0.83504368957300
  H           1.47189655297446     -5.11786239266112      0.47995738533886
  H           5.96112264528149     -1.35971800663061     -0.37852978341315
  H           1.86719693430679      2.76909166726172      0.91685457729571
  H          -2.07988110544640      2.00918221005932      0.20432989852498
  H          -3.59962460816220      0.12350846856886      0.89793754480734
  H          -1.67569355606547     -2.96750761878434      0.84272160322604
  H           1.80140892290723     -2.08956031296518      0.25328956607838
  H           3.51148617229664      0.14883038126524      0.63567395357128
  H           4.12440616461765      2.92778383354453      1.93791268289343
  H           2.89940586755538      3.87546390331643      2.82663294215798
  H          -5.01865034557763     -0.01941748328101      2.94100609581691
  H          -4.74301858991406      1.65715327329327      2.41862788765875
  H          -3.93140249969107     -2.98908061527638      1.90929983202385
  H          -2.78085459977938     -4.12979337444138      2.66176317295079
  H           4.74168185069342      0.03203652617713      2.82332560168083
  H           4.33876674244028     -1.59053934724280      2.20572108373705
  H           3.77109851801942      5.71633621578608      1.75454861941544
  H          -7.08773655433941      0.15134972119272      2.00531509620908
  H          -3.85819926557390     -5.76846286909641      1.46324876867812
  H           6.85159722555156     -0.32405944672468      2.03114194362020
  C           1.02810933763628     -1.27792161706151      3.75415307384749
  H           1.65191805058904     -0.66097709494690      4.39549555761108
  H           0.34427450306412     -1.90536759914036      4.33027210970585
  O           0.39647643591156     -3.73995894379174      2.56347690651455
  C          -0.90247752155023      0.32439379397297      3.34562311597944
  H          -1.63020581054395     -0.36928045198528      3.76297228171943
  H          -0.49175046795043      0.99073036448210      4.10647293739264
  O          -0.52030965084699      3.00714958691637      2.82223894062235
  C           0.24791192325387     -0.46604570586696      2.68559186486215
  O          -0.14211399733189     -1.34642507995227      1.73650662646149
  H          -0.95196973616820     -0.81906580065722      0.80813083969343
  O          -1.54795344257425     -0.34048487767493     -0.02428461887384
  H          -0.80941620490530      0.07371169354509     -0.58065928090464
  O           0.51828881211967      0.99678465574553     -0.66213592654918
  H           0.82381920676099      0.81508311684164      0.24252709997490
  O           1.13522753637478      0.50811749880775      2.11410236303495
  H           2.01887836364130      0.11300904695175      2.08914453619317
  H           0.23017118456448      1.92133214103350     -0.65265445318142
  H          -2.05754340083671     -1.02844167381513     -0.49408877745877
