134
Coordinates from ORCA-job job
  C          -0.55970995677396      4.57057458946931      0.99500173481401
  C           4.54868605652772      3.32002349686055      0.55940883030671
  C           5.03903029819792     -1.74660088637740     -0.21532487592256
  C           0.66773287982349     -4.70615882298864     -0.16840878893802
  C          -4.25769304008652     -3.23424403377721     -1.29501424700202
  C          -4.86175812745141      1.82741001077094     -0.34919554390029
  O           0.42646511740860      3.61325966712044      0.69936183581919
  O           4.44990025019625      2.04830297111786      1.11794618913270
  O           3.61879641714674     -1.82829882466794     -0.17690685145629
  O          -0.24879472831572     -3.68079779834098     -0.46143307411229
  O          -4.26648824981832     -2.18558183782704     -0.37854909080987
  O          -3.49717764233265      1.83853769134822      0.00965561080299
  C          -1.39846153524053      4.04411316819913      2.17207794124422
  C           4.01358560550482      4.32785680910366      1.59783196024419
  C           5.64246032597681     -1.45196210300346      1.17209213117706
  C           1.27457738658192     -4.40147427583462      1.21027057314986
  C          -3.92010468200948     -4.51575045577148     -0.50502679088832
  C          -5.68733324742987      1.05680096810648      0.69899253599410
  O          -0.61349503664771      3.73978020415862      3.29461195176550
  O           4.71865087367592      4.26844623031283      2.80388853786673
  O           5.44448204955211     -2.47137425713341      2.10899861667324
  O           0.29660313955982     -4.30165358704591      2.21104923260822
  O          -4.85822443954211     -4.77458510623130      0.49865877274172
  O          -5.69162864054925      1.66719971233432      1.95863668565297
  C          -2.11838966094140      2.76828714116572      1.71760123914638
  C           2.51249417307098      4.08065796221828      1.83400966631815
  C           5.07669224886688     -0.11704214762436      1.66628717106388
  C           2.01091385825290     -3.05848312545934      1.11596705286739
  C          -2.50642492220916     -4.38177489297800      0.09221035445763
  C          -5.13588163682092     -0.37182772168584      0.77416394233862
  O          -2.98234954190705      2.27712533906306      2.71333828216150
  O           1.96604961966815      5.05328491197947      2.69627459759334
  O           5.66993581825581      0.26992587627426      2.88000713403054
  O           2.66226058166757     -2.74091207491629      2.32208629947070
  O          -2.11789218357733     -5.55496386360119      0.76793638960328
  O          -5.91462040558021     -1.18358141331364      1.61659543449254
  C          -2.94200311605817      3.06325237731418      0.45985300281660
  C           1.74524411553497      4.08849689485047      0.50130976936441
  C           5.31289548709588      1.01163729043204      0.65203823989678
  C           3.05349999664493     -3.12466765303234     -0.00672204283537
  C          -1.49287940678153     -4.06278452615581     -1.01832203681398
  C          -5.08942132566523     -1.04409566405099     -0.60598771646137
  C          -2.04222269153325      3.68674342218037     -0.62297105414411
  C           2.44284885824597      3.10107283533881     -0.43559822707330
  C           5.01959349591822      0.58813602416656     -0.80356072839318
  C           2.39638053718553     -3.58530684829071     -1.32275966976279
  C          -2.00667040428010     -2.83823511445043     -1.78111901098476
  C          -4.52584133048544     -0.11068522905577     -1.69824256483743
  O          -1.37495648607406      4.83824034095625     -0.10971718462840
  O           3.80153350033832      3.43878517359268     -0.63655279552374
  O           5.42362247013790     -0.75342994872479     -1.10494491204654
  O           1.67761089326856     -4.80056975817540     -1.13321197764232
  O          -3.29612072010733     -3.04334830982866     -2.31804752346361
  O          -5.02264584201779      1.22274388067766     -1.59702360119240
  C          -2.85502095685617      4.14984464060104     -1.83756551332534
  C           1.77434297267828      2.97798550612093     -1.80121475477716
  C           5.79628842873925      1.43733517491998     -1.82938453650367
  C           3.44182544593658     -3.84294846980403     -2.41523453710494
  C          -1.06048453766737     -2.42372201811445     -2.90214182922947
  C          -4.92320686828108     -0.55407981479463     -3.11861640766003
  O          -3.84478437795576      5.08510104307930     -1.49294805483807
  O           2.21962457576788      1.87361667770524     -2.38337271439303
  O           7.16464769754199      1.52522208313451     -1.53139067842806
  O           4.43473006805117     -4.74801644322498     -2.00825104106880
  O          -1.32301381757606     -1.17055280161291     -3.26786876948269
  O          -6.30499059533449     -0.76257671212407     -3.24154312336385
  H          -0.10305440249224      5.53335955129488      1.25592776555642
  H           5.58282288724690      3.56212076976643      0.28177708868045
  H           5.45501351127507     -2.67964380125624     -0.61822492305447
  H           0.17441568740601     -5.68521541602840     -0.16575729150169
  H          -5.21792919749353     -3.33239890354579     -1.81645122533482
  H          -5.24652328721786      2.84822307706761     -0.46642214558572
  H          -2.15004380945191      4.80730727674576      2.43102011463773
  H           4.15258569612677      5.33969466162133      1.20204812548106
  H           6.72785908870379     -1.36644327683307      1.04769843776335
  H           1.99680452952245     -5.19587433452154      1.45713258466229
  H          -3.94590166574382     -5.37051006037215     -1.18908887881129
  H          -6.73168422265450      1.03207975815215      0.36966128120385
  H           0.17587654997483      4.30932437340347      3.30819704296827
  H           4.83199308636740      3.33879692363265      3.06019176730750
  H           4.48611766758286     -2.59088039573499      2.27049293226688
  H          -0.42839425832454     -4.91846984696100      2.02092202698288
  H          -5.05869875860825     -3.94859889013311      0.96917039082269
  H          -4.77443662045681      1.83441481448782      2.25350693759352
  H          -1.35721181414612      2.01476169349670      1.46776940644587
  H           2.38750351913252      3.08157151292038      2.27969684196329
  H           3.98763770647960     -0.22824037488972      1.79758538288584
  H           1.27245831024867     -2.28105666993074      0.87206817091520
  H          -2.50495817534511     -3.53511818889390      0.79642783130431
  H          -4.10173708726752     -0.31758488161411      1.15199189612736
  H          -2.49316103061767      2.25410671912159      3.55117784501345
  H           2.63906027004618      5.26896532892270      3.36469907939661
  H           5.75543280686407     -0.51773252398375      3.44162401064479
  H           2.03691610961753     -2.88170077013461      3.05078006430316
  H          -2.90723885588478     -5.92308345215951      1.20115198330527
  H          -6.15117342540708     -0.66540257318259      2.40281263094180
  H          -3.74084042673920      3.77072935001585      0.71480621113206
  H           1.73507484834253      5.09257562091033      0.06116595053829
  H           6.35763043283883      1.34607235575560      0.72782681312769
  H           3.83508582045677     -3.84038533835546      0.27227698465362
  H          -1.37059783865475     -4.91646423265399     -1.69520971897750
  H          -6.10121112010670     -1.36682617569118     -0.88669558178337
  H          -1.30117499524418      2.94566003962016     -0.94475762141646
  H           2.36625174939140      2.10249386246621      0.02243295840368
  H           3.94668598642561      0.70018851545787     -0.99275730294983
  H           1.70265537226106     -2.81255871090682     -1.67231281231464
  H          -2.03474220209083     -2.00164518145738     -1.06617060913720
  H          -3.43216566890935     -0.09407368780666     -1.60448231601556
  H          -3.37290484205569      3.29111710310740     -2.26823514021133
  H          -2.15774070474323      4.56266165976726     -2.57432934374122
  H           5.63823836668134      0.98203695274954     -2.81272437572627
  H           5.40540948184095      2.45387018060077     -1.84362670864905
  H           3.95000364341433     -2.90514594026805     -2.64780035375126
  H           2.91664919357768     -4.20023438746429     -3.30703241495113
  H          -4.58230351306534      0.22218894678766     -3.81221945983509
  H          -4.43723403984271     -1.49653517415146     -3.36906301564547
  H          -3.40467451502209      5.88278400761972     -1.16486928766329
  H           7.56330594563234      0.65121521485114     -1.65032023192168
  H           4.02935947581200     -5.62046010615629     -1.89976647818073
  H          -6.75545530734736      0.08865971401337     -3.14169895731838
  C          -0.31849727957613     -0.45797143518922     -3.98058992073977
  H          -0.81566903176673      0.20434496832189     -4.69296516118377
  H           0.36612118693238     -1.14972262662071     -4.48037269562105
  O          -0.19168120696032     -3.10435300129593     -3.37432331548844
  C           1.49988455470743      1.31583889306943     -3.46834833586485
  H           2.21939221330611      0.75976139578629     -4.07292830802568
  H           1.00193564318402      2.10174867453953     -4.04715446303109
  O           0.97483695612555      3.74008886810223     -2.27418316788534
  C           0.42129939992199      0.36999149685592     -2.89956922323812
  O           0.96978305453277     -0.69188213553887     -2.09324973152380
  O          -0.49273346996196      1.15707882124866     -2.18619418980114
  O           1.52833868579319     -0.12095182474335     -0.85851891653147
  H          -1.32313168819118      0.65640045805896     -2.14348499212296
  H           2.31221993450414     -0.70968381651957     -0.74850038810135
