11
Coordinates from ORCA-job job.QMRegion
  C          -2.39530767070418     -0.21489317460075     -0.36561581206399
  H          -1.99892217330755     -1.92324930946103      0.51000667537614
  H          -1.77111202364400      0.64112562885031     -0.65510803303106
  O          -0.16430017657770      1.87950009575183      0.53131591261166
  O          -1.53726487879218     -1.08424651941809      0.38181192390359
  H          -2.72277389504575     -0.69992100280286     -1.30133869311927
  C          -0.10023926970931      1.30382245362469      1.81540231852098
  O           0.78176558142018      2.39191630900346      1.57727725022156
  H           0.39414365846822      0.32993943842624      1.84219924484616
  H          -3.27385243608685      0.15262269781063      0.18055832346737
  H          -0.93181274949284      1.45245439744972      2.50243681079651
