31
Coordinates from ORCA-job job
  C          -2.39530767070418     -0.21489317460075     -0.36561581206399
  H          -1.99892217330755     -1.92324930946103      0.51000667537614
  H          -1.77111202364400      0.64112562885031     -0.65510803303106
  O          -0.16430017657770      1.87950009575183      0.53131591261166
  O          -1.53726487879218     -1.08424651941809      0.38181192390359
  H          -2.72277389504575     -0.69992100280286     -1.30133869311927
  H          -6.72871027433942      1.64718974054818      2.21277018578759
  C          -0.10023926970931      1.30382245362469      1.81540231852098
  O           0.78176558142018      2.39191630900346      1.57727725022156
  H          -6.11845545775875      2.52177713965753     -0.01280792068875
  H          -4.12939327361783      1.65342358197565     -1.17545852973583
  C          -3.60746365575598      0.29218009234991      0.38795790819654
  C          -3.95200471952110     -0.19041047606205      1.64044114327323
  C          -5.07289309183955      0.29362429018925      2.29382658371073
  C          -5.85645931166852      1.26742404959563      1.70309996240678
  C          -5.51421118681488      1.75797760307828      0.45306819886080
  C          -4.39838010232801      1.27134356649892     -0.20133464029191
  H          -3.33199288231607     -0.93224572114853      2.11962996535495
  H          -5.32997039630635     -0.09258428713111      3.26800847873205
  H           0.39414365846822      0.32993943842624      1.84219924484616
  H          -0.74445194549383     -0.22200982906488      3.91469632391521
  C          -1.23527831142717      1.50669455475487      2.75315585527702
  C          -2.09683742499405      2.58566047806913      2.59465632980706
  C          -3.13689102530658      2.77027993014794      3.48605660882492
  C          -3.31402667438776      1.88576019083232      4.53726251942481
  C          -2.45505402384257      0.81009965155723      4.69526321262712
  C          -1.41601564538320      0.61505888084073      3.80326522467433
  H          -1.94628584410006      3.26597985860170      1.76975279954297
  H          -3.80836977389983      3.60452109285174      3.35811191549870
  H          -4.12454193610589      2.03477482346004      5.23332814600743
  H          -2.59580137870031      0.12049926982372      5.51278945882846
