145
 xtb: 6.7.1 (edcfbbe)
C           -0.95918434843069        4.40487326149681       -0.37591330738039
O           -1.28443052374207        3.08814394010207       -0.76132296377225
C           -0.06763825328312        5.02892901867886       -1.45963449033370
O           -0.32888867419725        4.45336024961865        0.86829137159650
C           -2.62419556379212        2.67324225126778       -0.59036625692760
O           -0.67457875644495        5.08556906507310       -2.71849311168584
C            1.24816252865541        4.23975957145904       -1.50534444742304
C            0.94257935214880        3.80358135799525        0.95866468982153
C           -3.25482633396855        2.49389108701003       -1.98156387660294
C           -2.71225720613887        1.32623293602772        0.15349941278267
O            2.13772252802174        4.77876913094766       -2.44714755635704
C            1.91364757898795        4.29914616761396       -0.12661959784784
C            1.43975945182183        4.13748616679440        2.37360054455864
C           -4.68951245386687        1.95457224792222       -1.85312384535605
O           -3.23151723692598        3.73434116317094       -2.63744774536112
O           -4.05430986999326        0.89604047925109        0.22637667464718
C           -2.20393085297946        1.35732571399136        1.58662205043095
O            3.06801281903059        3.48801542224084       -0.22950907097029
O            1.64575915915222        5.51279668123563        2.54779337975328
C           -4.63492954235937        0.65007459451987       -1.03821741095903
O           -5.27165600592492        1.76717967592481       -3.10819882397696
O           -0.88054039624280        1.24921267902331        1.62526616787296
O           -2.90719171494818        1.43525353881642        2.55968703085093
C            4.20461350893837        3.82718828220654        0.51723887805770
O           -3.91320884317861       -0.26079825637330       -1.80705116892205
C           -0.27394204291084        0.80904001593833        2.83518834077592
C            5.41725580140863        3.59751837142395       -0.39955875743204
O            4.34035712464384        3.07124074468133        1.68820640853282
C           -4.24910690495199       -1.64265118029202       -1.76204443320253
C           -0.33617773083419       -0.71948160884654        2.89172632107347
O            5.34818992029141        4.37667520451765       -1.56086391694190
C            5.47041119016584        2.10143055078964       -0.73872944535518
C            4.34090495228996        1.65558641466103        1.50513870717088
C           -3.87675666083812       -2.14819387852989       -3.16262808887843
C           -3.50876372939373       -2.38963447872502       -0.63580680426049
C            0.88510525431140       -1.43338079778806        3.46173133025424
O           -1.06537806932979       -1.36541820882243        1.93707290323586
O           -1.56476150665748       -1.30217058193107        3.17311675372111
O            6.63159514253386        1.77715177856677       -1.45797167551005
C            5.44076349721741        1.22130829466135        0.51865213864681
C            4.56212605998750        1.09212493973388        2.91873280136416
C           -3.86388515910730       -3.67958660548614       -3.24022403092570
O           -4.78642932476176       -1.58356406522914       -4.07092035912823
O           -3.49380127018406       -3.79617890147435       -0.86405951523484
C           -4.21451819038770       -2.22338054598907        0.71939923202272
O            1.98881755594086       -1.31152505478630        2.56557142826512
O            5.23457177917514       -0.08704767827921       -0.00384336894947
O            5.84147598575235        1.38273649431919        3.41137346880973
C           -2.96101974781687       -4.18707557885139       -2.10195528817325
O           -3.41757944094289       -4.11453886987156       -4.49351686476378
O           -5.53297982969663       -2.69126469408877        0.68009660355059
C            2.22033992168766       -2.31035622060387        1.72243247929331
C            5.58379088138100       -1.19697038768006        0.75830554336175
O           -1.68752338124613       -3.65680969299406       -2.34566133793043
C            3.36063638314545       -1.96115616584168        0.77427810771164
O            1.63379256271470       -3.36246415841047        1.74066712357315
C            6.03649333467814       -2.28288404250228       -0.23764011548942
O            4.51275580646316       -1.69302685114960        1.54619943190569
C           -0.54977018388246       -4.47975295080362       -2.18012225986328
C            3.63583965974406       -3.06670050054039       -0.25009654108230
O            7.11761691110738       -1.86481971459255       -1.01599770631632
C            4.83311475364075       -2.65409280149867       -1.11995459556759
C            0.49567200069668       -3.87588951123556       -3.12634350510314
C           -0.01697944259708       -4.50998017140854       -0.73887177600321
O            2.50244014290867       -3.24114846664618       -1.08410328440734
O            5.14433620545972       -3.70807907726438       -1.99851313842565
C            1.84712305149160       -4.57762715958740       -2.96433703897827
O            0.00589541028870       -3.99849755271481       -4.43628313639873
O            1.24743251078968       -5.16760666166634       -0.70432594315552
C           -0.90725423995384       -5.31133056564339        0.21799540331502
C            2.24019021208040       -4.56566447838028       -1.48050128463387
O            2.79629344048753       -3.94739261709836       -3.78260333289846
O           -1.10209707667389       -6.62976094378397       -0.21502136262557
C            0.61731327153961       -0.33762922311065       -0.45994915685526
O            1.35211893178828        0.30158212230448        0.33349535025568
C            0.75922557321187       -0.04561973171054       -1.92881148597147
C            1.97779546274815        0.36847675019616       -2.44569370803794
C           -0.32504169032395       -0.23274582888225       -2.77517899740038
C            2.11360116371475        0.58984467015969       -3.80339315330525
C           -0.19485951666136        0.00507491832383       -4.13033271559495
C            1.02579772272860        0.41372538842263       -4.64293610027634
H           -1.87400547575523        5.00116351252250       -0.25238321021346
H            0.15888690476259        6.06229487618724       -1.16553395478633
H           -3.19264505729461        3.42302007368237       -0.02238028010879
H           -1.41191306210405        4.45025849187759       -2.77526109584803
H            1.03239534434953        3.18331043179746       -1.73756149735705
H            0.82367594821424        2.72008630590747        0.83517964721669
H           -2.64426094199321        1.76045505867884       -2.53109428092907
H           -2.09667168959174        0.58881433807113       -0.37552991037262
H            1.62313622799628        5.04726417839854       -3.22647235291724
H            2.20904033936675        5.33610957312329        0.08954697793654
H            2.39885746577571        3.65115116005689        2.54847429253318
H            0.70111538318479        3.75823616746477        3.08969524068591
H           -5.30519590248604        2.68742925596152       -1.32172856690884
H           -3.87372435458324        3.70567632608611       -3.36963405013318
H            0.79257903071053        5.96559399182641        2.46067369813291
H           -5.64263485655278        0.27514591924655       -0.81203969859198
H           -4.98807253514097        0.91230393796178       -3.47682990920773
H            4.15746862556700        4.87111784372273        0.85643325604847
H            0.76771837642184        1.10896897334803        2.76564621896302
H           -0.79927966236397        1.20735598629595        3.69850102014215
H            6.33423622710438        3.88957983446522        0.12084256478715
H           -5.33294405311077       -1.75442270748764       -1.61322340174070
H            4.43836832795987        4.36292879486566       -1.90628241136085
H            4.57160062110964        1.85651294043256       -1.32781106184699
H            3.36615837874482        1.32555410161308        1.12224673172581
H           -2.85585638695294       -1.79570378927754       -3.37803172593130
H           -2.48038611409582       -2.01410603438462       -0.55537438541673
H            1.16409004739859       -0.94476104860622        4.37491507897795
H            0.63413619426787       -2.49008843741011        3.59152420586448
H            6.76868796890048        2.45837673450242       -2.13681937573689
H            6.41857343998000        1.26454149248017        1.01928305933984
H            3.78615162232375        1.51312303397942        3.56808943571776
H            4.45637066978655        0.00794809611176        2.90629994459858
H           -4.87670143356219       -4.07131174075733       -3.11154561083482
H           -4.72198177089962       -2.07071735447276       -4.90974188120331
H           -3.62186814184197       -2.74567139140673        1.47810081329621
H           -4.25575010570933       -1.16705124180370        0.99224978511322
H            5.91904240893027        2.34337739495513        3.51795707312459
H           -2.93641153824686       -5.28401015479834       -2.07035952095602
H           -2.45353006632323       -3.99357762240568       -4.55128226671303
H           -5.51175464412669       -3.64744342337428        0.51132506149120
H            6.37744312714633       -0.96141473039951        1.48056808525796
H            3.04787170117555       -1.05152381542748        0.24678430461034
H            6.36809819482246       -3.16622374348301        0.31687896834285
H           -0.78689358125889       -5.50503216491352       -2.49935617835356
H            3.85634825203607       -3.99994859429572        0.28643773819760
H            6.96861070881384       -0.95148967152550       -1.31666094136405
H            4.52810136039629       -1.76749542335545       -1.69696243804932
H            0.61865958322248       -2.81506153959754       -2.85523305242177
H            0.07488649504932       -3.48012300138512       -0.37105772690048
H            6.06283908430882       -3.58062165551410       -2.30514018706551
H            1.73484210962424       -5.63007090467461       -3.27231938578733
H            0.73697784054103       -3.82551830103218       -5.05000586668618
H           -1.88843898281823       -4.84170090766364        0.28212378709015
H           -0.43320099081167       -5.28122007965111        1.20542926548400
H            3.13163433671925       -5.18980261769414       -1.32906268833332
H            3.65495856629459       -3.90792131203855       -3.32466652929918
H           -0.24561252967142       -7.08437893897452       -0.20446020205022
O           -0.20476397467255       -1.22140930473717       -0.13268890477316
H            2.79579622334897        0.49222169108786       -1.73740793875936
H           -1.26767558706130       -0.58478497194401       -2.32750807153034
H            3.05878351322123        0.89782525933618       -4.17858507146520
H           -1.04807270771510       -0.13896491935447       -4.76387058206144
H            1.12406059173943        0.59156371479081       -5.68062035317254
