9
Coordinates from ORCA-job job.QMRegion
  C          -0.36897914151579     -0.79768055119760      2.92902708477740
  O          -0.98937138854529     -1.42917551093781      1.83362948960131
  O          -1.54701463954157     -1.30517909435775      3.43887441260636
  C           0.60837647997160     -0.34709647324125     -0.51351001742650
  O           1.37098564740306      0.22706493474132      0.30866571818670
  O          -0.31379154977578     -1.19949481411193     -0.21778712152896
  H          -0.29299329181433      0.28912765733383      2.81729185605579
  H           0.53726690190303     -1.27372687318679      3.31354108660383
  H           0.72771899987184     -0.11742088339246     -1.65950297948355
