140
Coordinates from ORCA-job job
  C           0.53144005956660      4.69965125049370     -0.29931777560804
  C          -4.42218982192493      3.24423895726422      0.52622692101580
  C          -5.03631014463180     -1.76343458283170     -0.69343763292373
  C          -0.75122684236329     -4.79450936729657     -0.74527549735833
  C           4.23895102804631     -3.35866049898683      0.07422687284403
  C           4.82778506353710      1.71295102111122     -0.54876548412120
  O          -0.36128494083323      3.66312486914707      0.04649863063985
  O          -4.33289343969658      2.25835177407174     -0.45130305696542
  O          -3.64425108409186     -1.91683358267622     -0.88226141305886
  O           0.12813259835465     -3.72636296913776     -0.46828202283571
  O           4.26924020439188     -2.31297142864178     -0.84444346224747
  O           3.42268629041423      1.81328921462926     -0.69417506643346
  C           1.02200716863614      4.46243829520204     -1.73852389610148
  C          -4.02061525417948      4.56453010856913     -0.15941261504873
  C          -5.59118698907291     -0.92424736751271     -1.85491110664093
  C          -1.35291323500300     -4.56832267314896     -2.14236426522577
  C           3.79440023799811     -4.60965564327958     -0.71004586914754
  C           5.42104501228571      1.06378373710291     -1.81019877291482
  O          -0.03262814822885      4.41960370944987     -2.65930638932742
  O          -4.85925101183379      4.87102664413270     -1.23433132853843
  O          -5.34019583615306     -1.51600049309586     -3.09973812577648
  O          -0.37474204476173     -4.51066125909107     -3.14441140497520
  O           4.63113732934904     -4.87106010227190     -1.79802281703751
  O           5.09805423536873      1.78494867614825     -2.96776783928114
  C           1.74761582516380      3.11243276305183     -1.75799793256747
  C          -2.56375606741652      4.43974150985101     -0.64001518051212
  C          -4.97097818312211      0.47572705876911     -1.77386087223768
  C          -2.09992304781346     -3.23017836389609     -2.10344487443415
  C           2.34388303169958     -4.41544593948597     -1.18999258764786
  C           4.93007772834875     -0.38503828810433     -1.91299955320111
  O           2.32835824060727      2.83405614622181     -3.00687740478220
  O          -2.13045441268439      5.64829415856752     -1.22037959667292
  O          -5.53849571104066      1.33458272036184     -2.73125846188901
  O          -2.79803801177145     -2.96890210176836     -3.29680018908768
  O           1.88278748753575     -5.58402369897996     -1.82938831905797
  O           5.63844776360062     -1.07775211869444     -2.91278609132685
  C           2.87642227280214      3.12212135401078     -0.72536166309807
  C          -1.63722612638512      4.04919517966658      0.52196051790594
  C          -5.16800261327468      1.10921447986844     -0.38952976913265
  C          -3.13197051041232     -3.23842329248588     -0.97220822524625
  C           1.41850483217225     -4.06263878105264     -0.01084741817938
  C           5.08529780414429     -1.17270464863318     -0.60326144104064
  C           2.37406614817369      3.54982439734356      0.66447790322770
  C          -2.22232681286736      2.80015162395636      1.18822059601405
  C          -4.78763289539000      0.13708600429591      0.74611049902049
  C          -2.52008683925982     -3.68027309172886      0.36827928535730
  C           2.03672409733998     -2.82168218087412      0.65679710436324
  C           4.66280333540105     -0.35340893279745      0.63529626611381
  O           1.60900587700320      4.74782511868177      0.58836091389949
  O          -3.55194626499557      3.00039094629554      1.61654573174475
  O          -5.32327280721477     -1.17079462993149      0.53158334258334
  O          -1.76084484491403     -4.87788128965236      0.21759937186204
  O           3.33114262785967     -3.11861316833762      1.12934450291742
  O           5.16471769383462      0.98253578580241      0.58511472773438
  C           3.54341052393883      3.86698028554303      1.60862811127100
  C          -1.40554864765904      2.30786470211847      2.37956763565084
  C          -5.37264632691519      0.55253385713085      2.10799297269225
  C          -3.61142922704862     -3.99100281480209      1.40212520431766
  C           1.24230372468199     -2.17093630778011      1.76218764299103
  C           5.24326276105446     -0.90095436584869      1.95231027092722
  O           4.44347030943490      4.77802578164067      1.03881880151121
  O          -1.81953540920925      1.10640416554918      2.72827775940076
  O          -6.74666647815769      0.82381349309944      2.02789175983455
  O          -4.51810809472715     -4.95168225173849      0.92980135421450
  O           2.00936884593525     -1.71227236219375      2.73299552744158
  O           6.62711611658598     -1.10757989587194      1.86853243578164
  H           0.04404957391427      5.67776963221818     -0.21583106981701
  H          -5.42713769662596      3.30831622960625      0.96133408383364
  H          -5.53148436575029     -2.74200959041419     -0.66382289023964
  H          -0.22866216635549     -5.75692155096938     -0.70531065505892
  H           5.21370633290425     -3.51453967883603      0.55270227754639
  H           5.26975959443087      2.70533503544224     -0.39776453855551
  H           1.73235023769304      5.26192969121330     -2.00313784954392
  H          -4.10498231551328      5.38899606060012      0.55525824071003
  H          -6.67938709444891     -0.84424814181641     -1.75886030539760
  H          -2.06644149834576     -5.38055951108918     -2.35424459783370
  H           3.84490073060990     -5.48478279517713     -0.05398259485203
  H           6.51368500092766      1.06959827336205     -1.73322379531935
  H          -0.72180065727259      5.04734965530007     -2.37068934367276
  H          -4.94719966775453      4.07830238999060     -1.78712283414391
  H          -4.42370557630080     -1.84851354268704     -3.12565722102369
  H           0.41056360400001     -5.00936568692669     -2.84883356962579
  H           4.77674636681015     -4.03840480096370     -2.27405269794656
  H           4.13995791349865      1.96363551776680     -2.97651708088527
  H           1.01409319596613      2.33709371502476     -1.49039017819421
  H          -2.51491605926860      3.63039508903512     -1.38641949142979
  H          -3.88553212214514      0.38875790504058     -1.94736506480953
  H          -1.35450079229621     -2.44222525782390     -1.91933006100276
  H           2.31797367304685     -3.56884036585334     -1.89526557883422
  H           3.85617398649594     -0.37329237750539     -2.15745062519433
  H           1.63957809141566      2.91046127372380     -3.68253076188569
  H          -2.87001270561707      5.98762099977916     -1.75303741271721
  H          -5.62515283771806      0.83103142226782     -3.55523919475384
  H          -2.17697747510988     -3.06592988436649     -4.03270216684122
  H           2.61021048386848     -5.90898865421604     -2.38636800023439
  H           5.65497385756325     -0.51067967363830     -3.69850658893372
  H           3.63846320188277      3.83562831677124     -1.06538418745003
  H          -1.54968137491470      4.87236276476799      1.24268343115777
  H          -6.21609671240466      1.41957506900811     -0.27330810794749
  H          -3.93429910300464     -3.93437921246358     -1.24988426798514
  H           1.37436236984275     -4.89677253134619      0.70173464422702
  H           6.13229724139024     -1.48778890743670     -0.48703180524427
  H           1.76232565625289      2.73856048631969      1.08502138936762
  H          -2.18123974415719      1.98498440898558      0.44637808672672
  H          -3.69386232739144      0.08734523168505      0.81750734833977
  H          -1.86576751643319     -2.88727526467052      0.74668788760023
  H           2.08071323508980     -2.03283550231879     -0.12476699120361
  H           3.56777989606974     -0.32684375111585      0.69816600144177
  H           4.09778282252919      2.95125776818637      1.81796282423100
  H           3.12244300929557      4.26442863241866      2.53806287538975
  H          -5.17785060983977     -0.26626885251881      2.81003957351571
  H          -4.88431702677860      1.45596288649574      2.47074703761990
  H          -4.18893269560035     -3.08780668429796      1.60684669356530
  H          -3.12457229950942     -4.33214434427903      2.32301285269249
  H           5.00078137002510     -0.17001795375834      2.73284531315351
  H           4.78423433203228     -1.85432078578589      2.20770282842185
  H           3.95854767978409      5.59620340213295      0.85925133925329
  H          -7.19001700535252      0.01223140914281      1.74319874426902
  H          -4.01762195177176     -5.75678879789555      0.73541360433926
  H           7.03864271180975     -0.25805636981518      1.65606628599688
  C           1.27937409137552     -0.91078162187207      3.67227074825572
  H           2.02031906062883     -0.32694940862416      4.23038404831932
  H           0.69857494082781     -1.55109298724653      4.34443228171227
  O           0.04593565346026     -1.97262426471678      1.73291084980313
  C          -0.97486713152463      0.35181626613853      3.58658178081587
  H          -1.50883488631267     -0.58749499084774      3.76243058505087
  H          -0.77759033258721      0.85772635339461      4.54480827132835
  O          -0.51461824743310      2.92153605246382      2.91408834241759
  C           0.36055960583522      0.05722960874529      2.94610054910766
  O           0.70142553274860      0.61192885026972      1.90837487598028
  H          -0.98070366118422     -0.76658491804552      0.48696789203866
  O          -1.34510203733203     -0.23237924719908     -0.23571225260958
  H           0.59708344822868     -0.30675773745639     -1.07658923373743
  O           1.52534236836660     -0.46278585532584     -1.30972335996494
  H           0.95676880597555      2.62597942107148      4.00862810937411
  O           1.53299547920841      2.13624574131811      4.62749453798196
  O           2.71742473483363      1.88683895981899      3.80318298518010
  H           3.37119366548911      2.35892447186052      4.35335539786002
  H          -2.06903788490011     -0.79469993220815     -0.56930528167543
  H           1.99070887261433      0.32448014564230     -0.98824520365662
