20
Coordinates from ORCA-job job.docker.struc1.ev114 E -32.044271027580
  C           1.64059288155801     -0.96271045765755      0.06127576043016
  H           2.25441916531851      0.06888725257682     -1.47988663153379
  H           1.75199898363764     -1.96313784377291     -0.38971783841400
  C          -0.13639287460262      0.81376878364390      0.15191741116478
  O           2.52066079376739     -0.03938254548949     -0.55537362927299
  H           1.97588596799714     -1.02507477495697      1.10734938392636
  H          -3.50490004676251      0.56180531459862      0.04916463231853
  H          -0.57119627350044     -2.53959558119768     -0.16937683075013
  H          -2.93134814514117     -1.83785726270084     -0.15726868076543
  H          -1.70882093888331      2.25746245421852      0.24802597721754
  H           0.65738609270942      1.54605110854201      0.24133185769415
  C           0.19534486027696     -0.53827557382240      0.03714138735190
  C          -0.82352196586763     -1.49071680509735     -0.07762911664402
  C          -2.14750566476582     -1.09569593010032     -0.06962074484392
  C          -2.47128034916321      0.25431142079615      0.04594993028967
  C          -1.46042911615373      1.20813408729474      0.15525798446949
  O           6.79861400991546      3.74980901007908     -0.12804302349567
  O           4.68688595843560      2.76878903453099      0.42225028817199
  H           6.66014425138414      4.73300177437131      0.13665096883506
  H           5.21894412880642      2.02701968929724      0.44134512346320
