20
2 Eopt=-32.1903475740 (Eh) Einter=-3.717548 (kcal/mol)
C  -2.06641137169875044322 -0.38094621923152005571 0.34703788538672608599
H  -2.84882856409634710459 -0.57665060256643907444 -1.44173540699741198345
H  -1.98328606755925629379 -1.45082340415047461590 0.57652255157814225051
C  -3.62533999993563904596 1.53210679127468241134 0.79712946885162372368
O  -2.05196752705283547158 -0.18671561306101314148 -1.05730719859381738779
H  -1.16698327813609559200 0.12183133319508671066 0.71531374344942078025
H  -6.39924776569148257011 1.72271197052036861841 2.71542201113130587942
H  -3.81674350036515219742 -1.60673242407039107427 2.03088214093347296796
H  -5.79884923475148905680 -0.63575472681966305188 3.11836883756578053806
H  -5.00280770593944801305 3.10743650602640997249 1.22420442431382703319
H  -3.00888903382214278892 2.13746983145538482773 0.14879674566117784273
C  -3.28445134147064488062 0.20250978960308169130 1.01821256985909402992
C  -4.07649960826171842143 -0.57286366316736836435 1.85413483049562133331
C  -5.19116197773267096238 -0.02614744137585672812 2.46653964814219950341
C  -5.52827240601491887162 1.29740661160024672860 2.23990203972703660895
C  -4.74457863293560144768 2.07454970268284633050 1.40267622576071637752
O  -0.53097574965984017936 1.96162575707266695346 -1.99201839914358402872
O  -1.20232795078444798520 2.93624757003309788672 -1.20232546123809691530
H  -1.02270360840394358704 1.13620511095552378933 -1.77313029814763445380
H  -0.71297567203055001173 3.75155076310277202367 -1.40941482278043195286
20
3 Eopt=-32.1898296454 (Eh) Einter=-3.392543 (kcal/mol)
C  -2.08484307711213734393 -0.59006778939516713045 0.18846855528276196257
H  -2.78863733612624864477 -0.48969309051842102587 -1.63845599624314597342
H  -2.18621767663194299658 -1.67841926182206280238 0.28570207314333062598
C  -3.48679653974487502310 1.44032356262003302660 0.64687067136352427443
O  -1.97989803192131041953 -0.22824034339187304621 -1.17739291332473938745
H  -1.12972634705718588677 -0.29653625129607563693 0.63763495501045397429
H  -6.08910047892084094201 1.90511205390782767388 2.74792347223118316180
H  -3.78505776008755301376 -1.61945959799824401593 2.04158595759585681506
H  -5.61307635114443925772 -0.46864341107479245974 3.22047915659758121620
H  -4.72183845067499241566 3.12529076819257589648 1.09451629399836547485
H  -2.88267326180479077635 1.96858026602236391156 -0.07598129251321394939
C  -3.21529136925056668872 0.10275648585128677182 0.90594012015966007834
C  -3.99001257127861519436 -0.57909152494640903086 1.83469453975211838070
C  -5.01732851561121417916 0.06903141782551708294 2.49819900980375830812
C  -5.28509359347440543786 1.40156657214768598507 2.23274556765751519549
C  -4.51835845681626757653 2.08600083049686890746 1.30450205863177703947
O  0.74607350923479298643 0.07787185128033508041 -1.80265706531673886026
O  1.10047409826956066325 0.23146655972362822906 -0.43329989562413895321
H  -0.23099222373840877509 -0.03254883411943326754 -1.75968546836745010076
H  2.02906423104777289268 0.51840581499189442027 -0.48668108620869210412
20
8 Eopt=-32.1889201823 (Eh) Einter=-2.821846 (kcal/mol)
C  -1.87382819829315794280 -0.35669009004397644880 0.67301818377894406797
H  -2.31219602883456154530 -0.67399788456183751251 -1.20397262226131318563
H  -1.86355665450901719637 -1.41840424484581029141 0.94673636193590893217
C  -3.57414187560859719639 1.48995632675714317905 0.58068425364199161010
O  -1.62792834231231675624 -0.20068017300793494773 -0.71167818508102009822
H  -1.02691457135424180080 0.13022981969089453269 1.16891007043638106566
H  -6.42492026689656992033 1.96553626151111204834 2.32660889709175267015
H  -3.61742823630582011063 -1.24360133023024554966 2.56189641346879026784
H  -5.69506728092489211690 -0.16964919157114000114 3.32465720616488091821
H  -5.06001194911571872126 3.02567386688269923667 0.56412211789478905466
H  -2.96927580173678862252 1.94656357346656228025 -0.18949161572738248971
C  -3.15898968085811837625 0.28632524217568783298 1.13628360416787765885
C  -3.93213482632332889111 -0.30709139905494409195 2.12567007630804116758
C  -5.10073818086087804602 0.29838850801943150870 2.55415789132781867465
C  -5.51094578235707288627 1.49668077357776141412 1.99391969510126698673
C  -4.74575780794594237477 2.09105122713183888550 1.00444719943763249859
O  -2.43852087765848102308 -3.41003953116136582224 3.14201015056295940298
O  -1.94296301629199286154 -3.75120696362434902227 1.86022968983360703632
H  -1.66227850334997806492 -3.49574348474384954955 3.72595827332627482775
H  -2.49595202300165741605 -4.50688707156526646713 1.58679263511894941274
20
1 Eopt=-32.1884275181 (Eh) Einter=-2.512695 (kcal/mol)
C  -1.97552856965926837418 -0.55353883833463435327 0.41448856113812482249
H  -2.44324137200585767005 -0.37228911898114969148 -1.46829351085358728035
H  -2.10305207714415942633 -1.64357642839571149729 0.42996749390104616051
C  -3.37729437427556300477 1.47524791532389931703 0.87200657072959986138
O  -1.70299381174485331414 -0.10689136542547261755 -0.89883825080408596975
H  -1.08073385393636867136 -0.30293056231446979787 0.99513881429347417207
H  -6.25024908384548538720 1.84412429449398485026 2.60714776506131951095
H  -3.96577733722100322922 -1.69086197413015715263 1.88177735382214139648
H  -5.91594539676550290608 -0.58289988790162239329 2.89764660857377132075
H  -4.62068198901231674824 3.15953540755732742440 1.30034379768997898630
H  -2.66007122949716512395 2.03972557610191662647 0.29405931999010881395
C  -3.18179069443885920165 0.10917190120518699414 1.03323575697840497334
C  -4.10475988899275368027 -0.62612621144526037220 1.76392716214566669386
C  -5.20297397076250334180 -0.00257655969613418412 2.33111132355007555361
C  -5.39184000111361250163 1.35929955465051643948 2.16679734874468454819
C  -4.47756358622457995011 2.09752187751771757007 1.43332920896701843105
O  -4.16983471293600160834 -1.36141546121048717666 -2.11720975890941076614
O  -4.33008160137635744746 -2.51491652333416038090 -1.31576498048142265240
H  -5.08060272370081911220 -1.06923810947210151667 -2.30899314220572904333
H  -4.03588302066614357244 -3.24921129798457197779 -1.88766334891004317065
20
11 Eopt=-32.1879415118 (Eh) Einter=-2.207721 (kcal/mol)
C  -2.34743672309904383155 -0.85268571492302913661 0.53644851945593974296
H  -2.01751604779322502026 -0.16024079573416705191 -1.26061059710601619521
H  -2.85884712439261612360 -1.77021744216962262364 0.21589717756392734493
C  -3.00750552742301113796 1.50566718843925140270 1.09589459066868588621
O  -1.48799501094818564795 -0.38310442084420492925 -0.48282956697897416731
H  -1.68521296688073585202 -1.10890349332102222668 1.37078410559163432758
H  -5.93210642729741088885 2.78275326762307706474 2.20027504936423357051
H  -4.93848643759359173799 -1.25963537488800403352 1.25882080154216380308
H  -6.56929129208362816428 0.39950321130970833927 2.03488804408177514915
H  -3.64446982518352413649 3.48349913064889715741 1.59447287385626745859
H  -2.00297710136920414925 1.80288953857309874884 0.83119722723477051929
C  -3.36174021007791878901 0.16625297366119093367 0.99643530572991001470
C  -4.65122586535308712996 -0.22106163302638437429 1.33513054054084223665
C  -5.57100817630439326678 0.71622698242316684691 1.77209324662473943768
C  -5.21300616349617484957 2.05091918909652370928 1.86395970182609715948
C  -3.92956750623614992080 2.44434885905127607941 1.52350770613126185182
O  -7.01883089465287923758 -2.82480236778130056052 1.34142857311477836646
O  -7.72575833295919078836 -2.12453979528107872454 2.35055897803093483134
H  -7.66538637597407213065 -2.89534051448403140228 0.61555306925101049842
H  -7.59528304424985645227 -2.67137398463645681090 3.14660329274173999892
20
12 Eopt=-32.1878927354 (Eh) Einter=-2.177114 (kcal/mol)
C  -1.95610945578353589980 -0.45353146385839926413 0.36047586733598535602
H  -2.60943305325616003998 -0.75384880137633802910 -1.45525206763202041849
H  -2.00008195111801390098 -1.50489740589979681396 0.67537114215551385943
C  -3.54804069118758036439 1.49163691975720413829 0.33501676953037762274
O  -1.82690323126327158754 -0.36260460967997998338 -1.04359729382468002790
H  -1.03238835074365153943 -0.02052101875785550256 0.76006745375412598786
H  -6.13925645325167224087 2.25401816847906921737 2.36217613271864834701
H  -3.51701643880605185899 -1.11175803419150676099 2.48489199829995399682
H  -5.41367085165407324610 0.13643129868532671845 3.41241572568157902623
H  -4.93517111451055701110 3.11642460891125328004 0.38785325520394053900
H  -3.01176505364863356107 1.86488101581385579131 -0.52551431193849995616
C  -3.14088560189592325145 0.29825985722789738475 0.91724217965825483034
C  -3.82522884838937171637 -0.18413161924348564469 2.02498424315883962521
C  -4.89649921219251282878 0.51982102051859935266 2.54545044113604346236
C  -5.30075167671132696512 1.70706524527635217225 1.95785083257695879944
C  -4.62554405660007272871 2.19076341051072631672 0.84979612994950648464
O  -4.52643019834151605352 -1.73464496230674591892 5.31380286542893554014
O  -3.95901797845710268220 -2.75050911486929194893 4.50465129742492553788
H  -3.82432215336606873279 -1.53159237337084364050 5.95809964513583700807
H  -4.63488929107714220379 -3.45302666601506036415 4.50853623026812222463
20
10 Eopt=-32.1877819748 (Eh) Einter=-2.107610 (kcal/mol)
C  -2.14138212176856157498 -0.33673447147248225519 1.10431057957903044908
H  -1.94516168640810538371 -0.28831905025050941216 -0.83799972858400684217
H  -2.19163495586506451573 -1.43103592120977940461 1.18625279334841171597
C  -3.78858898818955802668 1.51962313586875819027 0.71906060458142995184
O  -1.45425098096855665020 0.03862952395836827257 -0.07178608949838438669
H  -1.52577860433832679377 0.03550230357694783567 1.93049437548637703443
H  -7.04829545355270159490 1.79562906226183738312 1.55500898360218253735
H  -4.34999133382589597829 -1.44433628383228263026 2.23128112829014524365
H  -6.59347758854966237152 -0.45805239559580823716 2.45129206041729919008
H  -5.24317553252917534223 3.05969246571794251111 0.44227417891224984903
H  -2.99015311986386844723 2.06729250316724666447 0.23957227432768957165
C  -3.52618920884003683724 0.25086874021265270773 1.21892257557940664192
C  -4.54663838483129012502 -0.45726082755578845163 1.83960397955685239779
C  -5.80738969723326103889 0.09902198460968003602 1.96387841575280197581
C  -6.06332422863998665719 1.36366462971359214684 1.46041838616442687382
C  -5.05110613390997187366 2.07275241525726894309 0.83600239227243700046
O  -2.50932271242081217366 0.32782414677972676609 4.89902885113153363505
O  -1.39948547940224310437 0.91531447327225801125 4.24621587827283608618
H  -2.11484618636533472369 -0.38704642313101189632 5.43289928232123919827
H  -1.42261729975055484232 1.84616948241183131962 4.53603225875730409200
20
6 Eopt=-32.1877112522 (Eh) Einter=-2.063231 (kcal/mol)
C  -1.99197299481789191766 -0.55409602017921411043 0.38502941836226656225
H  -2.49182944332664879639 -0.27471021755040869738 -1.48345476417622434973
H  -2.03969446806046317278 -1.65128414437451831454 0.35684880325962875514
C  -3.59761159103549665872 1.32382353171448796658 0.84188324142586001830
O  -1.75171168324477388722 -0.03792017517067364230 -0.90782274621645120405
H  -1.11175062999876939074 -0.26994786828183958693 0.97243203137706168970
H  -6.38738716797579808571 1.44037671641873932238 2.73768929676868300049
H  -3.73670757433071853981 -1.83448812538907746195 2.02640226931842715175
H  -5.74481275056568740922 -0.91630483173937138375 3.11452200968586634389
H  -5.00939901127639775069 2.86857966676034337183 1.28551771902340616904
H  -2.98501796921749074087 1.94369901172319514693 0.20318686322228296515
C  -3.23300415032185295416 -0.00127962930675457054 1.04346638708552341690
C  -4.01483070310698320071 -0.80285395891453426032 1.86476229802027093641
C  -5.14350306804856405307 -0.28578608354794432511 2.47665559516148015007
C  -5.50465358590941100658 1.03454587835956157704 2.26692979779401060370
C  -4.73018413407181803620 1.83820870695007099194 1.44724494173666440311
O  -7.79247586892283017335 3.72895431408309718790 2.81774401398329388257
O  -6.75284880133488130127 4.64981430868661327338 2.53338619624530725361
H  -8.46976325295999998843 3.93493099168857263237 2.14785267129229673344
H  -6.53600048574086223141 5.02683802148954850253 3.40530949585438946770
20
5 Eopt=-32.1876897963 (Eh) Einter=-2.049767 (kcal/mol)
C  -1.96638582685803409156 -0.92471256204049767646 0.61126046911067843936
H  -2.04160594606706080612 -0.69887047982341732322 -1.32682049251928613209
H  -2.27271396501436928617 -1.97991542276708698544 0.61429978014849295764
C  -3.17236040767145333064 1.28278431636222434165 0.61921490255606292941
O  -1.38251589439288213867 -0.58446761167580940644 -0.62854129457059948471
H  -1.16285495930467286385 -0.80610850172681280945 1.34677047470146193930
H  -6.09420658089413791458 2.20051173007611300392 2.03855161916196570004
H  -4.15068163607038531637 -1.60428357834344903488 2.06909063020387584686
H  -6.03589130922262562251 -0.16989277411993519706 2.73569009714735056349
H  -4.25838200205894690242 3.12384161005633576025 0.68403375358742746215
H  -2.36068921484885496653 1.68226188444110968945 0.02857845746026144162
C  -3.13392632818879057766 -0.05112592165999774174 1.00321908429050776768
C  -4.17319099701657680868 -0.56707527646945954380 1.76664654952547195421
C  -5.23271470931585547248 0.24016666963463065287 2.14175060945418671565
C  -5.26663013954477587930 1.56899443772702751332 1.75228617200422354117
C  -4.23467296991623509683 2.08847270736884160769 0.98939326144861117207
O  -5.84122134168250184416 5.29896291887793680075 0.89271960933968041996
O  -7.06471690599988821901 4.63383754488423971196 1.15656690633694037018
H  -5.74187733857293380879 5.90531941819328931587 1.64948526038421916518
H  -7.55836910756027258174 4.72098805791894715611 0.32070195089541231326
20
7 Eopt=-32.1874850351 (Eh) Einter=-1.921278 (kcal/mol)
C  -2.11056663233884833630 -0.82388087605315907247 0.43919458844285941268
H  -2.34078088008267659603 -0.17376893278839244950 -1.38781015170740018583
H  -2.39033227791293523268 -1.86761994884838133935 0.23866238515814863774
C  -3.31705574479423415113 1.29208892648291850946 1.06004467333885687985
O  -1.62650505618966745303 -0.21004763949336047180 -0.73697087187956511478
H  -1.25868503968341238775 -0.83027584281706934277 1.12819010165726352213
H  -6.20307998358435508379 1.77896211139080451247 2.74531791108599243501
H  -4.25523956897935207166 -1.88151133504606948854 1.72449715521662039208
H  -6.12388952977929079680 -0.68663845890171115727 2.79101753360044746444
H  -4.39409815763781264053 3.04315721636158365015 1.63102502165483520535
H  -2.52447585798082574371 1.84444053149774345179 0.57584188062777041939
C  -3.26735036250636978750 -0.09596549854356817288 1.07971937695827002734
C  -4.28674351494437111398 -0.80149152134940537806 1.70547396306699994284
C  -5.33695336612399895415 -0.12885443410041952372 2.30547812521382589068
C  -5.38190406245068686530 1.25509899749488296194 2.27960278382182668366
C  -4.37038642750145633897 1.96418101790189902900 1.65412142885397273062
O  -2.85364717679427393193 5.23412300494320259503 1.36703092687304073038
O  -2.14745752348534990617 4.61902019946849762277 0.30289504226522367958
H  -2.16137516746405733414 5.41513386943631047643 2.02849868949651845895
H  -2.44561599697220266592 5.10950673377773245676 -0.48471298506262439076
20
9 Eopt=-32.1871305677 (Eh) Einter=-1.698846 (kcal/mol)
C  -2.17301214896664207643 -0.87296788311840445296 0.04120797068873960356
H  -2.93366361581659607083 -0.44595334023498933718 -1.70637582273257826238
H  -2.49551920949094974134 -1.92310913469414423993 0.05566613558746680290
C  -3.17196614072537341755 1.33186968881629996808 0.71652919215102350847
O  -2.06233976736036739297 -0.40963823031525370411 -1.28864101983759726799
H  -1.15514076675368038138 -0.82760472683897989832 0.44408735758968487239
H  -5.40891811203981731637 2.09894131301595177064 3.12736509270905305158
H  -3.79260139370618531984 -1.70379274630926214051 2.05605690983278188710
H  -5.26720440572094439347 -0.33182262498088677116 3.47841264793168036817
H  -4.06356402366756785938 3.16733987452622667291 1.35435168324571231224
H  -2.57611905230528659416 1.78935965646677774821 -0.06004072529777704226
C  -3.09090846209426572955 -0.04182983468881762423 0.90514189691604052257
C  -3.85177535734817988455 -0.63566145787124872513 1.90364690521835622228
C  -4.67905383888523118685 0.13448824913515328161 2.70208982946584619356
C  -4.75951745201982312494 1.50319214832854819441 2.50535774223402141203
C  -4.00478110696341094155 2.10058627900594974136 1.51009785221762715679
O  -6.81454473290332352065 3.52156952201056672180 4.72783042226762528770
O  -7.48735758144913532419 2.34661003558282388326 5.14926800669503847985
H  -6.45324502460190885245 3.88963891251126892001 5.55504254299542576945
H  -8.36671403808355051979 2.42271217630195589976 4.73571009283505262033
20
4 Eopt=-32.1869499175 (Eh) Einter=-1.585486 (kcal/mol)
C  -2.00456362686760058978 -0.65043213974464997307 0.35745487998892133685
H  -2.49840676309892817386 -0.45870062195179706066 -1.52458717270497623453
H  -2.18291903319875579825 -1.73276252829884236384 0.41226813570313058932
C  -3.31584465514616555382 1.45516204501223178625 0.74335046706750529388
O  -1.72851509393651703306 -0.26223553457929837940 -0.97336652157260483698
H  -1.08640835204739749642 -0.43060438026122827004 0.91331542557201772503
H  -6.08997084959863244080 2.03233908696648590819 2.58114576814073748423
H  -3.95776835493370082730 -1.61646012672676264721 1.98980269610803772729
H  -5.82027115583162668599 -0.37941989402336750992 3.01144850286500398440
H  -4.48065593155722918794 3.20630891949666452234 1.11995905431135844843
H  -2.60618815147412785649 1.95934325124355956937 0.10340397103034704163
C  -3.15940127126205094754 0.09535123990421268125 0.98111099490256237221
C  -4.06983170716450270987 -0.55868709935964266933 1.80027625451213135754
C  -5.11809089096630565052 0.13766346702997017681 2.37641552770713282428
C  -5.26992275374682517253 1.49226642691374533634 2.13254444376987084553
C  -4.36746002393719834345 2.15000758894762356022 1.31332002379436341144
O  -7.46682095729626027492 -2.16637287427086366876 4.34260555740197240482
O  -7.29637943375291975201 -1.07632463613237794320 5.23385503378025607191
H  -8.41755706957385640976 -2.14121986927164442704 4.12914040576731000698
H  -6.79187063845024585618 -1.46060185319962987371 5.97399436325423760508
