20
3 Eopt=-32.1903629919 (Eh) Einter=-3.727224 (kcal/mol)
C  -1.92020361176945075776 -0.61789205780681721869 0.18713277444018761031
H  -2.83178117424760067422 -1.06228358224991814573 -1.49477310076489389168
H  -1.87436972945677804425 -1.63830041391635927717 0.58802461752352175317
C  -3.28379245897304983259 1.46703430068236428951 0.46565588218828934952
O  -1.99245436175376067212 -0.66191420065569306352 -1.22959702169288909168
H  -0.97539237434632042323 -0.11390435068243942585 0.40983666200637680621
H  -5.99101149332689519866 2.10492023457453569790 2.38217338943818601749
H  -3.74104117372904587668 -1.50324453002659996770 2.00904563730788243703
H  -5.60442281023273025653 -0.24823063640377451833 3.01186086555130083653
H  -4.50036558077517145904 3.19969003762564252469 0.74796954417020455885
H  -2.62497743668647309789 1.94289506518499233145 -0.24571784373111316135
C  -3.06257610452434336779 0.13974176186612213835 0.81532245296385053024
C  -3.90717400015659555024 -0.47219480800168289747 1.73152882872337321452
C  -4.95531671690558805921 0.23422670459494146500 2.29655778232370977321
C  -5.17245943063377211502 1.55494494224331480936 1.94275209293917283659
C  -4.33592911085583132547 2.16937171865753342104 1.02512436683129282144
O  -0.41582340382038163185 1.22522170531736374066 -2.56938729497950468783
O  -0.82676220506119735276 2.31550198085277569859 -1.75290972634954234088
H  -0.93565948695360878773 0.47377389475186715284 -2.20059033207057019865
H  -0.35605715213615019010 3.06809070021373653248 -2.15185550293451299808
20
4 Eopt=-32.1899082425 (Eh) Einter=-3.441864 (kcal/mol)
C  -2.22751660049474864422 -0.66081687165668778761 0.11315121569164110493
H  -2.96008493087546442624 -0.46893251554518677882 -1.69474230171418160928
H  -2.38790331057951865645 -1.74448731627588426996 0.17475984492034946083
C  -3.51660950222022616884 1.42141001553871548779 0.66353921324909681534
O  -2.13341300819397439170 -0.25489546062349788258 -1.24104765821500495626
H  -1.24698254540498654208 -0.43950205788994833878 0.54878864291581519463
H  -6.02119652555984785636 1.95601439316366554344 2.86447535774798112129
H  -3.91063416715867262496 -1.65362282698765183930 1.99936011494279330947
H  -5.64219425624682813236 -0.44797543498754144320 3.26657538266343827615
H  -4.65482272527536444784 3.15069032456656206165 1.19202023298203485524
H  -2.91321772918697741162 1.93803568226794897811 -0.06830814668329865391
C  -3.29975428058697017875 0.06700751468373955522 0.88330834568270955032
C  -4.07360227088569093468 -0.60025744113643697553 1.82331362315667355745
C  -5.04655423189515595084 0.07857804564895587429 2.53609741730145632488
C  -5.25983963696700573820 1.42818280399939179226 2.31023908295589919248
C  -4.49373797382912876230 2.09827797620135036993 1.37117488787504449022
O  1.02053737630003737991 -0.41634083767056362380 -0.64681955085502207403
O  0.56447900166884856787 -0.36186261703061561867 -1.99354959840666245974
H  1.98743545520945197325 -0.37548375900138120098 -0.75006478682173272077
H  -0.41168804307544348831 -0.28234238246524279159 -1.88527823105292680061
20
9 Eopt=-32.1898605604 (Eh) Einter=-3.411943 (kcal/mol)
C  -2.37713438348690520030 -1.17915157640258239091 0.45569643209507937343
H  -2.65531364736961350559 -0.82866715642624821925 -1.45224783429436032911
H  -2.80285762992814335703 -2.18996578834473609732 0.42935846043528247407
C  -3.26361030041659372358 1.14873893176060226651 0.77850010570810135313
O  -1.91542872783559126049 -0.80764110676294054159 -0.83021902132603586644
H  -1.48273628291762493703 -1.21040293796518372282 1.08746289835596843254
H  -5.89107168974591921540 2.28346118888349591813 2.57102462676953846810
H  -4.48782820345209465529 -1.71851018524488607930 2.07245148351325969571
H  -6.09029001702939076779 -0.12747359403797065003 3.05229413127441695508
H  -4.07458475921841767331 3.09718325761308399535 1.11082424737965768102
H  -2.46428052667681019017 1.49886636039719522984 0.14196862167301305124
C  -3.37297340266084511029 -0.21054275489328500015 1.04199634429766407884
C  -4.39778881511033947760 -0.66258137996137089765 1.86271230390888331563
C  -5.29762561299772105627 0.23267262034699531803 2.41380434672762689274
C  -5.18607927098866294813 1.58656551331737327715 2.14356678076070306105
C  -4.16776422822420311576 2.04284232842843138656 1.32382076613659016573
O  0.76020686482885491131 -1.58075459183688948883 -1.06090119509425817590
O  0.81824272845835643864 -2.09748898040503650719 0.26393700866358971169
H  -0.16211499429718756460 -1.23695776545236557631 -1.11531265350709118955
H  1.74004665550959547460 -2.40285805155266096733 0.32986651121915411267
20
8 Eopt=-32.1898568412 (Eh) Einter=-3.409609 (kcal/mol)
C  -2.36353738440950067456 -0.85722559652580554435 0.14726050401274248802
H  -2.87017957598669681829 -0.38082342672316593646 -1.68501841306250832453
H  -2.70688459615369492184 -1.89746028858950022133 0.08108881799440958993
C  -3.38716122607464775740 1.35381160971083014388 0.75919837238665188739
O  -2.06908387272953975256 -0.35535539293563656038 -1.14378892801593923245
H  -1.40845814183919237905 -0.85217107501798339264 0.68385349399787365154
H  -5.92503686033930065946 2.10796867317134051234 2.85552069078302395155
H  -4.27611519651590565871 -1.70614590406232591313 1.87302213963030128596
H  -5.90059035212753002497 -0.34394576640582241733 3.12358675493973336756
H  -4.30946303117574291974 3.19245906751039143501 1.33690179517029861245
H  -2.67434413472069287820 1.82241121258760130353 0.09660853509321032373
C  -3.37106706677600653776 -0.02762046634723203109 0.90212929320096246766
C  -4.28358967713300309299 -0.63212918836411469137 1.75671737823425710978
C  -5.19599673692348229537 0.13448552353552029048 2.45999671478607861985
C  -5.21006186885316768809 1.51127338133291910793 2.30950851312948035599
C  -4.30442974990897564425 2.11950488718708385250 1.45673123827494177540
O  0.64463756003778716064 -0.85141966150332359931 -1.67638291074032896866
O  0.90903609418294450961 -1.27993193013037287464 -0.34555351545834289695
H  -0.30733521718592760053 -0.60167166598134369515 -1.63626818762956394160
H  1.79117002291418359050 -1.68340671419427523325 -0.42546617243441464673
20
2 Eopt=-32.1897399805 (Eh) Einter=-3.336278 (kcal/mol)
C  -2.38156456704861163587 -0.74016663539333560351 0.21471751536882799360
H  -2.93028773755396976242 -0.18152847079779721451 -1.57687697662830017542
H  -2.70548515080535301180 -1.78567795069935697505 0.13713592235836546962
C  -3.40707570123529546180 1.45403871204557511021 0.87515952282052944522
O  -2.10412614626135408002 -0.22008231636141728504 -1.07498802408989324597
H  -1.42349656210497421682 -0.72309412623809943277 0.74467806024322480418
H  -5.97262942433184385038 2.15724655513477348023 2.95507759447729778657
H  -4.31705155790043981767 -1.63316141914446810723 1.89259394628538757388
H  -5.95678015807926986014 -0.30085572534389914967 3.15746650326938294029
H  -4.33419411424814349232 3.27864149313209107817 1.48890873168231796519
H  -2.68512233118237553242 1.93875937098606665465 0.23417761183128027458
C  -3.39569572837926703102 0.06900391128164268251 0.98141274408563827780
C  -4.32092805817399128188 -0.55639183836627859048 1.80659681663324378498
C  -5.24168206244832646234 0.19345958062261309207 2.51725167301510666107
C  -5.25096871500391770837 1.57382356819660396141 2.40359150159037326944
C  -4.33241485004656112778 2.20290869373882891580 1.58019815268925389873
O  -0.28079683146911715852 -1.99223639891916515232 -2.17859858391737493122
O  -0.92383731722219675220 -3.08813585837435766734 -1.53703116384808979866
H  -0.82092960451680196954 -1.22305902758159534827 -1.87089114956965318903
H  -0.32208635990972611651 -3.82790409873492709636 -1.73040296742910437722
20
10 Eopt=-32.1896932060 (Eh) Einter=-3.306926 (kcal/mol)
C  -2.32702639724239013219 -0.96745982151842579988 0.36943932990996297683
H  -2.74816430277689516259 -0.62961987371418848269 -1.51171843240744352421
H  -2.66341020610615775155 -2.01172458551936284010 0.36672853177388153867
C  -3.39222810243186412293 1.27629019452407743707 0.74429908220535156982
O  -1.97134739820156013046 -0.56243940963100191865 -0.93919577464612546969
H  -1.40017061540173326506 -0.92042434188628230451 0.95129825069190654396
H  -6.01194414795833775855 2.18322909760736560969 2.67272289133959484175
H  -4.29400133659228266936 -1.68321773954373976601 2.09392276785896713776
H  -5.97599443217927639438 -0.23466921623751413328 3.15906197935788135567
H  -4.35120489027621104583 3.14790709703627147320 1.12243804192727503199
H  -2.65998567665368979007 1.69263112589961828292 0.06792826667931639584
C  -3.36944373547582864958 -0.08668028669243610373 1.01052084820295173806
C  -4.30708639923195590882 -0.62386267093583946952 1.88261159230353403160
C  -5.25139268610236342738 0.19128031152627475442 2.48144454895918720183
C  -5.27206218558905703730 1.54908147384965766413 2.20814088182872314547
C  -4.34108349741784316222 2.08998618110058576036 1.33765017154498155882
O  0.64786888368734452115 -2.28585125782302345243 -0.35446322160121845890
O  0.63427555579416683429 -1.41515043374566684697 -1.48000039055434018387
H  1.56343707058156233813 -2.61570674372063738389 -0.35512139841012846375
H  -0.26786818117675759154 -1.02039407284943495213 -1.43157299907182822274
20
7 Eopt=-32.1888245945 (Eh) Einter=-2.761864 (kcal/mol)
C  -2.77932191002527195778 -0.31721862576747272833 -0.23165248411006778007
H  -2.88948278156013271811 1.02177983095295199512 -1.64962138317542694743
H  -3.48110954003954331526 -1.01464732641818322634 -0.70486942286590470452
C  -2.90494605033083397316 1.60564072682906711087 1.37843093893500268088
O  -2.18978195083461013581 0.52716289059276200124 -1.20216871972247463241
H  -1.94813765712701414401 -0.90083236874265071314 0.17930198992017365445
H  -5.16961952972453087085 2.35000639703408475967 3.76961971969044373765
H  -5.08443247730916603189 -0.95411073721718953067 1.06594631163068020996
H  -6.16639312867360445125 0.26344691956548393907 2.90900584299106057529
H  -3.07650688442397068911 3.20806513447603869338 2.78166810223667582136
H  -1.98826429453481368093 1.97266245074999968523 0.93968760746850477084
C  -3.46237237480041004645 0.43171478914336486321 0.88723085257244260760
C  -4.64146659360294755459 -0.04495265785248825363 1.44475598036153929371
C  -5.25027161957876309373 0.64199649947061565580 2.48087990615254661009
C  -4.69132041134975441565 1.81340075113814003238 2.96393119823757089648
C  -3.51746157754169130882 2.29538284778712142753 2.40920521745115046031
O  -6.08637764921546065011 -2.60949343687479196063 -0.56885514528548486446
O  -4.95394077583351855054 -2.96030991366291562628 -1.34301587158855029180
H  -6.76699968013189945282 -2.38740214446767939904 -1.23131763324634158074
H  -4.76013785969443858903 -3.87848869909129856381 -1.07745919168771497887
20
11 Eopt=-32.1875475107 (Eh) Einter=-1.960482 (kcal/mol)
C  -1.65197897576254981722 -0.68397665159606058083 0.80410188386155012630
H  -1.11501124781191274238 -0.10158765135633418542 -0.98284600325030324619
H  -1.92426742396932071166 -1.70766805953408495888 0.51379270634840923382
C  -2.80062116500345315018 1.54181563601761673077 0.97628689512614408308
O  -0.71258880003033508999 -0.14637560433004703775 -0.10479093305623932153
H  -1.12346030117003214954 -0.73337490917171188620 1.76249918878840983183
H  -6.05978620292202485587 2.32689297305602149635 1.38206017126759039826
H  -4.22726987439187773532 -1.51578413319892080224 1.08530963133210844873
H  -6.24310520539403590590 -0.13251226391614356892 1.36023544246951866299
H  -3.84830413988074315768 3.39728835030077647161 1.13367654571933429430
H  -1.82839623449580224168 2.00007679969701523959 0.86746414694551809976
C  -2.89662159959596010594 0.15605318008121110696 0.96023295252348550566
C  -4.14367750494470499234 -0.43878608640309746391 1.09761572878359414673
C  -5.27793420575385674454 0.33968486231883260329 1.25257491177019475437
C  -5.17431527861848650218 1.72085474060566068211 1.26481175752752506014
C  -3.93403635198380063898 2.32099859968997312976 1.12457988041764656018
O  -8.38475648768754311391 -1.16262806408133667624 1.62087130290678760325
O  -9.33653807390309609104 -1.48945473412277951120 2.62653514592648784642
H  -8.87508281206272719999 -1.35223983117776613838 0.80166273335334015115
H  -8.84826467120314497095 -1.31912322399811499096 3.45082595387304635892
20
6 Eopt=-32.1875349713 (Eh) Einter=-1.952613 (kcal/mol)
C  -1.90051101086895246617 -0.80264448211069616690 0.23144674482648064373
H  -2.27774973793670820754 -0.32582464898006391341 -1.62506496731063410088
H  -2.15269588970404424089 -1.86714696891895948205 0.13094171220776706921
C  -3.15693977399298475461 1.31002402339240076046 0.75387288532614538106
O  -1.52631137336170663588 -0.26409161463097274858 -1.01955735579039896699
H  -1.00218004887051170826 -0.72696986212294234520 0.85421257820944862527
H  -5.91374739701588669760 1.83779983958302506331 2.63499436553236643377
H  -3.87197583615391938139 -1.81867564991509822470 1.79919630344335867989
H  -5.70263457652949945498 -0.60073753993019263220 2.90984866887923887546
H  -4.27522227224148121394 3.06209166178222513821 1.24936718566653537366
H  -2.43377553181919203951 1.83716616109199537554 0.14846455771023170378
C  -3.03569833223457496985 -0.06578630892308923173 0.90068521349805052978
C  -3.96040997562665308962 -0.74838377759711094406 1.68001164319467521935
C  -4.98826645254043121724 -0.06354456074315367742 2.30430136480286495981
C  -5.10757950598781551577 1.30793267693585635314 2.15022996039353131437
C  -4.18912960444057347331 1.99295460223217735241 1.37230579158480470170
O  -7.54388836894559844382 2.76616917435797482483 4.10803487126834898646
O  -8.94113010009768771624 3.00026673936664067810 4.23848658146793688672
H  -7.21818311653913013970 2.93877998660017070165 5.00891685328689462153
H  -9.24732168632716877710 3.00391018364432760279 3.31469561743273732901
20
5 Eopt=-32.1875249134 (Eh) Einter=-1.946302 (kcal/mol)
C  -1.87371129928064283909 -0.78139252650207868811 0.61708276841141962432
H  -2.29356378968908369842 -0.83293001251509224403 -1.29039563560993397751
H  -1.91970930127380889907 -1.86775022694480896668 0.77425704520987126411
C  -3.51702432914778118089 1.12019333468854687119 0.66081196953053955578
O  -1.58091852824785528142 -0.49047614655414661922 -0.73360566202362531563
H  -1.01892253433481938529 -0.39506900972860137244 1.18328534055581235940
H  -6.36054905498404110631 1.54607588614081481460 2.42980678993053533787
H  -3.64986146417821677446 -1.75348196048171867112 2.42660566106527220143
H  -5.69961670970388922797 -0.67931842117349328092 3.26474267507245041742
H  -4.95342337668551024876 2.69817408095160793380 0.75690179099560239706
H  -2.89578168072943631373 1.61922362130843211503 -0.06847833387077573164
C  -3.14092300018448566945 -0.13449147124565186129 1.12254124185207904141
C  -3.93616397176409771319 -0.77739828286726209150 2.06215048776732290392
C  -5.08812751759139381136 -0.17235622187038768249 2.53324871686500774359
C  -5.45951009427349642777 1.07701410996646540497 2.06448894281196171363
C  -4.67236316511997618051 1.72318841771381214834 1.12602371765725917108
O  -5.85321103666315245562 5.55583959987627107324 -1.24399776937703365753
O  -5.06687438747031659858 4.85372173153171804216 -0.28960822209534642369
H  -6.17078559276170324210 4.84612831708908942119 -1.82925181196605524114
H  -4.53911414028485449279 5.56585045323374849602 0.11337727978798572970
20
1 Eopt=-32.1874716622 (Eh) Einter=-1.912886 (kcal/mol)
C  -2.30689303570411397004 -0.95336255601057984244 0.06239345762602765966
H  -3.30471951554660048345 -1.01892155520358462795 -1.61702572068916317072
H  -2.39765430792134903726 -2.02352452003470162367 0.29264648647137492254
C  -3.59729270134055800767 1.14751340902953780088 0.53956539822428928321
O  -2.42597402747641588405 -0.73623773096690059425 -1.32897284409257498972
H  -1.28766673135567177866 -0.63917587749648219209 0.31270356239728924752
H  -5.78549844976092231263 1.89349407101076261384 2.99916814338687309771
H  -3.66305211739525171666 -1.74199495464990117277 2.28369755443824473673
H  -5.24887959896681799421 -0.42951945534793933845 3.63272503093305143551
H  -4.71865942189452169941 2.90345771897569893127 1.01381418135320022778
H  -3.12632960422739891726 1.58198226376489103906 -0.33005242348529262308
C  -3.29224251033732917548 -0.16212149958877553058 0.88824388480804628010
C  -3.89524511867676137555 -0.72400909250505329773 2.00558692013596218118
C  -4.78638865086893972034 0.01511343545188220672 2.76417185962281930500
C  -5.08802156488572521198 1.31912947446543560304 2.40849735450144963878
C  -4.49284316991584731227 1.88516857663971504344 1.29313456137402216228
O  -4.91169643325899141217 6.12152973008556422485 -0.67949410480681282642
O  -4.53710055115944665971 5.20930251335715865935 0.34583050107606405632
H  -5.29413560258812854187 5.53874219775656939646 -1.35866236082769797910
H  -4.02009727181904530369 5.77331391177735930853 0.94776609760420804651
