20
-32.1903475740
C  -2.06641137169875088730 -0.38094621923152005571 0.34703788538672625252
H  -2.84882856409634754868 -0.57665060256643907444 -1.44173540699741198345
H  -1.98328606755925651584 -1.45082340415047439386 0.57652255157814236153
C  -3.62533999993563949005 1.53210679127468218930 0.79712946885162383470
O  -2.05196752705283591567 -0.18671561306101314148 -1.05730719859381783188
H  -1.16698327813609603609 0.12183133319508672454 0.71531374344942055821
H  -6.39924776569148257011 1.72271197052036839636 2.71542201113130587942
H  -3.81674350036515219742 -1.60673242407039040813 2.03088214093347252387
H  -5.79884923475148994498 -0.63575472681966305188 3.11836883756578009397
H  -5.00280770593944801305 3.10743650602640997249 1.22420442431382681114
H  -3.00888903382214323301 2.13746983145538482773 0.14879674566117767620
C  -3.28445134147064488062 0.20250978960308171906 1.01821256985909402992
C  -4.07649960826171842143 -0.57286366316736825333 1.85413483049562111127
C  -5.19116197773267096238 -0.02614744137585670383 2.46653964814219950341
C  -5.52827240601491887162 1.29740661160024672860 2.23990203972703660895
C  -4.74457863293560233586 2.07454970268284588641 1.40267622576071615548
O  -0.53097574965984040141 1.96162575707266673142 -1.99201839914358358463
O  -1.20232795078444842929 2.93624757003309833081 -1.20232546123809647121
H  -1.02270360840394447521 1.13620511095552378933 -1.77313029814763445380
H  -0.71297567203055045582 3.75155076310277246776 -1.40941482278043195286
