139
 xtb: 6.7.1 (edcfbbe)
C            0.68131580369700        4.79132482323414       -0.30368903425780
C           -4.31251294443098        3.21936736328599        0.36614778511664
C           -5.08838428630697       -1.84501287269064       -0.48853133600866
C           -0.77924675372759       -4.86166577829199       -0.65076222780672
C            4.14414536333388       -3.17916074093335        0.09140620637159
C            5.10076730894242        1.90020360039962       -0.49777234740330
O           -0.21730640918818        3.70464866052673       -0.17720756498788
O           -4.27772091166505        2.15928562022846       -0.53725853405867
O           -3.71141508093734       -2.02114150049189       -0.74154883846385
O            0.08781716783961       -3.76829689656571       -0.46924833092557
O            4.08946100089208       -2.04948387040190       -0.72762927963811
O            3.73198941734440        2.10333758882860       -0.69928548148608
C            1.33775837827808        4.76269962556973       -1.69826363453970
C           -3.90912781975585        4.49534902771736       -0.40148461764774
C           -5.71065572823254       -1.06463102044487       -1.65958880151759
C           -1.47028753128750       -4.70845068834442       -2.01847888395656
C            3.77944733022626       -4.39579736979848       -0.77703064564803
C            5.66507645942642        1.15958647215318       -1.72240097667103
O            0.38876739111133        4.68273233247421       -2.72676791440900
O           -4.75469672375526        4.74367469258011       -1.48877486568280
O           -5.57893905684677       -1.73554541859319       -2.88167250190152
O           -0.57116372187632       -4.68043267337892       -3.09559138187613
O            4.62383880034736       -4.52653750948851       -1.88693662405996
O            5.53182360858566        1.90214386088747       -2.90144489123819
C            2.26451988656416        3.54809366047381       -1.82431575750543
C           -2.44617725534770        4.38786714519317       -0.87412382957318
C           -5.06780550391014        0.32766100301511       -1.71580104993269
C           -2.23508640913316       -3.38082218498155       -1.99026307393432
C            2.31626928182343       -4.27138962698005       -1.21962539732605
C            4.94538577096687       -0.19366903116184       -1.83523013039011
O            3.08500330154193        3.63155621686376       -2.96849658788273
O           -2.02099970948610        5.60366034090041       -1.45247734209100
O           -5.69571342005540        1.14399640681126       -2.67338641452385
O           -2.99687771976056       -3.16470978517880       -3.15149599709085
O            1.90987019668119       -5.42252850443456       -1.93067825139349
O            5.50413278739227       -0.98899571619201       -2.85061924793784
C            3.19907662624357        3.41839835167090       -0.61561312152135
C           -1.52070440002745        4.02263144098900        0.29947702973756
C           -5.15286896644848        1.05005440117255       -0.36343554536648
C           -3.18926423896043       -3.34099149280445       -0.79156917487720
C            1.39394636293786       -4.05717087941179       -0.00943770742137
C            5.01920881604371       -0.98915128798300       -0.52339093667897
C            2.47467527645466        3.62496633858379        0.72753005039766
C           -2.10006548949953        2.77428239076964        0.97341101879742
C           -4.74994610232068        0.14045998744194        0.81764962813327
C           -2.47671710187042       -3.72366999765889        0.52146790103487
C            1.91686339771184       -2.87191505012957        0.80343125752115
C            4.66301407507332       -0.11034343901530        0.69185033953523
O            1.64549263658640        4.78397602277999        0.70561009696208
O           -3.41807577038240        3.02279871495989        1.44401651407024
O           -5.30757218447000       -1.17575583902270        0.71464994799315
O           -1.75132188109197       -4.94015196588351        0.35452640200153
O            3.26162061195187       -3.09355900819679        1.18735594003698
O            5.33272146583007        1.14771599046617        0.66367050054078
C            3.48436670519233        3.83365471428151        1.86581599703170
C           -1.30459176566292        2.29188319947146        2.18732398184144
C           -5.27923071808167        0.65993389763096        2.16679674066422
C           -3.48159778980210       -3.95443530403906        1.65650555438607
C            1.09729777157458       -2.64756298964249        2.12719587257704
C            5.06633237242950       -0.73976933020675        2.03608555756455
O            4.32109733450005        4.93698899406951        1.64093461778251
O           -1.47187130810838        0.98077431416612        2.28273559958983
O           -6.65903548864749        0.93648379015529        2.13323449585680
O           -4.40423739018791       -4.96943725978881        1.35252052090580
O            2.03904977081009       -2.01769255192501        3.03087076482274
O            6.40087546910849       -1.17815696912927        2.03852550469666
H            0.14540131851092        5.74127683039431       -0.17620509799035
H           -5.30369578890729        3.33838892915151        0.82025497345084
H           -5.58644685732321       -2.81583847741646       -0.38207752655700
H           -0.23421504929301       -5.81404260152154       -0.59392784192331
H            5.13825738943638       -3.30329483441295        0.53626147173271
H            5.63185485995715        2.84709592473032       -0.34352642581257
H            1.94201308419469        5.67844081308983       -1.79452349145808
H           -4.00744779499247        5.35236839411551        0.27520282495183
H           -6.78357233794373       -0.95650799161618       -1.48637654766253
H           -2.17677710106833       -5.55353764707466       -2.13601965325454
H            3.89737386249384       -5.30239402152774       -0.17250221910126
H            6.73462035198357        0.98749451882299       -1.58197393743674
H           -0.39213799565492        5.22509225988193       -2.49436211000364
H           -4.90666880292928        3.91105126532766       -1.96675367194938
H           -4.67747757293206       -2.10436284443390       -2.97703604283796
H            0.28999199589714       -5.05373078698082       -2.81399759074867
H            4.75701102127771       -3.65161712008233       -2.28714752465864
H            4.65852485197769        2.34971357837786       -2.92568709938415
H            1.64911429175452        2.64110138839567       -1.88395542297679
H           -2.38116057941563        3.58799576597967       -1.62167411638566
H           -4.00009876705720        0.20966329041217       -1.96742156646079
H           -1.48182389108729       -2.59694119051147       -1.89015148345979
H            2.21960954150855       -3.39202507413991       -1.87123473439779
H            3.87845154483429       -0.00575414811937       -2.04716095058624
H            2.50863709666017        3.79309939324542       -3.73691192948860
H           -2.77109449977220        5.97574493072280       -1.94387085559699
H           -5.81617469311623        0.62832104707079       -3.48386662816642
H           -2.44494535920776       -3.39271526779023       -3.92359984939977
H            2.66246746496323       -5.71478597808199       -2.47358153266863
H            5.63431114424834       -0.42709603030080       -3.63281460232582
H            3.99807094382378        4.16522600230705       -0.71210062906711
H           -1.47442540026243        4.84801462151571        1.02550125553686
H           -6.17661266764402        1.40682820527644       -0.20998315728868
H           -4.00029577802693       -4.06336201297005       -0.96862789000731
H            1.38403355954743       -4.93879243920390        0.64450377968285
H            6.02719667133815       -1.40009371383757       -0.39902786443971
H            1.87301031261766        2.74810976135790        0.96825878238929
H           -2.14512357601083        1.95050008513623        0.25505344797720
H           -3.65118870179330        0.06521090007806        0.85386528778587
H           -1.77367748748845       -2.94198278977013        0.82523244055369
H            1.85105163065331       -1.96630577922780        0.18632468030868
H            3.57743528245898        0.05989562964697        0.66740307552203
H            4.14145045219334        2.96662571669155        1.93132974730782
H            2.93702197143180        3.95595958563105        2.80225999921032
H           -5.03831334812061       -0.10539345270403        2.92098294803879
H           -4.76754748395070        1.58316746006381        2.43410959195212
H           -4.06612969928768       -3.04105307754694        1.81029946290439
H           -2.91572791778379       -4.18280643647420        2.56300420098008
H            4.90796627899391        0.01600293128113        2.81514945478785
H            4.43783427905424       -1.60561332713967        2.25333185164700
H            3.78299781241492        5.74411240457364        1.63215857489168
H           -7.12211063572297        0.09505890869927        2.01455557729193
H           -3.92164971103330       -5.80244036679794        1.27880551002372
H            6.97680790922461       -0.40388419775005        1.98158857877016
C            1.30247061164664       -1.10490916716061        3.80251267682614
H            1.99445822209251       -0.45101510364414        4.32062585050787
H            0.64621227960049       -1.63502411748990        4.51298153041933
O            0.42938688308908       -3.60352495501697        2.59345463624243
C           -0.79521081851185        0.25924966707066        3.29677160261716
H           -1.47524444891979       -0.50756309237781        3.66052174410415
H           -0.48921286382350        0.93830307455895        4.09959558968177
O           -0.66147714656192        2.98091545165158        2.93300490489948
C            0.45962044180712       -0.41188721642722        2.71784000168938
O            0.17753859095343       -1.43532578210953        1.81462157827017
H           -1.08868491967661       -0.88258106744641        0.57928905427418
O           -1.54786330384797       -0.35008541391716       -0.10284299531825
H           -0.37902173282615        0.48345241591611       -0.69140430993030
O            0.40724293541370        0.98702130224084       -0.60025475012726
H            0.77964258202537        0.80220898603608        0.29919093925475
O            1.21168145571504        0.58257710062285        2.04521864429295
H            2.14814601232747        0.29662791149430        2.04795394119934
H            0.11909168025238        1.94385781047908       -0.59189795499630
H           -2.06421238032191       -0.96010006160458       -0.62581707027594
