139
Coordinates from ORCA-job job E -262.794307642070
  C           0.69118772068485      4.78351789465454     -0.31212459204593
  C          -4.31031849273274      3.19589333968696      0.32226644211734
  C          -5.13953756350005     -1.86491952313959     -0.43186615986848
  C          -0.79525774795594     -4.84583271006961     -0.65167712931515
  C           4.14659360365481     -3.18587694804793      0.05407710522785
  C           5.12740730777235      1.90342882170285     -0.42289769809144
  O          -0.19941243330680      3.68704793576363     -0.19320058014979
  O          -4.29873277331457      2.12644276011611     -0.57124866173502
  O          -3.76319446779881     -2.03228806162957     -0.69876901352069
  O           0.08225330263067     -3.75897918209942     -0.49708140935918
  O           4.09466894059252     -2.03478451841856     -0.73440504681389
  O           3.75832197804361      2.11538423301086     -0.61582917491964
  C           1.37365594420434      4.75295339748173     -1.69482186549859
  C          -3.89345854640443      4.45968605631854     -0.45802740649297
  C          -5.77780561140099     -1.10633962869261     -1.60841615967475
  C          -1.51514913182727     -4.69861051657902     -2.00472540241027
  C           3.77201204286567     -4.37888676526902     -0.84347418961513
  C           5.69596784955172      1.18284936060816     -1.65793959027569
  O           0.44226919427647      4.63141077112657     -2.73566549911410
  O          -4.73264589901597      4.70172486194261     -1.55139918679017
  O          -5.67413760880929     -1.80321681412738     -2.81902420151798
  O          -0.63708819296287     -4.66708287065791     -3.09839078540195
  O           4.60753144342039     -4.48092378502470     -1.96271998503747
  O           5.58412168561277      1.94676713483449     -2.82573693877691
  C           2.33743389450726      3.56462448113964     -1.79825564858001
  C          -2.42833220121695      4.34136983042791     -0.92217508912027
  C          -5.12067703687626      0.27759889631496     -1.70369885631678
  C          -2.29748656823604     -3.38128860407702     -1.96777275181679
  C           2.30484376797263     -4.24391961617995     -1.27080670038399
  C           4.96622449561005     -0.16204259215878     -1.80303734455799
  O           3.19430078295465      3.68556565708143     -2.91327934230102
  O          -1.99492394264195      5.55148030588126     -1.50633988375596
  O          -5.75187293038416      1.08064273861525     -2.67004485723929
  O          -3.08749842250316     -3.19178116464449     -3.11572050184702
  O           1.88831349034699     -5.38059476641727     -1.99928378625127
  O           5.51981963638557     -0.93821231465384     -2.83611914380274
  C           3.23632140080343      3.43727226000029     -0.56182299487671
  C          -1.51351222672153      3.98429588707875      0.26252344849239
  C          -5.18201343651479      1.02923884087219     -0.36586117099651
  C          -3.22535917507115     -3.34524511014722     -0.74879239493850
  C           1.39262111669731     -4.05249601381455     -0.04950577638721
  C           5.03391871605221     -0.98591604495564     -0.50849521753003
  C           2.48660332683478      3.65819586144035      0.76586519348310
  C          -2.09771730365584      2.73226808808488      0.92763008759520
  C          -4.77662590828474      0.14091777730204      0.83080818576026
  C          -2.46940858674205     -3.70005268894293      0.54681577568590
  C           1.92551397966717     -2.88383698146573      0.77945571939750
  C           4.68513647295760     -0.13125105622295      0.72633513624423
  O           1.63392059002519      4.79969309495902      0.71624374625098
  O          -3.41453773174987      2.99317849722947      1.39678229231903
  O          -5.34474094912113     -1.17258437401163      0.75918945857704
  O          -1.74433060543240     -4.91543644424473      0.37721388509621
  O           3.26851865172994     -3.12354620441306      1.15623046573550
  O           5.35367907362711      1.12757556397868      0.72406821730158
  C           3.48075166403273      3.90368300563227      1.91150265954382
  C          -1.31705604447690      2.24150464022082      2.14768289706769
  C          -5.29163579009585      0.68877410892503      2.17457367643787
  C          -3.43288639875443     -3.91438383330860      1.71974660312341
  C           1.11029948009107     -2.66604419707027      2.10569094747779
  C           5.09163677759108     -0.79200753776012      2.05441023598873
  O           4.30941287474132      5.01244694506432      1.67206827533780
  O          -1.50608271622050      0.93228117184278      2.24756628905776
  O          -6.66626346708769      0.97561478021457      2.14511824192218
  O          -4.35447547646983     -4.94439240584105      1.47047540388683
  O           2.05068111786478     -2.01109566883713      2.99627150411011
  O           6.42455639228547     -1.23398111314415      2.04207338665889
  H           0.13817775262592      5.72324333029605     -0.20610189371081
  H          -5.29682709694075      3.33434283424170      0.78165689419747
  H          -5.62803559054138     -2.83679295835021     -0.29207241440322
  H          -0.25374912516577     -5.79838571582055     -0.60728772470560
  H           5.14384489827468     -3.32869402566430      0.49027790044253
  H           5.66242076890994      2.84494124482393     -0.24742113937195
  H           1.95379436473729      5.68437272138713     -1.79243250585676
  H          -3.98809826987144      5.32390392867895      0.20867586616204
  H          -6.84884189156963     -0.98676984261023     -1.41248347861492
  H          -2.21380090952512     -5.54279243298825     -2.11273789461429
  H           3.89421190859701     -5.30130779999413     -0.26576539966054
  H           6.76478469357096      0.99769430741118     -1.50541180388709
  H          -0.34300720553650      5.17245525574479     -2.53773115972983
  H          -4.89685858371763      3.86442015199852     -2.01612087822224
  H          -4.77623787891642     -2.17420263807784     -2.92262783835744
  H           0.23925077035860     -5.00235113519991     -2.83164617040441
  H           4.74306488322510     -3.59397169858248     -2.33903496368385
  H           4.72339579802970      2.41180343839659     -2.84983815667438
  H           1.75428763248983      2.64243741876824     -1.89635482853113
  H          -2.36385531151624      3.53319065787656     -1.66534075563632
  H          -4.06095556774350      0.14212224712466     -1.96614630435669
  H          -1.55619632802777     -2.57534608686874     -1.88236059230932
  H           2.20443562496947     -3.34861057660761     -1.90295718916454
  H           3.90409375838705      0.03695909694742     -2.01136088296209
  H           2.64903879591049      3.83523314858504     -3.70062583491693
  H          -2.73967995638818      5.92058595256969     -2.00854871579264
  H          -5.89513563397946      0.54298003491677     -3.46477531126192
  H          -2.54078806175591     -3.38454254431084     -3.89359558250286
  H           2.63039464906860     -5.65410553027998     -2.56618336654114
  H           5.66846474129864     -0.35696468838786     -3.59971417854779
  H           4.04450757010493      4.17516743348666     -0.63995405801346
  H          -1.48623350736497      4.80475858774846      0.98773135006936
  H          -6.20423861300608      1.40037962683470     -0.20906585458787
  H          -4.02883192227623     -4.07778762515535     -0.89487144196789
  H           1.38935268297294     -4.94500806791928      0.58815461332062
  H           6.04062869670443     -1.40853646297691     -0.39215017822586
  H           1.89770839615953      2.76876683446301      1.01272511174023
  H          -2.14534704278728      1.90780160910919      0.20346975126081
  H          -3.68396365087154      0.06523336442542      0.87139152270717
  H          -1.75880637205723     -2.90941319720716      0.81481281174678
  H           1.87018949876085     -1.96829901618752      0.17750863333346
  H           3.60088742787900      0.03727875168172      0.71130413539728
  H           4.14095105621791      3.03858766805094      2.00366535882898
  H           2.91413608238312      4.02909373549486      2.84085999402754
  H          -5.06594473880188     -0.06009995925409      2.94221862647346
  H          -4.78093841929584      1.61737325466916      2.42614087982496
  H          -4.01910873995917     -3.00656912063728      1.87792540429941
  H          -2.83136207101306     -4.12312821763973      2.61180948673983
  H           4.93818641346523     -0.05578364739281      2.85264454295043
  H           4.46356978851122     -1.66184184247745      2.25399361622224
  H           3.75631945509986      5.80684280774331      1.65532086533361
  H          -7.15140639781024      0.14451158284642      2.04366998620663
  H          -3.86461069246278     -5.77522390133275      1.38983422772817
  H           7.00431421028474     -0.45832204218366      2.00521935795534
  C           1.30681240841433     -1.09954434094000      3.76166855335702
  H           1.99533627934968     -0.41364018813155      4.25083134836609
  H           0.67679908889511     -1.62250741851607      4.49060241634579
  O           0.46905679543153     -3.63394676510671      2.58768119819817
  C          -0.82526777786881      0.21005093699232      3.25798087979521
  H          -1.49607612911711     -0.56976181914082      3.61526862194160
  H          -0.52843612401016      0.88534992746989      4.06449613219415
  O          -0.66564736643860      2.92247916516263      2.89366652696754
  C           0.43811371285457     -0.44150296465028      2.67521302970703
  O           0.16824453690191     -1.48155929987323      1.78852119011944
  H          -1.05602644670385     -0.86913254092219      0.42327453551559
  O          -1.49479765443093     -0.36419501098303     -0.27844652658928
  H          -0.30724158274586      0.49219878133267     -0.74705531465991
  O           0.50195294467363      1.10490750541220     -0.60777610775879
  H           0.79743097366286      0.90863515128769      0.32119220475066
  O           1.16983816756289      0.55965152222356      1.98894254141127
  H           2.10097122956483      0.28558348118189      1.96868800399533
  H           0.17084615042884      2.04096771358952     -0.59568439668328
  H          -2.21599827532143     -0.91281803208915     -0.60997741949596
