137
Coordinates from ORCA-job job
  C           0.52633890035055      5.06958643117816     -0.12788902297935
  C          -4.42641519987978      3.33779408739000      0.48823026998566
  C          -5.13711006271601     -1.71037936667262     -0.36526899117088
  C          -0.87595788806991     -4.83654359852108     -0.48751972318244
  C           4.17320064701262     -3.28420755342346     -0.10614682664926
  C           4.72862564406456      1.93259617702666     -0.60743432192998
  O          -0.32975370412278      3.95408527181323      0.01884488201568
  O          -4.41804972300818      2.33137052907646     -0.47435014725206
  O          -3.75836266963062     -1.87196045193618     -0.60576846833848
  O           0.13789277520177     -3.86858232293012     -0.43028693341047
  O           3.87591982261661     -2.08554718576582     -0.74837403847739
  O           3.34667403812029      2.20365733283082     -0.73617072496469
  C           1.11269443681789      5.06951730947841     -1.55198140468649
  C          -4.04148302385354      4.65651101906978     -0.21129811307196
  C          -5.74910434931559     -0.95507848099923     -1.55618764964723
  C          -1.62041223932047     -4.67301315790667     -1.82414486098853
  C           3.79704531071754     -4.40554593678000     -1.09512590929641
  C           5.18636211428126      1.19203427727714     -1.87749441447183
  O           0.13254163439581      5.16594740598374     -2.55011995435196
  O          -4.87305023032837      4.92869335379712     -1.30186361552067
  O          -5.57685513660279     -1.63925666239966     -2.76539492823784
  O          -0.77451008471269     -4.77409415589003     -2.93738841567685
  O           4.51111961044163     -4.28533432680264     -2.29328474729571
  O           4.92152339904693      1.93043338752732     -3.03854210062950
  C           1.86469422808745      3.74711135495432     -1.73850342704356
  C          -2.56952104534464      4.61239305135292     -0.66410373706619
  C          -5.10245466918324      0.43501029850346     -1.61681551186178
  C          -2.30451015362756     -3.29804970807160     -1.82260589757300
  C           2.28456723038551     -4.32336149946449     -1.36400234940659
  C           4.48897298947819     -0.17497062242299     -1.91886481383182
  O           2.55816793644202      3.68548332085587     -2.96290499502140
  O          -2.17889539126851      5.87645636474290     -1.15197407420186
  O          -5.68751179868056      1.21753462408853     -2.62644659308628
  O          -3.07408385327958     -3.10024101659236     -2.98153407903116
  O           1.83821444763023     -5.42075992005744     -2.12806460338533
  O           4.95093864361662     -0.95898754930224     -2.99284730395575
  C           2.90044286966730      3.55009604953609     -0.62621634981333
  C          -1.63953356156706      4.19442667219975      0.48922425332387
  C          -5.23970119814214      1.18465174690950     -0.28528855314445
  C          -3.22818429765229     -3.18381865856090     -0.60792255320827
  C           1.45330619595389     -4.27422341148116     -0.07207880955197
  C           4.73692827167477     -0.96019588736863     -0.62440626646787
  C           2.31551120516489      3.81759093639884      0.77348171918696
  C          -2.19562545720027      2.87347470711967      1.03502673503567
  C          -4.81528124066911      0.29663431950333      0.90625121696899
  C          -2.43990423048481     -3.47329074906424      0.68043793233831
  C           2.05822525770979     -3.22739051647366      0.87325483499389
  C           4.41931849210811     -0.10868930838798      0.61879706382614
  O           1.56397402351563      5.03068547220656      0.80619291661754
  O          -3.50888675955798      3.07235812394262      1.52961622934801
  O          -5.37409879484935     -1.01557071314628      0.81922424044084
  O          -1.77131148965860     -4.72826159199776      0.58475832525134
  O           3.43767081728777     -3.44658530639276      1.09093565205749
  O           5.00546586323394      1.19436858413626      0.53984655814855
  C           3.42955893015159      3.96326369418805      1.81894894237343
  C          -1.44933305889155      2.26256773992972      2.21956728189358
  C          -5.34377009805989      0.80482040303387      2.26184132657335
  C          -3.36597094300161     -3.58136738904947      1.89800166052765
  C           1.35156393220052     -3.14126049737303      2.22366829340791
  C           4.98809135221500     -0.72715160424453      1.90621727466011
  O           4.32227558174922      4.99762043762738      1.48839863811716
  O          -1.45147388772498      0.94282942647053      2.08499465971411
  O          -6.71566731247518      1.08665388706599      2.21393488697108
  O          -4.32352106652819     -4.59040894706972      1.73277761789371
  O           1.94776852740045     -2.25777596160821      3.04113741845107
  O           6.35660837812853     -1.02431089606347      1.78906144366266
  H          -0.01127428375478      6.00512351451514      0.06326936180059
  H          -5.40614075577546      3.42768275164952      0.97440785629494
  H          -5.62862257980730     -2.68236483192623     -0.23111806697375
  H          -0.45750261789974     -5.84782355913027     -0.40392578100241
  H           5.22805722492955     -3.34826964815828      0.18621994235034
  H           5.29303017243154      2.86604168018254     -0.49383037206608
  H           1.81828192733333      5.91199894242919     -1.63149167685769
  H          -4.16902386462835      5.48117184846650      0.49827128720053
  H          -6.82865017849072     -0.84870409713131     -1.40426579851341
  H          -2.39528039735253     -5.45186061568307     -1.88824143745398
  H           4.04601797725026     -5.37954990889080     -0.66411094070266
  H           6.27078532828153      1.04081300069865     -1.84043017610936
  H          -0.66651717510779      5.58110648370292     -2.17290050002161
  H          -4.95999661204147      4.11799738963611     -1.82753460239779
  H          -4.66726255772895     -1.98886393543655     -2.81101219102379
  H           0.13126007158891     -5.00594844920394     -2.64972327693009
  H           4.48734200865349     -3.35273306755337     -2.56902172936077
  H           4.04119215365589      2.34534784386589     -2.96828657000552
  H           1.11285837208935      2.94630033363257     -1.68900005363088
  H          -2.47151324383868      3.85955149075443     -1.46237860940326
  H          -4.02603390577831      0.30306341740090     -1.81660923763459
  H          -1.52771019736012     -2.52203798369923     -1.74343075610884
  H           2.08957635391294     -3.38670661768965     -1.90953749498651
  H           3.40449029464786     -0.01530643137334     -2.02193191966357
  H           1.95059489657263      3.95219853763250     -3.66657378013353
  H          -2.90562583423298      6.21075058699730     -1.70330562002105
  H          -5.81779717163353      0.64000209181593     -3.39481827915350
  H          -2.54699168259344     -3.39663510175608     -3.73907655546238
  H           2.45215757702232     -5.52833584425791     -2.87237822458010
  H           5.02209187451132     -0.37799473867686     -3.76477446583042
  H           3.73361796467731      4.24077454297310     -0.80732300448655
  H          -1.63853884147374      4.95474544458167      1.28048976789550
  H          -6.28313805557275      1.50233928719810     -0.14752571213716
  H          -4.03670257904783     -3.91991837045366     -0.70515583099478
  H           1.43785605606212     -5.25587073220535      0.41526637899968
  H           5.78372117015470     -1.29006368913324     -0.59278695369851
  H           1.64970925280242      2.99711679061178      1.05383237438085
  H          -2.20361678192029      2.13090509061373      0.22614352929304
  H          -3.71909961851866      0.22697350748848      0.92886072706527
  H          -1.70524616568173     -2.67241534531678      0.84253882189035
  H           1.91843925184570     -2.24269104325358      0.40698401444171
  H           3.33284571055101     -0.03008913160399      0.72213995379143
  H           4.01977040890390      3.04600742628303      1.85231668844541
  H           2.96142433567022      4.14323696627095      2.79311878234903
  H          -5.13240883629657      0.02387969949051      3.00234526096994
  H          -4.83743575269545      1.72182101637581      2.55826351070479
  H          -3.91274195257128     -2.64519813946133      2.02428895373789
  H          -2.74210641378023     -3.76964680963189      2.78059608791369
  H           4.81941126367309     -0.01926069252253      2.72484184985930
  H           4.47147855919725     -1.66202096176844      2.13063196669172
  H           3.81228299754961      5.81733286134142      1.44057286275652
  H          -7.17674236838278      0.26599525249411      1.98937340615850
  H          -3.84838026460194     -5.41833300551080      1.57090886053538
  H           6.81743375939495     -0.19209910145863      1.61087243346130
  C           0.98053299385881     -1.50441216992037      3.74881627143673
  H           1.52008797577838     -0.87268362661275      4.44812094900733
  H           0.27214744987178     -2.15042740727122      4.27689227527354
  O           0.45727421237991     -3.86856033398626      2.58780115086576
  C          -0.89910868576924      0.18284728865991      3.16669723169029
  H          -1.67903493843384     -0.47436085110658      3.55049454342669
  H          -0.57117384997291      0.87543700898746      3.94371318053177
  O          -0.99549274353273      2.87094609476686      3.14604911323895
  C           0.21227161103214     -0.72195407219802      2.66524914780633
  O           0.03130093675259     -1.36990392553345      1.57703833602532
  H           0.79384257596792      0.06549316393255     -0.40225008790254
  O           0.91661212981973      0.98756384350028     -0.12298085099084
  H           1.21920519763812      0.71828912677592      1.26321860724515
  O           1.46788064136714      0.38974615623956      2.23946538531162
  O           1.54981837481206      1.62221177319077      3.01494804816811
  H           2.43331193197686      1.48264034011726      3.41992202177235
  H           1.78597202419630      1.25151080124790     -0.50163042845429
