19
Coordinates from ORCA-job job.QMRegion
  O          -1.45147388772498      0.94282942647053      2.08499465971411
  O           1.94776852740045     -2.25777596160821      3.04113741845107
  C           0.98053299385881     -1.50441216992037      3.74881627143673
  H           1.52008797577838     -0.87268362661275      4.44812094900733
  H           0.27214744987178     -2.15042740727122      4.27689227527354
  C          -0.89910868576924      0.18284728865991      3.16669723169029
  H          -1.67903493843384     -0.47436085110658      3.55049454342669
  H          -0.57117384997291      0.87543700898746      3.94371318053177
  C           0.21227161103214     -0.72195407219802      2.66524914780633
  O           0.03130093675259     -1.36990392553345      1.57703833602532
  H           0.79384257596792      0.06549316393255     -0.40225008790254
  O           0.91661212981973      0.98756384350028     -0.12298085099084
  H           1.21920519763812      0.71828912677592      1.26321860724515
  O           1.46788064136714      0.38974615623956      2.23946538531162
  O           1.54981837481206      1.62221177319077      3.01494804816811
  H           2.43331193197686      1.48264034011726      3.41992202177235
  H           1.78597202419630      1.25151080124790     -0.50163042845429
  H          -1.44994393969819      1.88598331015734      2.18116727965860
  H           1.52727827009331     -2.88087857229180      2.46459405481803
