11
Coordinates from ORCA-job job.QMRegion
  C           3.20883404262775     16.97264359780780     19.27366295198673
  O           1.47042329812864     14.23851945456946     17.99956224292084
  O           3.39796208595919     16.29846676299800     17.90863918207200
  O           2.89877574710504     18.21484402648117     19.04404019518355
  H           2.77381376604694     14.42855949839187     16.40001857778718
  O           3.74424638870526     14.87339168816463     18.15322317645816
  C           2.76963107372205     14.10273556063889     17.45439507792963
  H           1.14353254064986     15.11662305417039     17.75846977829007
  H           2.43257407942488     16.33227444769620     19.76473988103231
  H           4.19276976020235     16.78163214449950     19.77920810904577
  H           3.09732286336295     13.05875588799822     17.55968898857259
