11
Coordinates from ORCA-job job.QMRegion
  C          -1.10169142035758      3.03872784759119      0.55994605995556
  O          -0.37995241264409      4.27371709146468      0.57766805740670
  H          -0.38418086647486      2.23414910928424      0.31918507097988
  C          -1.81594341260555      3.66588963127947      3.05720743779546
  O          -2.59819506993616      2.94615686208105      3.71884508566777
  H          -1.49028021950479      2.83663366046811      1.60257489075562
  O          -0.42176121160684      3.52513555997154      3.32225009399959
  O          -0.22675789195887      2.37435374684465      4.20256489903346
  H          -1.17868796396171      2.18492742005165      4.43978390860573
  H          -1.98375595472397      3.01475521489581     -0.13228465577668
  H          -2.03496030376148      4.49597082236550      2.44725746798969
