31
Coordinates from ORCA-job job
  H          -5.40158757087409      1.92106495524589     -2.84995633483811
  C          -4.59428516445138      2.15975830058486     -2.17491572256311
  C          -3.88368054846108      1.14506089250684     -1.55547474635779
  C          -2.84804700932747      1.44965393331045     -0.69069363526092
  C          -2.51512300401395      2.77379879234408     -0.43284052282640
  C          -3.23125836957349      3.78739611131102     -1.05712222434637
  C          -4.26416078570957      3.48118863784214     -1.92423484867730
  H          -4.13375611226027      0.11234287593405     -1.74612496556709
  H          -2.29123135417080      0.66119276879996     -0.20371480585793
  C          -1.42352407684157      3.10529003204387      0.54541216809809
  H          -2.96164654184014      4.81335902512122     -0.85143404217364
  H          -4.81243473581982      4.27927907388419     -2.40149111563507
  O          -0.74440253653123      4.32063082675073      0.29691346954699
  H          -0.71658456231025      2.25806055568149      0.67458725311053
  H          -2.10557214083905      8.30105163122276      0.07746719655636
  C          -2.07374163909483      7.37204840139923      0.62943060421119
  C          -3.25852567211893      6.93594586982491      1.28848979998838
  C          -3.21417385993400      5.82073821666934      2.06438925679180
  C          -2.01526877006579      5.10195392186276      2.24341626241871
  C          -0.83641749935140      5.37115681675913      1.39265679220993
  C          -0.91941993598841      6.68670751961206      0.71276908984158
  H          -4.16703453326793      7.50786062327955      1.18935145765475
  H          -4.07625295786403      5.47437242850254      2.61932105099370
  C          -2.01344975823660      3.90017989853090      2.98740271318254
  H           0.10949568522835      5.23718912119413      1.94080838409393
  H          -0.02273895720465      7.02288011140897      0.21502534255300
  O          -2.94009438682810      3.38613298734574      3.65451518627816
  H          -1.93359994198368      3.18862036997726      1.57970927311958
  O          -0.67990999348973      3.45238638318997      3.27849951905688
  O          -0.75617982314832      2.22473478967460      4.05240065257779
  H          -1.71467244362764      2.25381912818513      4.32585049181973
