11
Coordinates from ORCA-job job.QMRegion
  C          -1.11333905339742      2.94549249217110      0.58710736028949
  O          -0.36431090495207      4.19937653673594      0.78126752811059
  H          -0.37075631357329      2.23478226587686      0.19282992997439
  C          -1.68157844414559      3.62948499653213      3.07480232014495
  O          -2.37627300242250      2.70809038893496      3.55848556570480
  H          -1.46943714812637      2.59619278057417      1.57668965581341
  O          -0.28804108133186      3.59262136774920      3.31015128992000
  O          -0.03370164635055      2.71427333228743      4.54237807995426
  H          -0.90418832946239      2.24504142178723      4.58387005562030
  H          -1.97939395273265      3.03027275092637     -0.11632307565141
  H          -2.01111960186497      4.44686991887665      2.50966926374536
