11
Coordinates from ORCA-job job.QMRegion
  C          -1.10976595860556      2.93351067886332      0.55900854478577
  O          -0.36446721528406      4.17732958319371      0.78385777421874
  H          -0.36651356088889      2.23413094175346      0.14633982807120
  C          -1.67513765123695      3.64515201519405      3.13608287423232
  O          -2.36860756018370      2.75724275558519      3.68076405057197
  H          -1.46230119268269      2.54073915571005      1.53254054874848
  O          -0.27441358766745      3.59213388439664      3.32812973939725
  O           0.00504716147100      2.74986498863522      4.57609881589562
  H          -0.87567611633422      2.30582366251113      4.66570830445462
  H          -1.97567981080351      3.03234084834496     -0.14325702208411
  H          -2.00734281714239      4.43490184993886      2.53616209915292
