11
Coordinates from ORCA-job job.QMRegion
  C          -1.39489174482863      3.15284145959188      0.50253426853685
  O          -0.76891584760952      4.37630758015466      0.24642394657100
  H          -0.67551787111568      2.32295251102323      0.67354154734655
  C          -2.06389821346429      3.86176553115570      2.87097464978897
  O          -3.02961061799347      3.32638238824275      3.47059226205613
  H          -1.91925344332305      3.24758999357147      1.56225297871284
  O          -0.74184599665105      3.43760431401125      3.27767663160286
  O          -0.85450599596309      2.15195013569583      3.94193489663642
  H          -1.82312127272761      2.16255079509689      4.17341033351544
  H          -2.21580561081174      2.87278703229216     -0.19224867125142
  H          -2.03063563579433      4.81111861053259      2.38066669411783
