31
Coordinates from ORCA-job job
  H          -5.73120598251872      2.57133889843359     -2.23763202000204
  C          -4.77156741352438      2.63530067721622     -1.74834632531917
  C          -4.28777545878672      1.55252600129084     -1.03081475973071
  C          -3.06144523916795      1.63125651613849     -0.39754220123924
  C          -2.30870805561651      2.79532796003030     -0.48016286627544
  C          -2.79608686521060      3.87625685791463     -1.20164384110380
  C          -4.02313421463458      3.79689093545575     -1.83453483815677
  H          -4.86772170333662      0.64466859376071     -0.96028335542638
  H          -2.68091312827365      0.79538849395822      0.17456914033414
  C          -0.99064929242268      2.92248255189412      0.25255700417133
  H          -2.18367764692066      4.76573212897983     -1.24868515777872
  H          -4.39309840580817      4.64477010363287     -2.39033243377605
  O          -0.18083901330324      3.91082540907882     -0.00720893216277
  H          -0.51650181630266      1.91309699023137      0.41911309837389
  H          -2.51466428372714      8.24339265174620      0.12030796584555
  C          -2.38923553789008      7.32015124405610      0.66481808777473
  C          -3.49376823495232      6.53063575013156      0.95291969084793
  C          -3.32975932042700      5.34242367318747      1.63332200434904
  C          -2.05989280384567      4.95031584163106      2.05233919231945
  C          -0.95002408168683      5.73663450818177      1.75894333940112
  C          -1.12682518102074      6.92491856357300      1.06868330628805
  H          -4.47894942498533      6.83424366121052      0.63504013148164
  H          -4.16534734325851      4.69495813905728      1.85747350947776
  C          -1.91029553213699      3.62040572658505      2.69694581404779
  H           0.02734557880455      5.42230920692573      2.08746134395785
  H          -0.26455568234123      7.53011387814484      0.83492905865661
  O          -2.84106271122505      2.92357247360904      3.16953790288690
  H          -1.47439895952465      3.02976803771766      1.40238380118777
  O          -0.64426634637540      3.56213583579106      3.36270635666267
  O          -0.53587645089158      2.29757318539979      4.06431803147602
  H          -1.49436944868888      2.08643550503599      4.20922795143073
