31
Coordinates from ORCA-job job
  H          -5.24960170684951      3.51579074400965     -2.82696087045149
  C          -4.41427383022586      3.38871082810717     -2.15566150075963
  C          -4.59886567415305      2.77554663270109     -0.92902831938189
  C          -3.53149243945473      2.62327737846480     -0.06080682812795
  C          -2.26954439192856      3.07411505406551     -0.41803426060206
  C          -2.08893448728135      3.68210626267653     -1.65372996600660
  C          -3.15662615373405      3.84267055177350     -2.51700157841296
  H          -5.57663914390078      2.42323588443428     -0.63726405406736
  H          -3.67315065169377      2.16182825099369      0.90718204689436
  C          -1.10245093976109      2.92412997675382      0.52771992582594
  H          -1.10434479309364      4.04096790721745     -1.91622684384525
  H          -3.00676720646704      4.32485872140715     -3.47092307209272
  O          -0.36257927536639      4.16000117513832      0.78197371673880
  H          -0.35734260871327      2.23642206759914      0.09870346727563
  H          -3.43402238644934      7.01027295733814     -0.45095187486343
  C          -3.04250653053103      6.35004830134338      0.31056056654694
  C          -3.96766815236481      5.70494566839801      1.18535993877596
  C          -3.49975371616029      4.86920017768825      2.14518145003788
  C          -2.11564324909235      4.67402451065866      2.35243157480344
  C          -1.10390482296215      5.24794732163558      1.42148686090139
  C          -1.71878745314417      6.16351856061328      0.41154196519777
  H          -5.02456493633957      5.87964031402780      1.06488718116125
  H          -4.16414023993805      4.34150037264848      2.81746820879105
  C          -1.67146697448896      3.66283704759418      3.20044429760661
  H          -0.28027726435419      5.74947107350265      1.96376246766888
  H          -1.02370618596896      6.64424899855229     -0.26151744251399
  O          -2.36792676820953      2.83379656712701      3.82914286740198
  H          -1.45245405206962      2.49540490390920      1.48672790254255
  O          -0.26733448455076      3.57435172496013      3.33271921793921
  O           0.04265198127995      2.76105061249164      4.59320915081702
  H          -0.85516046203300      2.36993445216913      4.74801680419859
