31
Coordinates from ORCA-job job
  H          -5.18769698638675      3.64065680565059     -2.96215882832144
  C          -4.37141569947764      3.48196495088355     -2.27435372325772
  C          -4.60986902774810      2.91369600124822     -1.03576374065104
  C          -3.56601428781637      2.72013130451854     -0.14705763741381
  C          -2.27452439637539      3.08661422305217     -0.49436047946987
  C          -2.04008471722718      3.64859763379341     -1.74332795414143
  C          -3.08318604236283      3.84912634677716     -2.62765390280539
  H          -5.61103566269052      2.62792462698976     -0.75066028546411
  H          -3.75002383378274      2.29080782610375      0.82833241706587
  C          -1.12931160609640      2.89352494443641      0.47153313661658
  H          -1.03195301640058      3.93956398940177     -2.00061688679375
  H          -2.89086945841037      4.29414870054521     -3.59198082030662
  O          -0.37958938586062      4.10160198425253      0.77566460320297
  H          -0.39020546906425      2.20083913019851      0.03874240591296
  H          -3.56298775558017      6.85521653094360     -0.41497774099537
  C          -3.13301077896370      6.22830556706711      0.35382427714216
  C          -4.01193269767244      5.61702495399426      1.29829029229092
  C          -3.49392846838566      4.82590675659515      2.26928141575883
  C          -2.10112480122022      4.62330234852259      2.40831772824557
  C          -1.13414410696846      5.17615667338398      1.41344373633136
  C          -1.80612776423719      6.04684515929282      0.39847301366829
  H          -5.07424587167474      5.78379257712393      1.22243780753632
  H          -4.12231829638775      4.33062622002575      2.99860988766443
  C          -1.62960238276515      3.71578571631574      3.35236500964717
  H          -0.30699357143257      5.71587676326488      1.91271428083436
  H          -1.14643808498049      6.49899468088351     -0.32811500043915
  O          -2.29892932236399      3.02997525271887      4.15850974165451
  H          -1.50811311734965      2.42952331779398      1.40377227861880
  O          -0.22551356748905      3.56193631924409      3.36093280733337
  O           0.16741555985386      2.83335872625014      4.64599982185502
  H          -0.73550438268281      2.54402896872799      4.94019533868013
