11
Coordinates from ORCA-job job.QMRegion
  C          -0.99064929242268      2.92248255189412      0.25255700417133
  O          -0.18083901330324      3.91082540907882     -0.00720893216277
  H          -0.51650181630266      1.91309699023137      0.41911309837389
  C          -1.91029553213699      3.62040572658505      2.69694581404779
  O          -2.84106271122505      2.92357247360904      3.16953790288690
  H          -1.47439895952465      3.02976803771766      1.40238380118777
  O          -0.64426634637540      3.56213583579106      3.36270635666267
  O          -0.53587645089158      2.29757318539979      4.06431803147602
  H          -1.49436944868888      2.08643550503599      4.20922795143073
  H          -1.96264242455729      2.82871329557392     -0.28778209279509
  H          -2.02254447466329      4.61829159952829      2.21327113998448
