31
Coordinates from ORCA-job job
  H          -5.36630832683605      2.97354405675136     -2.70159660769832
  C          -4.50335625824389      2.98023503436840     -2.05363727607530
  C          -4.48339150076362      2.18661158916998     -0.91883515069200
  C          -3.38428321272586      2.20345659770593     -0.07918814608041
  C          -2.29118412667549      3.00639997289337     -0.37354956918704
  C          -2.31549746874654      3.79703132024578     -1.51335817351778
  C          -3.41846958050885      3.78779042982699     -2.34799163670141
  H          -5.32941979132543      1.56088740187101     -0.67746786652239
  H          -3.37352759281559      1.60600839830071      0.82270927503699
  C          -1.10169142035758      3.03872784759119      0.55994605995556
  H          -1.46487330410858      4.43070728762305     -1.71813896785909
  H          -3.42962421903422      4.41537931254378     -3.22606403216249
  O          -0.37995241264409      4.27371709146468      0.57766805740670
  H          -0.38418086647486      2.23414910928424      0.31918507097988
  H          -3.04308014858758      7.54706287343817     -0.29155597551055
  C          -2.76099999834651      6.74873452667579      0.38085551629406
  C          -3.79377252344381      6.05621821895946      1.07867664404252
  C          -3.45532164513472      5.08948153748070      1.96803763136293
  C          -2.10769671572650      4.77164420609674      2.24469056984913
  C          -1.00123824289985      5.33513072126546      1.42598541607714
  C          -1.46327864826896      6.45585168268221      0.55737275528455
  H          -4.82546105472600      6.31129558580577      0.89828423113874
  H          -4.20225454469200      4.54420507783142      2.53062384795743
  C          -1.81594341260555      3.66588963127947      3.05720743779546
  H          -0.14353266256632      5.63724878515813      2.05154369337484
  H          -0.68525696477305      6.98123945426907      0.02299131738860
  O          -2.59819506993616      2.94615686208105      3.71884508566777
  H          -1.49028021950479      2.83663366046811      1.60257489075562
  O          -0.42176121160684      3.52513555997154      3.32225009399959
  O          -0.22675789195887      2.37435374684465      4.20256489903346
  H          -1.17868796396171      2.18492742005165      4.43978390860573
