11
Coordinates from ORCA-job job.QMRegion
  C          -1.42352407684157      3.10529003204387      0.54541216809809
  O          -0.74440253653123      4.32063082675073      0.29691346954699
  H          -0.71658456231025      2.25806055568149      0.67458725311053
  C          -2.01344975823660      3.90017989853090      2.98740271318254
  O          -2.94009438682810      3.38613298734574      3.65451518627816
  H          -1.93359994198368      3.18862036997726      1.57970927311958
  O          -0.67990999348973      3.45238638318997      3.27849951905688
  O          -0.75617982314832      2.22473478967460      4.05240065257779
  H          -1.71467244362764      2.25381912818513      4.32585049181973
  H          -2.23299579053681      2.85947375722412     -0.18000800449299
  H          -2.01481527599268      4.80234212821774      2.42889798413453
