31
* (null), Energy   -1000.0000000
H    -5.731206    2.571339   -2.237632    0.041524    0.014580   -0.036782
C    -4.771567    2.635301   -1.748346    0.029950    0.001186   -0.015670
C    -4.287775    1.552526   -1.030815    0.025806   -0.002290   -0.017870
C    -3.061445    1.631257   -0.397542   -0.003158   -0.003658    0.047958
C    -2.308708    2.795328   -0.480163   -0.022652    0.032472    0.178986
C    -2.796087    3.876257   -1.201644    0.008680    0.006432    0.069764
C    -4.023134    3.796891   -1.834535    0.040932    0.000280    0.004934
H    -4.867722    0.644669   -0.960283    0.034776   -0.008702   -0.057232
H    -2.680913    0.795388    0.174569   -0.041600   -0.002450    0.055026
C    -0.990649    2.922483    0.252557   -0.009928    0.077596    0.057204
H    -2.183678    4.765732   -1.248685   -0.023524    0.036692    0.065704
H    -4.393098    4.644770   -2.390332    0.078112    0.002208   -0.013708
O    -0.180839    3.910825   -0.007209   -0.115598   -0.201664   -0.096302
H    -0.516502    1.913097    0.419113   -0.267980    0.155632    1.215750
H    -2.514664    8.243393    0.120308   -0.026920    0.017172   -0.032078
C    -2.389236    7.320151    0.664818   -0.034950    0.032794   -0.000002
C    -3.493768    6.530636    0.952920   -0.013744    0.030480    0.009378
C    -3.329759    5.342424    1.633322    0.012474    0.025974    0.017590
C    -2.059893    4.950316    2.052339    0.009052    0.098680   -0.000248
C    -0.950024    5.736635    1.758943   -0.026230    0.101244    0.053136
C    -1.126825    6.924919    1.068683   -0.022750    0.072436    0.026278
H    -4.478949    6.834244    0.635040   -0.016050    0.016282    0.001130
H    -4.165347    4.694958    1.857474    0.058408   -0.018202    0.019550
C    -1.910296    3.620406    2.696946    0.182540   -0.292432   -0.636026
H     0.027346    5.422309    2.087461   -0.020398    0.077090    0.047224
H    -0.264556    7.530114    0.834929   -0.029860    0.091466    0.029272
O    -2.841063    2.923572    3.169538   -0.016608   -0.024234   -0.044062
H    -1.474399    3.029768    1.402384   -0.609214    0.610294    0.925932
O    -0.644266    3.562136    3.362706    0.098102    0.058970    0.167082
O    -0.535876    2.297573    4.064318   -0.039424   -0.043676   -0.009362
H    -1.494369    2.086436    4.209228   -0.107682    0.191528   -0.057452
31
* Frequency(6) -396.6300
H    -5.726487    2.572996   -2.241812    0.041524    0.014580   -0.036782
C    -4.768163    2.635436   -1.750127    0.029950    0.001186   -0.015670
C    -4.284842    1.552266   -1.032846    0.025806   -0.002290   -0.017870
C    -3.061804    1.630841   -0.392092   -0.003158   -0.003658    0.047958
C    -2.311282    2.799018   -0.459822   -0.022652    0.032472    0.178986
C    -2.795101    3.876988   -1.193716    0.008680    0.006432    0.069764
C    -4.018482    3.796923   -1.833974    0.040932    0.000280    0.004934
H    -4.863770    0.643680   -0.966787    0.034776   -0.008702   -0.057232
H    -2.685641    0.795110    0.180822   -0.041600   -0.002450    0.055026
C    -0.991777    2.931301    0.259058   -0.009928    0.077596    0.057204
H    -2.186351    4.769902   -1.241218   -0.023524    0.036692    0.065704
H    -4.384221    4.645021   -2.391890    0.078112    0.002208   -0.013708
O    -0.193976    3.887907   -0.018153   -0.115598   -0.201664   -0.096302
H    -0.546957    1.930784    0.557277   -0.267980    0.155632    1.215750
H    -2.517723    8.245345    0.116663   -0.026920    0.017172   -0.032078
C    -2.393208    7.323878    0.664818   -0.034950    0.032794   -0.000002
C    -3.495330    6.534100    0.953986   -0.013744    0.030480    0.009378
C    -3.328341    5.345376    1.635321    0.012474    0.025974    0.017590
C    -2.058864    4.961530    2.052311    0.009052    0.098680   -0.000248
C    -0.953005    5.748141    1.764982   -0.026230    0.101244    0.053136
C    -1.129410    6.933151    1.071669   -0.022750    0.072436    0.026278
H    -4.480773    6.836094    0.635168   -0.016050    0.016282    0.001130
H    -4.158709    4.692889    1.859696    0.058408   -0.018202    0.019550
C    -1.889551    3.587173    2.624665    0.182540   -0.292432   -0.636026
H     0.025028    5.431070    2.092828   -0.020398    0.077090    0.047224
H    -0.267949    7.540509    0.838256   -0.029860    0.091466    0.029272
O    -2.842950    2.920818    3.164531   -0.016608   -0.024234   -0.044062
H    -1.543633    3.099125    1.507611   -0.609214    0.610294    0.925932
O    -0.633117    3.568838    3.381694    0.098102    0.058970    0.167082
O    -0.540356    2.292609    4.063254   -0.039424   -0.043676   -0.009362
H    -1.506607    2.108202    4.202699   -0.107682    0.191528   -0.057452
31
* Frequency(6) -396.6300
H    -5.722279    2.574473   -2.245539    0.041524    0.014580   -0.036782
C    -4.765129    2.635556   -1.751715    0.029950    0.001186   -0.015670
C    -4.282227    1.552034   -1.034657    0.025806   -0.002290   -0.017870
C    -3.062124    1.630471   -0.387232   -0.003158   -0.003658    0.047958
C    -2.313578    2.802309   -0.441686   -0.022652    0.032472    0.178986
C    -2.794221    3.877640   -1.186647    0.008680    0.006432    0.069764
C    -4.014335    3.796951   -1.833474    0.040932    0.000280    0.004934
H    -4.860246    0.642798   -0.972586    0.034776   -0.008702   -0.057232
H    -2.689856    0.794861    0.186398   -0.041600   -0.002450    0.055026
C    -0.992783    2.939164    0.264854   -0.009928    0.077596    0.057204
H    -2.188735    4.773620   -1.234560   -0.023524    0.036692    0.065704
H    -4.376306    4.645245   -2.393279    0.078112    0.002208   -0.013708
O    -0.205690    3.867472   -0.027911   -0.115598   -0.201664   -0.096302
H    -0.574111    1.946554    0.680468   -0.267980    0.155632    1.215750
H    -2.520451    8.247085    0.113412   -0.026920    0.017172   -0.032078
C    -2.396749    7.327201    0.664818   -0.034950    0.032794   -0.000002
C    -3.496723    6.537188    0.954936   -0.013744    0.030480    0.009378
C    -3.327077    5.348008    1.637103    0.012474    0.025974    0.017590
C    -2.057947    4.971530    2.052286    0.009052    0.098680   -0.000248
C    -0.955663    5.758400    1.770366   -0.026230    0.101244    0.053136
C    -1.131716    6.940491    1.074332   -0.022750    0.072436    0.026278
H    -4.482399    6.837744    0.635283   -0.016050    0.016282    0.001130
H    -4.152791    4.691045    1.861677    0.058408   -0.018202    0.019550
C    -1.871055    3.557541    2.560217    0.182540   -0.292432   -0.636026
H     0.022961    5.438881    2.097613   -0.020398    0.077090    0.047224
H    -0.270975    7.549777    0.841222   -0.029860    0.091466    0.029272
O    -2.844633    2.918362    3.160066   -0.016608   -0.024234   -0.044062
H    -1.605364    3.160966    1.601436   -0.609214    0.610294    0.925932
O    -0.623177    3.574813    3.398624    0.098102    0.058970    0.167082
O    -0.544351    2.288184    4.062305   -0.039424   -0.043676   -0.009362
H    -1.517518    2.127610    4.196877   -0.107682    0.191528   -0.057452
31
* Frequency(6) -396.6300
H    -5.719039    2.575611   -2.248409    0.041524    0.014580   -0.036782
C    -4.762791    2.635649   -1.752937    0.029950    0.001186   -0.015670
C    -4.280214    1.551855   -1.036051    0.025806   -0.002290   -0.017870
C    -3.062370    1.630185   -0.383490   -0.003158   -0.003658    0.047958
C    -2.315345    2.804843   -0.427719   -0.022652    0.032472    0.178986
C    -2.793544    3.878142   -1.181203    0.008680    0.006432    0.069764
C    -4.011141    3.796973   -1.833089    0.040932    0.000280    0.004934
H    -4.857532    0.642119   -0.977052    0.034776   -0.008702   -0.057232
H    -2.693102    0.794670    0.190692   -0.041600   -0.002450    0.055026
C    -0.993558    2.945219    0.269318   -0.009928    0.077596    0.057204
H    -2.190571    4.776483   -1.229433   -0.023524    0.036692    0.065704
H    -4.370211    4.645417   -2.394349    0.078112    0.002208   -0.013708
O    -0.214710    3.851736   -0.035426   -0.115598   -0.201664   -0.096302
H    -0.595022    1.958698    0.775338   -0.267980    0.155632    1.215750
H    -2.522552    8.248425    0.110909   -0.026920    0.017172   -0.032078
C    -2.399477    7.329760    0.664817   -0.034950    0.032794   -0.000002
C    -3.497795    6.539567    0.955668   -0.013744    0.030480    0.009378
C    -3.326104    5.350035    1.638476    0.012474    0.025974    0.017590
C    -2.057241    4.979230    2.052266    0.009052    0.098680   -0.000248
C    -0.957710    5.766300    1.774512   -0.026230    0.101244    0.053136
C    -1.133491    6.946143    1.076383   -0.022750    0.072436    0.026278
H    -4.483652    6.839015    0.635371   -0.016050    0.016282    0.001130
H    -4.148233    4.689625    1.863202    0.058408   -0.018202    0.019550
C    -1.856810    3.534721    2.510585    0.182540   -0.292432   -0.636026
H     0.021369    5.444897    2.101298   -0.020398    0.077090    0.047224
H    -0.273305    7.556914    0.843506   -0.029860    0.091466    0.029272
O    -2.845929    2.916471    3.156627   -0.016608   -0.024234   -0.044062
H    -1.652904    3.208589    1.673690   -0.609214    0.610294    0.925932
O    -0.615521    3.579415    3.411662    0.098102    0.058970    0.167082
O    -0.547428    2.284776    4.061575   -0.039424   -0.043676   -0.009362
H    -1.525921    2.142555    4.192394   -0.107682    0.191528   -0.057452
31
* Frequency(6) -396.6300
H    -5.717117    2.576286   -2.250112    0.041524    0.014580   -0.036782
C    -4.761405    2.635703   -1.753663    0.029950    0.001186   -0.015670
C    -4.279019    1.551749   -1.036878    0.025806   -0.002290   -0.017870
C    -3.062516    1.630016   -0.381270   -0.003158   -0.003658    0.047958
C    -2.316394    2.806345   -0.419435   -0.022652    0.032472    0.178986
C    -2.793142    3.878439   -1.177974    0.008680    0.006432    0.069764
C    -4.009246    3.796986   -1.832861    0.040932    0.000280    0.004934
H    -4.855923    0.641716   -0.979701    0.034776   -0.008702   -0.057232
H    -2.695027    0.794557    0.193239   -0.041600   -0.002450    0.055026
C    -0.994017    2.948811    0.271966   -0.009928    0.077596    0.057204
H    -2.191659    4.778181   -1.226392   -0.023524    0.036692    0.065704
H    -4.366595    4.645519   -2.394983    0.078112    0.002208   -0.013708
O    -0.220060    3.842402   -0.039883   -0.115598   -0.201664   -0.096302
H    -0.607425    1.965901    0.831605   -0.267980    0.155632    1.215750
H    -2.523798    8.249219    0.109424   -0.026920    0.017172   -0.032078
C    -2.401094    7.331278    0.664817   -0.034950    0.032794   -0.000002
C    -3.498431    6.540978    0.956102   -0.013744    0.030480    0.009378
C    -3.325527    5.351237    1.639290    0.012474    0.025974    0.017590
C    -2.056822    4.983797    2.052255    0.009052    0.098680   -0.000248
C    -0.958924    5.770986    1.776972   -0.026230    0.101244    0.053136
C    -1.134544    6.949496    1.077599   -0.022750    0.072436    0.026278
H    -4.484395    6.839768    0.635423   -0.016050    0.016282    0.001130
H    -4.145530    4.688782    1.864107    0.058408   -0.018202    0.019550
C    -1.848362    3.521187    2.481149    0.182540   -0.292432   -0.636026
H     0.020425    5.448465    2.103484   -0.020398    0.077090    0.047224
H    -0.274687    7.561148    0.844861   -0.029860    0.091466    0.029272
O    -2.846698    2.915350    3.154588   -0.016608   -0.024234   -0.044062
H    -1.681099    3.236835    1.716544   -0.609214    0.610294    0.925932
O    -0.610981    3.582144    3.419395    0.098102    0.058970    0.167082
O    -0.549252    2.282754    4.061142   -0.039424   -0.043676   -0.009362
H    -1.530904    2.151420    4.189735   -0.107682    0.191528   -0.057452
31
* Frequency(6) -396.6300
H    -5.716722    2.576425   -2.250462    0.041524    0.014580   -0.036782
C    -4.761120    2.635715   -1.753812    0.029950    0.001186   -0.015670
C    -4.278774    1.551727   -1.037048    0.025806   -0.002290   -0.017870
C    -3.062547    1.629981   -0.380814   -0.003158   -0.003658    0.047958
C    -2.316609    2.806654   -0.417732   -0.022652    0.032472    0.178986
C    -2.793059    3.878501   -1.177310    0.008680    0.006432    0.069764
C    -4.008857    3.796989   -1.832814    0.040932    0.000280    0.004934
H    -4.855592    0.641634   -0.980246    0.034776   -0.008702   -0.057232
H    -2.695423    0.794533    0.193762   -0.041600   -0.002450    0.055026
C    -0.994112    2.949549    0.272510   -0.009928    0.077596    0.057204
H    -2.191883    4.778530   -1.225767   -0.023524    0.036692    0.065704
H    -4.365852    4.645540   -2.395113    0.078112    0.002208   -0.013708
O    -0.221160    3.840484   -0.040800   -0.115598   -0.201664   -0.096302
H    -0.609975    1.967382    0.843172   -0.267980    0.155632    1.215750
H    -2.524054    8.249383    0.109119   -0.026920    0.017172   -0.032078
C    -2.401427    7.331590    0.664817   -0.034950    0.032794   -0.000002
C    -3.498562    6.541268    0.956191   -0.013744    0.030480    0.009378
C    -3.325408    5.351484    1.639457    0.012474    0.025974    0.017590
C    -2.056736    4.984736    2.052252    0.009052    0.098680   -0.000248
C    -0.959173    5.771949    1.777477   -0.026230    0.101244    0.053136
C    -1.134760    6.950185    1.077849   -0.022750    0.072436    0.026278
H    -4.484547    6.839923    0.635434   -0.016050    0.016282    0.001130
H    -4.144974    4.688609    1.864293    0.058408   -0.018202    0.019550
C    -1.846625    3.518404    2.475097    0.182540   -0.292432   -0.636026
H     0.020231    5.449198    2.103933   -0.020398    0.077090    0.047224
H    -0.274971    7.562018    0.845139   -0.029860    0.091466    0.029272
O    -2.846856    2.915119    3.154169   -0.016608   -0.024234   -0.044062
H    -1.686896    3.242641    1.725353   -0.609214    0.610294    0.925932
O    -0.610048    3.582705    3.420985    0.098102    0.058970    0.167082
O    -0.549627    2.282339    4.061052   -0.039424   -0.043676   -0.009362
H    -1.531929    2.153242    4.189188   -0.107682    0.191528   -0.057452
31
* Frequency(6) -396.6300
H    -5.717897    2.576012   -2.249421    0.041524    0.014580   -0.036782
C    -4.761967    2.635681   -1.753369    0.029950    0.001186   -0.015670
C    -4.279504    1.551792   -1.036543    0.025806   -0.002290   -0.017870
C    -3.062457    1.630085   -0.382170   -0.003158   -0.003658    0.047958
C    -2.315968    2.805736   -0.422794   -0.022652    0.032472    0.178986
C    -2.793305    3.878319   -1.179283    0.008680    0.006432    0.069764
C    -4.010014    3.796981   -1.832954    0.040932    0.000280    0.004934
H    -4.856576    0.641880   -0.978627    0.034776   -0.008702   -0.057232
H    -2.694247    0.794603    0.192206   -0.041600   -0.002450    0.055026
C    -0.993831    2.947354    0.270892   -0.009928    0.077596    0.057204
H    -2.191218    4.777493   -1.227626   -0.023524    0.036692    0.065704
H    -4.368061    4.645478   -2.394726    0.078112    0.002208   -0.013708
O    -0.217891    3.846188   -0.038076   -0.115598   -0.201664   -0.096302
H    -0.602395    1.962980    0.808786   -0.267980    0.155632    1.215750
H    -2.523292    8.248897    0.110026   -0.026920    0.017172   -0.032078
C    -2.400438    7.330662    0.664817   -0.034950    0.032794   -0.000002
C    -3.498173    6.540405    0.955926   -0.013744    0.030480    0.009378
C    -3.325761    5.350749    1.638960    0.012474    0.025974    0.017590
C    -2.056992    4.981945    2.052260    0.009052    0.098680   -0.000248
C    -0.958431    5.769086    1.775974   -0.026230    0.101244    0.053136
C    -1.134117    6.948136    1.077106   -0.022750    0.072436    0.026278
H    -4.484093    6.839463    0.635402   -0.016050    0.016282    0.001130
H    -4.146626    4.689124    1.863740    0.058408   -0.018202    0.019550
C    -1.851788    3.526676    2.493087    0.182540   -0.292432   -0.636026
H     0.020808    5.447018    2.102597   -0.020398    0.077090    0.047224
H    -0.274127    7.559431    0.844311   -0.029860    0.091466    0.029272
O    -2.846386    2.915805    3.155415   -0.016608   -0.024234   -0.044062
H    -1.669665    3.225380    1.699164   -0.609214    0.610294    0.925932
O    -0.612822    3.581037    3.416259    0.098102    0.058970    0.167082
O    -0.548512    2.283574    4.061317   -0.039424   -0.043676   -0.009362
H    -1.528883    2.147825    4.190813   -0.107682    0.191528   -0.057452
31
* Frequency(6) -396.6300
H    -5.720513    2.575093   -2.247103    0.041524    0.014580   -0.036782
C    -4.763855    2.635606   -1.752381    0.029950    0.001186   -0.015670
C    -4.281130    1.551936   -1.035417    0.025806   -0.002290   -0.017870
C    -3.062258    1.630315   -0.385193   -0.003158   -0.003658    0.047958
C    -2.314541    2.803690   -0.434074   -0.022652    0.032472    0.178986
C    -2.793852    3.877913   -1.183680    0.008680    0.006432    0.069764
C    -4.012594    3.796963   -1.833264    0.040932    0.000280    0.004934
H    -4.858767    0.642428   -0.975020    0.034776   -0.008702   -0.057232
H    -2.691625    0.794757    0.188738   -0.041600   -0.002450    0.055026
C    -0.993205    2.942464    0.267287   -0.009928    0.077596    0.057204
H    -2.189736    4.775180   -1.231766   -0.023524    0.036692    0.065704
H    -4.372984    4.645339   -2.393862    0.078112    0.002208   -0.013708
O    -0.210606    3.858896   -0.032007   -0.115598   -0.201664   -0.096302
H    -0.585508    1.953173    0.732173   -0.267980    0.155632    1.215750
H    -2.521596    8.247815    0.112048   -0.026920    0.017172   -0.032078
C    -2.398236    7.328596    0.664817   -0.034950    0.032794   -0.000002
C    -3.497307    6.538485    0.955335   -0.013744    0.030480    0.009378
C    -3.326547    5.349112    1.637851    0.012474    0.025974    0.017590
C    -2.057562    4.975726    2.052275    0.009052    0.098680   -0.000248
C    -0.956778    5.762706    1.772626   -0.026230    0.101244    0.053136
C    -1.132683    6.943572    1.075450   -0.022750    0.072436    0.026278
H    -4.483082    6.838437    0.635331   -0.016050    0.016282    0.001130
H    -4.150307    4.690271    1.862508    0.058408   -0.018202    0.019550
C    -1.863291    3.545104    2.533167    0.182540   -0.292432   -0.636026
H     0.022093    5.442160    2.099621   -0.020398    0.077090    0.047224
H    -0.272245    7.553667    0.842467   -0.029860    0.091466    0.029272
O    -2.845340    2.917332    3.158192   -0.016608   -0.024234   -0.044062
H    -1.631274    3.186921    1.640815   -0.609214    0.610294    0.925932
O    -0.619004    3.577321    3.405730    0.098102    0.058970    0.167082
O    -0.546028    2.286326    4.061907   -0.039424   -0.043676   -0.009362
H    -1.522097    2.135755    4.194434   -0.107682    0.191528   -0.057452
31
* Frequency(6) -396.6300
H    -5.724289    2.573768   -2.243759    0.041524    0.014580   -0.036782
C    -4.766578    2.635499   -1.750956    0.029950    0.001186   -0.015670
C    -4.283476    1.552145   -1.033792    0.025806   -0.002290   -0.017870
C    -3.061971    1.630648   -0.389553   -0.003158   -0.003658    0.047958
C    -2.312481    2.800737   -0.450347   -0.022652    0.032472    0.178986
C    -2.794641    3.877328   -1.190023    0.008680    0.006432    0.069764
C    -4.016315    3.796938   -1.833713    0.040932    0.000280    0.004934
H    -4.861929    0.643219   -0.969817    0.034776   -0.008702   -0.057232
H    -2.687843    0.794980    0.183735   -0.041600   -0.002450    0.055026
C    -0.992303    2.935409    0.262086   -0.009928    0.077596    0.057204
H    -2.187597    4.771844   -1.237740   -0.023524    0.036692    0.065704
H    -4.380086    4.645138   -2.392616    0.078112    0.002208   -0.013708
O    -0.200095    3.877231   -0.023251   -0.115598   -0.201664   -0.096302
H    -0.561143    1.939022    0.621635   -0.267980    0.155632    1.215750
H    -2.519148    8.246254    0.114964   -0.026920    0.017172   -0.032078
C    -2.395058    7.325614    0.664818   -0.034950    0.032794   -0.000002
C    -3.496057    6.535713    0.954482   -0.013744    0.030480    0.009378
C    -3.327681    5.346751    1.636252    0.012474    0.025974    0.017590
C    -2.058385    4.966754    2.052298    0.009052    0.098680   -0.000248
C    -0.954393    5.753500    1.767794   -0.026230    0.101244    0.053136
C    -1.130615    6.936986    1.073060   -0.022750    0.072436    0.026278
H    -4.481623    6.836956    0.635228   -0.016050    0.016282    0.001130
H    -4.155617    4.691926    1.860731    0.058408   -0.018202    0.019550
C    -1.879888    3.571692    2.590996    0.182540   -0.292432   -0.636026
H     0.023948    5.435151    2.095328   -0.020398    0.077090    0.047224
H    -0.269530    7.545351    0.839805   -0.029860    0.091466    0.029272
O    -2.843830    2.919535    3.162198   -0.016608   -0.024234   -0.044062
H    -1.575883    3.131432    1.556627   -0.609214    0.610294    0.925932
O    -0.627924    3.571959    3.390539    0.098102    0.058970    0.167082
O    -0.542443    2.290297    4.062758   -0.039424   -0.043676   -0.009362
H    -1.512307    2.118341    4.199658   -0.107682    0.191528   -0.057452
31
* Frequency(6) -396.6300
H    -5.728814    2.572179   -2.239751    0.041524    0.014580   -0.036782
C    -4.769842    2.635369   -1.749249    0.029950    0.001186   -0.015670
C    -4.286288    1.552394   -1.031844    0.025806   -0.002290   -0.017870
C    -3.061627    1.631046   -0.394779   -0.003158   -0.003658    0.047958
C    -2.310013    2.797199   -0.469852   -0.022652    0.032472    0.178986
C    -2.795587    3.876628   -1.197625    0.008680    0.006432    0.069764
C    -4.020776    3.796907   -1.834251    0.040932    0.000280    0.004934
H    -4.865719    0.644168   -0.963580    0.034776   -0.008702   -0.057232
H    -2.683309    0.795247    0.177739   -0.041600   -0.002450    0.055026
C    -0.991221    2.926953    0.255852   -0.009928    0.077596    0.057204
H    -2.185033    4.767846   -1.244900   -0.023524    0.036692    0.065704
H    -4.388598    4.644897   -2.391122    0.078112    0.002208   -0.013708
O    -0.187498    3.899208   -0.012757   -0.115598   -0.201664   -0.096302
H    -0.531940    1.922063    0.489150   -0.267980    0.155632    1.215750
H    -2.516215    8.244382    0.118460   -0.026920    0.017172   -0.032078
C    -2.391249    7.322040    0.664818   -0.034950    0.032794   -0.000002
C    -3.494560    6.532392    0.953460   -0.013744    0.030480    0.009378
C    -3.329040    5.343920    1.634335    0.012474    0.025974    0.017590
C    -2.059372    4.956001    2.052325    0.009052    0.098680   -0.000248
C    -0.951535    5.742467    1.762004   -0.026230    0.101244    0.053136
C    -1.128136    6.929092    1.070197   -0.022750    0.072436    0.026278
H    -4.479874    6.835182    0.635105   -0.016050    0.016282    0.001130
H    -4.161982    4.693909    1.858600    0.058408   -0.018202    0.019550
C    -1.899780    3.603560    2.660306    0.182540   -0.292432   -0.636026
H     0.026171    5.426750    2.090181   -0.020398    0.077090    0.047224
H    -0.266276    7.535383    0.836615   -0.029860    0.091466    0.029272
O    -2.842020    2.922176    3.167000   -0.016608   -0.024234   -0.044062
H    -1.509495    3.064926    1.455725   -0.609214    0.610294    0.925932
O    -0.638615    3.565533    3.372331    0.098102    0.058970    0.167082
O    -0.538147    2.295057    4.063779   -0.039424   -0.043676   -0.009362
H    -1.500572    2.097470    4.205918   -0.107682    0.191528   -0.057452
31
* Frequency(6) -396.6300
H    -5.733598    2.570499   -2.235513    0.041524    0.014580   -0.036782
C    -4.773292    2.635233   -1.747443    0.029950    0.001186   -0.015670
C    -4.289262    1.552658   -1.029786    0.025806   -0.002290   -0.017870
C    -3.061263    1.631468   -0.400305   -0.003158   -0.003658    0.047958
C    -2.307403    2.793457   -0.490474   -0.022652    0.032472    0.178986
C    -2.796587    3.875886   -1.205663    0.008680    0.006432    0.069764
C    -4.025492    3.796875   -1.834819    0.040932    0.000280    0.004934
H    -4.869725    0.645170   -0.956986    0.034776   -0.008702   -0.057232
H    -2.678517    0.795529    0.171399   -0.041600   -0.002450    0.055026
C    -0.990077    2.918013    0.249262   -0.009928    0.077596    0.057204
H    -2.182323    4.763618   -1.252470   -0.023524    0.036692    0.065704
H    -4.397598    4.644643   -2.389542    0.078112    0.002208   -0.013708
O    -0.174180    3.922442   -0.001661   -0.115598   -0.201664   -0.096302
H    -0.501064    1.904131    0.349076   -0.267980    0.155632    1.215750
H    -2.513113    8.242404    0.122156   -0.026920    0.017172   -0.032078
C    -2.387223    7.318262    0.664818   -0.034950    0.032794   -0.000002
C    -3.492976    6.528880    0.952380   -0.013744    0.030480    0.009378
C    -3.330478    5.340928    1.632309    0.012474    0.025974    0.017590
C    -2.060414    4.944631    2.052353    0.009052    0.098680   -0.000248
C    -0.948513    5.730803    1.755882   -0.026230    0.101244    0.053136
C    -1.125514    6.920746    1.067169   -0.022750    0.072436    0.026278
H    -4.478024    6.833306    0.634975   -0.016050    0.016282    0.001130
H    -4.168712    4.696007    1.856348    0.058408   -0.018202    0.019550
C    -1.920812    3.637252    2.733586    0.182540   -0.292432   -0.636026
H     0.028521    5.417868    2.084741   -0.020398    0.077090    0.047224
H    -0.262836    7.524845    0.833243   -0.029860    0.091466    0.029272
O    -2.840106    2.924968    3.172076   -0.016608   -0.024234   -0.044062
H    -1.439303    2.994610    1.349043   -0.609214    0.610294    0.925932
O    -0.649917    3.558739    3.353081    0.098102    0.058970    0.167082
O    -0.533605    2.300089    4.064857   -0.039424   -0.043676   -0.009362
H    -1.488166    2.075402    4.212538   -0.107682    0.191528   -0.057452
31
* Frequency(6) -396.6300
H    -5.738123    2.568910   -2.231505    0.041524    0.014580   -0.036782
C    -4.776556    2.635103   -1.745736    0.029950    0.001186   -0.015670
C    -4.292074    1.552907   -1.027838    0.025806   -0.002290   -0.017870
C    -3.060919    1.631866   -0.405531   -0.003158   -0.003658    0.047958
C    -2.304935    2.789919   -0.509979   -0.022652    0.032472    0.178986
C    -2.797533    3.875186   -1.213265    0.008680    0.006432    0.069764
C    -4.029953    3.796844   -1.835357    0.040932    0.000280    0.004934
H    -4.873515    0.646119   -0.950749    0.034776   -0.008702   -0.057232
H    -2.673983    0.795796    0.165403   -0.041600   -0.002450    0.055026
C    -0.988995    2.909557    0.243028   -0.009928    0.077596    0.057204
H    -2.179759    4.759620   -1.259630   -0.023524    0.036692    0.065704
H    -4.406110    4.644402   -2.388048    0.078112    0.002208   -0.013708
O    -0.161583    3.944419    0.008833   -0.115598   -0.201664   -0.096302
H    -0.471861    1.887172    0.216591   -0.267980    0.155632    1.215750
H    -2.510180    8.240532    0.125652   -0.026920    0.017172   -0.032078
C    -2.383414    7.314688    0.664818   -0.034950    0.032794   -0.000002
C    -3.491479    6.525559    0.951358   -0.013744    0.030480    0.009378
C    -3.331837    5.338097    1.630392    0.012474    0.025974    0.017590
C    -2.061401    4.933878    2.052380    0.009052    0.098680   -0.000248
C    -0.945655    5.719770    1.750092   -0.026230    0.101244    0.053136
C    -1.123035    6.912852    1.064306   -0.022750    0.072436    0.026278
H    -4.476275    6.831532    0.634852   -0.016050    0.016282    0.001130
H    -4.175077    4.697990    1.854217    0.058408   -0.018202    0.019550
C    -1.940704    3.669120    2.802896    0.182540   -0.292432   -0.636026
H     0.030744    5.409467    2.079594   -0.020398    0.077090    0.047224
H    -0.259582    7.514877    0.830053   -0.029860    0.091466    0.029272
O    -2.838296    2.927609    3.176878   -0.016608   -0.024234   -0.044062
H    -1.372915    2.928104    1.248141   -0.609214    0.610294    0.925932
O    -0.660608    3.552313    3.334873    0.098102    0.058970    0.167082
O    -0.529309    2.304849    4.065878   -0.039424   -0.043676   -0.009362
H    -1.476431    2.054531    4.218798   -0.107682    0.191528   -0.057452
31
* Frequency(6) -396.6300
H    -5.741899    2.567585   -2.228161    0.041524    0.014580   -0.036782
C    -4.779279    2.634996   -1.744311    0.029950    0.001186   -0.015670
C    -4.294420    1.553116   -1.026213    0.025806   -0.002290   -0.017870
C    -3.060632    1.632199   -0.409891   -0.003158   -0.003658    0.047958
C    -2.302875    2.786966   -0.526252   -0.022652    0.032472    0.178986
C    -2.798322    3.874601   -1.219608    0.008680    0.006432    0.069764
C    -4.033674    3.796819   -1.835806    0.040932    0.000280    0.004934
H    -4.876677    0.646910   -0.945546    0.034776   -0.008702   -0.057232
H    -2.670201    0.796019    0.160400   -0.041600   -0.002450    0.055026
C    -0.988093    2.902502    0.237827   -0.009928    0.077596    0.057204
H    -2.177620    4.756284   -1.265604   -0.023524    0.036692    0.065704
H    -4.413212    4.644201   -2.386802    0.078112    0.002208   -0.013708
O    -0.151072    3.962754    0.017589   -0.115598   -0.201664   -0.096302
H    -0.447496    1.873021    0.106053   -0.267980    0.155632    1.215750
H    -2.507732    8.238971    0.128568   -0.026920    0.017172   -0.032078
C    -2.380236    7.311706    0.664819   -0.034950    0.032794   -0.000002
C    -3.490229    6.522787    0.950505   -0.013744    0.030480    0.009378
C    -3.332971    5.335736    1.628793    0.012474    0.025974    0.017590
C    -2.062224    4.924906    2.052403    0.009052    0.098680   -0.000248
C    -0.943270    5.710564    1.745260   -0.026230    0.101244    0.053136
C    -1.120967    6.906266    1.061916   -0.022750    0.072436    0.026278
H    -4.474816    6.830051    0.634749   -0.016050    0.016282    0.001130
H    -4.180387    4.699645    1.852440    0.058408   -0.018202    0.019550
C    -1.957301    3.695708    2.860725    0.182540   -0.292432   -0.636026
H     0.032599    5.402458    2.075301   -0.020398    0.077090    0.047224
H    -0.256867    7.506561    0.827391   -0.029860    0.091466    0.029272
O    -2.836786    2.929812    3.180884   -0.016608   -0.024234   -0.044062
H    -1.317524    2.872615    1.163953   -0.609214    0.610294    0.925932
O    -0.669528    3.546951    3.319682    0.098102    0.058970    0.167082
O    -0.525724    2.308820    4.066729   -0.039424   -0.043676   -0.009362
H    -1.466641    2.037117    4.224022   -0.107682    0.191528   -0.057452
31
* Frequency(6) -396.6300
H    -5.744515    2.566666   -2.225843    0.041524    0.014580   -0.036782
C    -4.781167    2.634921   -1.743323    0.029950    0.001186   -0.015670
C    -4.296046    1.553260   -1.025087    0.025806   -0.002290   -0.017870
C    -3.060433    1.632429   -0.412914   -0.003158   -0.003658    0.047958
C    -2.301448    2.784920   -0.537532   -0.022652    0.032472    0.178986
C    -2.798869    3.874195   -1.224005    0.008680    0.006432    0.069764
C    -4.036254    3.796801   -1.836116    0.040932    0.000280    0.004934
H    -4.878868    0.647458   -0.941939    0.034776   -0.008702   -0.057232
H    -2.667579    0.796173    0.156932   -0.041600   -0.002450    0.055026
C    -0.987467    2.897612    0.234222   -0.009928    0.077596    0.057204
H    -2.176138    4.753971   -1.269744   -0.023524    0.036692    0.065704
H    -4.418135    4.644062   -2.385938    0.078112    0.002208   -0.013708
O    -0.143787    3.975462    0.023658   -0.115598   -0.201664   -0.096302
H    -0.430609    1.863214    0.029440   -0.267980    0.155632    1.215750
H    -2.506036    8.237889    0.130590   -0.026920    0.017172   -0.032078
C    -2.378034    7.309640    0.664819   -0.034950    0.032794   -0.000002
C    -3.489363    6.520867    0.949914   -0.013744    0.030480    0.009378
C    -3.333757    5.334099    1.627684    0.012474    0.025974    0.017590
C    -2.062794    4.918687    2.052418    0.009052    0.098680   -0.000248
C    -0.941617    5.704184    1.741912   -0.026230    0.101244    0.053136
C    -1.119533    6.901702    1.060260   -0.022750    0.072436    0.026278
H    -4.473805    6.829025    0.634678   -0.016050    0.016282    0.001130
H    -4.184068    4.700792    1.851208    0.058408   -0.018202    0.019550
C    -1.968804    3.714136    2.900805    0.182540   -0.292432   -0.636026
H     0.033884    5.397600    2.072325   -0.020398    0.077090    0.047224
H    -0.254985    7.500797    0.825547   -0.029860    0.091466    0.029272
O    -2.835740    2.931339    3.183661   -0.016608   -0.024234   -0.044062
H    -1.279133    2.834156    1.105604   -0.609214    0.610294    0.925932
O    -0.675710    3.543235    3.309153    0.098102    0.058970    0.167082
O    -0.523240    2.311572    4.067319   -0.039424   -0.043676   -0.009362
H    -1.459855    2.025047    4.227643   -0.107682    0.191528   -0.057452
31
* Frequency(6) -396.6300
H    -5.745690    2.566253   -2.224802    0.041524    0.014580   -0.036782
C    -4.782014    2.634887   -1.742880    0.029950    0.001186   -0.015670
C    -4.296776    1.553325   -1.024582    0.025806   -0.002290   -0.017870
C    -3.060343    1.632533   -0.414270   -0.003158   -0.003658    0.047958
C    -2.300807    2.784002   -0.542594   -0.022652    0.032472    0.178986
C    -2.799115    3.874013   -1.225978    0.008680    0.006432    0.069764
C    -4.037411    3.796793   -1.836256    0.040932    0.000280    0.004934
H    -4.879852    0.647704   -0.940320    0.034776   -0.008702   -0.057232
H    -2.666403    0.796243    0.155376   -0.041600   -0.002450    0.055026
C    -0.987186    2.895417    0.232604   -0.009928    0.077596    0.057204
H    -2.175473    4.752934   -1.271603   -0.023524    0.036692    0.065704
H    -4.420344    4.644000   -2.385551    0.078112    0.002208   -0.013708
O    -0.140518    3.981166    0.026382   -0.115598   -0.201664   -0.096302
H    -0.423029    1.858812   -0.004946   -0.267980    0.155632    1.215750
H    -2.505274    8.237403    0.131497   -0.026920    0.017172   -0.032078
C    -2.377045    7.308712    0.664819   -0.034950    0.032794   -0.000002
C    -3.488974    6.520004    0.949649   -0.013744    0.030480    0.009378
C    -3.334110    5.333364    1.627187    0.012474    0.025974    0.017590
C    -2.063050    4.915896    2.052426    0.009052    0.098680   -0.000248
C    -0.940875    5.701321    1.740409   -0.026230    0.101244    0.053136
C    -1.118890    6.899653    1.059517   -0.022750    0.072436    0.026278
H    -4.473351    6.828565    0.634646   -0.016050    0.016282    0.001130
H    -4.185720    4.701307    1.850655    0.058408   -0.018202    0.019550
C    -1.973967    3.722408    2.918795    0.182540   -0.292432   -0.636026
H     0.034461    5.395420    2.070989   -0.020398    0.077090    0.047224
H    -0.254141    7.498210    0.824719   -0.029860    0.091466    0.029272
O    -2.835270    2.932025    3.184907   -0.016608   -0.024234   -0.044062
H    -1.261902    2.816895    1.079415   -0.609214    0.610294    0.925932
O    -0.678484    3.541567    3.304427    0.098102    0.058970    0.167082
O    -0.522125    2.312807    4.067584   -0.039424   -0.043676   -0.009362
H    -1.456809    2.019630    4.229268   -0.107682    0.191528   -0.057452
31
* Frequency(6) -396.6300
H    -5.745295    2.566392   -2.225152    0.041524    0.014580   -0.036782
C    -4.781729    2.634899   -1.743029    0.029950    0.001186   -0.015670
C    -4.296531    1.553303   -1.024752    0.025806   -0.002290   -0.017870
C    -3.060374    1.632498   -0.413814   -0.003158   -0.003658    0.047958
C    -2.301022    2.784311   -0.540891   -0.022652    0.032472    0.178986
C    -2.799032    3.874075   -1.225314    0.008680    0.006432    0.069764
C    -4.037022    3.796796   -1.836209    0.040932    0.000280    0.004934
H    -4.879521    0.647622   -0.940865    0.034776   -0.008702   -0.057232
H    -2.666799    0.796219    0.155899   -0.041600   -0.002450    0.055026
C    -0.987281    2.896155    0.233148   -0.009928    0.077596    0.057204
H    -2.175697    4.753283   -1.270978   -0.023524    0.036692    0.065704
H    -4.419601    4.644021   -2.385681    0.078112    0.002208   -0.013708
O    -0.141618    3.979248    0.025465   -0.115598   -0.201664   -0.096302
H    -0.425579    1.860293    0.006621   -0.267980    0.155632    1.215750
H    -2.505530    8.237567    0.131192   -0.026920    0.017172   -0.032078
C    -2.377378    7.309024    0.664819   -0.034950    0.032794   -0.000002
C    -3.489105    6.520294    0.949738   -0.013744    0.030480    0.009378
C    -3.333991    5.333611    1.627354    0.012474    0.025974    0.017590
C    -2.062964    4.916835    2.052423    0.009052    0.098680   -0.000248
C    -0.941124    5.702284    1.740914   -0.026230    0.101244    0.053136
C    -1.119106    6.900342    1.059767   -0.022750    0.072436    0.026278
H    -4.473503    6.828720    0.634657   -0.016050    0.016282    0.001130
H    -4.185164    4.701134    1.850841    0.058408   -0.018202    0.019550
C    -1.972230    3.719625    2.912743    0.182540   -0.292432   -0.636026
H     0.034267    5.396153    2.071438   -0.020398    0.077090    0.047224
H    -0.254425    7.499080    0.824997   -0.029860    0.091466    0.029272
O    -2.835428    2.931794    3.184488   -0.016608   -0.024234   -0.044062
H    -1.267699    2.822701    1.088224   -0.609214    0.610294    0.925932
O    -0.677551    3.542128    3.306017    0.098102    0.058970    0.167082
O    -0.522500    2.312392    4.067494   -0.039424   -0.043676   -0.009362
H    -1.457834    2.021452    4.228721   -0.107682    0.191528   -0.057452
31
* Frequency(6) -396.6300
H    -5.743373    2.567067   -2.226855    0.041524    0.014580   -0.036782
C    -4.780343    2.634953   -1.743755    0.029950    0.001186   -0.015670
C    -4.295336    1.553197   -1.025579    0.025806   -0.002290   -0.017870
C    -3.060520    1.632329   -0.411594   -0.003158   -0.003658    0.047958
C    -2.302071    2.785813   -0.532607   -0.022652    0.032472    0.178986
C    -2.798630    3.874372   -1.222085    0.008680    0.006432    0.069764
C    -4.035127    3.796809   -1.835981    0.040932    0.000280    0.004934
H    -4.877912    0.647219   -0.943514    0.034776   -0.008702   -0.057232
H    -2.668724    0.796106    0.158446   -0.041600   -0.002450    0.055026
C    -0.987740    2.899747    0.235796   -0.009928    0.077596    0.057204
H    -2.176785    4.754981   -1.267937   -0.023524    0.036692    0.065704
H    -4.415985    4.644123   -2.386315    0.078112    0.002208   -0.013708
O    -0.146968    3.969914    0.021008   -0.115598   -0.201664   -0.096302
H    -0.437982    1.867496    0.062888   -0.267980    0.155632    1.215750
H    -2.506776    8.238361    0.129707   -0.026920    0.017172   -0.032078
C    -2.378995    7.310542    0.664819   -0.034950    0.032794   -0.000002
C    -3.489741    6.521705    0.950172   -0.013744    0.030480    0.009378
C    -3.333414    5.334813    1.628168    0.012474    0.025974    0.017590
C    -2.062545    4.921402    2.052412    0.009052    0.098680   -0.000248
C    -0.942338    5.706970    1.743374   -0.026230    0.101244    0.053136
C    -1.120159    6.903695    1.060983   -0.022750    0.072436    0.026278
H    -4.474246    6.829473    0.634709   -0.016050    0.016282    0.001130
H    -4.182461    4.700291    1.851746    0.058408   -0.018202    0.019550
C    -1.963782    3.706091    2.883307    0.182540   -0.292432   -0.636026
H     0.033323    5.399721    2.073624   -0.020398    0.077090    0.047224
H    -0.255807    7.503314    0.826352   -0.029860    0.091466    0.029272
O    -2.836197    2.930673    3.182449   -0.016608   -0.024234   -0.044062
H    -1.295894    2.850947    1.131078   -0.609214    0.610294    0.925932
O    -0.673011    3.544857    3.313750    0.098102    0.058970    0.167082
O    -0.524324    2.310370    4.067061   -0.039424   -0.043676   -0.009362
H    -1.462817    2.030317    4.226062   -0.107682    0.191528   -0.057452
31
* Frequency(6) -396.6300
H    -5.740133    2.568205   -2.229725    0.041524    0.014580   -0.036782
C    -4.778005    2.635046   -1.744977    0.029950    0.001186   -0.015670
C    -4.293323    1.553018   -1.026973    0.025806   -0.002290   -0.017870
C    -3.060766    1.632043   -0.407852   -0.003158   -0.003658    0.047958
C    -2.303838    2.788347   -0.518640   -0.022652    0.032472    0.178986
C    -2.797953    3.874874   -1.216641    0.008680    0.006432    0.069764
C    -4.031933    3.796831   -1.835596    0.040932    0.000280    0.004934
H    -4.875198    0.646540   -0.947980    0.034776   -0.008702   -0.057232
H    -2.671970    0.795915    0.162740   -0.041600   -0.002450    0.055026
C    -0.988515    2.905802    0.240260   -0.009928    0.077596    0.057204
H    -2.178621    4.757844   -1.262810   -0.023524    0.036692    0.065704
H    -4.409890    4.644295   -2.387385    0.078112    0.002208   -0.013708
O    -0.155988    3.954178    0.013493   -0.115598   -0.201664   -0.096302
H    -0.458893    1.879640    0.157758   -0.267980    0.155632    1.215750
H    -2.508877    8.239701    0.127204   -0.026920    0.017172   -0.032078
C    -2.381723    7.313101    0.664818   -0.034950    0.032794   -0.000002
C    -3.490813    6.524084    0.950904   -0.013744    0.030480    0.009378
C    -3.332441    5.336840    1.629541    0.012474    0.025974    0.017590
C    -2.061839    4.929102    2.052392    0.009052    0.098680   -0.000248
C    -0.944385    5.714870    1.747520   -0.026230    0.101244    0.053136
C    -1.121934    6.909347    1.063034   -0.022750    0.072436    0.026278
H    -4.475499    6.830744    0.634797   -0.016050    0.016282    0.001130
H    -4.177903    4.698871    1.853271    0.058408   -0.018202    0.019550
C    -1.949537    3.683271    2.833675    0.182540   -0.292432   -0.636026
H     0.031731    5.405737    2.077309   -0.020398    0.077090    0.047224
H    -0.258137    7.510451    0.828636   -0.029860    0.091466    0.029272
O    -2.837493    2.928782    3.179010   -0.016608   -0.024234   -0.044062
H    -1.343434    2.898570    1.203332   -0.609214    0.610294    0.925932
O    -0.665355    3.549459    3.326788    0.098102    0.058970    0.167082
O    -0.527401    2.306962    4.066331   -0.039424   -0.043676   -0.009362
H    -1.471220    2.045262    4.221579   -0.107682    0.191528   -0.057452
31
* Frequency(6) -396.6300
H    -5.735925    2.569682   -2.233452    0.041524    0.014580   -0.036782
C    -4.774971    2.635166   -1.746565    0.029950    0.001186   -0.015670
C    -4.290708    1.552786   -1.028784    0.025806   -0.002290   -0.017870
C    -3.061086    1.631673   -0.402992   -0.003158   -0.003658    0.047958
C    -2.306134    2.791638   -0.500504   -0.022652    0.032472    0.178986
C    -2.797073    3.875526   -1.209572    0.008680    0.006432    0.069764
C    -4.027786    3.796859   -1.835096    0.040932    0.000280    0.004934
H    -4.871674    0.645658   -0.953779    0.034776   -0.008702   -0.057232
H    -2.676185    0.795666    0.168316   -0.041600   -0.002450    0.055026
C    -0.989521    2.913665    0.246056   -0.009928    0.077596    0.057204
H    -2.181005    4.761562   -1.256152   -0.023524    0.036692    0.065704
H    -4.401975    4.644519   -2.388774    0.078112    0.002208   -0.013708
O    -0.167702    3.933743    0.003735   -0.115598   -0.201664   -0.096302
H    -0.486047    1.895410    0.280949   -0.267980    0.155632    1.215750
H    -2.511605    8.241441    0.123953   -0.026920    0.017172   -0.032078
C    -2.385264    7.316424    0.664818   -0.034950    0.032794   -0.000002
C    -3.492206    6.527172    0.951854   -0.013744    0.030480    0.009378
C    -3.331177    5.339472    1.631323    0.012474    0.025974    0.017590
C    -2.060922    4.939102    2.052367    0.009052    0.098680   -0.000248
C    -0.947043    5.725129    1.752904   -0.026230    0.101244    0.053136
C    -1.124240    6.916687    1.065697   -0.022750    0.072436    0.026278
H    -4.477125    6.832394    0.634912   -0.016050    0.016282    0.001130
H    -4.171985    4.697027    1.855252    0.058408   -0.018202    0.019550
C    -1.931041    3.653639    2.769227    0.182540   -0.292432   -0.636026
H     0.029664    5.413548    2.082094   -0.020398    0.077090    0.047224
H    -0.261163    7.519719    0.831602   -0.029860    0.091466    0.029272
O    -2.839176    2.926326    3.174545   -0.016608   -0.024234   -0.044062
H    -1.405165    2.960411    1.297157   -0.609214    0.610294    0.925932
O    -0.655415    3.555434    3.343718    0.098102    0.058970    0.167082
O    -0.531396    2.302537    4.065382   -0.039424   -0.043676   -0.009362
H    -1.482131    2.064670    4.215757   -0.107682    0.191528   -0.057452
31
* Frequency(6) -396.6300
H    -5.731206    2.571339   -2.237632    0.041524    0.014580   -0.036782
C    -4.771567    2.635301   -1.748346    0.029950    0.001186   -0.015670
C    -4.287775    1.552526   -1.030815    0.025806   -0.002290   -0.017870
C    -3.061445    1.631257   -0.397542   -0.003158   -0.003658    0.047958
C    -2.308708    2.795328   -0.480163   -0.022652    0.032472    0.178986
C    -2.796087    3.876257   -1.201644    0.008680    0.006432    0.069764
C    -4.023134    3.796891   -1.834535    0.040932    0.000280    0.004934
H    -4.867722    0.644669   -0.960283    0.034776   -0.008702   -0.057232
H    -2.680913    0.795388    0.174569   -0.041600   -0.002450    0.055026
C    -0.990649    2.922483    0.252557   -0.009928    0.077596    0.057204
H    -2.183678    4.765732   -1.248685   -0.023524    0.036692    0.065704
H    -4.393098    4.644770   -2.390332    0.078112    0.002208   -0.013708
O    -0.180839    3.910825   -0.007209   -0.115598   -0.201664   -0.096302
H    -0.516502    1.913097    0.419113   -0.267980    0.155632    1.215750
H    -2.514664    8.243393    0.120308   -0.026920    0.017172   -0.032078
C    -2.389236    7.320151    0.664818   -0.034950    0.032794   -0.000002
C    -3.493768    6.530636    0.952920   -0.013744    0.030480    0.009378
C    -3.329759    5.342424    1.633322    0.012474    0.025974    0.017590
C    -2.059893    4.950316    2.052339    0.009052    0.098680   -0.000248
C    -0.950024    5.736635    1.758943   -0.026230    0.101244    0.053136
C    -1.126825    6.924919    1.068683   -0.022750    0.072436    0.026278
H    -4.478949    6.834244    0.635040   -0.016050    0.016282    0.001130
H    -4.165347    4.694958    1.857474    0.058408   -0.018202    0.019550
C    -1.910296    3.620406    2.696946    0.182540   -0.292432   -0.636026
H     0.027346    5.422309    2.087461   -0.020398    0.077090    0.047224
H    -0.264556    7.530114    0.834929   -0.029860    0.091466    0.029272
O    -2.841063    2.923572    3.169538   -0.016608   -0.024234   -0.044062
H    -1.474399    3.029768    1.402384   -0.609214    0.610294    0.925932
O    -0.644266    3.562136    3.362706    0.098102    0.058970    0.167082
O    -0.535876    2.297573    4.064318   -0.039424   -0.043676   -0.009362
H    -1.494369    2.086436    4.209228   -0.107682    0.191528   -0.057452
