11
Coordinates from ORCA-job job.QMRegion
  C          -1.10245093976109      2.92412997675382      0.52771992582594
  O          -0.36257927536639      4.16000117513832      0.78197371673880
  H          -0.35734260871327      2.23642206759914      0.09870346727563
  C          -1.67146697448896      3.66283704759418      3.20044429760661
  O          -2.36792676820953      2.83379656712701      3.82914286740198
  H          -1.45245405206962      2.49540490390920      1.48672790254255
  O          -0.26733448455076      3.57435172496013      3.33271921793921
  O           0.04265198127995      2.76105061249164      4.59320915081702
  H          -0.85516046203300      2.36993445216913      4.74801680419859
  H          -1.96790537843086      3.03535093395529     -0.17360108408508
  H          -2.00490658167835      4.42192745777000      2.56384787102896
