31
Coordinates from ORCA-job job
  H          -5.26625182853314      3.46344133237872     -2.79352904622544
  C          -4.42833829334862      3.34894095349625     -2.12317400986242
  C          -4.59900139139586      2.71894411780741     -0.90286450638821
  C          -3.52871140614915      2.58283392001545     -0.03581085312373
  C          -2.27747894485433      3.06678637602874     -0.38801940741501
  C          -2.11076200207342      3.69217830482707     -1.61664114818797
  C          -3.18188775558898      3.83657946201876     -2.47877716624113
  H          -5.56853073715114      2.34122769762585     -0.61532963167073
  H          -3.65935778117190      2.10987504924524      0.92820078116734
  C          -1.10976595860556      2.93351067886332      0.55900854478577
  H          -1.13488270797556      4.07769295783342     -1.87384159991999
  H          -3.04316496746819      4.33282639215614     -3.42717000110721
  O          -0.36446721528406      4.17732958319371      0.78385777421874
  H          -0.36651356088889      2.23413094175346      0.14633982807120
  H          -3.38464638638813      7.07291978914590     -0.45416723647373
  C          -3.00683772287028      6.39846257461525      0.30183295582909
  C          -3.94771391560555      5.73797101168196      1.14739929638820
  C          -3.49744683964676      4.88512985800826      2.10133873148595
  C          -2.11766952151973      4.69718102405246      2.33692593790413
  C          -1.09122426247380      5.27589269237075      1.42731061656764
  C          -1.68459564898865      6.21069063299153      0.42341979566700
  H          -5.00228211118069      5.91412769673560      1.00976202356993
  H          -4.17435043224923      4.34395238619130      2.74999471198209
  C          -1.67513765123695      3.64515201519405      3.13608287423232
  H          -0.26469761812661      5.75772178891464      1.98230529291702
  H          -0.97761104382766      6.70455131601639     -0.22728301723884
  O          -2.36860756018370      2.75724275558519      3.68076405057197
  H          -1.46230119268269      2.54073915571005      1.53254054874848
  O          -0.27441358766745      3.59213388439664      3.32812973939725
  O           0.00504716147100      2.74986498863522      4.57609881589562
  H          -0.87567611633422      2.30582366251113      4.66570830445462
