31
Coordinates from ORCA-job job
  H          -5.43493001554602      1.80803999996424     -2.74959242614131
  C          -4.61440064902930      2.07861296848355     -2.10320672445650
  C          -3.85234725124224      1.09291504998521     -1.49810931955257
  C          -2.80049109368215      1.43810500838455     -0.66922866755089
  C          -2.50192078642090      2.77517895796512     -0.43440311773492
  C          -3.27022899607299      3.76018852305791     -1.04409545311016
  C          -4.31952154240464      3.41258210697913     -1.87446500874214
  H          -4.07555809296435      0.05103840055386     -1.67142663022189
  H          -2.20391507324145      0.67289890005366     -0.19232337225003
  C          -1.39489174482863      3.15284145959188      0.50253426853685
  H          -3.02710659386724      4.79586038801160     -0.85404422902781
  H          -4.90876595632721      4.18783882043297     -2.34034410232067
  O          -0.76891584760952      4.37630758015466      0.24642394657100
  H          -0.67551787111568      2.32295251102323      0.67354154734655
  H          -2.00620865796633      8.39952673975418      0.17024518905840
  C          -2.00498376762373      7.45044490751307      0.68763449410484
  C          -3.20973499304178      7.01143728531634      1.30010539678591
  C          -3.20292356173391      5.86328535436527      2.03203216814026
  C          -2.01958899669881      5.12640267979945      2.21783340183065
  C          -0.82547525500801      5.40638283600265      1.40487824314823
  C          -0.86283182701189      6.74086466829181      0.77487071232497
  H          -4.10640454595573      7.60245619914220      1.20477091786012
  H          -4.08467759287186      5.50900152854330      2.54984766294887
  C          -2.06389821346429      3.86176553115570      2.87097464978897
  H           0.11327822333366      5.20275088460679      1.93824584340520
  H           0.05101902905343      7.08009808424928      0.31184650673423
  O          -3.02961061799347      3.32638238824275      3.47059226205613
  H          -1.91925344332305      3.24758999357147      1.56225297871284
  O          -0.74184599665105      3.43760431401125      3.27767663160286
  O          -0.85450599596309      2.15195013569583      3.94193489663642
  H          -1.82312127272761      2.16255079509689      4.17341033351544
