11
Coordinates from ORCA-job job.QMRegion
  C          -1.10470948865248      2.91355926073845      0.49711572944918
  O          -0.36578883180012      4.13864310357819      0.77940266287038
  H          -0.35968401579791      2.23042759786823      0.06013789953330
  C          -1.65870766379812      3.68480312829834      3.27220597335633
  O          -2.34849452036189      2.92461077775272      3.98985928730913
  H          -1.46163751452312      2.45911924972469      1.44194907015306
  O          -0.25379105908127      3.56041314565058      3.34234401520791
  O           0.09282850643360      2.78062855012362      4.61371066918510
  H          -0.81292773357740      2.44117377980349      4.83506720322938
  H          -1.96543674194133      3.03857009265009     -0.20817147405753
  H          -1.99841304584362      4.40855026009786      2.59938613981376
