11
Coordinates from ORCA-job job.QMRegion
  C          -1.12931160609640      2.89352494443641      0.47153313661658
  O          -0.37958938586062      4.10160198425253      0.77566460320297
  H          -0.39020546906425      2.20083913019851      0.03874240591296
  C          -1.62960238276515      3.71578571631574      3.35236500964717
  O          -2.29892932236399      3.02997525271887      4.15850974165451
  H          -1.50811311734965      2.42952331779398      1.40377227861880
  O          -0.22551356748905      3.56193631924409      3.36093280733337
  O           0.16741555985386      2.83335872625014      4.64599982185502
  H          -0.73550438268281      2.54402896872799      4.94019533868013
  H          -1.97854050951255      3.03670968506468     -0.24472220332415
  H          -1.98357052329907      4.39705125583850      2.64367620144860
