31
Coordinates from ORCA-job job
  H          -5.22337459050740      3.57246207454404     -2.88132002761212
  C          -4.39440312663316      3.43169575382410     -2.20488533264027
  C          -4.60088318447531      2.84403582448953     -0.96947722741876
  C          -3.54119171673034      2.67389061712826     -0.09496393567296
  C          -2.26542817762186      3.08214043249641     -0.45398699800967
  C          -2.06302290911185      3.66405697925301     -1.69916751549962
  C          -3.12240664079897      3.84183916495395     -2.56904312509315
  H          -5.58946016090202      2.52510244951735     -0.67574773828407
  H          -3.70010593754460      2.23043142847066      0.87865442676199
  C          -1.10470948865248      2.91355926073845      0.49711572944918
  H          -1.06738037810582      3.98865750436146     -1.96460044001792
  H          -2.95519597071352      4.30292845806259     -3.53048181191730
  O          -0.36578883180012      4.13864310357819      0.77940266287038
  H          -0.35968401579791      2.23042759786823      0.06013789953330
  H          -3.49613792659728      6.93771603782346     -0.43786793124054
  C          -3.08682896362527      6.29414408790827      0.32847190498240
  C          -3.99084822338122      5.66678219737052      1.23798845929651
  C          -3.49981429261124      4.85098035244561      2.20278527260699
  C          -2.11123060290412      4.64890966461335      2.37593990088441
  C          -1.11939592932592      5.21600318773400      1.41714098557738
  C          -1.76156462295731      6.10894660547419      0.40268098307373
  H          -5.05035436771586      5.83949519112561      1.13968982023569
  H          -4.14767896509525      4.33884222870063      2.90272561398227
  C          -1.65870766379812      3.68480312829834      3.27220597335633
  H          -0.29712534999130      5.73918231688741      1.94129158247419
  H          -1.08253464149156      6.57423384927720     -0.29720637676301
  O          -2.34849452036189      2.92461077775272      3.98985928730913
  H          -1.46163751452312      2.45911924972469      1.44194907015306
  O          -0.25379105908127      3.56041314565058      3.34234401520791
  O           0.09282850643360      2.78062855012362      4.61371066918510
  H          -0.81292773357740      2.44117377980349      4.83506720322938
