31
Coordinates from ORCA-job job
  H          -5.27870825895598      3.40389992476827     -2.76403478523367
  C          -4.43824813625186      3.30411100477272     -2.09449097887356
  C          -4.59429246797586      2.66207852615650     -0.87831703537270
  C          -3.52108880700478      2.54466262807716     -0.01236406886879
  C          -2.28124224629719      3.05982142786692     -0.36149145573113
  C          -2.12916767282397      3.69760848996479     -1.58538420882766
  C          -3.20366712982699      3.82317165769696     -2.44649054148735
  H          -5.55495334520451      2.26039190262116     -0.59342867055084
  H          -3.64043745838407      2.06352881636879      0.94905334998943
  C          -1.11333905339742      2.94549249217110      0.58710736028949
  H          -1.16253468362454      4.10801332966469     -1.83902520579744
  H          -3.07663709884028      4.32950952153398     -3.39120495518969
  O          -0.36431090495207      4.19937653673594      0.78126752811059
  H          -0.37075631357329      2.23478226587686      0.19282992997439
  H          -3.34079414786320      7.13673751674796     -0.45123368135920
  C          -2.97566981711432      6.44885433683690      0.29892684390237
  C          -3.93032714070825      5.77738371035942      1.11966646751635
  C          -3.49585408832818      4.90641721285559      2.06507824912558
  C          -2.12056157814726      4.71832681944658      2.32198624720547
  C          -1.08072146208284      5.30232070259372      1.43259899578128
  C          -1.65543749786858      6.25567777924731      0.43610663529502
  H          -4.98234692629111      5.95883763580907      0.97001051032119
  H          -4.18354222052653      4.35413670300290      2.69264193576487
  C          -1.68157844414559      3.62948499653213      3.07480232014495
  H          -0.25346309256534      5.76707488301510      2.00063889266971
  H          -0.93795779955223      6.75793488794435     -0.19641132581153
  O          -2.37627300242250      2.70809038893496      3.55848556570480
  H          -1.46943714812637      2.59619278057417      1.57668965581341
  O          -0.28804108133186      3.59262136774920      3.31015128992000
  O          -0.03370164635055      2.71427333228743      4.54237807995426
  H          -0.90418832946239      2.24504142178723      4.58387005562030
