31
energy: -48.964842789871 gnorm: 0.000053514414 xtb: 6.7.1 (edcfbbe)
H     -6.1186478803    1.5071405776   -0.9577144545
C     -5.1476237925    1.6570194167   -0.5015416957
C     -4.8004105898    0.9530145402    0.6400526221
C     -3.5644542822    1.1471718235    1.2276283326
C     -2.6545392556    2.0419314377    0.6782032447
C     -3.0100570233    2.7394342593   -0.4685125977
C     -4.2467804228    2.5518752084   -1.0545101920
H     -5.5030934940    0.2522083139    1.0750530757
H     -3.2977889267    0.6037994364    2.1250519088
C     -1.2969376308    2.2964880295    1.3215577459
H     -2.2827348453    3.4250942071   -0.8785983963
H     -4.5162183380    3.1054353990   -1.9458557737
O     -0.3961443354    2.9094227329    0.6229493984
H     -0.9596619980    1.3306540677    1.7996327908
H     -6.3787530987    5.0675538476    0.6364224995
C     -5.5248482579    4.8507885859    1.2641312377
C     -5.6035039650    3.8580469713    2.2279009265
C     -4.5122282351    3.5728552775    3.0205995663
C     -3.3179745794    4.2806408678    2.8606459411
C     -3.2462272660    5.2823601830    1.8898380599
C     -4.3417824459    5.5581367848    1.1006501454
H     -6.5224248294    3.3008560725    2.3535598350
H     -4.5536683016    2.8013661558    3.7750391913
C     -2.1673139504    3.9439727853    3.7168258544
H     -2.3170977746    5.8127934660    1.7545101742
H     -4.2781859824    6.3279570957    0.3428828167
O     -2.1836208577    3.1192045092    4.6267416217
H     -1.6198622084    2.9260084736    2.2644955011
O     -1.1518208563    4.8686198566    3.6498478497
O     -0.4275637732    4.5467586034    4.2024023258
H     -0.7472999928    3.8591795202    4.7746816075
