31
Coordinates from ORCA-job job E -409.171175340918
H     -5.5168590000    0.3788360000   -1.2896170000
C     -4.6274980000    0.9576640000   -1.0933650000
C     -3.9018170000    0.7323800000    0.0674910000
C     -2.7639050000    1.4737230000    0.3240480000
C     -2.3603740000    2.4491310000   -0.5855180000
C     -3.0860060000    2.6635100000   -1.7577690000
C     -4.2180050000    1.9200960000   -2.0052090000
H     -4.2258710000   -0.0196200000    0.7707730000
H     -2.1867270000    1.3185610000    1.2302390000
C     -1.1915870000    3.2913620000   -0.3118710000
H     -2.7409620000    3.4235710000   -2.4442070000
H     -4.7869470000    2.0913880000   -2.9067210000
O     -0.8001860000    4.1711970000   -1.0529840000
H     -0.6934960000    3.0933050000    0.6608460000
H     -5.9529520000    4.3686260000   -0.1982320000
C     -5.1565070000    4.2584490000    0.5199450000
C     -5.2509370000    3.3023950000    1.5157020000
C     -4.2355030000    3.1479040000    2.4466320000
C     -3.1278390000    3.9701310000    2.3587040000
C     -3.0293840000    4.9423420000    1.3745410000
C     -4.0452970000    5.0801920000    0.4469740000
H     -6.1159780000    2.6603850000    1.5764080000
H     -4.3042960000    2.4045800000    3.2248600000
C     -1.9066170000    3.7417100000    3.2569900000
H     -2.1591320000    5.5771560000    1.3180150000
H     -3.9582180000    5.8283610000   -0.3248570000
O     -1.0625520000    2.8021990000    2.8650970000
H     -1.4267250000    4.7518150000    3.3040740000
O     -2.4195740000    3.5214370000    4.6277430000
O     -1.3008880000    3.0351420000    5.3680050000
H     -0.8707810000    2.4821910000    4.6503670000
