31
job_trj
 H     -5.76459      2.61666      -2.11781
 C     -4.78149      2.65195      -1.67486
 C     -4.28429      1.54302      -1.00638
 C     -3.03003      1.58589      -0.42931
 C     -2.26121      2.74169      -0.51983
 C     -2.76113      3.84892      -1.19674
 C     -4.01733      3.80287      -1.77172
 H     -4.87743      0.64463      -0.92952
 H     -2.63841      0.73249       0.10714
 C     -0.91228      2.82206       0.11773
 H     -2.13858      4.72992      -1.25731
 H     -4.39879      4.66867      -2.29039
 O     -0.12395      3.78606      -0.07761
 H     -0.48451      1.83180       0.42277
 H     -2.53105      8.32237       0.18618
 C     -2.40360      7.37847       0.69372
 C     -3.49588      6.55090       0.89727
 C     -3.32898      5.33591       1.53325
 C     -2.07259      4.95177       1.98561
 C     -0.97966      5.78239       1.78504
 C     -1.15032      6.99464       1.13996
 H     -4.47428      6.84481       0.55063
 H     -4.15726      4.66156       1.70072
 C     -1.92297      3.58441       2.59184
 H     -0.00954      5.47358       2.14250
 H     -0.29135      7.62895       0.98336
 O     -2.88421      2.97089       3.17451
 H     -1.51428      2.93798       1.50807
 O     -0.65221      3.59950       3.36353
 O     -0.56544      2.32912       4.05993
 H     -1.53163      2.15197       4.20813
