147
Coordinates from ORCA-job job E -560.518088483925
C     -3.3664290000    2.5366410000   -1.7082580000
O     -3.2820740000    1.2694220000   -1.0900080000
C     -2.7620500000    2.4683140000   -3.1234190000
O     -2.7178460000    3.5137070000   -0.9454110000
C     -4.4719570000    0.7513630000   -0.5269230000
O     -3.3473420000    1.4778550000   -3.9225830000
C     -1.2642870000    2.1571860000   -3.0186760000
C     -1.3292380000    3.2626640000   -0.7347170000
C     -5.2242640000   -0.0933610000   -1.5727790000
C     -4.1009590000   -0.1724870000    0.6490540000
O     -0.6193550000    2.2466060000   -4.2638730000
C     -0.5747940000    3.1432990000   -2.0705840000
C     -0.7851220000    4.4300140000    0.1029360000
C     -6.3703340000   -0.8983460000   -0.9313170000
O     -5.7278510000    0.7632110000   -2.5734590000
O     -5.2501260000   -0.7844530000    1.1878140000
C     -3.3621660000    0.5022920000    1.7939140000
O      0.7421290000    2.6500190000   -1.8595890000
O     -0.8235660000    5.6479840000   -0.5930150000
C     -5.8309990000   -1.6925770000    0.2730490000
O     -6.9829150000   -1.7182960000   -1.8829630000
O     -2.1138330000    0.7792970000    1.4245290000
O     -3.8159820000    0.7200730000    2.8850490000
C      1.8235060000    3.5685690000   -1.8738440000
O     -4.9152650000   -2.6212300000   -0.2193480000
C     -1.1227280000    0.9105360000    2.4296630000
C      2.7469370000    3.2389080000   -3.0588410000
O      2.5297550000    3.5384610000   -0.6758260000
C     -4.7139810000   -3.8535640000    0.4673030000
C     -0.6304780000   -0.5028090000    2.8065760000
O      2.1030500000    3.3491250000   -4.2969780000
C      3.3147130000    1.8306870000   -2.8448020000
C      3.1906860000    2.3150410000   -0.3251760000
C     -4.1791610000   -4.7899430000   -0.6262160000
C     -3.7347600000   -3.7223980000    1.6531510000
C      0.8113670000   -0.5266100000    3.3368790000
O     -0.9208280000   -1.4824550000    1.8384400000
O     -1.5316420000   -1.3332070000    3.4570160000
O      4.2570440000    1.5011840000   -3.8336930000
C      4.0086760000    1.7029660000   -1.4811300000
C      4.0810700000    2.6990540000    0.8720270000
C     -3.6240300000   -6.0933480000   -0.0395650000
O     -5.2226760000   -5.0327600000   -1.5355980000
O     -3.1992130000   -4.9828820000    2.0510120000
C     -4.4168980000   -3.1927490000    2.9258210000
O      1.6779380000   -0.4712470000    2.2105020000
O      4.1868800000    0.2952480000   -1.3444060000
O      5.1761890000    3.4940700000    0.4986770000
C     -2.5854570000   -5.7191600000    1.0319890000
O     -3.0874920000   -6.9075360000   -1.0440670000
O     -5.4839210000   -4.0124830000    3.3199370000
C      2.5922270000   -1.4190830000    2.0677860000
C      5.0532550000   -0.2037410000   -0.3760950000
O     -1.5574220000   -4.9927290000    0.4087050000
C      3.2830630000   -1.2874720000    0.7147960000
O      2.8264390000   -2.2729210000    2.8844870000
C      5.6248850000   -1.5277600000   -0.9267170000
O      4.4053110000   -0.4321960000    0.8630970000
C     -0.2248790000   -5.4525090000    0.5428230000
C      3.6971340000   -2.6744210000    0.2117810000
O      6.3076000000   -1.3379010000   -2.1322440000
C      4.4761370000   -2.5360460000   -1.1009270000
C      0.4256700000   -5.2835830000   -0.8338910000
C      0.5522610000   -4.6547850000    1.6021750000
O      2.5182840000   -3.4334970000   -0.0084020000
O      4.9492880000   -3.8094780000   -1.4776370000
C      1.9194120000   -5.6197290000   -0.7661250000
O     -0.2583000000   -6.1133910000   -1.7396920000
O      1.9276880000   -5.0183210000    1.5816940000
C      0.0470780000   -4.9405790000    3.0214720000
C      2.5636730000   -4.7873890000    0.3540790000
O      2.4956230000   -5.3659490000   -2.0196630000
O      0.1055480000   -6.3040090000    3.3408270000
C     -0.3468240000   -0.5876000000   -0.6527020000
O      0.7713040000    0.2579840000   -0.5091550000
C     -0.2656270000   -1.5815050000   -1.7611790000
C      0.9132400000   -1.7545140000   -2.4828440000
C     -1.4047850000   -2.3055030000   -2.1154250000
C      0.9491640000   -2.6286620000   -3.5526930000
C     -1.3652010000   -3.1730960000   -3.1888480000
C     -0.1877720000   -3.3389590000   -3.9061470000
H     -4.4108380000    2.8647940000   -1.7691730000
H     -2.8920370000    3.4600240000   -3.5866660000
H     -5.1200600000    1.5597790000   -0.1657430000
H     -4.2710170000    1.3274760000   -3.6466640000
H     -1.1666920000    1.1367950000   -2.6222390000
H     -1.2177120000    2.3282800000   -0.1733070000
H     -4.5035920000   -0.7975650000   -2.0154640000
H     -3.4166930000   -0.9434110000    0.2639410000
H     -1.1317870000    1.7406060000   -4.9137120000
H     -0.5368250000    4.1266160000   -2.5541550000
H      0.2645410000    4.2415940000    0.3389800000
H     -1.3613860000    4.4887460000    1.0325600000
H     -7.1360310000   -0.2029270000   -0.5701000000
H     -6.4323360000    0.2856600000   -3.0451630000
H     -1.7481610000    5.9015240000   -0.7271560000
H     -6.6447210000   -2.1774290000    0.8265730000
H     -6.4569250000   -2.5267110000   -2.0002050000
H      1.4467930000    4.5951950000   -1.9594250000
H     -0.2961770000    1.4706610000    1.9857510000
H     -1.5225930000    1.4074840000    3.3198990000
H      3.5688290000    3.9625450000   -3.0774180000
H     -5.6759000000   -4.2343240000    0.8365230000
H      1.2456900000    2.8808350000   -4.2814940000
H      2.4814460000    1.1109650000   -2.8660530000
H      2.4546370000    1.5776570000    0.0113520000
H     -3.3497820000   -4.2728320000   -1.1328540000
H     -2.9107530000   -3.0532960000    1.3701880000
H      0.9928430000    0.3471110000    3.9691550000
H      0.9870260000   -1.4506610000    3.9006650000
H      3.9140800000    1.7988960000   -4.6916600000
H      4.9904020000    2.1945900000   -1.5321370000
H      3.4507670000    3.2211350000    1.5999280000
H      4.4835980000    1.7984050000    1.3356910000
H     -4.4333540000   -6.6640280000    0.4277250000
H     -5.0068950000   -5.8374650000   -2.0347570000
H     -3.6529970000   -3.1243590000    3.7095400000
H     -4.8259720000   -2.1967480000    2.7588640000
H      4.8456550000    4.3547280000    0.2031790000
H     -2.1945990000   -6.6178460000    1.5258510000
H     -2.2139630000   -6.5687110000   -1.3186610000
H     -5.1293980000   -4.8845540000    3.5493650000
H      5.8639460000    0.5008490000   -0.1508250000
H      2.5646490000   -0.8383570000    0.0179060000
H      6.3515960000   -1.9250160000   -0.2105680000
H     -0.2167020000   -6.5148890000    0.8199310000
H      4.3256780000   -3.1553400000    0.9715810000
H      5.7777670000   -0.7632790000   -2.7100620000
H      3.7883580000   -2.1573170000   -1.8697330000
H      0.3249750000   -4.2316810000   -1.1343220000
H      0.4398610000   -3.5833500000    1.3882350000
H      5.6631420000   -3.6831920000   -2.1254480000
H      2.0351320000   -6.6847510000   -0.5080230000
H      0.2984290000   -6.2214940000   -2.5265870000
H     -0.9989830000   -4.6375580000    3.0989560000
H      0.6451300000   -4.3461260000    3.7222130000
H      3.5998440000   -5.1132620000    0.5116070000
H      3.3752570000   -4.9613140000   -1.9077610000
H      1.0365550000   -6.5734720000    3.3546870000
H     -0.4194180000   -1.1856980000    0.3217050000
H      1.7824250000   -1.1776680000   -2.2054210000
H     -2.3122410000   -2.1750630000   -1.5432350000
H      1.8615540000   -2.7559600000   -4.1125790000
H     -2.2498780000   -3.7226270000   -3.4681540000
H     -0.1589290000   -4.0201330000   -4.7411080000
H     -1.2978430000   -0.0280990000   -0.6755300000
H      0.6412280000    1.0816280000   -1.0191730000
