11
Coordinates from ORCA-job job.QMRegion
  C           2.48460784051730     -1.53764557352830      4.39712019033592
  O           1.35331530405678     -1.96027713276175      4.75243830589712
  H           4.18406509252821      2.35063654105027      4.05671902773292
  H           0.54117303592813     -0.38626657241260      4.54633944487023
  H           3.55833422779285      2.57314338947482      2.60532770365504
  O           3.96131449114560      1.89076334723822      3.22663379211819
  H           3.18410111936754      1.26374325097025      3.46311236229183
  O           2.04466694120884      0.15959213921874      3.55395641473442
  O           0.76050406504651      0.48671407200688      4.13336559333673
  H           2.91931746976820     -1.97855146646032      3.47477960231371
  H           3.17191663226977     -1.12984596805367      5.16433254978441
