137
 xtb: 6.7.1 (edcfbbe)
C           -0.24114455988401        3.76336655458091        6.88168626751437
C            1.41563830668461        0.14576761200509       10.32294965909388
C           -0.15435519709775       -4.69385561186099        9.24993342451691
C           -1.61537484970137       -5.57977859961801        4.26957050781876
C           -1.47180632639639       -2.04399532419067        0.37884471064081
C           -1.87681653639675        2.95939166639738        1.94750470548852
O            0.08294484709107        2.40591529750422        7.11586806213805
O            0.35455784930713       -0.72333982183933       10.07835688092065
O           -0.72624447163338       -4.23460417110235        8.05010899377151
O           -1.42030593181565       -4.27196458851392        3.79635020224101
O           -2.01584396356555       -1.06296802951151        1.20755720979753
O           -1.85128070471906        2.59033954752387        3.30098312395962
C           -1.76684790956770        3.92504453818099        6.75562992158991
C            0.81800466841884        1.50809241476347       10.71744972755864
C           -1.00609536287983       -4.15613282636163       10.41246443099679
C           -2.79176260251647       -5.57038172021660        5.26141919796865
C           -2.47349779806040       -3.21570724671331        0.35317104464973
C           -3.21098771250774        2.44847180875238        1.37192995834424
O           -2.46507108251724        3.45177172436926        7.87809185814341
O            0.00699676863279        1.42269935128179       11.85190841639785
O           -2.33266852477302       -4.60626530952259       10.34760887153874
O           -3.96991213178354       -5.05265641849449        4.69776157628927
O           -3.71301441147479       -2.83535321950442       -0.17007090572073
O           -4.31195814694092        2.99327441740827        2.04989048192717
C           -2.23919005007724        3.13446967591101        5.53343961630280
C            0.02346891893679        2.08458757779328        9.53188400089189
C           -0.94093008969886       -2.62319912847798       10.37868283646035
C           -2.39887543710968       -4.70373635031010        6.46378461599004
C           -2.62625790685718       -3.74549818036739        1.78720848978492
C           -3.21425714670361        0.91637074889291        1.46210763912420
O           -3.60888704662916        3.32802560009408        5.27736095329288
O           -0.43963931521829        3.37887657591766        9.84763577186082
O           -1.57557267853943       -2.05346010142534       11.49596991618491
O           -3.36271030985780       -4.74765811227459        7.48715728462244
O           -3.45256369698680       -4.88720923714123        1.83337508734145
O           -4.33410161480944        0.35442439275316        0.82142992658285
C           -1.46911890648076        3.54983134883407        4.27624133888846
C            0.88258701079963        2.13369301980469        8.25457856479991
C            0.50578239031170       -2.11077145433297       10.35665969555164
C           -1.06968972657038       -5.18270187385185        7.05606006919616
C           -1.26222489948366       -4.10162265601468        2.39804846890001
C           -1.96101954515673        0.30650616361167        0.82296084552024
C            0.04885126313110        3.55676731503583        4.52542057091784
C            1.49426915632408        0.74122281786841        8.05160710056001
C            1.36232740997967       -2.85432696228934        9.31101959519512
C            0.00777152083529       -5.28598794816115        5.96379231055543
C           -0.28104559682991       -2.94248310825977        2.18826339239140
C           -0.68246006834186        1.00380495891408        1.31653714148036
O            0.38180670936467        4.24801220421489        5.73289181285178
O            2.23448836931793        0.31919320376609        9.18332134471713
O            1.16774758890045       -4.26799680913033        9.38388618467878
O           -0.46545228303353       -6.08574357382700        4.88380695307606
O           -0.22033711310825       -2.50598698374088        0.84734585174422
O           -0.80445033809601        2.42438736327969        1.22630793753687
C            0.80629495504863        4.27522764767963        3.39946671668399
C            2.47422723157650        0.64338670271633        6.88755956927009
C            2.87425287107636       -2.67384675396608        9.53400522585053
C            1.28366524535960       -5.96577784768946        6.47417753586554
C            1.13536823531904       -3.27686788337266        2.65023435331936
C            0.54479184193432        0.63360275631853        0.47272983440648
O            1.44011411801164        3.37689414357484        2.52524579056142
O            2.69313389168013       -0.62418926586223        6.61330948579830
O            3.25797385087619       -2.97993447324841       10.84748063688125
O            1.03527133535512       -7.26050461783610        6.96117766812309
O            1.98242869057009       -2.32125821807881        2.29720658227986
O            1.71573510125779        1.25870305251678        0.92742694218168
H            0.13837767387388        4.39332951803743        7.69640370870703
H            2.07962894244764       -0.23098263173460       11.10948902544981
H           -0.09934616802036       -5.79034287870198        9.27119984501198
H           -1.82158116541270       -6.26990825079171        3.44054681647892
H           -1.28229061635705       -1.66711054994248       -0.63339588186459
H           -1.78546914799231        4.04917859818279        1.82543563830138
H           -1.97228307584390        5.00186721564009        6.58703468778901
H            1.62843986150511        2.19311237111859       10.97326276444562
H           -0.58964714194422       -4.52404438723388       11.35986081145787
H           -2.95219272320911       -6.60931135934598        5.60670630299559
H           -2.09353899232793       -4.00759828303739       -0.29450248685667
H           -3.29533401227724        2.76066473826900        0.32160195392701
H           -1.94313727415038        3.65294739760694        8.67481574270345
H           -0.58621958165165        0.64943054496686       11.77027349980397
H           -2.65041997276885       -4.55531328068563        9.43067071146566
H           -3.93606728848274       -5.13844152519240        3.73064869862922
H           -3.97945764875881       -1.97090938311595        0.20494465469475
H           -4.13233971081774        2.98483966037255        3.00308923831225
H           -2.03336584917372        2.07455710108238        5.71515504740114
H           -0.83826879692568        1.42437137912084        9.32932445513009
H           -1.42420519680112       -2.28599152676221        9.45140565230316
H           -2.26109526591023       -3.67436282765741        6.10959307435074
H           -3.06653562640344       -2.94329920220660        2.40610575297830
H           -3.20792038211732        0.64106536602556        2.52438805055111
H           -4.08930773474748        3.21640797550844        6.09787430930805
H           -0.66269507211255        3.39273437530484       10.79739470625274
H           -2.41522609974769       -2.52633592985977       11.63489249112944
H           -4.22828108131517       -4.59874177964632        7.09782315127848
H           -4.17623516443928       -4.75802719416470        1.19227415573109
H           -5.11252887444763        0.89109822875730        1.05411390404037
H           -1.78876170085089        4.55321755726256        3.96072187643720
H            1.67086027290162        2.88746205884831        8.36067954673497
H            0.95621846710837       -2.24086478029149       11.35209632594773
H           -1.20524139628684       -6.17258858552547        7.50773124407943
H           -0.86909324699009       -5.01369919286952        1.93903709171848
H           -2.02503469452216        0.39312587909797       -0.27153481017242
H            0.38608904672582        2.51177644717918        4.59509370605584
H            0.67078043549821        0.03593634243185        7.86174313322031
H            1.09218182956431       -2.49545821696276        8.30783015693673
H            0.25271215183455       -4.27330893952819        5.59686611248137
H           -0.62084799302895       -2.11116534575870        2.83284408992102
H           -0.51011262147141        0.71910866617610        2.36363123075153
H            1.60167969968905        4.88796403414144        3.83773068580976
H            0.11040692243130        4.90292857097898        2.85780779490899
H            3.39251312279483       -3.31225944591038        8.81373688479266
H            3.16173705463268       -1.63168062909388        9.35610284785118
H            1.69912999575711       -5.38223739410041        7.30049127580827
H            2.01204697072330       -5.97034268517568        5.64156913010915
H            0.63911578990951       -0.46315342714912        0.48931193995375
H            0.40689794486303        0.95965685802549       -0.54982141240640
H            0.76267863524138        2.88235198905352        2.04628332625368
H            3.11520084670135       -3.92116576803947       10.99877456803531
H            0.73192475179367       -7.79613969995247        6.21576567489184
H            1.91005820774584        0.88005627369372        1.83709310945378
C            3.11970685161383       -2.15742785461518        3.12398498638870
H            3.78237721387395       -1.46238462861318        2.59870130278538
H            3.58958213262618       -3.10431350878626        3.34532449310677
O            1.45333224844218       -4.28926376213779        3.23062722594416
C            3.49379265412787       -1.00725283511777        5.49914320055232
H            4.12162868547856       -1.82869828243266        5.83290862580468
H            4.08532823755048       -0.17015560355072        5.13626359149092
O            3.01131803579954        1.57965131155675        6.34805035663645
C            2.54992565969172       -1.58806009524935        4.43622052652374
O            1.41443592033931       -1.95639812595465        4.78241348968963
H            3.49774803127037        2.29047818217779        4.81963317657019
H            0.64515061961159       -0.35310341280312        4.63021390125841
H            2.69925755122760        2.80945061207666        3.43726804399205
O            3.40835767856779        2.27784328489043        3.84643015615712
H            2.88988754652931        1.33575183810454        3.65256692162901
O            2.08956204943049        0.21983249912701        3.47098731400831
O            0.85726502671718        0.54792228012132        4.16817232193761
