140
Coordinates from ORCA-job job
  C           0.66490300000000      5.12082600000000     -0.12572200000000
  C          -4.26259200000000      3.24907100000000      0.33620900000000
  C          -4.90563198131969     -1.80614903495529     -0.67826879971858
  C          -0.79922400000000     -5.09969900000000     -0.37188500000000
  C           4.17780700000000     -3.30959900000000      0.06599400000000
  C           4.77925300000000      1.87896900000000     -0.66506100000000
  O          -0.19019600000000      4.00511800000000     -0.00802900000000
  O          -4.16126100000000      2.25339300000000     -0.63218000000000
  O          -3.52762698061484     -2.05131491107254     -0.84958532711152
  O           0.18709500000000     -4.10415500000000     -0.28425500000000
  O           3.83831500000000     -2.13488400000000     -0.60167300000000
  O           3.41036497024601      2.20396898728369     -0.76753799222453
  C           1.26866800000000      5.14868800000000     -1.54292100000000
  C          -3.90856200000000      4.58757300000000     -0.34041400000000
  C          -5.40382901416235     -1.00638102741873     -1.89278106775122
  C          -1.46333599806776     -5.01296600040155     -1.75885001431758
  C           3.87595100000000     -4.46924900000000     -0.90336400000000
  C           5.16310400000000      1.07051700000000     -1.91952400000000
  O           0.31423400000000      5.31446700000000     -2.55726300000000
  O          -4.71289200000000      4.83446800000000     -1.45748100000000
  O          -5.13546200000000     -1.66647300000000     -3.09943800000000
  O          -0.58594500000000     -5.24963600000000     -2.82416700000000
  O           4.59054200000000     -4.32411300000000     -2.09914800000000
  O           4.86991300000000      1.76993700000000     -3.09803600000000
  C           1.98169100000000      3.80727900000000     -1.75055900000000
  C          -2.42392800000000      4.59130500000000     -0.74391200000000
  C          -4.75909995178660      0.38685725097242     -1.87112882594919
  C          -2.06815402717550     -3.60631997453478     -1.87992410413132
  C           2.36472100000000     -4.49013400000000     -1.18847500000000
  C           4.43158900000000     -0.27977600000000     -1.87991800000000
  O           2.67019000000000      3.74042500000000     -2.97831700000000
  O          -2.05853300000000      5.86548900000000     -1.22760300000000
  O          -5.29883899806685      1.19878801002786     -2.88460799299587
  O          -2.74665401914085     -3.42317398021116     -3.09778698636027
  O           2.00636700000000     -5.63655100000000     -1.92680100000000
  O           4.84602600000000     -1.12273900000000     -2.92929300000000
  C           3.01225300000000      3.56477500000000     -0.64292300000000
  C          -1.51379100505737      4.21454600393246      0.43802400463014
  C          -4.97719400129210      1.09335495321309     -0.52632697562983
  C          -3.06850898068928     -3.38856901899913     -0.74293492525928
  C           1.51008599614492     -4.45729099615114      0.08992199761565
  C           4.70668300000000     -1.01016000000000     -0.56048900000000
  C           2.44744300000000      3.84273100000000      0.76414400000000
  C          -2.03734197381943      2.88401698868813      0.99620497984737
  C          -4.60318000000000      0.17200100000000      0.65412800000000
  C          -2.41285799200996     -3.66594699752267      0.62232399666619
  C           2.04321703649580     -3.35295703712036      1.01057802263123
  C           4.42704200000000     -0.09823500000000      0.64694600000000
  O           1.70165100000000      5.05991600000000      0.81158900000000
  O          -3.38431299953512      3.02563500231526      1.42008500070372
  O          -5.17631099482227     -1.13086095303866      0.50772497444259
  O          -1.77126400000000     -4.94073400000000      0.62528000000000
  O           3.42965600146896     -3.47554598447604      1.25292099944889
  O           5.06260800000000      1.17597500000000      0.50458700000000
  C           3.58166100000000      3.98942900000000      1.78695100000000
  C          -1.30957400332550      2.36134499241184      2.23504002804207
  C          -5.16978600000000      0.64979500000000      2.00339000000000
  C          -3.45520400000000     -3.71647400000000      1.74646700000000
  C           1.32728286962900     -3.23750182509442      2.35448695040002
  C           4.97988900000000     -0.68659700000000      1.95474100000000
  O           4.45413800000000      5.03832700000000      1.44926100000000
  O          -1.40391703639384      1.04269547669924      2.25021532176227
  O          -6.53820800000000      0.94704600000000      1.92269500000000
  O          -4.43506800000000     -4.68942100000000      1.50389400000000
  O           1.89538773626122     -2.27945258897796      3.08633050692786
  O           6.33158700000000     -1.05476400000000      1.83966300000000
  H           0.12969900000000      6.05433700000000      0.08325800000000
  H          -5.26761400000000      3.28919500000000      0.77545500000000
  H          -5.45595099983210     -2.75244899998429     -0.59750299867198
  H          -0.37378800000000     -6.09690800000000     -0.20607100000000
  H           5.22876000000000     -3.31959000000000      0.37799300000000
  H           5.38754300000000      2.79006500000000     -0.60785300000000
  H           2.00089900000000      5.97016000000000     -1.58596100000000
  H          -4.09068600000000      5.40241200000000      0.36804700000000
  H          -6.49203300000000     -0.89429500000000     -1.82898000000000
  H          -2.27288200000000     -5.75571900000000     -1.80336900000000
  H           4.18200400000000     -5.41871400000000     -0.45437700000000
  H           6.24371800000000      0.88955300000000     -1.91899000000000
  H          -0.52772300000000      5.61227700000000     -2.16114400000000
  H          -4.72285400000000      4.03267900000000     -2.00427500000000
  H          -4.24929100000000     -2.06998500000000     -3.05898400000000
  H           0.32961400000000     -5.35475900000000     -2.49339700000000
  H           4.51076600000000     -3.39863400000000     -2.39122600000000
  H           4.02151700000000      2.24095700000000     -2.99439400000000
  H           1.20569500000000      3.03063800000000     -1.71064000000000
  H          -2.27627400000000      3.83558100000000     -1.53143200000000
  H          -3.67313800479618      0.28024762633314     -2.01822417025377
  H          -1.24939901187722     -2.87642593159676     -1.78989881905755
  H           2.11941300000000     -3.58260000000000     -1.76249400000000
  H           3.34840000000000     -0.10190000000000     -1.95682700000000
  H           2.06829600000000      4.04360800000000     -3.67231300000000
  H          -2.77369500000000      6.16983300000000     -1.81035400000000
  H          -5.36338400000000      0.65437900000000     -3.68422700000000
  H          -2.20151300000000     -3.81406600000000     -3.79742700000000
  H           2.63713400000000     -5.72221000000000     -2.65975400000000
  H           4.88995500000000     -0.58403300000000     -3.73304500000000
  H           3.86916900000000      4.22656600000000     -0.82265800000000
  H          -1.54903100000000      4.98820400000000      1.21573100000000
  H          -6.03079000000000      1.39418500000000     -0.43580700000000
  H          -3.90740199823223     -4.08363100018612     -0.87906100994379
  H           1.53133100000000     -5.42894600000000      0.59580300000000
  H           5.75230400000000     -1.34423800000000     -0.54186800000000
  H           1.78761400000000      3.02402500000000      1.06304300000000
  H          -1.96397900993985      2.11172899520641      0.21733500381683
  H          -3.50990700000000      0.09915500000000      0.71566500000000
  H          -1.67246600000000     -2.88760000000000      0.84443000000000
  H           1.84448098785664     -2.39247400563964      0.50871099401543
  H           3.34429000000000      0.02388700000000      0.74713600000000
  H           4.18215800000000      3.07864600000000      1.79778600000000
  H           3.13435799429132      4.15142899481119      2.77421500203542
  H          -4.98891997489572     -0.15056200019682      2.73115800861399
  H          -4.66334800000000      1.55413300000000      2.33609900000000
  H          -3.97330900000000     -2.75800400000000      1.80852100000000
  H          -2.92753799736718     -3.91296899854233      2.68770900140816
  H           4.85695000000000      0.06294000000000      2.74417200000000
  H           4.42270600937127     -1.58661000239389      2.22215599269435
  H           3.92681800000000      5.84735500000000      1.40285500000000
  H          -6.99857400000000      0.13797700000000      1.65846700000000
  H          -3.98464500000000     -5.54186500000000      1.41834600000000
  H           6.83095100000000     -0.25532500000000      1.62063500000000
  C           0.95421393798630     -1.50400962527370      3.82054534744102
  H           1.53037670005486     -0.84815209560185      4.47704522030034
  H           0.26789361203642     -2.14419790310189      4.39651651724811
  O           0.41397905124741     -3.93007012557509      2.72700405297705
  C          -0.79962197938349      0.33745541185921      3.34073483649380
  H          -1.59140960378204     -0.17727358472965      3.89683989846036
  H          -0.27517554896346      1.05234153188042      3.99006215803697
  O          -0.77879199892537      3.03577199991593      3.07325499938716
  C           0.12544571871989     -0.73438029408583      2.77862052550496
  O          -0.20006607898002     -1.39174316814311      1.74807509803628
  H          -1.08841069521174     -0.61936605932261      0.35680611474735
  O          -1.36967247477822     -0.18067728894717     -0.47520618709432
  H           0.35662897918565      0.59770755770740     -0.58739695986517
  O           0.93009321640621      1.19933008490296     -0.06232974654534
  H           1.19291284957949      0.69275681418811      1.11311586474201
  O           1.47759555106968      0.29908561177840      2.13234475811561
  O           1.78937289866727      1.50471392926325      2.89068327501766
  H           2.68758551032889      1.26643630820569      3.19543677083276
  H          -1.91225161081153     -0.84244016580808     -0.92478758105632
  H           1.78065227458120      1.32338312370894     -0.53096104049616
