140
* (null), Energy   -1000.0000000
C     0.664903    5.120826   -0.125722   -0.008437   -0.006077   -0.001007
C    -4.262592    3.249071    0.336209    0.001060   -0.002726    0.000586
C    -4.905632   -1.806149   -0.678269    0.002319   -0.002128   -0.000879
C    -0.799224   -5.099699   -0.371885    0.001529    0.001256   -0.001052
C     4.177807   -3.309599    0.065994   -0.002517    0.005834   -0.006164
C     4.779253    1.878969   -0.665061   -0.019512    0.003304   -0.004904
O    -0.190196    4.005118   -0.008029    0.002959    0.002915    0.002430
O    -4.161261    2.253393   -0.632180   -0.002531   -0.002503    0.004871
O    -3.527627   -2.051315   -0.849585   -0.002873   -0.003396    0.001097
O     0.187095   -4.104155   -0.284255    0.000187   -0.003445   -0.004704
O     3.838315   -2.134884   -0.601673    0.004358   -0.006488    0.004479
O     3.410365    2.203969   -0.767538   -0.000882   -0.001895    0.009342
C     1.268668    5.148688   -1.542921    0.000904   -0.000687    0.000179
C    -3.908562    4.587573   -0.340414    0.003625   -0.001558    0.000009
C    -5.403829   -1.006381   -1.892781    0.001643    0.000997   -0.000691
C    -1.463336   -5.012966   -1.758850   -0.000666    0.000050   -0.001150
C     3.875951   -4.469249   -0.903364   -0.001455   -0.000515   -0.000593
C     5.163104    1.070517   -1.919524   -0.004962   -0.000039   -0.001654
O     0.314234    5.314467   -2.557263    0.001480    0.002627   -0.001226
O    -4.712892    4.834468   -1.457481   -0.000896   -0.000539    0.000936
O    -5.135462   -1.666473   -3.099438   -0.000261   -0.000169    0.000872
O    -0.585945   -5.249636   -2.824167   -0.001521   -0.000770    0.001107
O     4.590542   -4.324113   -2.099148   -0.001652    0.001667    0.001783
O     4.869913    1.769937   -3.098036   -0.000462    0.000424    0.003378
C     1.981691    3.807279   -1.750559   -0.006761   -0.006963   -0.003079
C    -2.423928    4.591305   -0.743912    0.002195   -0.004564   -0.001959
C    -4.759100    0.386857   -1.871129    0.002956    0.001159   -0.002354
C    -2.068154   -3.606320   -1.879924    0.001002    0.001768   -0.002024
C     2.364721   -4.490134   -1.188475   -0.001088    0.001837   -0.000315
C     4.431589   -0.279776   -1.879918   -0.009800    0.000445   -0.001583
O     2.670190    3.740425   -2.978317    0.006320    0.002289   -0.000469
O    -2.058533    5.865489   -1.227603   -0.000988    0.005008    0.001448
O    -5.298839    1.198788   -2.884608   -0.002750    0.000548   -0.001651
O    -2.746654   -3.423174   -3.097787   -0.000737   -0.000307    0.000336
O     2.006367   -5.636551   -1.926801   -0.002135   -0.001462    0.000709
O     4.846026   -1.122739   -2.929293    0.005857   -0.005779    0.000190
C     3.012253    3.564775   -0.642923   -0.006547   -0.004596    0.001594
C    -1.513791    4.214546    0.438024    0.008250   -0.004983   -0.001271
C    -4.977194    1.093355   -0.526327    0.000782    0.002115   -0.002196
C    -3.068509   -3.388569   -0.742935    0.000267    0.002379   -0.000754
C     1.510086   -4.457291    0.089922   -0.001313    0.003638    0.000768
C     4.706683   -1.010160   -0.560489   -0.003504    0.003025   -0.000502
C     2.447443    3.842731    0.764144   -0.004623    0.002719    0.003534
C    -2.037342    2.884017    0.996205    0.010694   -0.010564   -0.009793
C    -4.603180    0.172001    0.654128    0.002598    0.000068   -0.002596
C    -2.412858   -3.665947    0.622324    0.000361    0.001577   -0.000076
C     2.043217   -3.352957    1.010578   -0.007321    0.011507   -0.004780
C     4.427042   -0.098235    0.646946    0.000227    0.000515    0.003756
O     1.701651    5.059916    0.811589    0.002158    0.008488    0.007716
O    -3.384313    3.025635    1.420085   -0.001343   -0.001861    0.004069
O    -5.176311   -1.130861    0.507725   -0.002926   -0.002099    0.002640
O    -1.771264   -4.940734    0.625280   -0.002023   -0.001898    0.003637
O     3.429656   -3.475546    1.252921   -0.004193   -0.003264    0.010093
O     5.062608    1.175975    0.504587    0.000207   -0.000527    0.012077
C     3.581661    3.989429    1.786951   -0.001262    0.002911   -0.004559
C    -1.309574    2.361345    2.235040   -0.006492   -0.002226    0.002645
C    -5.169786    0.649795    2.003390    0.003370    0.001079   -0.004383
C    -3.455204   -3.716474    1.746467   -0.001332    0.001365   -0.003601
C     1.327283   -3.237502    2.354487   -0.023310    0.034227   -0.015654
C     4.979889   -0.686597    1.954741    0.007019   -0.003157   -0.007297
O     4.454138    5.038327    1.449261    0.004369    0.000983    0.002523
O    -1.403917    1.042695    2.250215    0.005042    0.006454    0.010817
O    -6.538208    0.947046    1.922695   -0.000902   -0.001152    0.001545
O    -4.435068   -4.689421    1.503894    0.000015   -0.001118    0.001503
O     1.895388   -2.279453    3.086331    0.009459    0.004008    0.012826
O     6.331587   -1.054764    1.839663    0.004853   -0.001342    0.004995
H     0.129699    6.054337    0.083258    0.005578    0.002712    0.000144
H    -5.267614    3.289195    0.775455   -0.000152    0.007428   -0.000322
H    -5.455951   -2.752449   -0.597503   -0.003719    0.000393   -0.000064
H    -0.373788   -6.096908   -0.206071   -0.004075   -0.001213    0.005635
H     5.228760   -3.319590    0.377993   -0.003201   -0.008804    0.002547
H     5.387543    2.790065   -0.607853   -0.001747   -0.007402   -0.003021
H     2.000899    5.970160   -1.585961   -0.007111    0.008679    0.012783
H    -4.090686    5.402412    0.368047   -0.000728   -0.004411    0.003748
H    -6.492033   -0.894295   -1.828980    0.000704   -0.004312    0.005617
H    -2.272882   -5.755719   -1.803369    0.001551   -0.004247    0.006426
H     4.182004   -5.418714   -0.454377   -0.001048    0.001538    0.005431
H     6.243718    0.889553   -1.918990   -0.002280    0.007354    0.013074
H    -0.527723    5.612277   -2.161144   -0.005764   -0.032274   -0.003375
H    -4.722854    4.032679   -2.004275    0.023704    0.000146   -0.004460
H    -4.249291   -2.069985   -3.058984    0.010863    0.018164   -0.004362
H     0.329614   -5.354759   -2.493397    0.004583    0.027533   -0.003295
H     4.510766   -3.398634   -2.391226   -0.024980    0.005967    0.003379
H     4.021517    2.240957   -2.994394   -0.039117   -0.053098   -0.000469
H     1.205695    3.030638   -1.710640   -0.022793    0.018084   -0.025732
H    -2.276274    3.835581   -1.531432   -0.005763    0.007479   -0.008495
H    -3.673138    0.280248   -2.018224   -0.002687    0.001756   -0.003737
H    -1.249399   -2.876426   -1.789899    0.005637   -0.010674    0.001602
H     2.119413   -3.582600   -1.762494   -0.001120   -0.004435   -0.002113
H     3.348400   -0.101900   -1.956827   -0.000814   -0.016751   -0.013084
H     2.068296    4.043608   -3.672313   -0.012729   -0.058942   -0.006603
H    -2.773695    6.169833   -1.810354    0.013909   -0.013287   -0.021609
H    -5.363384    0.654379   -3.684227    0.027976    0.007294   -0.007763
H    -2.201513   -3.814066   -3.797427    0.016659    0.027834   -0.002666
H     2.637134   -5.722210   -2.659754   -0.013772    0.023250   -0.012851
H     4.889955   -0.584033   -3.733045   -0.054543   -0.008665   -0.003598
H     3.869169    4.226566   -0.822658   -0.014387    0.008385    0.013489
H    -1.549031    4.988204    1.215731   -0.008804   -0.003757   -0.000023
H    -6.030790    1.394185   -0.435807   -0.002105   -0.006961    0.002577
H    -3.907402   -4.083631   -0.879061    0.003422   -0.004406    0.008706
H     1.531331   -5.428946    0.595803   -0.000248    0.005503    0.008408
H     5.752304   -1.344238   -0.541868   -0.000193    0.006232    0.002636
H     1.787614    3.024025    1.063043    0.006982    0.024255    0.075867
H    -1.963979    2.111729    0.217335   -0.003723   -0.022335    0.003682
H    -3.509907    0.099155    0.715665    0.001321   -0.008642    0.008105
H    -1.672466   -2.887600    0.844430    0.000494   -0.001763    0.024474
H     1.844481   -2.392474    0.508711    0.016404    0.010296   -0.009418
H     3.344290    0.023887    0.747136    0.007489   -0.036633    0.101863
H     4.182158    3.078646    1.797786   -0.000379    0.001767    0.003005
H     3.134358    4.151429    2.774215    0.012672   -0.001505    0.007281
H    -4.988920   -0.150562    2.731158    0.007111    0.007494    0.004882
H    -4.663348    1.554133    2.336099   -0.000810    0.002968   -0.002054
H    -3.973309   -2.758004    1.808521   -0.003535    0.000286   -0.001603
H    -2.927538   -3.912969    2.687709   -0.000972    0.011798    0.001670
H     4.856950    0.062940    2.744172    0.003006   -0.016179    0.011453
H     4.422706   -1.586610    2.222156    0.007165   -0.001080    0.002498
H     3.926818    5.847355    1.402855   -0.005120   -0.007154   -0.045123
H    -6.998574    0.137977    1.658467    0.004465    0.002850   -0.019844
H    -3.984645   -5.541865    1.418346    0.002333    0.001604   -0.018592
H     6.830951   -0.255325    1.620635   -0.010856   -0.001768   -0.040433
C     0.954214   -1.504010    3.820545    0.015856    0.027567    0.001244
H     1.530377   -0.848152    4.477045    0.016801   -0.069796    0.101890
H     0.267894   -2.144198    4.396517   -0.069941    0.016939   -0.118164
O     0.413979   -3.930070    2.727004    0.000643   -0.006330    0.006796
C    -0.799622    0.337455    3.340735    0.026200    0.006737   -0.013944
H    -1.591410   -0.177274    3.896840    0.059181   -0.129194   -0.103638
H    -0.275176    1.052342    3.990062   -0.092558    0.039266    0.047446
O    -0.778792    3.035772    3.073255   -0.011984    0.008518    0.013999
C     0.125446   -0.734380    2.778621    0.271567    0.226118   -0.106560
O    -0.200066   -1.391743    1.748075    0.025391   -0.028858    0.004744
H    -1.088411   -0.619366    0.356806    0.043592   -0.016020   -0.004101
O    -1.369672   -0.180677   -0.475206    0.021838    0.022521    0.019086
H     0.356629    0.597708   -0.587397   -0.201352   -0.007922    0.251009
O     0.930093    1.199330   -0.062330    0.054947   -0.086848    0.200917
H     1.192913    0.692757    1.113116   -0.425288    0.470734   -1.722209
O     1.477596    0.299086    2.132345   -0.237318   -0.059774   -0.084163
O     1.789373    1.504714    2.890683   -0.031212   -0.068450   -0.008647
H     2.687586    1.266436    3.195437   -0.003881   -0.069012   -0.160718
H    -1.912252   -0.842440   -0.924788    0.197197    0.027045   -0.175014
H     1.780652    1.323383   -0.530961    0.062284   -0.114004    0.106343
140
* Frequency(6) -576.3342
C     0.663944    5.120135   -0.125836   -0.008437   -0.006077   -0.001007
C    -4.262472    3.248761    0.336276    0.001060   -0.002726    0.000586
C    -4.905368   -1.806391   -0.678369    0.002319   -0.002128   -0.000879
C    -0.799050   -5.099556   -0.372005    0.001529    0.001256   -0.001052
C     4.177521   -3.308936    0.065293   -0.002517    0.005834   -0.006164
C     4.777036    1.879344   -0.665618   -0.019512    0.003304   -0.004904
O    -0.189860    4.005449   -0.007753    0.002959    0.002915    0.002430
O    -4.161549    2.253108   -0.631626   -0.002531   -0.002503    0.004871
O    -3.527953   -2.051701   -0.849461   -0.002873   -0.003396    0.001097
O     0.187116   -4.104547   -0.284790    0.000187   -0.003445   -0.004704
O     3.838810   -2.135621   -0.601164    0.004358   -0.006488    0.004479
O     3.410265    2.203754   -0.766476   -0.000882   -0.001895    0.009342
C     1.268771    5.148610   -1.542901    0.000904   -0.000687    0.000179
C    -3.908150    4.587396   -0.340413    0.003625   -0.001558    0.000009
C    -5.403642   -1.006268   -1.892860    0.001643    0.000997   -0.000691
C    -1.463412   -5.012960   -1.758981   -0.000666    0.000050   -0.001150
C     3.875786   -4.469307   -0.903431   -0.001455   -0.000515   -0.000593
C     5.162540    1.070513   -1.919712   -0.004962   -0.000039   -0.001654
O     0.314402    5.314766   -2.557402    0.001480    0.002627   -0.001226
O    -4.712994    4.834407   -1.457375   -0.000896   -0.000539    0.000936
O    -5.135492   -1.666492   -3.099339   -0.000261   -0.000169    0.000872
O    -0.586118   -5.249724   -2.824041   -0.001521   -0.000770    0.001107
O     4.590354   -4.323924   -2.098945   -0.001652    0.001667    0.001783
O     4.869861    1.769985   -3.097652   -0.000462    0.000424    0.003378
C     1.980923    3.806488   -1.750909   -0.006761   -0.006963   -0.003079
C    -2.423679    4.590786   -0.744135    0.002195   -0.004564   -0.001959
C    -4.758764    0.386989   -1.871396    0.002956    0.001159   -0.002354
C    -2.068040   -3.606119   -1.880154    0.001002    0.001768   -0.002024
C     2.364597   -4.489925   -1.188511   -0.001088    0.001837   -0.000315
C     4.430475   -0.279725   -1.880098   -0.009800    0.000445   -0.001583
O     2.670908    3.740685   -2.978370    0.006320    0.002289   -0.000469
O    -2.058645    5.866058   -1.227438   -0.000988    0.005008    0.001448
O    -5.299152    1.198850   -2.884796   -0.002750    0.000548   -0.001651
O    -2.746738   -3.423209   -3.097749   -0.000737   -0.000307    0.000336
O     2.006124   -5.636717   -1.926720   -0.002135   -0.001462    0.000709
O     4.846692   -1.123396   -2.929271    0.005857   -0.005779    0.000190
C     3.011509    3.564253   -0.642742   -0.006547   -0.004596    0.001594
C    -1.512853    4.213980    0.437880    0.008250   -0.004983   -0.001271
C    -4.977105    1.093595   -0.526577    0.000782    0.002115   -0.002196
C    -3.068479   -3.388299   -0.743021    0.000267    0.002379   -0.000754
C     1.509937   -4.456878    0.090009   -0.001313    0.003638    0.000768
C     4.706285   -1.009816   -0.560546   -0.003504    0.003025   -0.000502
C     2.446918    3.843040    0.764546   -0.004623    0.002719    0.003534
C    -2.036127    2.882816    0.995092    0.010694   -0.010564   -0.009793
C    -4.602885    0.172009    0.653833    0.002598    0.000068   -0.002596
C    -2.412817   -3.665768    0.622315    0.000361    0.001577   -0.000076
C     2.042385   -3.351649    1.010035   -0.007321    0.011507   -0.004780
C     4.427068   -0.098177    0.647373    0.000227    0.000515    0.003756
O     1.701896    5.060881    0.812466    0.002158    0.008488    0.007716
O    -3.384466    3.025423    1.420547   -0.001343   -0.001861    0.004069
O    -5.176644   -1.131100    0.508025   -0.002926   -0.002099    0.002640
O    -1.771494   -4.940950    0.625693   -0.002023   -0.001898    0.003637
O     3.429179   -3.475917    1.254068   -0.004193   -0.003264    0.010093
O     5.062631    1.175915    0.505959    0.000207   -0.000527    0.012077
C     3.581518    3.989760    1.786433   -0.001262    0.002911   -0.004559
C    -1.310312    2.361092    2.235341   -0.006492   -0.002226    0.002645
C    -5.169403    0.649918    2.002892    0.003370    0.001079   -0.004383
C    -3.455355   -3.716319    1.746058   -0.001332    0.001365   -0.003601
C     1.324634   -3.233612    2.352708   -0.023310    0.034227   -0.015654
C     4.980687   -0.686956    1.953912    0.007019   -0.003157   -0.007297
O     4.454634    5.038439    1.449548    0.004369    0.000983    0.002523
O    -1.403344    1.043429    2.251445    0.005042    0.006454    0.010817
O    -6.538310    0.946915    1.922871   -0.000902   -0.001152    0.001545
O    -4.435066   -4.689548    1.504065    0.000015   -0.001118    0.001503
O     1.896463   -2.278997    3.087788    0.009459    0.004008    0.012826
O     6.332138   -1.054917    1.840231    0.004853   -0.001342    0.004995
H     0.130333    6.054645    0.083274    0.005578    0.002712    0.000144
H    -5.267631    3.290039    0.775418   -0.000152    0.007428   -0.000322
H    -5.456374   -2.752404   -0.597510   -0.003719    0.000393   -0.000064
H    -0.374251   -6.097046   -0.205431   -0.004075   -0.001213    0.005635
H     5.228396   -3.320591    0.378282   -0.003201   -0.008804    0.002547
H     5.387344    2.789224   -0.608196   -0.001747   -0.007402   -0.003021
H     2.000091    5.971146   -1.584508   -0.007111    0.008679    0.012783
H    -4.090769    5.401911    0.368473   -0.000728   -0.004411    0.003748
H    -6.491953   -0.894785   -1.828342    0.000704   -0.004312    0.005617
H    -2.272706   -5.756202   -1.802639    0.001551   -0.004247    0.006426
H     4.181885   -5.418539   -0.453760   -0.001048    0.001538    0.005431
H     6.243459    0.890389   -1.917504   -0.002280    0.007354    0.013074
H    -0.528378    5.608609   -2.161528   -0.005764   -0.032274   -0.003375
H    -4.720160    4.032696   -2.004782    0.023704    0.000146   -0.004460
H    -4.248056   -2.067921   -3.059480    0.010863    0.018164   -0.004362
H     0.330135   -5.351630   -2.493772    0.004583    0.027533   -0.003295
H     4.507927   -3.397956   -2.390842   -0.024980    0.005967    0.003379
H     4.017072    2.234923   -2.994447   -0.039117   -0.053098   -0.000469
H     1.203105    3.032693   -1.713564   -0.022793    0.018084   -0.025732
H    -2.276929    3.836431   -1.532397   -0.005763    0.007479   -0.008495
H    -3.673443    0.280447   -2.018649   -0.002687    0.001756   -0.003737
H    -1.248758   -2.877639   -1.789717    0.005637   -0.010674    0.001602
H     2.119286   -3.583104   -1.762734   -0.001120   -0.004435   -0.002113
H     3.348308   -0.103804   -1.958314   -0.000814   -0.016751   -0.013084
H     2.066849    4.036910   -3.673063   -0.012729   -0.058942   -0.006603
H    -2.772114    6.168323   -1.812810    0.013909   -0.013287   -0.021609
H    -5.360205    0.655208   -3.685109    0.027976    0.007294   -0.007763
H    -2.199620   -3.810903   -3.797730    0.016659    0.027834   -0.002666
H     2.635569   -5.719568   -2.661214   -0.013772    0.023250   -0.012851
H     4.883756   -0.585018   -3.733454   -0.054543   -0.008665   -0.003598
H     3.867534    4.227519   -0.821125   -0.014387    0.008385    0.013489
H    -1.550032    4.987777    1.215728   -0.008804   -0.003757   -0.000023
H    -6.031029    1.393394   -0.435514   -0.002105   -0.006961    0.002577
H    -3.907013   -4.084132   -0.878072    0.003422   -0.004406    0.008706
H     1.531303   -5.428321    0.596758   -0.000248    0.005503    0.008408
H     5.752282   -1.343530   -0.541568   -0.000193    0.006232    0.002636
H     1.788408    3.026781    1.071665    0.006982    0.024255    0.075867
H    -1.964402    2.109191    0.217753   -0.003723   -0.022335    0.003682
H    -3.509757    0.098173    0.716586    0.001321   -0.008642    0.008105
H    -1.672410   -2.887800    0.847211    0.000494   -0.001763    0.024474
H     1.846345   -2.391304    0.507641    0.016404    0.010296   -0.009418
H     3.345141    0.019724    0.758712    0.007489   -0.036633    0.101863
H     4.182115    3.078847    1.798127   -0.000379    0.001767    0.003005
H     3.135798    4.151258    2.775042    0.012672   -0.001505    0.007281
H    -4.988112   -0.149710    2.731713    0.007111    0.007494    0.004882
H    -4.663440    1.554470    2.335866   -0.000810    0.002968   -0.002054
H    -3.973711   -2.757972    1.808339   -0.003535    0.000286   -0.001603
H    -2.927648   -3.911628    2.687899   -0.000972    0.011798    0.001670
H     4.857292    0.061101    2.745474    0.003006   -0.016179    0.011453
H     4.423520   -1.586733    2.222440    0.007165   -0.001080    0.002498
H     3.926236    5.846542    1.397727   -0.005120   -0.007154   -0.045123
H    -6.998067    0.138301    1.656212    0.004465    0.002850   -0.019844
H    -3.984380   -5.541683    1.416233    0.002333    0.001604   -0.018592
H     6.829717   -0.255526    1.616040   -0.010856   -0.001768   -0.040433
C     0.956016   -1.500877    3.820687    0.015856    0.027567    0.001244
H     1.532286   -0.856084    4.488624    0.016801   -0.069796    0.101890
H     0.259945   -2.142273    4.383088   -0.069941    0.016939   -0.118164
O     0.414052   -3.930789    2.727776    0.000643   -0.006330    0.006796
C    -0.796644    0.338221    3.339150    0.026200    0.006737   -0.013944
H    -1.584684   -0.191956    3.885062    0.059181   -0.129194   -0.103638
H    -0.285694    1.056804    3.995454   -0.092558    0.039266    0.047446
O    -0.780154    3.036740    3.074846   -0.011984    0.008518    0.013999
C     0.156308   -0.708683    2.766511    0.271567    0.226118   -0.106560
O    -0.197181   -1.395023    1.748614    0.025391   -0.028858    0.004744
H    -1.083457   -0.621187    0.356340    0.043592   -0.016020   -0.004101
O    -1.367191   -0.178118   -0.473037    0.021838    0.022521    0.019086
H     0.333746    0.596807   -0.558871   -0.201352   -0.007922    0.251009
O     0.936338    1.189460   -0.039497    0.054947   -0.086848    0.200917
H     1.144581    0.746253    0.917396   -0.425288    0.470734   -1.722209
O     1.450626    0.292293    2.122780   -0.237318   -0.059774   -0.084163
O     1.785826    1.496935    2.889701   -0.031212   -0.068450   -0.008647
H     2.687144    1.258593    3.177172   -0.003881   -0.069012   -0.160718
H    -1.889841   -0.839367   -0.944677    0.197197    0.027045   -0.175014
H     1.787731    1.310427   -0.518876    0.062284   -0.114004    0.106343
140
* Frequency(6) -576.3342
C     0.663089    5.119520   -0.125938   -0.008437   -0.006077   -0.001007
C    -4.262364    3.248485    0.336335    0.001060   -0.002726    0.000586
C    -4.905134   -1.806606   -0.678458    0.002319   -0.002128   -0.000879
C    -0.798895   -5.099429   -0.372111    0.001529    0.001256   -0.001052
C     4.177266   -3.308345    0.064669   -0.002517    0.005834   -0.006164
C     4.775058    1.879679   -0.666115   -0.019512    0.003304   -0.004904
O    -0.189560    4.005745   -0.007507    0.002959    0.002915    0.002430
O    -4.161805    2.252855   -0.631133   -0.002531   -0.002503    0.004871
O    -3.528245   -2.052045   -0.849350   -0.002873   -0.003396    0.001097
O     0.187135   -4.104896   -0.285266    0.000187   -0.003445   -0.004704
O     3.839252   -2.136279   -0.600710    0.004358   -0.006488    0.004479
O     3.410175    2.203562   -0.765530   -0.000882   -0.001895    0.009342
C     1.268862    5.148540   -1.542883    0.000904   -0.000687    0.000179
C    -3.907783    4.587238   -0.340412    0.003625   -0.001558    0.000009
C    -5.403476   -1.006167   -1.892930    0.001643    0.000997   -0.000691
C    -1.463479   -5.012955   -1.759097   -0.000666    0.000050   -0.001150
C     3.875638   -4.469360   -0.903492   -0.001455   -0.000515   -0.000593
C     5.162037    1.070509   -1.919880   -0.004962   -0.000039   -0.001654
O     0.314552    5.315032   -2.557527    0.001480    0.002627   -0.001226
O    -4.713085    4.834352   -1.457280   -0.000896   -0.000539    0.000936
O    -5.135518   -1.666509   -3.099251   -0.000261   -0.000169    0.000872
O    -0.586272   -5.249802   -2.823929   -0.001521   -0.000770    0.001107
O     4.590187   -4.323755   -2.098765   -0.001652    0.001667    0.001783
O     4.869814    1.770028   -3.097310   -0.000462    0.000424    0.003378
C     1.980238    3.805782   -1.751221   -0.006761   -0.006963   -0.003079
C    -2.423456    4.590324   -0.744333    0.002195   -0.004564   -0.001959
C    -4.758465    0.387106   -1.871635    0.002956    0.001159   -0.002354
C    -2.067939   -3.605940   -1.880359    0.001002    0.001768   -0.002024
C     2.364487   -4.489739   -1.188543   -0.001088    0.001837   -0.000315
C     4.429482   -0.279680   -1.880258   -0.009800    0.000445   -0.001583
O     2.671549    3.740917   -2.978418    0.006320    0.002289   -0.000469
O    -2.058745    5.866566   -1.227292   -0.000988    0.005008    0.001448
O    -5.299430    1.198906   -2.884963   -0.002750    0.000548   -0.001651
O    -2.746813   -3.423240   -3.097715   -0.000737   -0.000307    0.000336
O     2.005908   -5.636865   -1.926649   -0.002135   -0.001462    0.000709
O     4.847285   -1.123981   -2.929252    0.005857   -0.005779    0.000190
C     3.010846    3.563787   -0.642580   -0.006547   -0.004596    0.001594
C    -1.512018    4.213475    0.437751    0.008250   -0.004983   -0.001271
C    -4.977026    1.093810   -0.526799    0.000782    0.002115   -0.002196
C    -3.068452   -3.388058   -0.743097    0.000267    0.002379   -0.000754
C     1.509804   -4.456509    0.090087   -0.001313    0.003638    0.000768
C     4.705930   -1.009510   -0.560597   -0.003504    0.003025   -0.000502
C     2.446449    3.843315    0.764904   -0.004623    0.002719    0.003534
C    -2.035043    2.881746    0.994100    0.010694   -0.010564   -0.009793
C    -4.602622    0.172016    0.653570    0.002598    0.000068   -0.002596
C    -2.412780   -3.665608    0.622308    0.000361    0.001577   -0.000076
C     2.041643   -3.350483    1.009550   -0.007321    0.011507   -0.004780
C     4.427091   -0.098124    0.647754    0.000227    0.000515    0.003756
O     1.702115    5.061741    0.813248    0.002158    0.008488    0.007716
O    -3.384602    3.025235    1.420960   -0.001343   -0.001861    0.004069
O    -5.176940   -1.131312    0.508293   -0.002926   -0.002099    0.002640
O    -1.771699   -4.941142    0.626062   -0.002023   -0.001898    0.003637
O     3.428755   -3.476248    1.255091   -0.004193   -0.003264    0.010093
O     5.062652    1.175862    0.507183    0.000207   -0.000527    0.012077
C     3.581390    3.990055    1.785971   -0.001262    0.002911   -0.004559
C    -1.310970    2.360866    2.235609   -0.006492   -0.002226    0.002645
C    -5.169062    0.650027    2.002448    0.003370    0.001079   -0.004383
C    -3.455490   -3.716181    1.745693   -0.001332    0.001365   -0.003601
C     1.322272   -3.230144    2.351122   -0.023310    0.034227   -0.015654
C     4.981398   -0.687276    1.953172    0.007019   -0.003157   -0.007297
O     4.455077    5.038538    1.449803    0.004369    0.000983    0.002523
O    -1.402833    1.044083    2.252541    0.005042    0.006454    0.010817
O    -6.538402    0.946798    1.923027   -0.000902   -0.001152    0.001545
O    -4.435065   -4.689661    1.504217    0.000015   -0.001118    0.001503
O     1.897421   -2.278591    3.089088    0.009459    0.004008    0.012826
O     6.332630   -1.055053    1.840737    0.004853   -0.001342    0.004995
H     0.130898    6.054920    0.083289    0.005578    0.002712    0.000144
H    -5.267647    3.290792    0.775386   -0.000152    0.007428   -0.000322
H    -5.456751   -2.752364   -0.597517   -0.003719    0.000393   -0.000064
H    -0.374664   -6.097169   -0.204860   -0.004075   -0.001213    0.005635
H     5.228072   -3.321483    0.378541   -0.003201   -0.008804    0.002547
H     5.387167    2.788474   -0.608502   -0.001747   -0.007402   -0.003021
H     1.999370    5.972026   -1.583213   -0.007111    0.008679    0.012783
H    -4.090843    5.401464    0.368853   -0.000728   -0.004411    0.003748
H    -6.491882   -0.895222   -1.827772    0.000704   -0.004312    0.005617
H    -2.272549   -5.756632   -1.801988    0.001551   -0.004247    0.006426
H     4.181779   -5.418383   -0.453210   -0.001048    0.001538    0.005431
H     6.243228    0.891134   -1.916179   -0.002280    0.007354    0.013074
H    -0.528962    5.605339   -2.161870   -0.005764   -0.032274   -0.003375
H    -4.717758    4.032710   -2.005234    0.023704    0.000146   -0.004460
H    -4.246956   -2.066080   -3.059922    0.010863    0.018164   -0.004362
H     0.330599   -5.348840   -2.494105    0.004583    0.027533   -0.003295
H     4.505396   -3.397351   -2.390500   -0.024980    0.005967    0.003379
H     4.013108    2.229542   -2.994495   -0.039117   -0.053098   -0.000469
H     1.200795    3.034526   -1.716172   -0.022793    0.018084   -0.025732
H    -2.277513    3.837189   -1.533258   -0.005763    0.007479   -0.008495
H    -3.673716    0.280625   -2.019027   -0.002687    0.001756   -0.003737
H    -1.248187   -2.878721   -1.789554    0.005637   -0.010674    0.001602
H     2.119172   -3.583553   -1.762948   -0.001120   -0.004435   -0.002113
H     3.348225   -0.105501   -1.959640   -0.000814   -0.016751   -0.013084
H     2.065560    4.030937   -3.673733   -0.012729   -0.058942   -0.006603
H    -2.770705    6.166977   -1.814999    0.013909   -0.013287   -0.021609
H    -5.357370    0.655947   -3.685896    0.027976    0.007294   -0.007763
H    -2.197932   -3.808082   -3.798000    0.016659    0.027834   -0.002666
H     2.634173   -5.717212   -2.662517   -0.013772    0.023250   -0.012851
H     4.878230   -0.585896   -3.733818   -0.054543   -0.008665   -0.003598
H     3.866076    4.228369   -0.819758   -0.014387    0.008385    0.013489
H    -1.550924    4.987396    1.215726   -0.008804   -0.003757   -0.000023
H    -6.031242    1.392689   -0.435253   -0.002105   -0.006961    0.002577
H    -3.906666   -4.084578   -0.877189    0.003422   -0.004406    0.008706
H     1.531278   -5.427763    0.597610   -0.000248    0.005503    0.008408
H     5.752263   -1.342898   -0.541301   -0.000193    0.006232    0.002636
H     1.789115    3.029239    1.079352    0.006982    0.024255    0.075867
H    -1.964779    2.106928    0.218126   -0.003723   -0.022335    0.003682
H    -3.509623    0.097297    0.717407    0.001321   -0.008642    0.008105
H    -1.672360   -2.887979    0.849691    0.000494   -0.001763    0.024474
H     1.848008   -2.390261    0.506686    0.016404    0.010296   -0.009418
H     3.345900    0.016012    0.769034    0.007489   -0.036633    0.101863
H     4.182077    3.079026    1.798432   -0.000379    0.001767    0.003005
H     3.137082    4.151105    2.775780    0.012672   -0.001505    0.007281
H    -4.987391   -0.148951    2.732207    0.007111    0.007494    0.004882
H    -4.663522    1.554771    2.335657   -0.000810    0.002968   -0.002054
H    -3.974069   -2.757943    1.808176   -0.003535    0.000286   -0.001603
H    -2.927747   -3.910433    2.688068   -0.000972    0.011798    0.001670
H     4.857596    0.059462    2.746634    0.003006   -0.016179    0.011453
H     4.424246   -1.586842    2.222693    0.007165   -0.001080    0.002498
H     3.925717    5.845817    1.393155   -0.005120   -0.007154   -0.045123
H    -6.997614    0.138590    1.654201    0.004465    0.002850   -0.019844
H    -3.984144   -5.541520    1.414349    0.002333    0.001604   -0.018592
H     6.828617   -0.255705    1.611943   -0.010856   -0.001768   -0.040433
C     0.957622   -1.498084    3.820813    0.015856    0.027567    0.001244
H     1.533988   -0.863156    4.498949    0.016801   -0.069796    0.101890
H     0.252858   -2.140556    4.371114   -0.069941    0.016939   -0.118164
O     0.414117   -3.931431    2.728465    0.000643   -0.006330    0.006796
C    -0.793990    0.338904    3.337737    0.026200    0.006737   -0.013944
H    -1.578687   -0.205047    3.874560    0.059181   -0.129194   -0.103638
H    -0.295073    1.060783    4.000262   -0.092558    0.039266    0.047446
O    -0.781368    3.037603    3.076264   -0.011984    0.008518    0.013999
C     0.183826   -0.685771    2.755713    0.271567    0.226118   -0.106560
O    -0.194608   -1.397947    1.749095    0.025391   -0.028858    0.004744
H    -1.079039   -0.622810    0.355924    0.043592   -0.016020   -0.004101
O    -1.364978   -0.175836   -0.471103    0.021838    0.022521    0.019086
H     0.313343    0.596005   -0.533436   -0.201352   -0.007922    0.251009
O     0.941905    1.180660   -0.019138    0.054947   -0.086848    0.200917
H     1.101487    0.793953    0.742885   -0.425288    0.470734   -1.722209
O     1.426578    0.286236    2.114252   -0.237318   -0.059774   -0.084163
O     1.782663    1.489999    2.888824   -0.031212   -0.068450   -0.008647
H     2.686751    1.251600    3.160887   -0.003881   -0.069012   -0.160718
H    -1.869859   -0.836626   -0.962411    0.197197    0.027045   -0.175014
H     1.794042    1.298875   -0.508100    0.062284   -0.114004    0.106343
140
* Frequency(6) -576.3342
C     0.662431    5.119045   -0.126017   -0.008437   -0.006077   -0.001007
C    -4.262281    3.248272    0.336381    0.001060   -0.002726    0.000586
C    -4.904953   -1.806773   -0.678526    0.002319   -0.002128   -0.000879
C    -0.798776   -5.099331   -0.372193    0.001529    0.001256   -0.001052
C     4.177069   -3.307890    0.064188   -0.002517    0.005834   -0.006164
C     4.773536    1.879937   -0.666498   -0.019512    0.003304   -0.004904
O    -0.189329    4.005972   -0.007317    0.002959    0.002915    0.002430
O    -4.162003    2.252659   -0.630753   -0.002531   -0.002503    0.004871
O    -3.528469   -2.052310   -0.849264   -0.002873   -0.003396    0.001097
O     0.187150   -4.105165   -0.285633    0.000187   -0.003445   -0.004704
O     3.839592   -2.136785   -0.600361    0.004358   -0.006488    0.004479
O     3.410107    2.203414   -0.764801   -0.000882   -0.001895    0.009342
C     1.268933    5.148487   -1.542869    0.000904   -0.000687    0.000179
C    -3.907500    4.587117   -0.340411    0.003625   -0.001558    0.000009
C    -5.403348   -1.006089   -1.892983    0.001643    0.000997   -0.000691
C    -1.463531   -5.012951   -1.759187   -0.000666    0.000050   -0.001150
C     3.875525   -4.469400   -0.903538   -0.001455   -0.000515   -0.000593
C     5.161650    1.070505   -1.920009   -0.004962   -0.000039   -0.001654
O     0.314668    5.315237   -2.557622    0.001480    0.002627   -0.001226
O    -4.713154    4.834310   -1.457207   -0.000896   -0.000539    0.000936
O    -5.135539   -1.666522   -3.099183   -0.000261   -0.000169    0.000872
O    -0.586391   -5.249862   -2.823843   -0.001521   -0.000770    0.001107
O     4.590058   -4.323625   -2.098626   -0.001652    0.001667    0.001783
O     4.869778    1.770061   -3.097046   -0.000462    0.000424    0.003378
C     1.979710    3.805239   -1.751461   -0.006761   -0.006963   -0.003079
C    -2.423285    4.589968   -0.744486    0.002195   -0.004564   -0.001959
C    -4.758234    0.387197   -1.871819    0.002956    0.001159   -0.002354
C    -2.067860   -3.605802   -1.880517    0.001002    0.001768   -0.002024
C     2.364402   -4.489596   -1.188567   -0.001088    0.001837   -0.000315
C     4.428717   -0.279645   -1.880382   -0.009800    0.000445   -0.001583
O     2.672042    3.741096   -2.978455    0.006320    0.002289   -0.000469
O    -2.058822    5.866956   -1.227179   -0.000988    0.005008    0.001448
O    -5.299645    1.198949   -2.885092   -0.002750    0.000548   -0.001651
O    -2.746870   -3.423264   -3.097689   -0.000737   -0.000307    0.000336
O     2.005741   -5.636979   -1.926593   -0.002135   -0.001462    0.000709
O     4.847742   -1.124432   -2.929237    0.005857   -0.005779    0.000190
C     3.010335    3.563428   -0.642456   -0.006547   -0.004596    0.001594
C    -1.511374    4.213086    0.437652    0.008250   -0.004983   -0.001271
C    -4.976965    1.093975   -0.526970    0.000782    0.002115   -0.002196
C    -3.068431   -3.387872   -0.743156    0.000267    0.002379   -0.000754
C     1.509701   -4.456225    0.090147   -0.001313    0.003638    0.000768
C     4.705656   -1.009274   -0.560636   -0.003504    0.003025   -0.000502
C     2.446088    3.843528    0.765179   -0.004623    0.002719    0.003534
C    -2.034209    2.880922    0.993336    0.010694   -0.010564   -0.009793
C    -4.602419    0.172021    0.653367    0.002598    0.000068   -0.002596
C    -2.412752   -3.665485    0.622302    0.000361    0.001577   -0.000076
C     2.041072   -3.349585    1.009177   -0.007321    0.011507   -0.004780
C     4.427109   -0.098084    0.648047    0.000227    0.000515    0.003756
O     1.702283    5.062403    0.813850    0.002158    0.008488    0.007716
O    -3.384706    3.025090    1.421277   -0.001343   -0.001861    0.004069
O    -5.177168   -1.131476    0.508499   -0.002926   -0.002099    0.002640
O    -1.771857   -4.941290    0.626346   -0.002023   -0.001898    0.003637
O     3.428427   -3.476502    1.255878   -0.004193   -0.003264    0.010093
O     5.062669    1.175821    0.508126    0.000207   -0.000527    0.012077
C     3.581291    3.990282    1.785615   -0.001262    0.002911   -0.004559
C    -1.311476    2.360693    2.235815   -0.006492   -0.002226    0.002645
C    -5.168799    0.650111    2.002106    0.003370    0.001079   -0.004383
C    -3.455594   -3.716074    1.745412   -0.001332    0.001365   -0.003601
C     1.320453   -3.227473    2.349900   -0.023310    0.034227   -0.015654
C     4.981946   -0.687522    1.952603    0.007019   -0.003157   -0.007297
O     4.455418    5.038615    1.450000    0.004369    0.000983    0.002523
O    -1.402440    1.044587    2.253385    0.005042    0.006454    0.010817
O    -6.538472    0.946708    1.923148   -0.000902   -0.001152    0.001545
O    -4.435064   -4.689749    1.504334    0.000015   -0.001118    0.001503
O     1.898159   -2.278278    3.090089    0.009459    0.004008    0.012826
O     6.333009   -1.055157    1.841127    0.004853   -0.001342    0.004995
H     0.131333    6.055132    0.083300    0.005578    0.002712    0.000144
H    -5.267659    3.291372    0.775361   -0.000152    0.007428   -0.000322
H    -5.457041   -2.752334   -0.597522   -0.003719    0.000393   -0.000064
H    -0.374982   -6.097263   -0.204420   -0.004075   -0.001213    0.005635
H     5.227822   -3.322170    0.378739   -0.003201   -0.008804    0.002547
H     5.387031    2.787896   -0.608738   -0.001747   -0.007402   -0.003021
H     1.998816    5.972703   -1.582215   -0.007111    0.008679    0.012783
H    -4.090899    5.401119    0.369145   -0.000728   -0.004411    0.003748
H    -6.491827   -0.895558   -1.827334    0.000704   -0.004312    0.005617
H    -2.272428   -5.756963   -1.801486    0.001551   -0.004247    0.006426
H     4.181697   -5.418263   -0.452786   -0.001048    0.001538    0.005431
H     6.243050    0.891708   -1.915159   -0.002280    0.007354    0.013074
H    -0.529412    5.602820   -2.162133   -0.005764   -0.032274   -0.003375
H    -4.715908    4.032722   -2.005582    0.023704    0.000146   -0.004460
H    -4.246108   -2.064663   -3.060262    0.010863    0.018164   -0.004362
H     0.330957   -5.346692   -2.494363    0.004583    0.027533   -0.003295
H     4.503447   -3.396886   -2.390236   -0.024980    0.005967    0.003379
H     4.010055    2.225399   -2.994532   -0.039117   -0.053098   -0.000469
H     1.199016    3.035937   -1.718180   -0.022793    0.018084   -0.025732
H    -2.277963    3.837772   -1.533921   -0.005763    0.007479   -0.008495
H    -3.673925    0.280762   -2.019319   -0.002687    0.001756   -0.003737
H    -1.247747   -2.879553   -1.789429    0.005637   -0.010674    0.001602
H     2.119085   -3.583899   -1.763113   -0.001120   -0.004435   -0.002113
H     3.348162   -0.106808   -1.960661   -0.000814   -0.016751   -0.013084
H     2.064566    4.026338   -3.674248   -0.012729   -0.058942   -0.006603
H    -2.769619    6.165940   -1.816686    0.013909   -0.013287   -0.021609
H    -5.355187    0.656516   -3.686502    0.027976    0.007294   -0.007763
H    -2.196632   -3.805910   -3.798208    0.016659    0.027834   -0.002666
H     2.633099   -5.715398   -2.663519   -0.013772    0.023250   -0.012851
H     4.873974   -0.586572   -3.734099   -0.054543   -0.008665   -0.003598
H     3.864953    4.229023   -0.818706   -0.014387    0.008385    0.013489
H    -1.551611    4.987103    1.215724   -0.008804   -0.003757   -0.000023
H    -6.031407    1.392145   -0.435052   -0.002105   -0.006961    0.002577
H    -3.906399   -4.084922   -0.876510    0.003422   -0.004406    0.008706
H     1.531258   -5.427334    0.598267   -0.000248    0.005503    0.008408
H     5.752247   -1.342412   -0.541096   -0.000193    0.006232    0.002636
H     1.789660    3.031132    1.085273    0.006982    0.024255    0.075867
H    -1.965070    2.105185    0.218414   -0.003723   -0.022335    0.003682
H    -3.509520    0.096623    0.718040    0.001321   -0.008642    0.008105
H    -1.672321   -2.888117    0.851601    0.000494   -0.001763    0.024474
H     1.849288   -2.389457    0.505951    0.016404    0.010296   -0.009418
H     3.346484    0.013153    0.776983    0.007489   -0.036633    0.101863
H     4.182047    3.079164    1.798666   -0.000379    0.001767    0.003005
H     3.138071    4.150988    2.776349    0.012672   -0.001505    0.007281
H    -4.986836   -0.148366    2.732588    0.007111    0.007494    0.004882
H    -4.663585    1.555003    2.335497   -0.000810    0.002968   -0.002054
H    -3.974345   -2.757920    1.808051   -0.003535    0.000286   -0.001603
H    -2.927823   -3.909512    2.688198   -0.000972    0.011798    0.001670
H     4.857831    0.058199    2.747528    0.003006   -0.016179    0.011453
H     4.424805   -1.586927    2.222888    0.007165   -0.001080    0.002498
H     3.925318    5.845259    1.389634   -0.005120   -0.007154   -0.045123
H    -6.997266    0.138812    1.652652    0.004465    0.002850   -0.019844
H    -3.983962   -5.541395    1.412898    0.002333    0.001604   -0.018592
H     6.827770   -0.255843    1.608788   -0.010856   -0.001768   -0.040433
C     0.958860   -1.495932    3.820910    0.015856    0.027567    0.001244
H     1.535299   -0.868603    4.506900    0.016801   -0.069796    0.101890
H     0.247400   -2.139235    4.361894   -0.069941    0.016939   -0.118164
O     0.414167   -3.931925    2.728995    0.000643   -0.006330    0.006796
C    -0.791945    0.339429    3.336649    0.026200    0.006737   -0.013944
H    -1.574069   -0.215128    3.866473    0.059181   -0.129194   -0.103638
H    -0.302296    1.063847    4.003964   -0.092558    0.039266    0.047446
O    -0.782303    3.038268    3.077357   -0.011984    0.008518    0.013999
C     0.205017   -0.668126    2.747398    0.271567    0.226118   -0.106560
O    -0.192626   -1.400199    1.749465    0.025391   -0.028858    0.004744
H    -1.075638   -0.624060    0.355604    0.043592   -0.016020   -0.004101
O    -1.363274   -0.174079   -0.469614    0.021838    0.022521    0.019086
H     0.297631    0.595386   -0.513849   -0.201352   -0.007922    0.251009
O     0.946193    1.173883   -0.003459    0.054947   -0.086848    0.200917
H     1.068300    0.830686    0.608494   -0.425288    0.470734   -1.722209
O     1.408060    0.281571    2.107684   -0.237318   -0.059774   -0.084163
O     1.780228    1.484657    2.888150   -0.031212   -0.068450   -0.008647
H     2.686448    1.246215    3.148345   -0.003881   -0.069012   -0.160718
H    -1.854471   -0.834516   -0.976068    0.197197    0.027045   -0.175014
H     1.798902    1.289979   -0.499802    0.062284   -0.114004    0.106343
140
* Frequency(6) -576.3342
C     0.662040    5.118764   -0.126064   -0.008437   -0.006077   -0.001007
C    -4.262232    3.248146    0.336408    0.001060   -0.002726    0.000586
C    -4.904845   -1.806871   -0.678567    0.002319   -0.002128   -0.000879
C    -0.798705   -5.099273   -0.372242    0.001529    0.001256   -0.001052
C     4.176953   -3.307619    0.063903   -0.002517    0.005834   -0.006164
C     4.772633    1.880090   -0.666725   -0.019512    0.003304   -0.004904
O    -0.189192    4.006107   -0.007205    0.002959    0.002915    0.002430
O    -4.162120    2.252544   -0.630527   -0.002531   -0.002503    0.004871
O    -3.528602   -2.052467   -0.849213   -0.002873   -0.003396    0.001097
O     0.187158   -4.105324   -0.285851    0.000187   -0.003445   -0.004704
O     3.839794   -2.137085   -0.600153    0.004358   -0.006488    0.004479
O     3.410066    2.203326   -0.764368   -0.000882   -0.001895    0.009342
C     1.268975    5.148455   -1.542860    0.000904   -0.000687    0.000179
C    -3.907332    4.587045   -0.340411    0.003625   -0.001558    0.000009
C    -5.403272   -1.006043   -1.893015    0.001643    0.000997   -0.000691
C    -1.463562   -5.012949   -1.759240   -0.000666    0.000050   -0.001150
C     3.875457   -4.469424   -0.903565   -0.001455   -0.000515   -0.000593
C     5.161420    1.070504   -1.920085   -0.004962   -0.000039   -0.001654
O     0.314736    5.315358   -2.557679    0.001480    0.002627   -0.001226
O    -4.713196    4.834285   -1.457163   -0.000896   -0.000539    0.000936
O    -5.135551   -1.666530   -3.099142   -0.000261   -0.000169    0.000872
O    -0.586461   -5.249897   -2.823791   -0.001521   -0.000770    0.001107
O     4.589982   -4.323548   -2.098543   -0.001652    0.001667    0.001783
O     4.869756    1.770081   -3.096890   -0.000462    0.000424    0.003378
C     1.979397    3.804917   -1.751604   -0.006761   -0.006963   -0.003079
C    -2.423183    4.589756   -0.744577    0.002195   -0.004564   -0.001959
C    -4.758097    0.387250   -1.871928    0.002956    0.001159   -0.002354
C    -2.067814   -3.605720   -1.880611    0.001002    0.001768   -0.002024
C     2.364352   -4.489511   -1.188582   -0.001088    0.001837   -0.000315
C     4.428264   -0.279625   -1.880455   -0.009800    0.000445   -0.001583
O     2.672334    3.741202   -2.978476    0.006320    0.002289   -0.000469
O    -2.058868    5.867188   -1.227112   -0.000988    0.005008    0.001448
O    -5.299772    1.198974   -2.885168   -0.002750    0.000548   -0.001651
O    -2.746904   -3.423278   -3.097673   -0.000737   -0.000307    0.000336
O     2.005643   -5.637047   -1.926561   -0.002135   -0.001462    0.000709
O     4.848013   -1.124700   -2.929229    0.005857   -0.005779    0.000190
C     3.010032    3.563216   -0.642382   -0.006547   -0.004596    0.001594
C    -1.510992    4.212855    0.437593    0.008250   -0.004983   -0.001271
C    -4.976929    1.094073   -0.527072    0.000782    0.002115   -0.002196
C    -3.068418   -3.387762   -0.743191    0.000267    0.002379   -0.000754
C     1.509640   -4.456057    0.090182   -0.001313    0.003638    0.000768
C     4.705494   -1.009134   -0.560659   -0.003504    0.003025   -0.000502
C     2.445874    3.843653    0.765343   -0.004623    0.002719    0.003534
C    -2.033714    2.880433    0.992882    0.010694   -0.010564   -0.009793
C    -4.602299    0.172024    0.653247    0.002598    0.000068   -0.002596
C    -2.412736   -3.665412    0.622298    0.000361    0.001577   -0.000076
C     2.040733   -3.349053    1.008956   -0.007321    0.011507   -0.004780
C     4.427119   -0.098060    0.648220    0.000227    0.000515    0.003756
O     1.702383    5.062796    0.814207    0.002158    0.008488    0.007716
O    -3.384769    3.025003    1.421466   -0.001343   -0.001861    0.004069
O    -5.177304   -1.131573    0.508621   -0.002926   -0.002099    0.002640
O    -1.771950   -4.941378    0.626514   -0.002023   -0.001898    0.003637
O     3.428233   -3.476653    1.256346   -0.004193   -0.003264    0.010093
O     5.062678    1.175796    0.508685    0.000207   -0.000527    0.012077
C     3.581233    3.990417    1.785404   -0.001262    0.002911   -0.004559
C    -1.311777    2.360590    2.235938   -0.006492   -0.002226    0.002645
C    -5.168643    0.650161    2.001903    0.003370    0.001079   -0.004383
C    -3.455656   -3.716011    1.745245   -0.001332    0.001365   -0.003601
C     1.319374   -3.225889    2.349176   -0.023310    0.034227   -0.015654
C     4.982271   -0.687668    1.952265    0.007019   -0.003157   -0.007297
O     4.455620    5.038660    1.450117    0.004369    0.000983    0.002523
O    -1.402206    1.044885    2.253885    0.005042    0.006454    0.010817
O    -6.538514    0.946655    1.923219   -0.000902   -0.001152    0.001545
O    -4.435063   -4.689800    1.504404    0.000015   -0.001118    0.001503
O     1.898597   -2.278093    3.090682    0.009459    0.004008    0.012826
O     6.333234   -1.055219    1.841358    0.004853   -0.001342    0.004995
H     0.131592    6.055257    0.083307    0.005578    0.002712    0.000144
H    -5.267666    3.291715    0.775346   -0.000152    0.007428   -0.000322
H    -5.457213   -2.752316   -0.597525   -0.003719    0.000393   -0.000064
H    -0.375171   -6.097320   -0.204159   -0.004075   -0.001213    0.005635
H     5.227674   -3.322577    0.378857   -0.003201   -0.008804    0.002547
H     5.386950    2.787554   -0.608878   -0.001747   -0.007402   -0.003021
H     1.998486    5.973105   -1.581624   -0.007111    0.008679    0.012783
H    -4.090933    5.400915    0.369319   -0.000728   -0.004411    0.003748
H    -6.491794   -0.895758   -1.827074    0.000704   -0.004312    0.005617
H    -2.272356   -5.757160   -1.801189    0.001551   -0.004247    0.006426
H     4.181649   -5.418192   -0.452534   -0.001048    0.001538    0.005431
H     6.242944    0.892048   -1.914554   -0.002280    0.007354    0.013074
H    -0.529679    5.601327   -2.162289   -0.005764   -0.032274   -0.003375
H    -4.714811    4.032729   -2.005788    0.023704    0.000146   -0.004460
H    -4.245605   -2.063822   -3.060464    0.010863    0.018164   -0.004362
H     0.331169   -5.345417   -2.494515    0.004583    0.027533   -0.003295
H     4.502290   -3.396610   -2.390080   -0.024980    0.005967    0.003379
H     4.008245    2.222941   -2.994553   -0.039117   -0.053098   -0.000469
H     1.197962    3.036774   -1.719371   -0.022793    0.018084   -0.025732
H    -2.278229    3.838119   -1.534314   -0.005763    0.007479   -0.008495
H    -3.674050    0.280843   -2.019492   -0.002687    0.001756   -0.003737
H    -1.247487   -2.880048   -1.789355    0.005637   -0.010674    0.001602
H     2.119033   -3.584105   -1.763211   -0.001120   -0.004435   -0.002113
H     3.348124   -0.107584   -1.961266   -0.000814   -0.016751   -0.013084
H     2.063977    4.023610   -3.674553   -0.012729   -0.058942   -0.006603
H    -2.768976    6.165325   -1.817686    0.013909   -0.013287   -0.021609
H    -5.353892    0.656854   -3.686861    0.027976    0.007294   -0.007763
H    -2.195861   -3.804622   -3.798332    0.016659    0.027834   -0.002666
H     2.632461   -5.714322   -2.664114   -0.013772    0.023250   -0.012851
H     4.871449   -0.586973   -3.734266   -0.054543   -0.008665   -0.003598
H     3.864288    4.229411   -0.818081   -0.014387    0.008385    0.013489
H    -1.552018    4.986929    1.215723   -0.008804   -0.003757   -0.000023
H    -6.031504    1.391823   -0.434933   -0.002105   -0.006961    0.002577
H    -3.906241   -4.085126   -0.876107    0.003422   -0.004406    0.008706
H     1.531247   -5.427079    0.598656   -0.000248    0.005503    0.008408
H     5.752239   -1.342123   -0.540974   -0.000193    0.006232    0.002636
H     1.789983    3.032254    1.088784    0.006982    0.024255    0.075867
H    -1.965242    2.104151    0.218584   -0.003723   -0.022335    0.003682
H    -3.509459    0.096223    0.718415    0.001321   -0.008642    0.008105
H    -1.672298   -2.888198    0.852734    0.000494   -0.001763    0.024474
H     1.850047   -2.388981    0.505516    0.016404    0.010296   -0.009418
H     3.346831    0.011458    0.781697    0.007489   -0.036633    0.101863
H     4.182030    3.079246    1.798806   -0.000379    0.001767    0.003005
H     3.138658    4.150918    2.776686    0.012672   -0.001505    0.007281
H    -4.986507   -0.148019    2.732814    0.007111    0.007494    0.004882
H    -4.663623    1.555140    2.335402   -0.000810    0.002968   -0.002054
H    -3.974508   -2.757907    1.807977   -0.003535    0.000286   -0.001603
H    -2.927868   -3.908966    2.688276   -0.000972    0.011798    0.001670
H     4.857970    0.057451    2.748058    0.003006   -0.016179    0.011453
H     4.425137   -1.586977    2.223004    0.007165   -0.001080    0.002498
H     3.925081    5.844928    1.387545   -0.005120   -0.007154   -0.045123
H    -6.997059    0.138944    1.651734    0.004465    0.002850   -0.019844
H    -3.983854   -5.541321    1.412038    0.002333    0.001604   -0.018592
H     6.827268   -0.255925    1.606916   -0.010856   -0.001768   -0.040433
C     0.959594   -1.494657    3.820967    0.015856    0.027567    0.001244
H     1.536077   -0.871833    4.511615    0.016801   -0.069796    0.101890
H     0.244163   -2.138451    4.356425   -0.069941    0.016939   -0.118164
O     0.414197   -3.932218    2.729310    0.000643   -0.006330    0.006796
C    -0.790732    0.339741    3.336004    0.026200    0.006737   -0.013944
H    -1.571330   -0.221108    3.861676    0.059181   -0.129194   -0.103638
H    -0.306579    1.065664    4.006160   -0.092558    0.039266    0.047446
O    -0.782858    3.038662    3.078005   -0.011984    0.008518    0.013999
C     0.217586   -0.657661    2.742466    0.271567    0.226118   -0.106560
O    -0.191451   -1.401535    1.749685    0.025391   -0.028858    0.004744
H    -1.073620   -0.624802    0.355415    0.043592   -0.016020   -0.004101
O    -1.362263   -0.173036   -0.468730    0.021838    0.022521    0.019086
H     0.288312    0.595020   -0.502232   -0.201352   -0.007922    0.251009
O     0.948736    1.169864    0.005839    0.054947   -0.086848    0.200917
H     1.048617    0.852472    0.528787   -0.425288    0.470734   -1.722209
O     1.397076    0.278805    2.103789   -0.237318   -0.059774   -0.084163
O     1.778783    1.481489    2.887749   -0.031212   -0.068450   -0.008647
H     2.686269    1.243021    3.140907   -0.003881   -0.069012   -0.160718
H    -1.845345   -0.833264   -0.984168    0.197197    0.027045   -0.175014
H     1.801785    1.284703   -0.494880    0.062284   -0.114004    0.106343
140
* Frequency(6) -576.3342
C     0.661960    5.118706   -0.126073   -0.008437   -0.006077   -0.001007
C    -4.262222    3.248120    0.336413    0.001060   -0.002726    0.000586
C    -4.904823   -1.806891   -0.678576    0.002319   -0.002128   -0.000879
C    -0.798691   -5.099261   -0.372252    0.001529    0.001256   -0.001052
C     4.176929   -3.307564    0.063844   -0.002517    0.005834   -0.006164
C     4.772447    1.880121   -0.666772   -0.019512    0.003304   -0.004904
O    -0.189164    4.006135   -0.007182    0.002959    0.002915    0.002430
O    -4.162144    2.252520   -0.630481   -0.002531   -0.002503    0.004871
O    -3.528629   -2.052499   -0.849203   -0.002873   -0.003396    0.001097
O     0.187160   -4.105357   -0.285896    0.000187   -0.003445   -0.004704
O     3.839835   -2.137147   -0.600111    0.004358   -0.006488    0.004479
O     3.410057    2.203308   -0.764279   -0.000882   -0.001895    0.009342
C     1.268983    5.148448   -1.542859    0.000904   -0.000687    0.000179
C    -3.907298    4.587030   -0.340411    0.003625   -0.001558    0.000009
C    -5.403256   -1.006033   -1.893022    0.001643    0.000997   -0.000691
C    -1.463568   -5.012949   -1.759251   -0.000666    0.000050   -0.001150
C     3.875444   -4.469429   -0.903571   -0.001455   -0.000515   -0.000593
C     5.161373    1.070503   -1.920101   -0.004962   -0.000039   -0.001654
O     0.314750    5.315383   -2.557691    0.001480    0.002627   -0.001226
O    -4.713204    4.834280   -1.457154   -0.000896   -0.000539    0.000936
O    -5.135553   -1.666532   -3.099134   -0.000261   -0.000169    0.000872
O    -0.586475   -5.249905   -2.823781   -0.001521   -0.000770    0.001107
O     4.589966   -4.323532   -2.098526   -0.001652    0.001667    0.001783
O     4.869752    1.770085   -3.096858   -0.000462    0.000424    0.003378
C     1.979333    3.804850   -1.751633   -0.006761   -0.006963   -0.003079
C    -2.423162    4.589713   -0.744595    0.002195   -0.004564   -0.001959
C    -4.758069    0.387261   -1.871950    0.002956    0.001159   -0.002354
C    -2.067805   -3.605703   -1.880630    0.001002    0.001768   -0.002024
C     2.364341   -4.489493   -1.188585   -0.001088    0.001837   -0.000315
C     4.428171   -0.279621   -1.880470   -0.009800    0.000445   -0.001583
O     2.672395    3.741223   -2.978481    0.006320    0.002289   -0.000469
O    -2.058878    5.867236   -1.227098   -0.000988    0.005008    0.001448
O    -5.299798    1.198979   -2.885184   -0.002750    0.000548   -0.001651
O    -2.746911   -3.423281   -3.097670   -0.000737   -0.000307    0.000336
O     2.005622   -5.637061   -1.926554   -0.002135   -0.001462    0.000709
O     4.848069   -1.124755   -2.929227    0.005857   -0.005779    0.000190
C     3.009969    3.563172   -0.642367   -0.006547   -0.004596    0.001594
C    -1.510913    4.212808    0.437581    0.008250   -0.004983   -0.001271
C    -4.976921    1.094093   -0.527093    0.000782    0.002115   -0.002196
C    -3.068416   -3.387739   -0.743198    0.000267    0.002379   -0.000754
C     1.509628   -4.456022    0.090190   -0.001313    0.003638    0.000768
C     4.705461   -1.009105   -0.560664   -0.003504    0.003025   -0.000502
C     2.445830    3.843679    0.765377   -0.004623    0.002719    0.003534
C    -2.033612    2.880332    0.992789    0.010694   -0.010564   -0.009793
C    -4.602274    0.172025    0.653222    0.002598    0.000068   -0.002596
C    -2.412732   -3.665397    0.622298    0.000361    0.001577   -0.000076
C     2.040664   -3.348943    1.008911   -0.007321    0.011507   -0.004780
C     4.427121   -0.098056    0.648256    0.000227    0.000515    0.003756
O     1.702404    5.062877    0.814281    0.002158    0.008488    0.007716
O    -3.384781    3.024986    1.421504   -0.001343   -0.001861    0.004069
O    -5.177332   -1.131593    0.508646   -0.002926   -0.002099    0.002640
O    -1.771970   -4.941396    0.626549   -0.002023   -0.001898    0.003637
O     3.428193   -3.476684    1.256442   -0.004193   -0.003264    0.010093
O     5.062680    1.175791    0.508799    0.000207   -0.000527    0.012077
C     3.581221    3.990444    1.785361   -0.001262    0.002911   -0.004559
C    -1.311839    2.360569    2.235963   -0.006492   -0.002226    0.002645
C    -5.168610    0.650171    2.001861    0.003370    0.001079   -0.004383
C    -3.455668   -3.715998    1.745211   -0.001332    0.001365   -0.003601
C     1.319152   -3.225563    2.349027   -0.023310    0.034227   -0.015654
C     4.982337   -0.687698    1.952196    0.007019   -0.003157   -0.007297
O     4.455662    5.038670    1.450141    0.004369    0.000983    0.002523
O    -1.402158    1.044947    2.253988    0.005042    0.006454    0.010817
O    -6.538522    0.946644    1.923234   -0.000902   -0.001152    0.001545
O    -4.435063   -4.689811    1.504418    0.000015   -0.001118    0.001503
O     1.898687   -2.278055    3.090804    0.009459    0.004008    0.012826
O     6.333280   -1.055232    1.841405    0.004853   -0.001342    0.004995
H     0.131645    6.055283    0.083308    0.005578    0.002712    0.000144
H    -5.267667    3.291786    0.775343   -0.000152    0.007428   -0.000322
H    -5.457248   -2.752312   -0.597525   -0.003719    0.000393   -0.000064
H    -0.375209   -6.097331   -0.204105   -0.004075   -0.001213    0.005635
H     5.227643   -3.322661    0.378881   -0.003201   -0.008804    0.002547
H     5.386934    2.787483   -0.608907   -0.001747   -0.007402   -0.003021
H     1.998419    5.973187   -1.581502   -0.007111    0.008679    0.012783
H    -4.090940    5.400873    0.369354   -0.000728   -0.004411    0.003748
H    -6.491787   -0.895799   -1.827021    0.000704   -0.004312    0.005617
H    -2.272341   -5.757200   -1.801128    0.001551   -0.004247    0.006426
H     4.181639   -5.418177   -0.452483   -0.001048    0.001538    0.005431
H     6.242923    0.892118   -1.914430   -0.002280    0.007354    0.013074
H    -0.529734    5.601020   -2.162321   -0.005764   -0.032274   -0.003375
H    -4.714586    4.032730   -2.005831    0.023704    0.000146   -0.004460
H    -4.245502   -2.063649   -3.060505    0.010863    0.018164   -0.004362
H     0.331213   -5.345156   -2.494546    0.004583    0.027533   -0.003295
H     4.502053   -3.396553   -2.390047   -0.024980    0.005967    0.003379
H     4.007873    2.222436   -2.994558   -0.039117   -0.053098   -0.000469
H     1.197745    3.036946   -1.719615   -0.022793    0.018084   -0.025732
H    -2.278284    3.838190   -1.534395   -0.005763    0.007479   -0.008495
H    -3.674075    0.280860   -2.019527   -0.002687    0.001756   -0.003737
H    -1.247433   -2.880149   -1.789340    0.005637   -0.010674    0.001602
H     2.119022   -3.584147   -1.763231   -0.001120   -0.004435   -0.002113
H     3.348116   -0.107743   -1.961391   -0.000814   -0.016751   -0.013084
H     2.063856    4.023049   -3.674616   -0.012729   -0.058942   -0.006603
H    -2.768843    6.165198   -1.817891    0.013909   -0.013287   -0.021609
H    -5.353626    0.656923   -3.686935    0.027976    0.007294   -0.007763
H    -2.195702   -3.804357   -3.798357    0.016659    0.027834   -0.002666
H     2.632330   -5.714100   -2.664236   -0.013772    0.023250   -0.012851
H     4.870930   -0.587055   -3.734300   -0.054543   -0.008665   -0.003598
H     3.864151    4.229491   -0.817953   -0.014387    0.008385    0.013489
H    -1.552102    4.986894    1.215723   -0.008804   -0.003757   -0.000023
H    -6.031524    1.391757   -0.434908   -0.002105   -0.006961    0.002577
H    -3.906208   -4.085168   -0.876024    0.003422   -0.004406    0.008706
H     1.531244   -5.427026    0.598736   -0.000248    0.005503    0.008408
H     5.752237   -1.342064   -0.540949   -0.000193    0.006232    0.002636
H     1.790049    3.032485    1.089506    0.006982    0.024255    0.075867
H    -1.965278    2.103939    0.218619   -0.003723   -0.022335    0.003682
H    -3.509446    0.096141    0.718492    0.001321   -0.008642    0.008105
H    -1.672294   -2.888215    0.852967    0.000494   -0.001763    0.024474
H     1.850203   -2.388883    0.505426    0.016404    0.010296   -0.009418
H     3.346902    0.011109    0.782666    0.007489   -0.036633    0.101863
H     4.182026    3.079262    1.798834   -0.000379    0.001767    0.003005
H     3.138778    4.150904    2.776755    0.012672   -0.001505    0.007281
H    -4.986439   -0.147948    2.732861    0.007111    0.007494    0.004882
H    -4.663631    1.555168    2.335383   -0.000810    0.002968   -0.002054
H    -3.974542   -2.757904    1.807962   -0.003535    0.000286   -0.001603
H    -2.927877   -3.908854    2.688292   -0.000972    0.011798    0.001670
H     4.857998    0.057297    2.748167    0.003006   -0.016179    0.011453
H     4.425205   -1.586987    2.223027    0.007165   -0.001080    0.002498
H     3.925032    5.844860    1.387116   -0.005120   -0.007154   -0.045123
H    -6.997017    0.138971    1.651545    0.004465    0.002850   -0.019844
H    -3.983831   -5.541306    1.411861    0.002333    0.001604   -0.018592
H     6.827164   -0.255942    1.606532   -0.010856   -0.001768   -0.040433
C     0.959744   -1.494394    3.820979    0.015856    0.027567    0.001244
H     1.536237   -0.872497    4.512585    0.016801   -0.069796    0.101890
H     0.243498   -2.138289    4.355300   -0.069941    0.016939   -0.118164
O     0.414203   -3.932278    2.729374    0.000643   -0.006330    0.006796
C    -0.790483    0.339805    3.335871    0.026200    0.006737   -0.013944
H    -1.570767   -0.222337    3.860690    0.059181   -0.129194   -0.103638
H    -0.307460    1.066038    4.006612   -0.092558    0.039266    0.047446
O    -0.782972    3.038743    3.078138   -0.011984    0.008518    0.013999
C     0.220169   -0.655509    2.741452    0.271567    0.226118   -0.106560
O    -0.191210   -1.401809    1.749730    0.025391   -0.028858    0.004744
H    -1.073206   -0.624954    0.355376    0.043592   -0.016020   -0.004101
O    -1.362055   -0.172822   -0.468549    0.021838    0.022521    0.019086
H     0.286396    0.594944   -0.499844   -0.201352   -0.007922    0.251009
O     0.949259    1.169037    0.007751    0.054947   -0.086848    0.200917
H     1.044571    0.856951    0.512401   -0.425288    0.470734   -1.722209
O     1.394818    0.278236    2.102988   -0.237318   -0.059774   -0.084163
O     1.778486    1.480838    2.887667   -0.031212   -0.068450   -0.008647
H     2.686232    1.242364    3.139378   -0.003881   -0.069012   -0.160718
H    -1.843468   -0.833007   -0.985833    0.197197    0.027045   -0.175014
H     1.802377    1.283618   -0.493868    0.062284   -0.114004    0.106343
140
* Frequency(6) -576.3342
C     0.662199    5.118878   -0.126045   -0.008437   -0.006077   -0.001007
C    -4.262252    3.248197    0.336397    0.001060   -0.002726    0.000586
C    -4.904889   -1.806831   -0.678551    0.002319   -0.002128   -0.000879
C    -0.798734   -5.099296   -0.372222    0.001529    0.001256   -0.001052
C     4.177000   -3.307729    0.064018   -0.002517    0.005834   -0.006164
C     4.772999    1.880028   -0.666633   -0.019512    0.003304   -0.004904
O    -0.189248    4.006052   -0.007250    0.002959    0.002915    0.002430
O    -4.162072    2.252591   -0.630619   -0.002531   -0.002503    0.004871
O    -3.528548   -2.052403   -0.849234   -0.002873   -0.003396    0.001097
O     0.187155   -4.105259   -0.285763    0.000187   -0.003445   -0.004704
O     3.839712   -2.136963   -0.600238    0.004358   -0.006488    0.004479
O     3.410082    2.203362   -0.764544   -0.000882   -0.001895    0.009342
C     1.268958    5.148468   -1.542864    0.000904   -0.000687    0.000179
C    -3.907400    4.587074   -0.340411    0.003625   -0.001558    0.000009
C    -5.403302   -1.006061   -1.893002    0.001643    0.000997   -0.000691
C    -1.463550   -5.012950   -1.759218   -0.000666    0.000050   -0.001150
C     3.875485   -4.469414   -0.903554   -0.001455   -0.000515   -0.000593
C     5.161513    1.070504   -1.920054   -0.004962   -0.000039   -0.001654
O     0.314708    5.315309   -2.557656    0.001480    0.002627   -0.001226
O    -4.713179    4.834295   -1.457181   -0.000896   -0.000539    0.000936
O    -5.135546   -1.666527   -3.099159   -0.000261   -0.000169    0.000872
O    -0.586432   -5.249883   -2.823812   -0.001521   -0.000770    0.001107
O     4.590013   -4.323579   -2.098577   -0.001652    0.001667    0.001783
O     4.869765    1.770073   -3.096953   -0.000462    0.000424    0.003378
C     1.979524    3.805047   -1.751546   -0.006761   -0.006963   -0.003079
C    -2.423224    4.589842   -0.744540    0.002195   -0.004564   -0.001959
C    -4.758153    0.387229   -1.871883    0.002956    0.001159   -0.002354
C    -2.067833   -3.605753   -1.880573    0.001002    0.001768   -0.002024
C     2.364372   -4.489545   -1.188576   -0.001088    0.001837   -0.000315
C     4.428448   -0.279633   -1.880425   -0.009800    0.000445   -0.001583
O     2.672216    3.741159   -2.978467    0.006320    0.002289   -0.000469
O    -2.058850    5.867094   -1.227139   -0.000988    0.005008    0.001448
O    -5.299720    1.198964   -2.885137   -0.002750    0.000548   -0.001651
O    -2.746890   -3.423272   -3.097679   -0.000737   -0.000307    0.000336
O     2.005683   -5.637020   -1.926574   -0.002135   -0.001462    0.000709
O     4.847903   -1.124591   -2.929232    0.005857   -0.005779    0.000190
C     3.010155    3.563302   -0.642412   -0.006547   -0.004596    0.001594
C    -1.511147    4.212949    0.437617    0.008250   -0.004983   -0.001271
C    -4.976943    1.094033   -0.527031    0.000782    0.002115   -0.002196
C    -3.068423   -3.387807   -0.743177    0.000267    0.002379   -0.000754
C     1.509665   -4.456125    0.090168   -0.001313    0.003638    0.000768
C     4.705560   -1.009190   -0.560650   -0.003504    0.003025   -0.000502
C     2.445961    3.843602    0.765277   -0.004623    0.002719    0.003534
C    -2.033914    2.880631    0.993066    0.010694   -0.010564   -0.009793
C    -4.602347    0.172023    0.653296    0.002598    0.000068   -0.002596
C    -2.412742   -3.665442    0.622300    0.000361    0.001577   -0.000076
C     2.040871   -3.349269    1.009046   -0.007321    0.011507   -0.004780
C     4.427115   -0.098070    0.648150    0.000227    0.000515    0.003756
O     1.702343    5.062636    0.814062    0.002158    0.008488    0.007716
O    -3.384743    3.025038    1.421389   -0.001343   -0.001861    0.004069
O    -5.177249   -1.131534    0.508571   -0.002926   -0.002099    0.002640
O    -1.771912   -4.941342    0.626446   -0.002023   -0.001898    0.003637
O     3.428312   -3.476592    1.256156   -0.004193   -0.003264    0.010093
O     5.062674    1.175806    0.508458    0.000207   -0.000527    0.012077
C     3.581257    3.990362    1.785490   -0.001262    0.002911   -0.004559
C    -1.311655    2.360632    2.235888   -0.006492   -0.002226    0.002645
C    -5.168706    0.650141    2.001985    0.003370    0.001079   -0.004383
C    -3.455631   -3.716036    1.745313   -0.001332    0.001365   -0.003601
C     1.319812   -3.226531    2.349470   -0.023310    0.034227   -0.015654
C     4.982139   -0.687609    1.952402    0.007019   -0.003157   -0.007297
O     4.455538    5.038642    1.450070    0.004369    0.000983    0.002523
O    -1.402301    1.044764    2.253682    0.005042    0.006454    0.010817
O    -6.538497    0.946677    1.923190   -0.000902   -0.001152    0.001545
O    -4.435063   -4.689779    1.504376    0.000015   -0.001118    0.001503
O     1.898419   -2.278168    3.090441    0.009459    0.004008    0.012826
O     6.333142   -1.055194    1.841264    0.004853   -0.001342    0.004995
H     0.131487    6.055206    0.083304    0.005578    0.002712    0.000144
H    -5.267663    3.291576    0.775352   -0.000152    0.007428   -0.000322
H    -5.457143   -2.752323   -0.597523   -0.003719    0.000393   -0.000064
H    -0.375094   -6.097297   -0.204265   -0.004075   -0.001213    0.005635
H     5.227734   -3.322412    0.378809   -0.003201   -0.008804    0.002547
H     5.386983    2.787692   -0.608821   -0.001747   -0.007402   -0.003021
H     1.998620    5.972942   -1.581864   -0.007111    0.008679    0.012783
H    -4.090919    5.400998    0.369248   -0.000728   -0.004411    0.003748
H    -6.491807   -0.895677   -1.827180    0.000704   -0.004312    0.005617
H    -2.272385   -5.757080   -1.801309    0.001551   -0.004247    0.006426
H     4.181668   -5.418221   -0.452636   -0.001048    0.001538    0.005431
H     6.242987    0.891910   -1.914799   -0.002280    0.007354    0.013074
H    -0.529571    5.601932   -2.162226   -0.005764   -0.032274   -0.003375
H    -4.715256    4.032726   -2.005705    0.023704    0.000146   -0.004460
H    -4.245809   -2.064163   -3.060382    0.010863    0.018164   -0.004362
H     0.331083   -5.345934   -2.494453    0.004583    0.027533   -0.003295
H     4.502759   -3.396722   -2.390143   -0.024980    0.005967    0.003379
H     4.008979    2.223938   -2.994544   -0.039117   -0.053098   -0.000469
H     1.198389    3.036434   -1.718888   -0.022793    0.018084   -0.025732
H    -2.278121    3.837978   -1.534155   -0.005763    0.007479   -0.008495
H    -3.673999    0.280811   -2.019422   -0.002687    0.001756   -0.003737
H    -1.247592   -2.879847   -1.789385    0.005637   -0.010674    0.001602
H     2.119054   -3.584021   -1.763171   -0.001120   -0.004435   -0.002113
H     3.348139   -0.107269   -1.961021   -0.000814   -0.016751   -0.013084
H     2.064216    4.024716   -3.674429   -0.012729   -0.058942   -0.006603
H    -2.769237    6.165574   -1.817280    0.013909   -0.013287   -0.021609
H    -5.354417    0.656717   -3.686715    0.027976    0.007294   -0.007763
H    -2.196173   -3.805145   -3.798282    0.016659    0.027834   -0.002666
H     2.632720   -5.714758   -2.663873   -0.013772    0.023250   -0.012851
H     4.872473   -0.586810   -3.734198   -0.054543   -0.008665   -0.003598
H     3.864558    4.229253   -0.818334   -0.014387    0.008385    0.013489
H    -1.551853    4.987000    1.215724   -0.008804   -0.003757   -0.000023
H    -6.031465    1.391954   -0.434981   -0.002105   -0.006961    0.002577
H    -3.906305   -4.085043   -0.876271    0.003422   -0.004406    0.008706
H     1.531251   -5.427182    0.598498   -0.000248    0.005503    0.008408
H     5.752242   -1.342240   -0.541023   -0.000193    0.006232    0.002636
H     1.789852    3.031799    1.087360    0.006982    0.024255    0.075867
H    -1.965172    2.104570    0.218515   -0.003723   -0.022335    0.003682
H    -3.509484    0.096385    0.718263    0.001321   -0.008642    0.008105
H    -1.672308   -2.888165    0.852274    0.000494   -0.001763    0.024474
H     1.849739   -2.389174    0.505692    0.016404    0.010296   -0.009418
H     3.346691    0.012145    0.779785    0.007489   -0.036633    0.101863
H     4.182037    3.079212    1.798749   -0.000379    0.001767    0.003005
H     3.138420    4.150946    2.776549    0.012672   -0.001505    0.007281
H    -4.986641   -0.148160    2.732723    0.007111    0.007494    0.004882
H    -4.663608    1.555084    2.335441   -0.000810    0.002968   -0.002054
H    -3.974442   -2.757912    1.808007   -0.003535    0.000286   -0.001603
H    -2.927850   -3.909187    2.688244   -0.000972    0.011798    0.001670
H     4.857913    0.057754    2.747843    0.003006   -0.016179    0.011453
H     4.425003   -1.586956    2.222957    0.007165   -0.001080    0.002498
H     3.925177    5.845062    1.388392   -0.005120   -0.007154   -0.045123
H    -6.997143    0.138891    1.652106    0.004465    0.002850   -0.019844
H    -3.983897   -5.541351    1.412387    0.002333    0.001604   -0.018592
H     6.827471   -0.255892    1.607675   -0.010856   -0.001768   -0.040433
C     0.959296   -1.495174    3.820944    0.015856    0.027567    0.001244
H     1.535762   -0.870523    4.509703    0.016801   -0.069796    0.101890
H     0.245476   -2.138769    4.358643   -0.069941    0.016939   -0.118164
O     0.414185   -3.932099    2.729182    0.000643   -0.006330    0.006796
C    -0.791224    0.339615    3.336265    0.026200    0.006737   -0.013944
H    -1.572441   -0.218683    3.863622    0.059181   -0.129194   -0.103638
H    -0.304842    1.064927    4.005270   -0.092558    0.039266    0.047446
O    -0.782633    3.038502    3.077742   -0.011984    0.008518    0.013999
C     0.212488   -0.661905    2.744466    0.271567    0.226118   -0.106560
O    -0.191928   -1.400993    1.749596    0.025391   -0.028858    0.004744
H    -1.074438   -0.624501    0.355492    0.043592   -0.016020   -0.004101
O    -1.362673   -0.173459   -0.469089    0.021838    0.022521    0.019086
H     0.292091    0.595168   -0.506943   -0.201352   -0.007922    0.251009
O     0.947705    1.171494    0.002068    0.054947   -0.086848    0.200917
H     1.056599    0.843637    0.561112   -0.425288    0.470734   -1.722209
O     1.401530    0.279927    2.105369   -0.237318   -0.059774   -0.084163
O     1.779369    1.482774    2.887912   -0.031212   -0.068450   -0.008647
H     2.686342    1.244316    3.143923   -0.003881   -0.069012   -0.160718
H    -1.849046   -0.833772   -0.980883    0.197197    0.027045   -0.175014
H     1.800616    1.286843   -0.496876    0.062284   -0.114004    0.106343
140
* Frequency(6) -576.3342
C     0.662730    5.119261   -0.125981   -0.008437   -0.006077   -0.001007
C    -4.262319    3.248369    0.336360    0.001060   -0.002726    0.000586
C    -4.905035   -1.806697   -0.678495    0.002319   -0.002128   -0.000879
C    -0.798830   -5.099376   -0.372156    0.001529    0.001256   -0.001052
C     4.177159   -3.308097    0.064407   -0.002517    0.005834   -0.006164
C     4.774229    1.879820   -0.666324   -0.019512    0.003304   -0.004904
O    -0.189434    4.005869   -0.007403    0.002959    0.002915    0.002430
O    -4.161913    2.252748   -0.630926   -0.002531   -0.002503    0.004871
O    -3.528367   -2.052189   -0.849303   -0.002873   -0.003396    0.001097
O     0.187143   -4.105042   -0.285466    0.000187   -0.003445   -0.004704
O     3.839437   -2.136555   -0.600520    0.004358   -0.006488    0.004479
O     3.410138    2.203481   -0.765132   -0.000882   -0.001895    0.009342
C     1.268901    5.148511   -1.542875    0.000904   -0.000687    0.000179
C    -3.907629    4.587172   -0.340412    0.003625   -0.001558    0.000009
C    -5.403406   -1.006124   -1.892959    0.001643    0.000997   -0.000691
C    -1.463508   -5.012953   -1.759146   -0.000666    0.000050   -0.001150
C     3.875576   -4.469382   -0.903517   -0.001455   -0.000515   -0.000593
C     5.161826    1.070507   -1.919950   -0.004962   -0.000039   -0.001654
O     0.314615    5.315144   -2.557579    0.001480    0.002627   -0.001226
O    -4.713123    4.834329   -1.457240   -0.000896   -0.000539    0.000936
O    -5.135529   -1.666516   -3.099214   -0.000261   -0.000169    0.000872
O    -0.586337   -5.249834   -2.823882   -0.001521   -0.000770    0.001107
O     4.590117   -4.323684   -2.098689   -0.001652    0.001667    0.001783
O     4.869794    1.770046   -3.097166   -0.000462    0.000424    0.003378
C     1.979950    3.805486   -1.751352   -0.006761   -0.006963   -0.003079
C    -2.423363    4.590130   -0.744417    0.002195   -0.004564   -0.001959
C    -4.758339    0.387156   -1.871735    0.002956    0.001159   -0.002354
C    -2.067896   -3.605865   -1.880445    0.001002    0.001768   -0.002024
C     2.364441   -4.489661   -1.188556   -0.001088    0.001837   -0.000315
C     4.429065   -0.279661   -1.880326   -0.009800    0.000445   -0.001583
O     2.671818    3.741014   -2.978438    0.006320    0.002289   -0.000469
O    -2.058787    5.866779   -1.227230   -0.000988    0.005008    0.001448
O    -5.299547    1.198929   -2.885033   -0.002750    0.000548   -0.001651
O    -2.746844   -3.423253   -3.097701   -0.000737   -0.000307    0.000336
O     2.005817   -5.636928   -1.926619   -0.002135   -0.001462    0.000709
O     4.847534   -1.124227   -2.929244    0.005857   -0.005779    0.000190
C     3.010567    3.563591   -0.642512   -0.006547   -0.004596    0.001594
C    -1.511667    4.213263    0.437697    0.008250   -0.004983   -0.001271
C    -4.976993    1.093900   -0.526893    0.000782    0.002115   -0.002196
C    -3.068440   -3.387957   -0.743129    0.000267    0.002379   -0.000754
C     1.509748   -4.456354    0.090120   -0.001313    0.003638    0.000768
C     4.705781   -1.009381   -0.560618   -0.003504    0.003025   -0.000502
C     2.446252    3.843431    0.765054   -0.004623    0.002719    0.003534
C    -2.034588    2.881297    0.993683    0.010694   -0.010564   -0.009793
C    -4.602511    0.172018    0.653459    0.002598    0.000068   -0.002596
C    -2.412765   -3.665541    0.622304    0.000361    0.001577   -0.000076
C     2.041332   -3.349994    1.009347   -0.007321    0.011507   -0.004780
C     4.427100   -0.098102    0.647913    0.000227    0.000515    0.003756
O     1.702207    5.062102    0.813576    0.002158    0.008488    0.007716
O    -3.384659    3.025156    1.421133   -0.001343   -0.001861    0.004069
O    -5.177064   -1.131401    0.508405   -0.002926   -0.002099    0.002640
O    -1.771785   -4.941223    0.626217   -0.002023   -0.001898    0.003637
O     3.428576   -3.476386    1.255520   -0.004193   -0.003264    0.010093
O     5.062661    1.175839    0.507697    0.000207   -0.000527    0.012077
C     3.581336    3.990179    1.785777   -0.001262    0.002911   -0.004559
C    -1.311246    2.360772    2.235721   -0.006492   -0.002226    0.002645
C    -5.168918    0.650073    2.002261    0.003370    0.001079   -0.004383
C    -3.455547   -3.716122    1.745540   -0.001332    0.001365   -0.003601
C     1.321281   -3.228688    2.350456   -0.023310    0.034227   -0.015654
C     4.981697   -0.687410    1.952862    0.007019   -0.003157   -0.007297
O     4.455263    5.038580    1.449911    0.004369    0.000983    0.002523
O    -1.402619    1.044357    2.253001    0.005042    0.006454    0.010817
O    -6.538440    0.946749    1.923093   -0.000902   -0.001152    0.001545
O    -4.435064   -4.689709    1.504281    0.000015   -0.001118    0.001503
O     1.897823   -2.278421    3.089633    0.009459    0.004008    0.012826
O     6.332837   -1.055110    1.840949    0.004853   -0.001342    0.004995
H     0.131135    6.055035    0.083295    0.005578    0.002712    0.000144
H    -5.267653    3.291108    0.775372   -0.000152    0.007428   -0.000322
H    -5.456909   -2.752348   -0.597519   -0.003719    0.000393   -0.000064
H    -0.374837   -6.097220   -0.204620   -0.004075   -0.001213    0.005635
H     5.227936   -3.321857    0.378649   -0.003201   -0.008804    0.002547
H     5.387093    2.788159   -0.608631   -0.001747   -0.007402   -0.003021
H     1.999068    5.972395   -1.582669   -0.007111    0.008679    0.012783
H    -4.090874    5.401276    0.369012   -0.000728   -0.004411    0.003748
H    -6.491852   -0.895405   -1.827534    0.000704   -0.004312    0.005617
H    -2.272483   -5.756813   -1.801714    0.001551   -0.004247    0.006426
H     4.181734   -5.418318   -0.452979   -0.001048    0.001538    0.005431
H     6.243131    0.891447   -1.915623   -0.002280    0.007354    0.013074
H    -0.529207    5.603966   -2.162013   -0.005764   -0.032274   -0.003375
H    -4.716750    4.032717   -2.005424    0.023704    0.000146   -0.004460
H    -4.246494   -2.065308   -3.060107    0.010863    0.018164   -0.004362
H     0.330794   -5.347669   -2.494246    0.004583    0.027533   -0.003295
H     4.504333   -3.397098   -2.390356   -0.024980    0.005967    0.003379
H     4.011444    2.227284   -2.994515   -0.039117   -0.053098   -0.000469
H     1.199826    3.035295   -1.717266   -0.022793    0.018084   -0.025732
H    -2.277758    3.837507   -1.533619   -0.005763    0.007479   -0.008495
H    -3.673830    0.280700   -2.019186   -0.002687    0.001756   -0.003737
H    -1.247948   -2.879175   -1.789486    0.005637   -0.010674    0.001602
H     2.119125   -3.583742   -1.763038   -0.001120   -0.004435   -0.002113
H     3.348190   -0.106213   -1.960196   -0.000814   -0.016751   -0.013084
H     2.065018    4.028430   -3.674013   -0.012729   -0.058942   -0.006603
H    -2.770113    6.166411   -1.815918    0.013909   -0.013287   -0.021609
H    -5.356180    0.656257   -3.686226    0.027976    0.007294   -0.007763
H    -2.197223   -3.806899   -3.798114    0.016659    0.027834   -0.002666
H     2.633588   -5.716223   -2.663063   -0.013772    0.023250   -0.012851
H     4.875910   -0.586264   -3.733971   -0.054543   -0.008665   -0.003598
H     3.865464    4.228725   -0.819184   -0.014387    0.008385    0.013489
H    -1.551298    4.987237    1.215725   -0.008804   -0.003757   -0.000023
H    -6.031332    1.392393   -0.435143   -0.002105   -0.006961    0.002577
H    -3.906521   -4.084766   -0.876819    0.003422   -0.004406    0.008706
H     1.531267   -5.427529    0.597968   -0.000248    0.005503    0.008408
H     5.752254   -1.342633   -0.541189   -0.000193    0.006232    0.002636
H     1.789412    3.030271    1.082579    0.006982    0.024255    0.075867
H    -1.964938    2.105978    0.218283   -0.003723   -0.022335    0.003682
H    -3.509567    0.096930    0.717752    0.001321   -0.008642    0.008105
H    -1.672339   -2.888054    0.850732    0.000494   -0.001763    0.024474
H     1.848705   -2.389823    0.506286    0.016404    0.010296   -0.009418
H     3.346219    0.014454    0.773366    0.007489   -0.036633    0.101863
H     4.182061    3.079101    1.798560   -0.000379    0.001767    0.003005
H     3.137621    4.151041    2.776090    0.012672   -0.001505    0.007281
H    -4.987089   -0.148632    2.732415    0.007111    0.007494    0.004882
H    -4.663557    1.554897    2.335570   -0.000810    0.002968   -0.002054
H    -3.974219   -2.757930    1.808108   -0.003535    0.000286   -0.001603
H    -2.927788   -3.909931    2.688139   -0.000972    0.011798    0.001670
H     4.857724    0.058774    2.747121    0.003006   -0.016179    0.011453
H     4.424551   -1.586888    2.222799    0.007165   -0.001080    0.002498
H     3.925500    5.845513    1.391236   -0.005120   -0.007154   -0.045123
H    -6.997424    0.138711    1.653357    0.004465    0.002850   -0.019844
H    -3.984044   -5.541452    1.413558    0.002333    0.001604   -0.018592
H     6.828156   -0.255780    1.610223   -0.010856   -0.001768   -0.040433
C     0.958297   -1.496911    3.820866    0.015856    0.027567    0.001244
H     1.534703   -0.866125    4.503282    0.016801   -0.069796    0.101890
H     0.249884   -2.139836    4.366089   -0.069941    0.016939   -0.118164
O     0.414145   -3.931700    2.728754    0.000643   -0.006330    0.006796
C    -0.792875    0.339190    3.337144    0.026200    0.006737   -0.013944
H    -1.576170   -0.210541    3.870153    0.059181   -0.129194   -0.103638
H    -0.299009    1.062453    4.002280   -0.092558    0.039266    0.047446
O    -0.781878    3.037965    3.076860   -0.011984    0.008518    0.013999
C     0.195375   -0.676154    2.751181    0.271567    0.226118   -0.106560
O    -0.193528   -1.399174    1.749297    0.025391   -0.028858    0.004744
H    -1.077186   -0.623491    0.355750    0.043592   -0.016020   -0.004101
O    -1.364049   -0.174878   -0.470291    0.021838    0.022521    0.019086
H     0.304780    0.595668   -0.522761   -0.201352   -0.007922    0.251009
O     0.944242    1.176967   -0.010593    0.054947   -0.086848    0.200917
H     1.083400    0.813972    0.669641   -0.425288    0.470734   -1.722209
O     1.416485    0.283694    2.110673   -0.237318   -0.059774   -0.084163
O     1.781336    1.487088    2.888457   -0.031212   -0.068450   -0.008647
H     2.686586    1.248665    3.154051   -0.003881   -0.069012   -0.160718
H    -1.861473   -0.835476   -0.969854    0.197197    0.027045   -0.175014
H     1.796691    1.294027   -0.503577    0.062284   -0.114004    0.106343
140
* Frequency(6) -576.3342
C     0.663498    5.119814   -0.125890   -0.008437   -0.006077   -0.001007
C    -4.262415    3.248617    0.336307    0.001060   -0.002726    0.000586
C    -4.905246   -1.806503   -0.678415    0.002319   -0.002128   -0.000879
C    -0.798969   -5.099490   -0.372060    0.001529    0.001256   -0.001052
C     4.177388   -3.308627    0.064967   -0.002517    0.005834   -0.006164
C     4.776003    1.879519   -0.665878   -0.019512    0.003304   -0.004904
O    -0.189703    4.005604   -0.007624    0.002959    0.002915    0.002430
O    -4.161683    2.252976   -0.631369   -0.002531   -0.002503    0.004871
O    -3.528106   -2.051881   -0.849403   -0.002873   -0.003396    0.001097
O     0.187126   -4.104729   -0.285039    0.000187   -0.003445   -0.004704
O     3.839041   -2.135965   -0.600927    0.004358   -0.006488    0.004479
O     3.410218    2.203653   -0.765982   -0.000882   -0.001895    0.009342
C     1.268819    5.148574   -1.542891    0.000904   -0.000687    0.000179
C    -3.907958    4.587314   -0.340412    0.003625   -0.001558    0.000009
C    -5.403555   -1.006215   -1.892896    0.001643    0.000997   -0.000691
C    -1.463447   -5.012958   -1.759042   -0.000666    0.000050   -0.001150
C     3.875709   -4.469335   -0.903463   -0.001455   -0.000515   -0.000593
C     5.162277    1.070510   -1.919800   -0.004962   -0.000039   -0.001654
O     0.314481    5.314905   -2.557467    0.001480    0.002627   -0.001226
O    -4.713041    4.834378   -1.457325   -0.000896   -0.000539    0.000936
O    -5.135506   -1.666501   -3.099293   -0.000261   -0.000169    0.000872
O    -0.586198   -5.249764   -2.823983   -0.001521   -0.000770    0.001107
O     4.590267   -4.323835   -2.098851   -0.001652    0.001667    0.001783
O     4.869836    1.770008   -3.097473   -0.000462    0.000424    0.003378
C     1.980565    3.806119   -1.751072   -0.006761   -0.006963   -0.003079
C    -2.423562    4.590545   -0.744238    0.002195   -0.004564   -0.001959
C    -4.758608    0.387050   -1.871521    0.002956    0.001159   -0.002354
C    -2.067987   -3.606026   -1.880261    0.001002    0.001768   -0.002024
C     2.364540   -4.489828   -1.188527   -0.001088    0.001837   -0.000315
C     4.429956   -0.279702   -1.880182   -0.009800    0.000445   -0.001583
O     2.671243    3.740806   -2.978395    0.006320    0.002289   -0.000469
O    -2.058698    5.866323   -1.227362   -0.000988    0.005008    0.001448
O    -5.299297    1.198879   -2.884883   -0.002750    0.000548   -0.001651
O    -2.746777   -3.423225   -3.097731   -0.000737   -0.000307    0.000336
O     2.006011   -5.636795   -1.926683   -0.002135   -0.001462    0.000709
O     4.847002   -1.123702   -2.929261    0.005857   -0.005779    0.000190
C     3.011162    3.564009   -0.642657   -0.006547   -0.004596    0.001594
C    -1.512417    4.213716    0.437812    0.008250   -0.004983   -0.001271
C    -4.977064    1.093707   -0.526693    0.000782    0.002115   -0.002196
C    -3.068465   -3.388173   -0.743061    0.000267    0.002379   -0.000754
C     1.509867   -4.456685    0.090050   -0.001313    0.003638    0.000768
C     4.706099   -1.009656   -0.560573   -0.003504    0.003025   -0.000502
C     2.446673    3.843184    0.764733   -0.004623    0.002719    0.003534
C    -2.035561    2.882257    0.994574    0.010694   -0.010564   -0.009793
C    -4.602747    0.172012    0.653696    0.002598    0.000068   -0.002596
C    -2.412798   -3.665684    0.622311    0.000361    0.001577   -0.000076
C     2.041998   -3.351040    1.009782   -0.007321    0.011507   -0.004780
C     4.427080   -0.098149    0.647572    0.000227    0.000515    0.003756
O     1.702011    5.061330    0.812874    0.002158    0.008488    0.007716
O    -3.384537    3.025325    1.420763   -0.001343   -0.001861    0.004069
O    -5.176798   -1.131211    0.508165   -0.002926   -0.002099    0.002640
O    -1.771601   -4.941050    0.625886   -0.002023   -0.001898    0.003637
O     3.428958   -3.476090    1.254602   -0.004193   -0.003264    0.010093
O     5.062642    1.175887    0.506599    0.000207   -0.000527    0.012077
C     3.581451    3.989914    1.786192   -0.001262    0.002911   -0.004559
C    -1.310655    2.360974    2.235481   -0.006492   -0.002226    0.002645
C    -5.169225    0.649975    2.002660    0.003370    0.001079   -0.004383
C    -3.455426   -3.716247    1.745867   -0.001332    0.001365   -0.003601
C     1.323400   -3.231800    2.351879   -0.023310    0.034227   -0.015654
C     4.981058   -0.687123    1.953525    0.007019   -0.003157   -0.007297
O     4.454866    5.038491    1.449681    0.004369    0.000983    0.002523
O    -1.403077    1.043771    2.252017    0.005042    0.006454    0.010817
O    -6.538358    0.946854    1.922952   -0.000902   -0.001152    0.001545
O    -4.435065   -4.689607    1.504144    0.000015   -0.001118    0.001503
O     1.896963   -2.278785    3.088467    0.009459    0.004008    0.012826
O     6.332395   -1.054988    1.840495    0.004853   -0.001342    0.004995
H     0.130628    6.054789    0.083282    0.005578    0.002712    0.000144
H    -5.267639    3.290432    0.775401   -0.000152    0.007428   -0.000322
H    -5.456571   -2.752384   -0.597514   -0.003719    0.000393   -0.000064
H    -0.374467   -6.097110   -0.205132   -0.004075   -0.001213    0.005635
H     5.228227   -3.321057    0.378417   -0.003201   -0.008804    0.002547
H     5.387252    2.788832   -0.608356   -0.001747   -0.007402   -0.003021
H     1.999714    5.971606   -1.583832   -0.007111    0.008679    0.012783
H    -4.090807    5.401677    0.368671   -0.000728   -0.004411    0.003748
H    -6.491916   -0.895013   -1.828044    0.000704   -0.004312    0.005617
H    -2.272624   -5.756426   -1.802299    0.001551   -0.004247    0.006426
H     4.181829   -5.418458   -0.453472   -0.001048    0.001538    0.005431
H     6.243338    0.890778   -1.916812   -0.002280    0.007354    0.013074
H    -0.528683    5.606901   -2.161706   -0.005764   -0.032274   -0.003375
H    -4.718905    4.032703   -2.005018    0.023704    0.000146   -0.004460
H    -4.247481   -2.066959   -3.059711    0.010863    0.018164   -0.004362
H     0.330377   -5.350173   -2.493946    0.004583    0.027533   -0.003295
H     4.506605   -3.397640   -2.390663   -0.024980    0.005967    0.003379
H     4.015001    2.232112   -2.994472   -0.039117   -0.053098   -0.000469
H     1.201898    3.033650   -1.714926   -0.022793    0.018084   -0.025732
H    -2.277234    3.836827   -1.532847   -0.005763    0.007479   -0.008495
H    -3.673586    0.280540   -2.018847   -0.002687    0.001756   -0.003737
H    -1.248460   -2.878204   -1.789632    0.005637   -0.010674    0.001602
H     2.119226   -3.583339   -1.762846   -0.001120   -0.004435   -0.002113
H     3.348264   -0.104690   -1.959007   -0.000814   -0.016751   -0.013084
H     2.066176    4.033789   -3.673413   -0.012729   -0.058942   -0.006603
H    -2.771378    6.167620   -1.813954    0.013909   -0.013287   -0.021609
H    -5.358724    0.655594   -3.685520    0.027976    0.007294   -0.007763
H    -2.198738   -3.809429   -3.797871    0.016659    0.027834   -0.002666
H     2.634840   -5.718337   -2.661895   -0.013772    0.023250   -0.012851
H     4.880869   -0.585476   -3.733644   -0.054543   -0.008665   -0.003598
H     3.866772    4.227963   -0.820411   -0.014387    0.008385    0.013489
H    -1.550498    4.987578    1.215727   -0.008804   -0.003757   -0.000023
H    -6.031141    1.393025   -0.435378   -0.002105   -0.006961    0.002577
H    -3.906832   -4.084365   -0.877611    0.003422   -0.004406    0.008706
H     1.531290   -5.428029    0.597204   -0.000248    0.005503    0.008408
H     5.752272   -1.343200   -0.541429   -0.000193    0.006232    0.002636
H     1.788777    3.028065    1.075681    0.006982    0.024255    0.075867
H    -1.964599    2.108008    0.217948   -0.003723   -0.022335    0.003682
H    -3.509687    0.097715    0.717015    0.001321   -0.008642    0.008105
H    -1.672384   -2.887894    0.848507    0.000494   -0.001763    0.024474
H     1.847214   -2.390759    0.507142    0.016404    0.010296   -0.009418
H     3.345538    0.017785    0.764104    0.007489   -0.036633    0.101863
H     4.182095    3.078940    1.798287   -0.000379    0.001767    0.003005
H     3.136469    4.151178    2.775428    0.012672   -0.001505    0.007281
H    -4.987735   -0.149314    2.731971    0.007111    0.007494    0.004882
H    -4.663483    1.554627    2.335757   -0.000810    0.002968   -0.002054
H    -3.973898   -2.757956    1.808254   -0.003535    0.000286   -0.001603
H    -2.927700   -3.911004    2.687987   -0.000972    0.011798    0.001670
H     4.857451    0.060245    2.746080    0.003006   -0.016179    0.011453
H     4.423900   -1.586790    2.222572    0.007165   -0.001080    0.002498
H     3.925965    5.846163    1.395338   -0.005120   -0.007154   -0.045123
H    -6.997830    0.138452    1.655161    0.004465    0.002850   -0.019844
H    -3.984256   -5.541598    1.415249    0.002333    0.001604   -0.018592
H     6.829143   -0.255619    1.613900   -0.010856   -0.001768   -0.040433
C     0.956855   -1.499418    3.820753    0.015856    0.027567    0.001244
H     1.533175   -0.859779    4.494018    0.016801   -0.069796    0.101890
H     0.256243   -2.141376    4.376833   -0.069941    0.016939   -0.118164
O     0.414086   -3.931125    2.728136    0.000643   -0.006330    0.006796
C    -0.795257    0.338578    3.338412    0.026200    0.006737   -0.013944
H    -1.581551   -0.198795    3.879576    0.059181   -0.129194   -0.103638
H    -0.290594    1.058882    3.997966   -0.092558    0.039266    0.047446
O    -0.780788    3.037191    3.075587   -0.011984    0.008518    0.013999
C     0.170684   -0.696713    2.760870    0.271567    0.226118   -0.106560
O    -0.195836   -1.396550    1.748865    0.025391   -0.028858    0.004744
H    -1.081149   -0.622035    0.356123    0.043592   -0.016020   -0.004101
O    -1.366035   -0.176926   -0.472027    0.021838    0.022521    0.019086
H     0.323087    0.596388   -0.545583   -0.201352   -0.007922    0.251009
O     0.939246    1.184863   -0.028861    0.054947   -0.086848    0.200917
H     1.122068    0.771172    0.826227   -0.425288    0.470734   -1.722209
O     1.438063    0.289128    2.118325   -0.237318   -0.059774   -0.084163
O     1.784174    1.493311    2.889243   -0.031212   -0.068450   -0.008647
H     2.686939    1.254940    3.168664   -0.003881   -0.069012   -0.160718
H    -1.879402   -0.837935   -0.953942    0.197197    0.027045   -0.175014
H     1.791028    1.304392   -0.513246    0.062284   -0.114004    0.106343
140
* Frequency(6) -576.3342
C     0.664417    5.120476   -0.125780   -0.008437   -0.006077   -0.001007
C    -4.262531    3.248914    0.336243    0.001060   -0.002726    0.000586
C    -4.905498   -1.806272   -0.678319    0.002319   -0.002128   -0.000879
C    -0.799136   -5.099627   -0.371946    0.001529    0.001256   -0.001052
C     4.177662   -3.309263    0.065639   -0.002517    0.005834   -0.006164
C     4.778129    1.879159   -0.665344   -0.019512    0.003304   -0.004904
O    -0.190026    4.005286   -0.007889    0.002959    0.002915    0.002430
O    -4.161407    2.253249   -0.631899   -0.002531   -0.002503    0.004871
O    -3.527792   -2.051511   -0.849522   -0.002873   -0.003396    0.001097
O     0.187106   -4.104353   -0.284526    0.000187   -0.003445   -0.004704
O     3.838566   -2.135258   -0.601415    0.004358   -0.006488    0.004479
O     3.410314    2.203860   -0.767000   -0.000882   -0.001895    0.009342
C     1.268720    5.148648   -1.542911    0.000904   -0.000687    0.000179
C    -3.908353    4.587483   -0.340413    0.003625   -0.001558    0.000009
C    -5.403734   -1.006324   -1.892821    0.001643    0.000997   -0.000691
C    -1.463374   -5.012963   -1.758916   -0.000666    0.000050   -0.001150
C     3.875867   -4.469279   -0.903398   -0.001455   -0.000515   -0.000593
C     5.162818    1.070515   -1.919619   -0.004962   -0.000039   -0.001654
O     0.314319    5.314618   -2.557334    0.001480    0.002627   -0.001226
O    -4.712944    4.834437   -1.457427   -0.000896   -0.000539    0.000936
O    -5.135477   -1.666483   -3.099388   -0.000261   -0.000169    0.000872
O    -0.586033   -5.249680   -2.824103   -0.001521   -0.000770    0.001107
O     4.590447   -4.324017   -2.099045   -0.001652    0.001667    0.001783
O     4.869886    1.769961   -3.097841   -0.000462    0.000424    0.003378
C     1.981302    3.806878   -1.750736   -0.006761   -0.006963   -0.003079
C    -2.423802    4.591042   -0.744025    0.002195   -0.004564   -0.001959
C    -4.758930    0.386924   -1.871264    0.002956    0.001159   -0.002354
C    -2.068096   -3.606218   -1.880041    0.001002    0.001768   -0.002024
C     2.364658   -4.490028   -1.188493   -0.001088    0.001837   -0.000315
C     4.431024   -0.279750   -1.880009   -0.009800    0.000445   -0.001583
O     2.670554    3.740557   -2.978344    0.006320    0.002289   -0.000469
O    -2.058590    5.865777   -1.227520   -0.000988    0.005008    0.001448
O    -5.298997    1.198820   -2.884703   -0.002750    0.000548   -0.001651
O    -2.746697   -3.423192   -3.097768   -0.000737   -0.000307    0.000336
O     2.006244   -5.636635   -1.926760   -0.002135   -0.001462    0.000709
O     4.846363   -1.123072   -2.929282    0.005857   -0.005779    0.000190
C     3.011876    3.564510   -0.642831   -0.006547   -0.004596    0.001594
C    -1.513316    4.214259    0.437951    0.008250   -0.004983   -0.001271
C    -4.977149    1.093477   -0.526453    0.000782    0.002115   -0.002196
C    -3.068494   -3.388432   -0.742978    0.000267    0.002379   -0.000754
C     1.510010   -4.457081    0.089966   -0.001313    0.003638    0.000768
C     4.706481   -1.009986   -0.560518   -0.003504    0.003025   -0.000502
C     2.447177    3.842888    0.764348   -0.004623    0.002719    0.003534
C    -2.036726    2.883408    0.995641    0.010694   -0.010564   -0.009793
C    -4.603030    0.172005    0.653978    0.002598    0.000068   -0.002596
C    -2.412837   -3.665856    0.622320    0.000361    0.001577   -0.000076
C     2.042795   -3.352294    1.010303   -0.007321    0.011507   -0.004780
C     4.427055   -0.098205    0.647162    0.000227    0.000515    0.003756
O     1.701775    5.060405    0.812034    0.002158    0.008488    0.007716
O    -3.384390    3.025528    1.420319   -0.001343   -0.001861    0.004069
O    -5.176480   -1.130982    0.507877   -0.002926   -0.002099    0.002640
O    -1.771381   -4.940843    0.625490   -0.002023   -0.001898    0.003637
O     3.429414   -3.475734    1.253502   -0.004193   -0.003264    0.010093
O     5.062620    1.175945    0.505283    0.000207   -0.000527    0.012077
C     3.581588    3.989597    1.786688   -0.001262    0.002911   -0.004559
C    -1.309948    2.361217    2.235192   -0.006492   -0.002226    0.002645
C    -5.169592    0.649857    2.003138    0.003370    0.001079   -0.004383
C    -3.455281   -3.716395    1.746260   -0.001332    0.001365   -0.003601
C     1.325940   -3.235530    2.353585   -0.023310    0.034227   -0.015654
C     4.980293   -0.686779    1.954321    0.007019   -0.003157   -0.007297
O     4.454390    5.038384    1.449406    0.004369    0.000983    0.002523
O    -1.403627    1.043067    2.250838    0.005042    0.006454    0.010817
O    -6.538260    0.946980    1.922784   -0.000902   -0.001152    0.001545
O    -4.435067   -4.689485    1.503981    0.000015   -0.001118    0.001503
O     1.895933   -2.279222    3.087069    0.009459    0.004008    0.012826
O     6.331867   -1.054841    1.839951    0.004853   -0.001342    0.004995
H     0.130020    6.054493    0.083266    0.005578    0.002712    0.000144
H    -5.267623    3.289623    0.775436   -0.000152    0.007428   -0.000322
H    -5.456165   -2.752426   -0.597507   -0.003719    0.000393   -0.000064
H    -0.374023   -6.096978   -0.205746   -0.004075   -0.001213    0.005635
H     5.228576   -3.320097    0.378140   -0.003201   -0.008804    0.002547
H     5.387442    2.789639   -0.608027   -0.001747   -0.007402   -0.003021
H     2.000489    5.970660   -1.585225   -0.007111    0.008679    0.012783
H    -4.090728    5.402158    0.368263   -0.000728   -0.004411    0.003748
H    -6.491992   -0.894543   -1.828656    0.000704   -0.004312    0.005617
H    -2.272793   -5.755964   -1.802999    0.001551   -0.004247    0.006426
H     4.181944   -5.418625   -0.454064   -0.001048    0.001538    0.005431
H     6.243587    0.889977   -1.918237   -0.002280    0.007354    0.013074
H    -0.528055    5.610418   -2.161338   -0.005764   -0.032274   -0.003375
H    -4.721488    4.032687   -2.004532    0.023704    0.000146   -0.004460
H    -4.248665   -2.068939   -3.059235    0.010863    0.018164   -0.004362
H     0.329878   -5.353173   -2.493587    0.004583    0.027533   -0.003295
H     4.509327   -3.398290   -2.391031   -0.024980    0.005967    0.003379
H     4.019264    2.237898   -2.994421   -0.039117   -0.053098   -0.000469
H     1.204382    3.031680   -1.712122   -0.022793    0.018084   -0.025732
H    -2.276606    3.836012   -1.531921   -0.005763    0.007479   -0.008495
H    -3.673293    0.280349   -2.018439   -0.002687    0.001756   -0.003737
H    -1.249074   -2.877041   -1.789807    0.005637   -0.010674    0.001602
H     2.119348   -3.582855   -1.762616   -0.001120   -0.004435   -0.002113
H     3.348353   -0.102865   -1.957581   -0.000814   -0.016751   -0.013084
H     2.067563    4.040212   -3.672693   -0.012729   -0.058942   -0.006603
H    -2.772894    6.169068   -1.811599    0.013909   -0.013287   -0.021609
H    -5.361772    0.654799   -3.684674    0.027976    0.007294   -0.007763
H    -2.200553   -3.812463   -3.797581    0.016659    0.027834   -0.002666
H     2.636341   -5.720871   -2.660494   -0.013772    0.023250   -0.012851
H     4.886813   -0.584532   -3.733252   -0.054543   -0.008665   -0.003598
H     3.868340    4.227049   -0.821881   -0.014387    0.008385    0.013489
H    -1.549538    4.987988    1.215730   -0.008804   -0.003757   -0.000023
H    -6.030911    1.393784   -0.435659   -0.002105   -0.006961    0.002577
H    -3.907205   -4.083885   -0.878559    0.003422   -0.004406    0.008706
H     1.531317   -5.428629    0.596287   -0.000248    0.005503    0.008408
H     5.752293   -1.343879   -0.541716   -0.000193    0.006232    0.002636
H     1.788016    3.025422    1.067414    0.006982    0.024255    0.075867
H    -1.964193    2.110442    0.217547   -0.003723   -0.022335    0.003682
H    -3.509831    0.098657    0.716132    0.001321   -0.008642    0.008105
H    -1.672438   -2.887702    0.845840    0.000494   -0.001763    0.024474
H     1.845426   -2.391881    0.508168    0.016404    0.010296   -0.009418
H     3.344721    0.021777    0.753004    0.007489   -0.036633    0.101863
H     4.182136    3.078748    1.797959   -0.000379    0.001767    0.003005
H     3.135088    4.151342    2.774634    0.012672   -0.001505    0.007281
H    -4.988510   -0.150130    2.731439    0.007111    0.007494    0.004882
H    -4.663395    1.554304    2.335981   -0.000810    0.002968   -0.002054
H    -3.973513   -2.757988    1.808429   -0.003535    0.000286   -0.001603
H    -2.927594   -3.912289    2.687805   -0.000972    0.011798    0.001670
H     4.857123    0.062008    2.744832    0.003006   -0.016179    0.011453
H     4.423119   -1.586672    2.222300    0.007165   -0.001080    0.002498
H     3.926523    5.846943    1.400256   -0.005120   -0.007154   -0.045123
H    -6.998317    0.138141    1.657324    0.004465    0.002850   -0.019844
H    -3.984511   -5.541773    1.417275    0.002333    0.001604   -0.018592
H     6.830326   -0.255427    1.618306   -0.010856   -0.001768   -0.040433
C     0.955127   -1.502422    3.820617    0.015856    0.027567    0.001244
H     1.531345   -0.852173    4.482915    0.016801   -0.069796    0.101890
H     0.263864   -2.143222    4.389709   -0.069941    0.016939   -0.118164
O     0.414016   -3.930435    2.727396    0.000643   -0.006330    0.006796
C    -0.798113    0.337844    3.339932    0.026200    0.006737   -0.013944
H    -1.588000   -0.184716    3.890869    0.059181   -0.129194   -0.103638
H    -0.280508    1.054604    3.992795   -0.092558    0.039266    0.047446
O    -0.779482    3.036263    3.074061   -0.011984    0.008518    0.013999
C     0.141090   -0.721354    2.772482    0.271567    0.226118   -0.106560
O    -0.198603   -1.393406    1.748348    0.025391   -0.028858    0.004744
H    -1.085899   -0.620289    0.356570    0.043592   -0.016020   -0.004101
O    -1.368414   -0.179380   -0.474107    0.021838    0.022521    0.019086
H     0.345029    0.597251   -0.572937   -0.201352   -0.007922    0.251009
O     0.933259    1.194327   -0.050755    0.054947   -0.086848    0.200917
H     1.168413    0.719875    1.013903   -0.425288    0.470734   -1.722209
O     1.463924    0.295642    2.127496   -0.237318   -0.059774   -0.084163
O     1.787575    1.500771    2.890185   -0.031212   -0.068450   -0.008647
H     2.687362    1.262461    3.186178   -0.003881   -0.069012   -0.160718
H    -1.900891   -0.840882   -0.934870    0.197197    0.027045   -0.175014
H     1.784240    1.316816   -0.524835    0.062284   -0.114004    0.106343
140
* Frequency(6) -576.3342
C     0.665389    5.121176   -0.125664   -0.008437   -0.006077   -0.001007
C    -4.262653    3.249228    0.336175    0.001060   -0.002726    0.000586
C    -4.905766   -1.806026   -0.678218    0.002319   -0.002128   -0.000879
C    -0.799312   -5.099771   -0.371824    0.001529    0.001256   -0.001052
C     4.177952   -3.309935    0.066349   -0.002517    0.005834   -0.006164
C     4.780377    1.878779   -0.664778   -0.019512    0.003304   -0.004904
O    -0.190366    4.004950   -0.008169    0.002959    0.002915    0.002430
O    -4.161115    2.253537   -0.632461   -0.002531   -0.002503    0.004871
O    -3.527461   -2.051119   -0.849649   -0.002873   -0.003396    0.001097
O     0.187084   -4.103957   -0.283984    0.000187   -0.003445   -0.004704
O     3.838064   -2.134510   -0.601931    0.004358   -0.006488    0.004479
O     3.410416    2.204078   -0.768076   -0.000882   -0.001895    0.009342
C     1.268616    5.148728   -1.542931    0.000904   -0.000687    0.000179
C    -3.908771    4.587663   -0.340415    0.003625   -0.001558    0.000009
C    -5.403924   -1.006438   -1.892741    0.001643    0.000997   -0.000691
C    -1.463298   -5.012969   -1.758784   -0.000666    0.000050   -0.001150
C     3.876035   -4.469219   -0.903330   -0.001455   -0.000515   -0.000593
C     5.163390    1.070519   -1.919429   -0.004962   -0.000039   -0.001654
O     0.314149    5.314316   -2.557192    0.001480    0.002627   -0.001226
O    -4.712840    4.834499   -1.457535   -0.000896   -0.000539    0.000936
O    -5.135447   -1.666463   -3.099488   -0.000261   -0.000169    0.000872
O    -0.585857   -5.249592   -2.824231   -0.001521   -0.000770    0.001107
O     4.590637   -4.324209   -2.099251   -0.001652    0.001667    0.001783
O     4.869940    1.769913   -3.098231   -0.000462    0.000424    0.003378
C     1.982080    3.807680   -1.750382   -0.006761   -0.006963   -0.003079
C    -2.424054    4.591568   -0.743799    0.002195   -0.004564   -0.001959
C    -4.759270    0.386790   -1.870993    0.002956    0.001159   -0.002354
C    -2.068212   -3.606422   -1.879808    0.001002    0.001768   -0.002024
C     2.364784   -4.490240   -1.188457   -0.001088    0.001837   -0.000315
C     4.432154   -0.279802   -1.879827   -0.009800    0.000445   -0.001583
O     2.669826    3.740293   -2.978290    0.006320    0.002289   -0.000469
O    -2.058476    5.865201   -1.227686   -0.000988    0.005008    0.001448
O    -5.298681    1.198756   -2.884513   -0.002750    0.000548   -0.001651
O    -2.746612   -3.423156   -3.097806   -0.000737   -0.000307    0.000336
O     2.006490   -5.636467   -1.926842   -0.002135   -0.001462    0.000709
O     4.845689   -1.122406   -2.929304    0.005857   -0.005779    0.000190
C     3.012630    3.565040   -0.643015   -0.006547   -0.004596    0.001594
C    -1.514266    4.214833    0.438097    0.008250   -0.004983   -0.001271
C    -4.977239    1.093233   -0.526200    0.000782    0.002115   -0.002196
C    -3.068524   -3.388706   -0.742891    0.000267    0.002379   -0.000754
C     1.510162   -4.457501    0.089878   -0.001313    0.003638    0.000768
C     4.706885   -1.010334   -0.560460   -0.003504    0.003025   -0.000502
C     2.447709    3.842574    0.763940   -0.004623    0.002719    0.003534
C    -2.037958    2.884626    0.996769    0.010694   -0.010564   -0.009793
C    -4.603330    0.171997    0.654278    0.002598    0.000068   -0.002596
C    -2.412879   -3.666038    0.622328    0.000361    0.001577   -0.000076
C     2.043639   -3.353620    1.010853   -0.007321    0.011507   -0.004780
C     4.427029   -0.098265    0.646730    0.000227    0.000515    0.003756
O     1.701527    5.059427    0.811144    0.002158    0.008488    0.007716
O    -3.384236    3.025742    1.419851   -0.001343   -0.001861    0.004069
O    -5.176142   -1.130740    0.507573   -0.002926   -0.002099    0.002640
O    -1.771147   -4.940625    0.625070   -0.002023   -0.001898    0.003637
O     3.429898   -3.475358    1.252340   -0.004193   -0.003264    0.010093
O     5.062596    1.176005    0.503891    0.000207   -0.000527    0.012077
C     3.581734    3.989261    1.787214   -0.001262    0.002911   -0.004559
C    -1.309200    2.361473    2.234888   -0.006492   -0.002226    0.002645
C    -5.169980    0.649733    2.003642    0.003370    0.001079   -0.004383
C    -3.455127   -3.716553    1.746674   -0.001332    0.001365   -0.003601
C     1.328626   -3.239474    2.355389   -0.023310    0.034227   -0.015654
C     4.979485   -0.686415    1.955161    0.007019   -0.003157   -0.007297
O     4.453886    5.038270    1.449116    0.004369    0.000983    0.002523
O    -1.404207    1.042324    2.249592    0.005042    0.006454    0.010817
O    -6.538156    0.947112    1.922606   -0.000902   -0.001152    0.001545
O    -4.435069   -4.689357    1.503807    0.000015   -0.001118    0.001503
O     1.894843   -2.279683    3.085592    0.009459    0.004008    0.012826
O     6.331307   -1.054687    1.839375    0.004853   -0.001342    0.004995
H     0.129378    6.054181    0.083250    0.005578    0.002712    0.000144
H    -5.267605    3.288767    0.775474   -0.000152    0.007428   -0.000322
H    -5.455737   -2.752472   -0.597499   -0.003719    0.000393   -0.000064
H    -0.373553   -6.096838   -0.206396   -0.004075   -0.001213    0.005635
H     5.228944   -3.319083    0.377846   -0.003201   -0.008804    0.002547
H     5.387644    2.790491   -0.607679   -0.001747   -0.007402   -0.003021
H     2.001309    5.969660   -1.586697   -0.007111    0.008679    0.012783
H    -4.090644    5.402666    0.367831   -0.000728   -0.004411    0.003748
H    -6.492074   -0.894047   -1.829304    0.000704   -0.004312    0.005617
H    -2.272971   -5.755474   -1.803739    0.001551   -0.004247    0.006426
H     4.182064   -5.418803   -0.454690   -0.001048    0.001538    0.005431
H     6.243849    0.889129   -1.919743   -0.002280    0.007354    0.013074
H    -0.527391    5.614136   -2.160950   -0.005764   -0.032274   -0.003375
H    -4.724220    4.032671   -2.004018    0.023704    0.000146   -0.004460
H    -4.249917   -2.071031   -3.058733    0.010863    0.018164   -0.004362
H     0.329350   -5.356345   -2.493207    0.004583    0.027533   -0.003295
H     4.512205   -3.398978   -2.391421   -0.024980    0.005967    0.003379
H     4.023770    2.244016   -2.994367   -0.039117   -0.053098   -0.000469
H     1.207008    3.029596   -1.709158   -0.022793    0.018084   -0.025732
H    -2.275942    3.835150   -1.530943   -0.005763    0.007479   -0.008495
H    -3.672983    0.280146   -2.018009   -0.002687    0.001756   -0.003737
H    -1.249724   -2.875811   -1.789991    0.005637   -0.010674    0.001602
H     2.119478   -3.582345   -1.762372   -0.001120   -0.004435   -0.002113
H     3.348447   -0.100935   -1.956073   -0.000814   -0.016751   -0.013084
H     2.069029    4.047004   -3.671933   -0.012729   -0.058942   -0.006603
H    -2.774496    6.170598   -1.809109    0.013909   -0.013287   -0.021609
H    -5.364996    0.653959   -3.683780    0.027976    0.007294   -0.007763
H    -2.202473   -3.815669   -3.797273    0.016659    0.027834   -0.002666
H     2.637927   -5.723549   -2.659014   -0.013772    0.023250   -0.012851
H     4.893097   -0.583534   -3.732838   -0.054543   -0.008665   -0.003598
H     3.869998    4.226083   -0.823435   -0.014387    0.008385    0.013489
H    -1.548524    4.988420    1.215732   -0.008804   -0.003757   -0.000023
H    -6.030669    1.394586   -0.435955   -0.002105   -0.006961    0.002577
H    -3.907599   -4.083377   -0.879563    0.003422   -0.004406    0.008706
H     1.531345   -5.429263    0.595319   -0.000248    0.005503    0.008408
H     5.752315   -1.344597   -0.542020   -0.000193    0.006232    0.002636
H     1.787212    3.022628    1.058672    0.006982    0.024255    0.075867
H    -1.963765    2.113016    0.217123   -0.003723   -0.022335    0.003682
H    -3.509983    0.099653    0.715198    0.001321   -0.008642    0.008105
H    -1.672494   -2.887498    0.843020    0.000494   -0.001763    0.024474
H     1.843536   -2.393067    0.509254    0.016404    0.010296   -0.009418
H     3.343859    0.025997    0.741268    0.007489   -0.036633    0.101863
H     4.182180    3.078544    1.797613   -0.000379    0.001767    0.003005
H     3.133628    4.151516    2.773796    0.012672   -0.001505    0.007281
H    -4.989330   -0.150994    2.730877    0.007111    0.007494    0.004882
H    -4.663301    1.553962    2.336217   -0.000810    0.002968   -0.002054
H    -3.973105   -2.758020    1.808613   -0.003535    0.000286   -0.001603
H    -2.927482   -3.913649    2.687613   -0.000972    0.011798    0.001670
H     4.856777    0.063872    2.743512    0.003006   -0.016179    0.011453
H     4.422293   -1.586548    2.222012    0.007165   -0.001080    0.002498
H     3.927113    5.847767    1.405454   -0.005120   -0.007154   -0.045123
H    -6.998831    0.137813    1.659610    0.004465    0.002850   -0.019844
H    -3.984779   -5.541957    1.419417    0.002333    0.001604   -0.018592
H     6.831576   -0.255223    1.622964   -0.010856   -0.001768   -0.040433
C     0.953301   -1.505598    3.820474    0.015856    0.027567    0.001244
H     1.529409   -0.844131    4.471176    0.016801   -0.069796    0.101890
H     0.271923   -2.145174    4.403324   -0.069941    0.016939   -0.118164
O     0.413942   -3.929705    2.726613    0.000643   -0.006330    0.006796
C    -0.801131    0.337067    3.341538    0.026200    0.006737   -0.013944
H    -1.594819   -0.169831    3.902810    0.059181   -0.129194   -0.103638
H    -0.269843    1.050080    3.987329   -0.092558    0.039266    0.047446
O    -0.778102    3.035281    3.072449   -0.011984    0.008518    0.013999
C     0.109801   -0.747407    2.784759    0.271567    0.226118   -0.106560
O    -0.201529   -1.390081    1.747802    0.025391   -0.028858    0.004744
H    -1.090922   -0.618443    0.357042    0.043592   -0.016020   -0.004101
O    -1.370931   -0.181975   -0.476306    0.021838    0.022521    0.019086
H     0.368229    0.598164   -0.601857   -0.201352   -0.007922    0.251009
O     0.926928    1.204333   -0.073904    0.054947   -0.086848    0.200917
H     1.217413    0.665639    1.212329   -0.425288    0.470734   -1.722209
O     1.491267    0.302529    2.137193   -0.237318   -0.059774   -0.084163
O     1.791171    1.508657    2.891181   -0.031212   -0.068450   -0.008647
H     2.687809    1.270412    3.204695   -0.003881   -0.069012   -0.160718
H    -1.923612   -0.843998   -0.914705    0.197197    0.027045   -0.175014
H     1.777064    1.329951   -0.537087    0.062284   -0.114004    0.106343
140
* Frequency(6) -576.3342
C     0.666308    5.121838   -0.125554   -0.008437   -0.006077   -0.001007
C    -4.262769    3.249525    0.336111    0.001060   -0.002726    0.000586
C    -4.906018   -1.805795   -0.678122    0.002319   -0.002128   -0.000879
C    -0.799479   -5.099908   -0.371710    0.001529    0.001256   -0.001052
C     4.178226   -3.310571    0.067021   -0.002517    0.005834   -0.006164
C     4.782503    1.878419   -0.664244   -0.019512    0.003304   -0.004904
O    -0.190689    4.004632   -0.008434    0.002959    0.002915    0.002430
O    -4.160839    2.253810   -0.632991   -0.002531   -0.002503    0.004871
O    -3.527148   -2.050749   -0.849768   -0.002873   -0.003396    0.001097
O     0.187064   -4.103581   -0.283471    0.000187   -0.003445   -0.004704
O     3.837589   -2.133803   -0.602419    0.004358   -0.006488    0.004479
O     3.410512    2.204285   -0.769094   -0.000882   -0.001895    0.009342
C     1.268517    5.148802   -1.542951    0.000904   -0.000687    0.000179
C    -3.909166    4.587832   -0.340416    0.003625   -0.001558    0.000009
C    -5.404103   -1.006547   -1.892666    0.001643    0.000997   -0.000691
C    -1.463225   -5.012974   -1.758659   -0.000666    0.000050   -0.001150
C     3.876193   -4.469163   -0.903265   -0.001455   -0.000515   -0.000593
C     5.163931    1.070524   -1.919248   -0.004962   -0.000039   -0.001654
O     0.313987    5.314029   -2.557059    0.001480    0.002627   -0.001226
O    -4.712743    4.834558   -1.457637   -0.000896   -0.000539    0.000936
O    -5.135418   -1.666445   -3.099583   -0.000261   -0.000169    0.000872
O    -0.585692   -5.249508   -2.824351   -0.001521   -0.000770    0.001107
O     4.590817   -4.324391   -2.099445   -0.001652    0.001667    0.001783
O     4.869990    1.769866   -3.098599   -0.000462    0.000424    0.003378
C     1.982817    3.808439   -1.750046   -0.006761   -0.006963   -0.003079
C    -2.424294    4.592065   -0.743586    0.002195   -0.004564   -0.001959
C    -4.759592    0.386664   -1.870737    0.002956    0.001159   -0.002354
C    -2.068321   -3.606614   -1.879587    0.001002    0.001768   -0.002024
C     2.364902   -4.490440   -1.188423   -0.001088    0.001837   -0.000315
C     4.433222   -0.279850   -1.879654   -0.009800    0.000445   -0.001583
O     2.669137    3.740044   -2.978239    0.006320    0.002289   -0.000469
O    -2.058368    5.864655   -1.227844   -0.000988    0.005008    0.001448
O    -5.298381    1.198697   -2.884333   -0.002750    0.000548   -0.001651
O    -2.746531   -3.423123   -3.097843   -0.000737   -0.000307    0.000336
O     2.006723   -5.636307   -1.926919   -0.002135   -0.001462    0.000709
O     4.845050   -1.121776   -2.929325    0.005857   -0.005779    0.000190
C     3.013344    3.565541   -0.643189   -0.006547   -0.004596    0.001594
C    -1.515165    4.215376    0.438236    0.008250   -0.004983   -0.001271
C    -4.977324    1.093003   -0.525961    0.000782    0.002115   -0.002196
C    -3.068553   -3.388965   -0.742809    0.000267    0.002379   -0.000754
C     1.510305   -4.457897    0.089794   -0.001313    0.003638    0.000768
C     4.707267   -1.010664   -0.560405   -0.003504    0.003025   -0.000502
C     2.448213    3.842278    0.763555   -0.004623    0.002719    0.003534
C    -2.039123    2.885777    0.997836    0.010694   -0.010564   -0.009793
C    -4.603613    0.171990    0.654560    0.002598    0.000068   -0.002596
C    -2.412918   -3.666210    0.622337    0.000361    0.001577   -0.000076
C     2.044436   -3.354874    1.011374   -0.007321    0.011507   -0.004780
C     4.427004   -0.098321    0.646320    0.000227    0.000515    0.003756
O     1.701291    5.058502    0.810304    0.002158    0.008488    0.007716
O    -3.384089    3.025945    1.419407   -0.001343   -0.001861    0.004069
O    -5.175824   -1.130511    0.507285   -0.002926   -0.002099    0.002640
O    -1.770927   -4.940418    0.624674   -0.002023   -0.001898    0.003637
O     3.430354   -3.475002    1.251240   -0.004193   -0.003264    0.010093
O     5.062574    1.176063    0.502575    0.000207   -0.000527    0.012077
C     3.581871    3.988944    1.787710   -0.001262    0.002911   -0.004559
C    -1.308493    2.361716    2.234599   -0.006492   -0.002226    0.002645
C    -5.170347    0.649615    2.004120    0.003370    0.001079   -0.004383
C    -3.454982   -3.716701    1.747067   -0.001332    0.001365   -0.003601
C     1.331166   -3.243203    2.357095   -0.023310    0.034227   -0.015654
C     4.978720   -0.686071    1.955957    0.007019   -0.003157   -0.007297
O     4.453410    5.038163    1.448841    0.004369    0.000983    0.002523
O    -1.404757    1.041620    2.248413    0.005042    0.006454    0.010817
O    -6.538058    0.947238    1.922438   -0.000902   -0.001152    0.001545
O    -4.435071   -4.689235    1.503644    0.000015   -0.001118    0.001503
O     1.893812   -2.280120    3.084194    0.009459    0.004008    0.012826
O     6.330779   -1.054540    1.838831    0.004853   -0.001342    0.004995
H     0.128770    6.053885    0.083234    0.005578    0.002712    0.000144
H    -5.267589    3.287958    0.775509   -0.000152    0.007428   -0.000322
H    -5.455331   -2.752514   -0.597492   -0.003719    0.000393   -0.000064
H    -0.373109   -6.096706   -0.207010   -0.004075   -0.001213    0.005635
H     5.229293   -3.318123    0.377569   -0.003201   -0.008804    0.002547
H     5.387834    2.791298   -0.607350   -0.001747   -0.007402   -0.003021
H     2.002084    5.968714   -1.588090   -0.007111    0.008679    0.012783
H    -4.090565    5.403147    0.367423   -0.000728   -0.004411    0.003748
H    -6.492150   -0.893577   -1.829916    0.000704   -0.004312    0.005617
H    -2.273140   -5.755012   -1.804439    0.001551   -0.004247    0.006426
H     4.182179   -5.418970   -0.455282   -0.001048    0.001538    0.005431
H     6.244098    0.888328   -1.921168   -0.002280    0.007354    0.013074
H    -0.526763    5.617653   -2.160582   -0.005764   -0.032274   -0.003375
H    -4.726803    4.032655   -2.003532    0.023704    0.000146   -0.004460
H    -4.251101   -2.073011   -3.058257    0.010863    0.018164   -0.004362
H     0.328851   -5.359345   -2.492848    0.004583    0.027533   -0.003295
H     4.514927   -3.399628   -2.391789   -0.024980    0.005967    0.003379
H     4.028033    2.249802   -2.994316   -0.039117   -0.053098   -0.000469
H     1.209492    3.027626   -1.706354   -0.022793    0.018084   -0.025732
H    -2.275314    3.834335   -1.530017   -0.005763    0.007479   -0.008495
H    -3.672690    0.279955   -2.017602   -0.002687    0.001756   -0.003737
H    -1.250338   -2.874648   -1.790166    0.005637   -0.010674    0.001602
H     2.119600   -3.581861   -1.762142   -0.001120   -0.004435   -0.002113
H     3.348536   -0.099110   -1.954647   -0.000814   -0.016751   -0.013084
H     2.070416    4.053427   -3.671213   -0.012729   -0.058942   -0.006603
H    -2.776012    6.172046   -1.806754    0.013909   -0.013287   -0.021609
H    -5.368044    0.653164   -3.682934    0.027976    0.007294   -0.007763
H    -2.204288   -3.818703   -3.796983    0.016659    0.027834   -0.002666
H     2.639428   -5.726083   -2.657613   -0.013772    0.023250   -0.012851
H     4.899041   -0.582590   -3.732446   -0.054543   -0.008665   -0.003598
H     3.871566    4.225169   -0.824905   -0.014387    0.008385    0.013489
H    -1.547564    4.988830    1.215735   -0.008804   -0.003757   -0.000023
H    -6.030439    1.395345   -0.436236   -0.002105   -0.006961    0.002577
H    -3.907972   -4.082897   -0.880511    0.003422   -0.004406    0.008706
H     1.531372   -5.429863    0.594402   -0.000248    0.005503    0.008408
H     5.752336   -1.345276   -0.542307   -0.000193    0.006232    0.002636
H     1.786451    3.019985    1.050405    0.006982    0.024255    0.075867
H    -1.963359    2.115450    0.216722   -0.003723   -0.022335    0.003682
H    -3.510127    0.100595    0.714315    0.001321   -0.008642    0.008105
H    -1.672548   -2.887306    0.840353    0.000494   -0.001763    0.024474
H     1.841748   -2.394189    0.510280    0.016404    0.010296   -0.009418
H     3.343042    0.029989    0.730168    0.007489   -0.036633    0.101863
H     4.182221    3.078352    1.797285   -0.000379    0.001767    0.003005
H     3.132247    4.151680    2.773002    0.012672   -0.001505    0.007281
H    -4.990105   -0.151810    2.730345    0.007111    0.007494    0.004882
H    -4.663213    1.553639    2.336441   -0.000810    0.002968   -0.002054
H    -3.972720   -2.758052    1.808788   -0.003535    0.000286   -0.001603
H    -2.927376   -3.914934    2.687431   -0.000972    0.011798    0.001670
H     4.856449    0.065635    2.742264    0.003006   -0.016179    0.011453
H     4.421512   -1.586430    2.221740    0.007165   -0.001080    0.002498
H     3.927671    5.848547    1.410372   -0.005120   -0.007154   -0.045123
H    -6.999318    0.137502    1.661773    0.004465    0.002850   -0.019844
H    -3.985034   -5.542132    1.421443    0.002333    0.001604   -0.018592
H     6.832759   -0.255031    1.627370   -0.010856   -0.001768   -0.040433
C     0.951573   -1.508602    3.820338    0.015856    0.027567    0.001244
H     1.527578   -0.836525    4.460072    0.016801   -0.069796    0.101890
H     0.279544   -2.147020    4.416200   -0.069941    0.016939   -0.118164
O     0.413872   -3.929016    2.725872    0.000643   -0.006330    0.006796
C    -0.803986    0.336333    3.343058    0.026200    0.006737   -0.013944
H    -1.601268   -0.155752    3.914104    0.059181   -0.129194   -0.103638
H    -0.259757    1.045801    3.982158   -0.092558    0.039266    0.047446
O    -0.776796    3.034353    3.070923   -0.011984    0.008518    0.013999
C     0.080208   -0.772047    2.796371    0.271567    0.226118   -0.106560
O    -0.204296   -1.386936    1.747285    0.025391   -0.028858    0.004744
H    -1.095672   -0.616697    0.357489    0.043592   -0.016020   -0.004101
O    -1.373310   -0.184429   -0.478386    0.021838    0.022521    0.019086
H     0.390171    0.599027   -0.629210   -0.201352   -0.007922    0.251009
O     0.920940    1.213797   -0.095799    0.054947   -0.086848    0.200917
H     1.263758    0.614341    1.400004   -0.425288    0.470734   -1.722209
O     1.517128    0.309043    2.146365   -0.237318   -0.059774   -0.084163
O     1.794572    1.516116    2.892124   -0.031212   -0.068450   -0.008647
H     2.688232    1.277933    3.222209   -0.003881   -0.069012   -0.160718
H    -1.945101   -0.846945   -0.895633    0.197197    0.027045   -0.175014
H     1.770277    1.342374   -0.548676    0.062284   -0.114004    0.106343
140
* Frequency(6) -576.3342
C     0.667076    5.122391   -0.125463   -0.008437   -0.006077   -0.001007
C    -4.262865    3.249773    0.336058    0.001060   -0.002726    0.000586
C    -4.906229   -1.805601   -0.678042    0.002319   -0.002128   -0.000879
C    -0.799618   -5.100022   -0.371614    0.001529    0.001256   -0.001052
C     4.178455   -3.311101    0.067581   -0.002517    0.005834   -0.006164
C     4.784277    1.878118   -0.663798   -0.019512    0.003304   -0.004904
O    -0.190958    4.004367   -0.008655    0.002959    0.002915    0.002430
O    -4.160609    2.254038   -0.633434   -0.002531   -0.002503    0.004871
O    -3.526887   -2.050441   -0.849868   -0.002873   -0.003396    0.001097
O     0.187047   -4.103268   -0.283044    0.000187   -0.003445   -0.004704
O     3.837193   -2.133213   -0.602826    0.004358   -0.006488    0.004479
O     3.410592    2.204457   -0.769944   -0.000882   -0.001895    0.009342
C     1.268435    5.148865   -1.542967    0.000904   -0.000687    0.000179
C    -3.909495    4.587974   -0.340416    0.003625   -0.001558    0.000009
C    -5.404252   -1.006638   -1.892603    0.001643    0.000997   -0.000691
C    -1.463164   -5.012979   -1.758554   -0.000666    0.000050   -0.001150
C     3.876326   -4.469116   -0.903211   -0.001455   -0.000515   -0.000593
C     5.164382    1.070527   -1.919098   -0.004962   -0.000039   -0.001654
O     0.313853    5.313790   -2.556947    0.001480    0.002627   -0.001226
O    -4.712661    4.834607   -1.457722   -0.000896   -0.000539    0.000936
O    -5.135395   -1.666430   -3.099662   -0.000261   -0.000169    0.000872
O    -0.585553   -5.249438   -2.824452   -0.001521   -0.000770    0.001107
O     4.590967   -4.324542   -2.099607   -0.001652    0.001667    0.001783
O     4.870032    1.769828   -3.098906   -0.000462    0.000424    0.003378
C     1.983432    3.809072   -1.749766   -0.006761   -0.006963   -0.003079
C    -2.424493    4.592480   -0.743407    0.002195   -0.004564   -0.001959
C    -4.759861    0.386559   -1.870523    0.002956    0.001159   -0.002354
C    -2.068412   -3.606775   -1.879403    0.001002    0.001768   -0.002024
C     2.365001   -4.490607   -1.188394   -0.001088    0.001837   -0.000315
C     4.434113   -0.279891   -1.879510   -0.009800    0.000445   -0.001583
O     2.668562    3.739836   -2.978196    0.006320    0.002289   -0.000469
O    -2.058279    5.864199   -1.227976   -0.000988    0.005008    0.001448
O    -5.298131    1.198647   -2.884183   -0.002750    0.000548   -0.001651
O    -2.746464   -3.423095   -3.097873   -0.000737   -0.000307    0.000336
O     2.006917   -5.636174   -1.926983   -0.002135   -0.001462    0.000709
O     4.844518   -1.121251   -2.929342    0.005857   -0.005779    0.000190
C     3.013939    3.565959   -0.643334   -0.006547   -0.004596    0.001594
C    -1.515915    4.215829    0.438351    0.008250   -0.004983   -0.001271
C    -4.977395    1.092810   -0.525761    0.000782    0.002115   -0.002196
C    -3.068578   -3.389182   -0.742741    0.000267    0.002379   -0.000754
C     1.510424   -4.458228    0.089724   -0.001313    0.003638    0.000768
C     4.707585   -1.010939   -0.560360   -0.003504    0.003025   -0.000502
C     2.448634    3.842031    0.763234   -0.004623    0.002719    0.003534
C    -2.040096    2.886737    0.998727    0.010694   -0.010564   -0.009793
C    -4.603849    0.171984    0.654797    0.002598    0.000068   -0.002596
C    -2.412951   -3.666353    0.622344    0.000361    0.001577   -0.000076
C     2.045102   -3.355920    1.011809   -0.007321    0.011507   -0.004780
C     4.426984   -0.098368    0.645979    0.000227    0.000515    0.003756
O     1.701095    5.057730    0.809602    0.002158    0.008488    0.007716
O    -3.383967    3.026114    1.419037   -0.001343   -0.001861    0.004069
O    -5.175558   -1.130320    0.507045   -0.002926   -0.002099    0.002640
O    -1.770743   -4.940245    0.624343   -0.002023   -0.001898    0.003637
O     3.430736   -3.474706    1.250322   -0.004193   -0.003264    0.010093
O     5.062555    1.176111    0.501477    0.000207   -0.000527    0.012077
C     3.581986    3.988679    1.788125   -0.001262    0.002911   -0.004559
C    -1.307902    2.361918    2.234359   -0.006492   -0.002226    0.002645
C    -5.170654    0.649517    2.004519    0.003370    0.001079   -0.004383
C    -3.454861   -3.716826    1.747394   -0.001332    0.001365   -0.003601
C     1.333285   -3.246315    2.358518   -0.023310    0.034227   -0.015654
C     4.978081   -0.685784    1.956620    0.007019   -0.003157   -0.007297
O     4.453013    5.038074    1.448611    0.004369    0.000983    0.002523
O    -1.405215    1.041034    2.247430    0.005042    0.006454    0.010817
O    -6.537976    0.947343    1.922297   -0.000902   -0.001152    0.001545
O    -4.435072   -4.689133    1.503507    0.000015   -0.001118    0.001503
O     1.892952   -2.280485    3.083028    0.009459    0.004008    0.012826
O     6.330337   -1.054418    1.838377    0.004853   -0.001342    0.004995
H     0.128263    6.053639    0.083221    0.005578    0.002712    0.000144
H    -5.267575    3.287282    0.775538   -0.000152    0.007428   -0.000322
H    -5.454993   -2.752550   -0.597487   -0.003719    0.000393   -0.000064
H    -0.372739   -6.096596   -0.207522   -0.004075   -0.001213    0.005635
H     5.229584   -3.317323    0.377337   -0.003201   -0.008804    0.002547
H     5.387993    2.791971   -0.607075   -0.001747   -0.007402   -0.003021
H     2.002730    5.967925   -1.589253   -0.007111    0.008679    0.012783
H    -4.090498    5.403548    0.367082   -0.000728   -0.004411    0.003748
H    -6.492214   -0.893185   -1.830426    0.000704   -0.004312    0.005617
H    -2.273281   -5.754625   -1.805024    0.001551   -0.004247    0.006426
H     4.182274   -5.419110   -0.455775   -0.001048    0.001538    0.005431
H     6.244305    0.887659   -1.922357   -0.002280    0.007354    0.013074
H    -0.526239    5.620588   -2.160275   -0.005764   -0.032274   -0.003375
H    -4.728958    4.032641   -2.003126    0.023704    0.000146   -0.004460
H    -4.252088   -2.074662   -3.057861    0.010863    0.018164   -0.004362
H     0.328434   -5.361849   -2.492548    0.004583    0.027533   -0.003295
H     4.517199   -3.400170   -2.392096   -0.024980    0.005967    0.003379
H     4.031590    2.254630   -2.994273   -0.039117   -0.053098   -0.000469
H     1.211564    3.025981   -1.704014   -0.022793    0.018084   -0.025732
H    -2.274790    3.833655   -1.529245   -0.005763    0.007479   -0.008495
H    -3.672446    0.279795   -2.017262   -0.002687    0.001756   -0.003737
H    -1.250850   -2.873677   -1.790311    0.005637   -0.010674    0.001602
H     2.119701   -3.581458   -1.761950   -0.001120   -0.004435   -0.002113
H     3.348610   -0.097587   -1.953458   -0.000814   -0.016751   -0.013084
H     2.071574    4.058786   -3.670613   -0.012729   -0.058942   -0.006603
H    -2.777277    6.173255   -1.804790    0.013909   -0.013287   -0.021609
H    -5.370588    0.652501   -3.682228    0.027976    0.007294   -0.007763
H    -2.205803   -3.821233   -3.796740    0.016659    0.027834   -0.002666
H     2.640680   -5.728197   -2.656445   -0.013772    0.023250   -0.012851
H     4.904000   -0.581802   -3.732119   -0.054543   -0.008665   -0.003598
H     3.872874    4.224407   -0.826132   -0.014387    0.008385    0.013489
H    -1.546764    4.989171    1.215737   -0.008804   -0.003757   -0.000023
H    -6.030248    1.395977   -0.436471   -0.002105   -0.006961    0.002577
H    -3.908283   -4.082496   -0.881303    0.003422   -0.004406    0.008706
H     1.531395   -5.430363    0.593638   -0.000248    0.005503    0.008408
H     5.752354   -1.345843   -0.542547   -0.000193    0.006232    0.002636
H     1.785816    3.017779    1.043507    0.006982    0.024255    0.075867
H    -1.963020    2.117480    0.216387   -0.003723   -0.022335    0.003682
H    -3.510247    0.101380    0.713578    0.001321   -0.008642    0.008105
H    -1.672593   -2.887146    0.838128    0.000494   -0.001763    0.024474
H     1.840257   -2.395125    0.511136    0.016404    0.010296   -0.009418
H     3.342361    0.033320    0.720906    0.007489   -0.036633    0.101863
H     4.182255    3.078191    1.797012   -0.000379    0.001767    0.003005
H     3.131095    4.151817    2.772340    0.012672   -0.001505    0.007281
H    -4.990751   -0.152492    2.729901    0.007111    0.007494    0.004882
H    -4.663139    1.553369    2.336628   -0.000810    0.002968   -0.002054
H    -3.972399   -2.758078    1.808934   -0.003535    0.000286   -0.001603
H    -2.927288   -3.916007    2.687279   -0.000972    0.011798    0.001670
H     4.856176    0.067106    2.741223    0.003006   -0.016179    0.011453
H     4.420861   -1.586332    2.221513    0.007165   -0.001080    0.002498
H     3.928136    5.849197    1.414474   -0.005120   -0.007154   -0.045123
H    -6.999724    0.137243    1.663577    0.004465    0.002850   -0.019844
H    -3.985246   -5.542278    1.423134    0.002333    0.001604   -0.018592
H     6.833746   -0.254870    1.631047   -0.010856   -0.001768   -0.040433
C     0.950131   -1.511108    3.820225    0.015856    0.027567    0.001244
H     1.526050   -0.830179    4.450808    0.016801   -0.069796    0.101890
H     0.285904   -2.148560    4.426944   -0.069941    0.016939   -0.118164
O     0.413814   -3.928440    2.725254    0.000643   -0.006330    0.006796
C    -0.806369    0.335721    3.344326    0.026200    0.006737   -0.013944
H    -1.606649   -0.144006    3.923527    0.059181   -0.129194   -0.103638
H    -0.251342    1.042231    3.977845   -0.092558    0.039266    0.047446
O    -0.775706    3.033579    3.069650   -0.011984    0.008518    0.013999
C     0.055516   -0.792606    2.806060    0.271567    0.226118   -0.106560
O    -0.206604   -1.384312    1.746854    0.025391   -0.028858    0.004744
H    -1.099636   -0.615241    0.357862    0.043592   -0.016020   -0.004101
O    -1.375296   -0.186476   -0.480121    0.021838    0.022521    0.019086
H     0.408478    0.599748   -0.652033   -0.201352   -0.007922    0.251009
O     0.915944    1.221694   -0.114067    0.054947   -0.086848    0.200917
H     1.302426    0.571541    1.556591   -0.425288    0.470734   -1.722209
O     1.538706    0.314478    2.154017   -0.237318   -0.059774   -0.084163
O     1.797410    1.522340    2.892910   -0.031212   -0.068450   -0.008647
H     2.688585    1.284207    3.236822   -0.003881   -0.069012   -0.160718
H    -1.963031   -0.849404   -0.879721    0.197197    0.027045   -0.175014
H     1.764614    1.352739   -0.558345    0.062284   -0.114004    0.106343
140
* Frequency(6) -576.3342
C     0.667607    5.122774   -0.125399   -0.008437   -0.006077   -0.001007
C    -4.262932    3.249945    0.336021    0.001060   -0.002726    0.000586
C    -4.906375   -1.805467   -0.677987    0.002319   -0.002128   -0.000879
C    -0.799714   -5.100102   -0.371548    0.001529    0.001256   -0.001052
C     4.178614   -3.311469    0.067970   -0.002517    0.005834   -0.006164
C     4.785507    1.877910   -0.663489   -0.019512    0.003304   -0.004904
O    -0.191144    4.004184   -0.008808    0.002959    0.002915    0.002430
O    -4.160450    2.254195   -0.633741   -0.002531   -0.002503    0.004871
O    -3.526706   -2.050227   -0.849937   -0.002873   -0.003396    0.001097
O     0.187035   -4.103051   -0.282747    0.000187   -0.003445   -0.004704
O     3.836918   -2.132805   -0.603108    0.004358   -0.006488    0.004479
O     3.410648    2.204576   -0.770532   -0.000882   -0.001895    0.009342
C     1.268378    5.148908   -1.542978    0.000904   -0.000687    0.000179
C    -3.909724    4.588072   -0.340417    0.003625   -0.001558    0.000009
C    -5.404356   -1.006701   -1.892560    0.001643    0.000997   -0.000691
C    -1.463122   -5.012982   -1.758482   -0.000666    0.000050   -0.001150
C     3.876417   -4.469084   -0.903174   -0.001455   -0.000515   -0.000593
C     5.164695    1.070530   -1.918994   -0.004962   -0.000039   -0.001654
O     0.313760    5.313625   -2.556870    0.001480    0.002627   -0.001226
O    -4.712605    4.834641   -1.457781   -0.000896   -0.000539    0.000936
O    -5.135378   -1.666419   -3.099717   -0.000261   -0.000169    0.000872
O    -0.585458   -5.249389   -2.824522   -0.001521   -0.000770    0.001107
O     4.591071   -4.324647   -2.099719   -0.001652    0.001667    0.001783
O     4.870061    1.769801   -3.099119   -0.000462    0.000424    0.003378
C     1.983858    3.809511   -1.749572   -0.006761   -0.006963   -0.003079
C    -2.424632    4.592768   -0.743284    0.002195   -0.004564   -0.001959
C    -4.760047    0.386486   -1.870374    0.002956    0.001159   -0.002354
C    -2.068475   -3.606887   -1.879275    0.001002    0.001768   -0.002024
C     2.365070   -4.490723   -1.188374   -0.001088    0.001837   -0.000315
C     4.434730   -0.279919   -1.879411   -0.009800    0.000445   -0.001583
O     2.668164    3.739691   -2.978167    0.006320    0.002289   -0.000469
O    -2.058216    5.863884   -1.228067   -0.000988    0.005008    0.001448
O    -5.297958    1.198612   -2.884079   -0.002750    0.000548   -0.001651
O    -2.746418   -3.423076   -3.097895   -0.000737   -0.000307    0.000336
O     2.007051   -5.636082   -1.927028   -0.002135   -0.001462    0.000709
O     4.844149   -1.120887   -2.929354    0.005857   -0.005779    0.000190
C     3.014351    3.566248   -0.643434   -0.006547   -0.004596    0.001594
C    -1.516435    4.216143    0.438431    0.008250   -0.004983   -0.001271
C    -4.977445    1.092677   -0.525623    0.000782    0.002115   -0.002196
C    -3.068595   -3.389331   -0.742693    0.000267    0.002379   -0.000754
C     1.510507   -4.458457    0.089676   -0.001313    0.003638    0.000768
C     4.707806   -1.011130   -0.560328   -0.003504    0.003025   -0.000502
C     2.448925    3.841860    0.763011   -0.004623    0.002719    0.003534
C    -2.040769    2.887403    0.999344    0.010694   -0.010564   -0.009793
C    -4.604013    0.171979    0.654960    0.002598    0.000068   -0.002596
C    -2.412974   -3.666452    0.622348    0.000361    0.001577   -0.000076
C     2.045563   -3.356645    1.012110   -0.007321    0.011507   -0.004780
C     4.426969   -0.098400    0.645742    0.000227    0.000515    0.003756
O     1.700959    5.057196    0.809116    0.002158    0.008488    0.007716
O    -3.383883    3.026232    1.418781   -0.001343   -0.001861    0.004069
O    -5.175373   -1.130188    0.506879   -0.002926   -0.002099    0.002640
O    -1.770616   -4.940126    0.624114   -0.002023   -0.001898    0.003637
O     3.431000   -3.474500    1.249686   -0.004193   -0.003264    0.010093
O     5.062542    1.176144    0.500716    0.000207   -0.000527    0.012077
C     3.582065    3.988496    1.788412   -0.001262    0.002911   -0.004559
C    -1.307493    2.362058    2.234192   -0.006492   -0.002226    0.002645
C    -5.170866    0.649449    2.004795    0.003370    0.001079   -0.004383
C    -3.454777   -3.716912    1.747621   -0.001332    0.001365   -0.003601
C     1.334754   -3.248472    2.359504   -0.023310    0.034227   -0.015654
C     4.977639   -0.685585    1.957080    0.007019   -0.003157   -0.007297
O     4.452738    5.038012    1.448452    0.004369    0.000983    0.002523
O    -1.405533    1.040627    2.246748    0.005042    0.006454    0.010817
O    -6.537919    0.947415    1.922200   -0.000902   -0.001152    0.001545
O    -4.435073   -4.689063    1.503412    0.000015   -0.001118    0.001503
O     1.892356   -2.280737    3.082220    0.009459    0.004008    0.012826
O     6.330032   -1.054334    1.838062    0.004853   -0.001342    0.004995
H     0.127911    6.053468    0.083212    0.005578    0.002712    0.000144
H    -5.267565    3.286814    0.775558   -0.000152    0.007428   -0.000322
H    -5.454759   -2.752575   -0.597483   -0.003719    0.000393   -0.000064
H    -0.372482   -6.096519   -0.207877   -0.004075   -0.001213    0.005635
H     5.229786   -3.316768    0.377177   -0.003201   -0.008804    0.002547
H     5.388103    2.792438   -0.606885   -0.001747   -0.007402   -0.003021
H     2.003178    5.967378   -1.590058   -0.007111    0.008679    0.012783
H    -4.090453    5.403826    0.366846   -0.000728   -0.004411    0.003748
H    -6.492259   -0.892913   -1.830780    0.000704   -0.004312    0.005617
H    -2.273379   -5.754358   -1.805429    0.001551   -0.004247    0.006426
H     4.182340   -5.419207   -0.456118   -0.001048    0.001538    0.005431
H     6.244449    0.887196   -1.923181   -0.002280    0.007354    0.013074
H    -0.525875    5.622622   -2.160062   -0.005764   -0.032274   -0.003375
H    -4.730452    4.032632   -2.002845    0.023704    0.000146   -0.004460
H    -4.252773   -2.075807   -3.057586    0.010863    0.018164   -0.004362
H     0.328145   -5.363584   -2.492341    0.004583    0.027533   -0.003295
H     4.518773   -3.400546   -2.392309   -0.024980    0.005967    0.003379
H     4.034055    2.257976   -2.994244   -0.039117   -0.053098   -0.000469
H     1.213001    3.024842   -1.702392   -0.022793    0.018084   -0.025732
H    -2.274427    3.833184   -1.528709   -0.005763    0.007479   -0.008495
H    -3.672277    0.279685   -2.017027   -0.002687    0.001756   -0.003737
H    -1.251206   -2.873005   -1.790412    0.005637   -0.010674    0.001602
H     2.119772   -3.581179   -1.761817   -0.001120   -0.004435   -0.002113
H     3.348661   -0.096531   -1.952633   -0.000814   -0.016751   -0.013084
H     2.072376    4.062500   -3.670197   -0.012729   -0.058942   -0.006603
H    -2.778153    6.174092   -1.803428    0.013909   -0.013287   -0.021609
H    -5.372351    0.652041   -3.681739    0.027976    0.007294   -0.007763
H    -2.206853   -3.822987   -3.796572    0.016659    0.027834   -0.002666
H     2.641548   -5.729662   -2.655635   -0.013772    0.023250   -0.012851
H     4.907437   -0.581256   -3.731892   -0.054543   -0.008665   -0.003598
H     3.873780    4.223879   -0.826982   -0.014387    0.008385    0.013489
H    -1.546209    4.989408    1.215738   -0.008804   -0.003757   -0.000023
H    -6.030115    1.396416   -0.436633   -0.002105   -0.006961    0.002577
H    -3.908499   -4.082219   -0.881852    0.003422   -0.004406    0.008706
H     1.531411   -5.430710    0.593108   -0.000248    0.005503    0.008408
H     5.752366   -1.346236   -0.542713   -0.000193    0.006232    0.002636
H     1.785376    3.016251    1.038726    0.006982    0.024255    0.075867
H    -1.962786    2.118888    0.216155   -0.003723   -0.022335    0.003682
H    -3.510330    0.101925    0.713067    0.001321   -0.008642    0.008105
H    -1.672624   -2.887035    0.836586    0.000494   -0.001763    0.024474
H     1.839223   -2.395774    0.511730    0.016404    0.010296   -0.009418
H     3.341889    0.035629    0.714487    0.007489   -0.036633    0.101863
H     4.182279    3.078080    1.796823   -0.000379    0.001767    0.003005
H     3.130296    4.151911    2.771881    0.012672   -0.001505    0.007281
H    -4.991199   -0.152964    2.729593    0.007111    0.007494    0.004882
H    -4.663088    1.553182    2.336757   -0.000810    0.002968   -0.002054
H    -3.972176   -2.758096    1.809035   -0.003535    0.000286   -0.001603
H    -2.927226   -3.916751    2.687174   -0.000972    0.011798    0.001670
H     4.855987    0.068126    2.740501    0.003006   -0.016179    0.011453
H     4.420409   -1.586264    2.221355    0.007165   -0.001080    0.002498
H     3.928459    5.849648    1.417318   -0.005120   -0.007154   -0.045123
H    -7.000005    0.137063    1.664828    0.004465    0.002850   -0.019844
H    -3.985393   -5.542379    1.424305    0.002333    0.001604   -0.018592
H     6.834431   -0.254758    1.633595   -0.010856   -0.001768   -0.040433
C     0.949132   -1.512845    3.820147    0.015856    0.027567    0.001244
H     1.524992   -0.825781    4.444387    0.016801   -0.069796    0.101890
H     0.290311   -2.149627    4.434390   -0.069941    0.016939   -0.118164
O     0.413773   -3.928041    2.724826    0.000643   -0.006330    0.006796
C    -0.808020    0.335296    3.345204    0.026200    0.006737   -0.013944
H    -1.610378   -0.135864    3.930058    0.059181   -0.129194   -0.103638
H    -0.245509    1.039756    3.974855   -0.092558    0.039266    0.047446
O    -0.774951    3.033042    3.068768   -0.011984    0.008518    0.013999
C     0.038403   -0.806856    2.812775    0.271567    0.226118   -0.106560
O    -0.208204   -1.382493    1.746555    0.025391   -0.028858    0.004744
H    -1.102383   -0.614231    0.358121    0.043592   -0.016020   -0.004101
O    -1.376672   -0.187896   -0.481324    0.021838    0.022521    0.019086
H     0.421167    0.600247   -0.667851   -0.201352   -0.007922    0.251009
O     0.912481    1.227167   -0.126728    0.054947   -0.086848    0.200917
H     1.329226    0.541877    1.665120   -0.425288    0.470734   -1.722209
O     1.553661    0.318244    2.159321   -0.237318   -0.059774   -0.084163
O     1.799377    1.526654    2.893455   -0.031212   -0.068450   -0.008647
H     2.688829    1.288556    3.246950   -0.003881   -0.069012   -0.160718
H    -1.975457   -0.851109   -0.868692    0.197197    0.027045   -0.175014
H     1.760689    1.359924   -0.565046    0.062284   -0.114004    0.106343
140
* Frequency(6) -576.3342
C     0.667846    5.122946   -0.125371   -0.008437   -0.006077   -0.001007
C    -4.262962    3.250022    0.336005    0.001060   -0.002726    0.000586
C    -4.906441   -1.805407   -0.677962    0.002319   -0.002128   -0.000879
C    -0.799757   -5.100137   -0.371518    0.001529    0.001256   -0.001052
C     4.178685   -3.311634    0.068144   -0.002517    0.005834   -0.006164
C     4.786059    1.877817   -0.663350   -0.019512    0.003304   -0.004904
O    -0.191228    4.004101   -0.008876    0.002959    0.002915    0.002430
O    -4.160378    2.254266   -0.633879   -0.002531   -0.002503    0.004871
O    -3.526625   -2.050131   -0.849968   -0.002873   -0.003396    0.001097
O     0.187030   -4.102953   -0.282614    0.000187   -0.003445   -0.004704
O     3.836795   -2.132621   -0.603235    0.004358   -0.006488    0.004479
O     3.410673    2.204630   -0.770797   -0.000882   -0.001895    0.009342
C     1.268353    5.148928   -1.542983    0.000904   -0.000687    0.000179
C    -3.909826    4.588116   -0.340417    0.003625   -0.001558    0.000009
C    -5.404402   -1.006729   -1.892540    0.001643    0.000997   -0.000691
C    -1.463104   -5.012983   -1.758449   -0.000666    0.000050   -0.001150
C     3.876458   -4.469069   -0.903157   -0.001455   -0.000515   -0.000593
C     5.164835    1.070531   -1.918947   -0.004962   -0.000039   -0.001654
O     0.313718    5.313551   -2.556835    0.001480    0.002627   -0.001226
O    -4.712580    4.834656   -1.457808   -0.000896   -0.000539    0.000936
O    -5.135371   -1.666414   -3.099742   -0.000261   -0.000169    0.000872
O    -0.585415   -5.249367   -2.824553   -0.001521   -0.000770    0.001107
O     4.591118   -4.324694   -2.099770   -0.001652    0.001667    0.001783
O     4.870074    1.769789   -3.099214   -0.000462    0.000424    0.003378
C     1.984049    3.809708   -1.749485   -0.006761   -0.006963   -0.003079
C    -2.424694    4.592897   -0.743229    0.002195   -0.004564   -0.001959
C    -4.760131    0.386453   -1.870308    0.002956    0.001159   -0.002354
C    -2.068503   -3.606937   -1.879218    0.001002    0.001768   -0.002024
C     2.365101   -4.490775   -1.188365   -0.001088    0.001837   -0.000315
C     4.435007   -0.279931   -1.879366   -0.009800    0.000445   -0.001583
O     2.667985    3.739627   -2.978153    0.006320    0.002289   -0.000469
O    -2.058188    5.863742   -1.228108   -0.000988    0.005008    0.001448
O    -5.297880    1.198597   -2.884032   -0.002750    0.000548   -0.001651
O    -2.746397   -3.423067   -3.097904   -0.000737   -0.000307    0.000336
O     2.007112   -5.636041   -1.927048   -0.002135   -0.001462    0.000709
O     4.843983   -1.120723   -2.929359    0.005857   -0.005779    0.000190
C     3.014537    3.566378   -0.643479   -0.006547   -0.004596    0.001594
C    -1.516669    4.216284    0.438467    0.008250   -0.004983   -0.001271
C    -4.977467    1.092617   -0.525561    0.000782    0.002115   -0.002196
C    -3.068602   -3.389399   -0.742672    0.000267    0.002379   -0.000754
C     1.510544   -4.458560    0.089654   -0.001313    0.003638    0.000768
C     4.707905   -1.011215   -0.560314   -0.003504    0.003025   -0.000502
C     2.449056    3.841783    0.762911   -0.004623    0.002719    0.003534
C    -2.041072    2.887702    0.999621    0.010694   -0.010564   -0.009793
C    -4.604086    0.171977    0.655034    0.002598    0.000068   -0.002596
C    -2.412984   -3.666497    0.622350    0.000361    0.001577   -0.000076
C     2.045770   -3.356971    1.012245   -0.007321    0.011507   -0.004780
C     4.426963   -0.098414    0.645636    0.000227    0.000515    0.003756
O     1.700898    5.056955    0.808897    0.002158    0.008488    0.007716
O    -3.383845    3.026284    1.418666   -0.001343   -0.001861    0.004069
O    -5.175290   -1.130129    0.506804   -0.002926   -0.002099    0.002640
O    -1.770558   -4.940072    0.624011   -0.002023   -0.001898    0.003637
O     3.431119   -3.474408    1.249400   -0.004193   -0.003264    0.010093
O     5.062536    1.176159    0.500375    0.000207   -0.000527    0.012077
C     3.582101    3.988414    1.788541   -0.001262    0.002911   -0.004559
C    -1.307309    2.362121    2.234117   -0.006492   -0.002226    0.002645
C    -5.170962    0.649419    2.004919    0.003370    0.001079   -0.004383
C    -3.454740   -3.716950    1.747723   -0.001332    0.001365   -0.003601
C     1.335413   -3.249440    2.359947   -0.023310    0.034227   -0.015654
C     4.977441   -0.685496    1.957286    0.007019   -0.003157   -0.007297
O     4.452614    5.037984    1.448381    0.004369    0.000983    0.002523
O    -1.405676    1.040444    2.246442    0.005042    0.006454    0.010817
O    -6.537894    0.947448    1.922156   -0.000902   -0.001152    0.001545
O    -4.435073   -4.689031    1.503370    0.000015   -0.001118    0.001503
O     1.892088   -2.280850    3.081857    0.009459    0.004008    0.012826
O     6.329894   -1.054296    1.837921    0.004853   -0.001342    0.004995
H     0.127753    6.053391    0.083208    0.005578    0.002712    0.000144
H    -5.267561    3.286604    0.775567   -0.000152    0.007428   -0.000322
H    -5.454654   -2.752586   -0.597481   -0.003719    0.000393   -0.000064
H    -0.372367   -6.096485   -0.208037   -0.004075   -0.001213    0.005635
H     5.229877   -3.316519    0.377105   -0.003201   -0.008804    0.002547
H     5.388152    2.792647   -0.606799   -0.001747   -0.007402   -0.003021
H     2.003379    5.967133   -1.590420   -0.007111    0.008679    0.012783
H    -4.090432    5.403951    0.366740   -0.000728   -0.004411    0.003748
H    -6.492279   -0.892791   -1.830939    0.000704   -0.004312    0.005617
H    -2.273423   -5.754238   -1.805610    0.001551   -0.004247    0.006426
H     4.182369   -5.419251   -0.456271   -0.001048    0.001538    0.005431
H     6.244513    0.886988   -1.923550   -0.002280    0.007354    0.013074
H    -0.525712    5.623534   -2.159967   -0.005764   -0.032274   -0.003375
H    -4.731122    4.032628   -2.002719    0.023704    0.000146   -0.004460
H    -4.253080   -2.076321   -3.057463    0.010863    0.018164   -0.004362
H     0.328015   -5.364362   -2.492248    0.004583    0.027533   -0.003295
H     4.519479   -3.400715   -2.392405   -0.024980    0.005967    0.003379
H     4.035161    2.259478   -2.994230   -0.039117   -0.053098   -0.000469
H     1.213645    3.024330   -1.701665   -0.022793    0.018084   -0.025732
H    -2.274264    3.832972   -1.528469   -0.005763    0.007479   -0.008495
H    -3.672201    0.279635   -2.016921   -0.002687    0.001756   -0.003737
H    -1.251365   -2.872703   -1.790458    0.005637   -0.010674    0.001602
H     2.119804   -3.581053   -1.761757   -0.001120   -0.004435   -0.002113
H     3.348684   -0.096057   -1.952263   -0.000814   -0.016751   -0.013084
H     2.072736    4.064167   -3.670010   -0.012729   -0.058942   -0.006603
H    -2.778547    6.174468   -1.802817    0.013909   -0.013287   -0.021609
H    -5.373142    0.651835   -3.681519    0.027976    0.007294   -0.007763
H    -2.207324   -3.823775   -3.796497    0.016659    0.027834   -0.002666
H     2.641938   -5.730320   -2.655272   -0.013772    0.023250   -0.012851
H     4.908980   -0.581011   -3.731790   -0.054543   -0.008665   -0.003598
H     3.874187    4.223641   -0.827363   -0.014387    0.008385    0.013489
H    -1.545960    4.989514    1.215739   -0.008804   -0.003757   -0.000023
H    -6.030056    1.396613   -0.436706   -0.002105   -0.006961    0.002577
H    -3.908596   -4.082094   -0.882098    0.003422   -0.004406    0.008706
H     1.531418   -5.430866    0.592870   -0.000248    0.005503    0.008408
H     5.752371   -1.346412   -0.542787   -0.000193    0.006232    0.002636
H     1.785179    3.015565    1.036580    0.006982    0.024255    0.075867
H    -1.962680    2.119519    0.216051   -0.003723   -0.022335    0.003682
H    -3.510368    0.102169    0.712838    0.001321   -0.008642    0.008105
H    -1.672638   -2.886985    0.835893    0.000494   -0.001763    0.024474
H     1.838759   -2.396065    0.511996    0.016404    0.010296   -0.009418
H     3.341678    0.036665    0.711606    0.007489   -0.036633    0.101863
H     4.182290    3.078030    1.796738   -0.000379    0.001767    0.003005
H     3.129938    4.151954    2.771675    0.012672   -0.001505    0.007281
H    -4.991400   -0.153176    2.729455    0.007111    0.007494    0.004882
H    -4.663065    1.553098    2.336815   -0.000810    0.002968   -0.002054
H    -3.972076   -2.758104    1.809080   -0.003535    0.000286   -0.001603
H    -2.927199   -3.917084    2.687126   -0.000972    0.011798    0.001670
H     4.855902    0.068583    2.740177    0.003006   -0.016179    0.011453
H     4.420207   -1.586233    2.221285    0.007165   -0.001080    0.002498
H     3.928604    5.849850    1.418594   -0.005120   -0.007154   -0.045123
H    -7.000131    0.136983    1.665389    0.004465    0.002850   -0.019844
H    -3.985459   -5.542424    1.424831    0.002333    0.001604   -0.018592
H     6.834738   -0.254708    1.634738   -0.010856   -0.001768   -0.040433
C     0.948683   -1.513625    3.820112    0.015856    0.027567    0.001244
H     1.524516   -0.823807    4.441506    0.016801   -0.069796    0.101890
H     0.292289   -2.150106    4.437733   -0.069941    0.016939   -0.118164
O     0.413755   -3.927862    2.724634    0.000643   -0.006330    0.006796
C    -0.808761    0.335106    3.345599    0.026200    0.006737   -0.013944
H    -1.612052   -0.132210    3.932989    0.059181   -0.129194   -0.103638
H    -0.242891    1.038646    3.973513   -0.092558    0.039266    0.047446
O    -0.774612    3.032801    3.068372   -0.011984    0.008518    0.013999
C     0.030722   -0.813251    2.815789    0.271567    0.226118   -0.106560
O    -0.208922   -1.381677    1.746420    0.025391   -0.028858    0.004744
H    -1.103616   -0.613778    0.358237    0.043592   -0.016020   -0.004101
O    -1.377290   -0.188533   -0.481863    0.021838    0.022521    0.019086
H     0.426862    0.600471   -0.674950   -0.201352   -0.007922    0.251009
O     0.910927    1.229623   -0.132411    0.054947   -0.086848    0.200917
H     1.341255    0.528563    1.713830   -0.425288    0.470734   -1.722209
O     1.560373    0.319935    2.161701   -0.237318   -0.059774   -0.084163
O     1.800260    1.528590    2.893699   -0.031212   -0.068450   -0.008647
H     2.688939    1.290508    3.251496   -0.003881   -0.069012   -0.160718
H    -1.981035   -0.851874   -0.863742    0.197197    0.027045   -0.175014
H     1.758927    1.363148   -0.568054    0.062284   -0.114004    0.106343
140
* Frequency(6) -576.3342
C     0.667766    5.122888   -0.125380   -0.008437   -0.006077   -0.001007
C    -4.262952    3.249996    0.336010    0.001060   -0.002726    0.000586
C    -4.906419   -1.805427   -0.677970    0.002319   -0.002128   -0.000879
C    -0.799743   -5.100125   -0.371528    0.001529    0.001256   -0.001052
C     4.178661   -3.311579    0.068085   -0.002517    0.005834   -0.006164
C     4.785873    1.877848   -0.663397   -0.019512    0.003304   -0.004904
O    -0.191200    4.004129   -0.008853    0.002959    0.002915    0.002430
O    -4.160402    2.254242   -0.633833   -0.002531   -0.002503    0.004871
O    -3.526652   -2.050163   -0.849957   -0.002873   -0.003396    0.001097
O     0.187032   -4.102986   -0.282659    0.000187   -0.003445   -0.004704
O     3.836836   -2.132683   -0.603193    0.004358   -0.006488    0.004479
O     3.410664    2.204612   -0.770708   -0.000882   -0.001895    0.009342
C     1.268361    5.148921   -1.542982    0.000904   -0.000687    0.000179
C    -3.909792    4.588101   -0.340417    0.003625   -0.001558    0.000009
C    -5.404386   -1.006719   -1.892547    0.001643    0.000997   -0.000691
C    -1.463110   -5.012983   -1.758460   -0.000666    0.000050   -0.001150
C     3.876445   -4.469074   -0.903163   -0.001455   -0.000515   -0.000593
C     5.164788    1.070530   -1.918963   -0.004962   -0.000039   -0.001654
O     0.313732    5.313576   -2.556847    0.001480    0.002627   -0.001226
O    -4.712588    4.834651   -1.457799   -0.000896   -0.000539    0.000936
O    -5.135373   -1.666416   -3.099734   -0.000261   -0.000169    0.000872
O    -0.585429   -5.249375   -2.824543   -0.001521   -0.000770    0.001107
O     4.591102   -4.324678   -2.099753   -0.001652    0.001667    0.001783
O     4.870070    1.769793   -3.099182   -0.000462    0.000424    0.003378
C     1.983985    3.809641   -1.749514   -0.006761   -0.006963   -0.003079
C    -2.424673    4.592854   -0.743247    0.002195   -0.004564   -0.001959
C    -4.760103    0.386464   -1.870330    0.002956    0.001159   -0.002354
C    -2.068494   -3.606920   -1.879237    0.001002    0.001768   -0.002024
C     2.365090   -4.490757   -1.188368   -0.001088    0.001837   -0.000315
C     4.434914   -0.279927   -1.879381   -0.009800    0.000445   -0.001583
O     2.668046    3.739648   -2.978158    0.006320    0.002289   -0.000469
O    -2.058198    5.863790   -1.228094   -0.000988    0.005008    0.001448
O    -5.297906    1.198602   -2.884048   -0.002750    0.000548   -0.001651
O    -2.746404   -3.423070   -3.097901   -0.000737   -0.000307    0.000336
O     2.007091   -5.636055   -1.927041   -0.002135   -0.001462    0.000709
O     4.844039   -1.120778   -2.929357    0.005857   -0.005779    0.000190
C     3.014474    3.566334   -0.643464   -0.006547   -0.004596    0.001594
C    -1.516590    4.216237    0.438455    0.008250   -0.004983   -0.001271
C    -4.977459    1.092637   -0.525582    0.000782    0.002115   -0.002196
C    -3.068600   -3.389376   -0.742679    0.000267    0.002379   -0.000754
C     1.510532   -4.458525    0.089662   -0.001313    0.003638    0.000768
C     4.707872   -1.011186   -0.560319   -0.003504    0.003025   -0.000502
C     2.449012    3.841809    0.762945   -0.004623    0.002719    0.003534
C    -2.040970    2.887601    0.999528    0.010694   -0.010564   -0.009793
C    -4.604061    0.171978    0.655009    0.002598    0.000068   -0.002596
C    -2.412980   -3.666482    0.622350    0.000361    0.001577   -0.000076
C     2.045701   -3.356861    1.012200   -0.007321    0.011507   -0.004780
C     4.426965   -0.098410    0.645672    0.000227    0.000515    0.003756
O     1.700919    5.057036    0.808971    0.002158    0.008488    0.007716
O    -3.383857    3.026267    1.418704   -0.001343   -0.001861    0.004069
O    -5.175318   -1.130149    0.506829   -0.002926   -0.002099    0.002640
O    -1.770578   -4.940090    0.624046   -0.002023   -0.001898    0.003637
O     3.431079   -3.474439    1.249496   -0.004193   -0.003264    0.010093
O     5.062538    1.176154    0.500489    0.000207   -0.000527    0.012077
C     3.582089    3.988441    1.788498   -0.001262    0.002911   -0.004559
C    -1.307371    2.362100    2.234143   -0.006492   -0.002226    0.002645
C    -5.170929    0.649429    2.004877    0.003370    0.001079   -0.004383
C    -3.454752   -3.716937    1.747689   -0.001332    0.001365   -0.003601
C     1.335192   -3.249115    2.359798   -0.023310    0.034227   -0.015654
C     4.977507   -0.685526    1.957217    0.007019   -0.003157   -0.007297
O     4.452656    5.037994    1.448405    0.004369    0.000983    0.002523
O    -1.405628    1.040506    2.246545    0.005042    0.006454    0.010817
O    -6.537902    0.947437    1.922171   -0.000902   -0.001152    0.001545
O    -4.435073   -4.689042    1.503384    0.000015   -0.001118    0.001503
O     1.892178   -2.280812    3.081979    0.009459    0.004008    0.012826
O     6.329940   -1.054309    1.837968    0.004853   -0.001342    0.004995
H     0.127806    6.053417    0.083209    0.005578    0.002712    0.000144
H    -5.267562    3.286675    0.775564   -0.000152    0.007428   -0.000322
H    -5.454689   -2.752582   -0.597481   -0.003719    0.000393   -0.000064
H    -0.372405   -6.096496   -0.207983   -0.004075   -0.001213    0.005635
H     5.229846   -3.316603    0.377129   -0.003201   -0.008804    0.002547
H     5.388136    2.792576   -0.606828   -0.001747   -0.007402   -0.003021
H     2.003312    5.967215   -1.590298   -0.007111    0.008679    0.012783
H    -4.090439    5.403909    0.366775   -0.000728   -0.004411    0.003748
H    -6.492272   -0.892832   -1.830886    0.000704   -0.004312    0.005617
H    -2.273408   -5.754278   -1.805549    0.001551   -0.004247    0.006426
H     4.182359   -5.419236   -0.456220   -0.001048    0.001538    0.005431
H     6.244492    0.887058   -1.923426   -0.002280    0.007354    0.013074
H    -0.525767    5.623227   -2.159999   -0.005764   -0.032274   -0.003375
H    -4.730897    4.032629   -2.002762    0.023704    0.000146   -0.004460
H    -4.252977   -2.076148   -3.057504    0.010863    0.018164   -0.004362
H     0.328059   -5.364101   -2.492279    0.004583    0.027533   -0.003295
H     4.519242   -3.400658   -2.392372   -0.024980    0.005967    0.003379
H     4.034789    2.258973   -2.994235   -0.039117   -0.053098   -0.000469
H     1.213428    3.024502   -1.701909   -0.022793    0.018084   -0.025732
H    -2.274319    3.833043   -1.528550   -0.005763    0.007479   -0.008495
H    -3.672226    0.279652   -2.016956   -0.002687    0.001756   -0.003737
H    -1.251311   -2.872804   -1.790442    0.005637   -0.010674    0.001602
H     2.119793   -3.581095   -1.761777   -0.001120   -0.004435   -0.002113
H     3.348676   -0.096216   -1.952388   -0.000814   -0.016751   -0.013084
H     2.072615    4.063606   -3.670073   -0.012729   -0.058942   -0.006603
H    -2.778414    6.174341   -1.803022    0.013909   -0.013287   -0.021609
H    -5.372876    0.651904   -3.681593    0.027976    0.007294   -0.007763
H    -2.207165   -3.823510   -3.796522    0.016659    0.027834   -0.002666
H     2.641807   -5.730098   -2.655394   -0.013772    0.023250   -0.012851
H     4.908461   -0.581093   -3.731824   -0.054543   -0.008665   -0.003598
H     3.874050    4.223721   -0.827235   -0.014387    0.008385    0.013489
H    -1.546044    4.989479    1.215739   -0.008804   -0.003757   -0.000023
H    -6.030076    1.396547   -0.436681   -0.002105   -0.006961    0.002577
H    -3.908563   -4.082136   -0.882015    0.003422   -0.004406    0.008706
H     1.531415   -5.430813    0.592950   -0.000248    0.005503    0.008408
H     5.752369   -1.346353   -0.542762   -0.000193    0.006232    0.002636
H     1.785245    3.015796    1.037302    0.006982    0.024255    0.075867
H    -1.962716    2.119307    0.216086   -0.003723   -0.022335    0.003682
H    -3.510355    0.102087    0.712915    0.001321   -0.008642    0.008105
H    -1.672634   -2.887002    0.836126    0.000494   -0.001763    0.024474
H     1.838915   -2.395967    0.511906    0.016404    0.010296   -0.009418
H     3.341749    0.036316    0.712575    0.007489   -0.036633    0.101863
H     4.182286    3.078046    1.796766   -0.000379    0.001767    0.003005
H     3.130058    4.151940    2.771744    0.012672   -0.001505    0.007281
H    -4.991333   -0.153105    2.729502    0.007111    0.007494    0.004882
H    -4.663073    1.553126    2.336796   -0.000810    0.002968   -0.002054
H    -3.972110   -2.758101    1.809065   -0.003535    0.000286   -0.001603
H    -2.927208   -3.916972    2.687142   -0.000972    0.011798    0.001670
H     4.855930    0.068429    2.740286    0.003006   -0.016179    0.011453
H     4.420275   -1.586243    2.221308    0.007165   -0.001080    0.002498
H     3.928555    5.849782    1.418165   -0.005120   -0.007154   -0.045123
H    -7.000089    0.137010    1.665200    0.004465    0.002850   -0.019844
H    -3.985436   -5.542409    1.424654    0.002333    0.001604   -0.018592
H     6.834634   -0.254725    1.634354   -0.010856   -0.001768   -0.040433
C     0.948834   -1.513363    3.820123    0.015856    0.027567    0.001244
H     1.524676   -0.824471    4.442475    0.016801   -0.069796    0.101890
H     0.291624   -2.149945    4.436608   -0.069941    0.016939   -0.118164
O     0.413761   -3.927923    2.724698    0.000643   -0.006330    0.006796
C    -0.808512    0.335170    3.345466    0.026200    0.006737   -0.013944
H    -1.611489   -0.133439    3.932003    0.059181   -0.129194   -0.103638
H    -0.243772    1.039019    3.973964   -0.092558    0.039266    0.047446
O    -0.774726    3.032882    3.068505   -0.011984    0.008518    0.013999
C     0.033306   -0.811100    2.814775    0.271567    0.226118   -0.106560
O    -0.208681   -1.381952    1.746466    0.025391   -0.028858    0.004744
H    -1.103201   -0.613930    0.358198    0.043592   -0.016020   -0.004101
O    -1.377082   -0.188318   -0.481682    0.021838    0.022521    0.019086
H     0.424946    0.600395   -0.672562   -0.201352   -0.007922    0.251009
O     0.911450    1.228797   -0.130499    0.054947   -0.086848    0.200917
H     1.337209    0.533041    1.697444   -0.425288    0.470734   -1.722209
O     1.558115    0.319366    2.160900   -0.237318   -0.059774   -0.084163
O     1.799963    1.527938    2.893617   -0.031212   -0.068450   -0.008647
H     2.688902    1.289852    3.249967   -0.003881   -0.069012   -0.160718
H    -1.979159   -0.851616   -0.865407    0.197197    0.027045   -0.175014
H     1.759520    1.362063   -0.567042    0.062284   -0.114004    0.106343
140
* Frequency(6) -576.3342
C     0.667375    5.122607   -0.125427   -0.008437   -0.006077   -0.001007
C    -4.262903    3.249870    0.336037    0.001060   -0.002726    0.000586
C    -4.906311   -1.805526   -0.678011    0.002319   -0.002128   -0.000879
C    -0.799672   -5.100067   -0.371577    0.001529    0.001256   -0.001052
C     4.178545   -3.311308    0.067800   -0.002517    0.005834   -0.006164
C     4.784970    1.878001   -0.663624   -0.019512    0.003304   -0.004904
O    -0.191063    4.004264   -0.008741    0.002959    0.002915    0.002430
O    -4.160519    2.254127   -0.633607   -0.002531   -0.002503    0.004871
O    -3.526785   -2.050320   -0.849907   -0.002873   -0.003396    0.001097
O     0.187040   -4.103145   -0.282877    0.000187   -0.003445   -0.004704
O     3.837038   -2.132983   -0.602985    0.004358   -0.006488    0.004479
O     3.410623    2.204524   -0.770275   -0.000882   -0.001895    0.009342
C     1.268403    5.148889   -1.542973    0.000904   -0.000687    0.000179
C    -3.909624    4.588029   -0.340417    0.003625   -0.001558    0.000009
C    -5.404310   -1.006673   -1.892579    0.001643    0.000997   -0.000691
C    -1.463141   -5.012981   -1.758513   -0.000666    0.000050   -0.001150
C     3.876377   -4.469098   -0.903190   -0.001455   -0.000515   -0.000593
C     5.164558    1.070529   -1.919039   -0.004962   -0.000039   -0.001654
O     0.313800    5.313697   -2.556904    0.001480    0.002627   -0.001226
O    -4.712630    4.834626   -1.457755   -0.000896   -0.000539    0.000936
O    -5.135385   -1.666424   -3.099693   -0.000261   -0.000169    0.000872
O    -0.585499   -5.249410   -2.824491   -0.001521   -0.000770    0.001107
O     4.591026   -4.324601   -2.099670   -0.001652    0.001667    0.001783
O     4.870048    1.769813   -3.099026   -0.000462    0.000424    0.003378
C     1.983672    3.809319   -1.749657   -0.006761   -0.006963   -0.003079
C    -2.424571    4.592642   -0.743338    0.002195   -0.004564   -0.001959
C    -4.759966    0.386518   -1.870439    0.002956    0.001159   -0.002354
C    -2.068448   -3.606838   -1.879331    0.001002    0.001768   -0.002024
C     2.365040   -4.490672   -1.188383   -0.001088    0.001837   -0.000315
C     4.434461   -0.279907   -1.879454   -0.009800    0.000445   -0.001583
O     2.668338    3.739754   -2.978179    0.006320    0.002289   -0.000469
O    -2.058244    5.864022   -1.228027   -0.000988    0.005008    0.001448
O    -5.298033    1.198627   -2.884124   -0.002750    0.000548   -0.001651
O    -2.746438   -3.423084   -3.097885   -0.000737   -0.000307    0.000336
O     2.006993   -5.636123   -1.927009   -0.002135   -0.001462    0.000709
O     4.844310   -1.121046   -2.929349    0.005857   -0.005779    0.000190
C     3.014171    3.566122   -0.643390   -0.006547   -0.004596    0.001594
C    -1.516208    4.216006    0.438396    0.008250   -0.004983   -0.001271
C    -4.977423    1.092735   -0.525683    0.000782    0.002115   -0.002196
C    -3.068587   -3.389266   -0.742714    0.000267    0.002379   -0.000754
C     1.510471   -4.458357    0.089697   -0.001313    0.003638    0.000768
C     4.707710   -1.011046   -0.560342   -0.003504    0.003025   -0.000502
C     2.448798    3.841934    0.763109   -0.004623    0.002719    0.003534
C    -2.040475    2.887112    0.999074    0.010694   -0.010564   -0.009793
C    -4.603941    0.171981    0.654889    0.002598    0.000068   -0.002596
C    -2.412964   -3.666409    0.622346    0.000361    0.001577   -0.000076
C     2.045362   -3.356329    1.011979   -0.007321    0.011507   -0.004780
C     4.426975   -0.098386    0.645845    0.000227    0.000515    0.003756
O     1.701019    5.057429    0.809328    0.002158    0.008488    0.007716
O    -3.383920    3.026180    1.418893   -0.001343   -0.001861    0.004069
O    -5.175454   -1.130246    0.506951   -0.002926   -0.002099    0.002640
O    -1.770671   -4.940178    0.624214   -0.002023   -0.001898    0.003637
O     3.430885   -3.474590    1.249964   -0.004193   -0.003264    0.010093
O     5.062547    1.176129    0.501048    0.000207   -0.000527    0.012077
C     3.582031    3.988576    1.788287   -0.001262    0.002911   -0.004559
C    -1.307672    2.361997    2.234265   -0.006492   -0.002226    0.002645
C    -5.170773    0.649479    2.004674    0.003370    0.001079   -0.004383
C    -3.454814   -3.716874    1.747522   -0.001332    0.001365   -0.003601
C     1.334113   -3.247531    2.359074   -0.023310    0.034227   -0.015654
C     4.977832   -0.685672    1.956879    0.007019   -0.003157   -0.007297
O     4.452858    5.038039    1.448522    0.004369    0.000983    0.002523
O    -1.405394    1.040804    2.247046    0.005042    0.006454    0.010817
O    -6.537944    0.947384    1.922242   -0.000902   -0.001152    0.001545
O    -4.435072   -4.689093    1.503454    0.000015   -0.001118    0.001503
O     1.892616   -2.280627    3.082572    0.009459    0.004008    0.012826
O     6.330165   -1.054371    1.838199    0.004853   -0.001342    0.004995
H     0.128065    6.053542    0.083216    0.005578    0.002712    0.000144
H    -5.267569    3.287018    0.775549   -0.000152    0.007428   -0.000322
H    -5.454861   -2.752564   -0.597484   -0.003719    0.000393   -0.000064
H    -0.372594   -6.096553   -0.207722   -0.004075   -0.001213    0.005635
H     5.229698   -3.317010    0.377247   -0.003201   -0.008804    0.002547
H     5.388055    2.792234   -0.606968   -0.001747   -0.007402   -0.003021
H     2.002982    5.967617   -1.589707   -0.007111    0.008679    0.012783
H    -4.090473    5.403705    0.366949   -0.000728   -0.004411    0.003748
H    -6.492239   -0.893032   -1.830626    0.000704   -0.004312    0.005617
H    -2.273336   -5.754475   -1.805252    0.001551   -0.004247    0.006426
H     4.182311   -5.419165   -0.455968   -0.001048    0.001538    0.005431
H     6.244386    0.887398   -1.922821   -0.002280    0.007354    0.013074
H    -0.526034    5.621734   -2.160155   -0.005764   -0.032274   -0.003375
H    -4.729800    4.032636   -2.002968    0.023704    0.000146   -0.004460
H    -4.252474   -2.075307   -3.057706    0.010863    0.018164   -0.004362
H     0.328271   -5.362826   -2.492431    0.004583    0.027533   -0.003295
H     4.518085   -3.400382   -2.392216   -0.024980    0.005967    0.003379
H     4.032979    2.256515   -2.994256   -0.039117   -0.053098   -0.000469
H     1.212374    3.025339   -1.703100   -0.022793    0.018084   -0.025732
H    -2.274585    3.833390   -1.528943   -0.005763    0.007479   -0.008495
H    -3.672351    0.279733   -2.017129   -0.002687    0.001756   -0.003737
H    -1.251051   -2.873298   -1.790368    0.005637   -0.010674    0.001602
H     2.119741   -3.581301   -1.761875   -0.001120   -0.004435   -0.002113
H     3.348638   -0.096992   -1.952993   -0.000814   -0.016751   -0.013084
H     2.072026    4.060878   -3.670378   -0.012729   -0.058942   -0.006603
H    -2.777771    6.173726   -1.804022    0.013909   -0.013287   -0.021609
H    -5.371581    0.652242   -3.681952    0.027976    0.007294   -0.007763
H    -2.206394   -3.822222   -3.796646    0.016659    0.027834   -0.002666
H     2.641169   -5.729022   -2.655989   -0.013772    0.023250   -0.012851
H     4.905936   -0.581494   -3.731991   -0.054543   -0.008665   -0.003598
H     3.873385    4.224109   -0.826610   -0.014387    0.008385    0.013489
H    -1.546451    4.989305    1.215738   -0.008804   -0.003757   -0.000023
H    -6.030173    1.396225   -0.436562   -0.002105   -0.006961    0.002577
H    -3.908405   -4.082340   -0.881612    0.003422   -0.004406    0.008706
H     1.531404   -5.430558    0.593339   -0.000248    0.005503    0.008408
H     5.752361   -1.346064   -0.542640   -0.000193    0.006232    0.002636
H     1.785568    3.016918    1.040813    0.006982    0.024255    0.075867
H    -1.962888    2.118273    0.216256   -0.003723   -0.022335    0.003682
H    -3.510294    0.101687    0.713290    0.001321   -0.008642    0.008105
H    -1.672611   -2.887083    0.837259    0.000494   -0.001763    0.024474
H     1.839674   -2.395491    0.511471    0.016404    0.010296   -0.009418
H     3.342096    0.034621    0.717289    0.007489   -0.036633    0.101863
H     4.182269    3.078128    1.796906   -0.000379    0.001767    0.003005
H     3.130645    4.151870    2.772081    0.012672   -0.001505    0.007281
H    -4.991004   -0.152758    2.729728    0.007111    0.007494    0.004882
H    -4.663111    1.553263    2.336701   -0.000810    0.002968   -0.002054
H    -3.972273   -2.758088    1.808991   -0.003535    0.000286   -0.001603
H    -2.927253   -3.916426    2.687220   -0.000972    0.011798    0.001670
H     4.856069    0.067681    2.740816    0.003006   -0.016179    0.011453
H     4.420607   -1.586293    2.221424    0.007165   -0.001080    0.002498
H     3.928318    5.849451    1.416076   -0.005120   -0.007154   -0.045123
H    -6.999882    0.137142    1.664282    0.004465    0.002850   -0.019844
H    -3.985328   -5.542335    1.423794    0.002333    0.001604   -0.018592
H     6.834132   -0.254807    1.632482   -0.010856   -0.001768   -0.040433
C     0.949568   -1.512087    3.820181    0.015856    0.027567    0.001244
H     1.525454   -0.827701    4.447191    0.016801   -0.069796    0.101890
H     0.288387   -2.149161    4.431139   -0.069941    0.016939   -0.118164
O     0.413791   -3.928215    2.725013    0.000643   -0.006330    0.006796
C    -0.807299    0.335481    3.344821    0.026200    0.006737   -0.013944
H    -1.608750   -0.139419    3.927207    0.059181   -0.129194   -0.103638
H    -0.248055    1.040836    3.976160   -0.092558    0.039266    0.047446
O    -0.775281    3.033276    3.069153   -0.011984    0.008518    0.013999
C     0.045874   -0.800635    2.809843    0.271567    0.226118   -0.106560
O    -0.207506   -1.383287    1.746685    0.025391   -0.028858    0.004744
H    -1.101184   -0.614672    0.358008    0.043592   -0.016020   -0.004101
O    -1.376071   -0.187276   -0.480799    0.021838    0.022521    0.019086
H     0.415627    0.600029   -0.660945   -0.201352   -0.007922    0.251009
O     0.913993    1.224777   -0.121200    0.054947   -0.086848    0.200917
H     1.317526    0.554828    1.617737   -0.425288    0.470734   -1.722209
O     1.547132    0.316600    2.157005   -0.237318   -0.059774   -0.084163
O     1.798518    1.524770    2.893217   -0.031212   -0.068450   -0.008647
H     2.688723    1.286658    3.242528   -0.003881   -0.069012   -0.160718
H    -1.970032   -0.850365   -0.873507    0.197197    0.027045   -0.175014
H     1.762403    1.356787   -0.562120    0.062284   -0.114004    0.106343
140
* Frequency(6) -576.3342
C     0.666717    5.122132   -0.125506   -0.008437   -0.006077   -0.001007
C    -4.262820    3.249657    0.336083    0.001060   -0.002726    0.000586
C    -4.906130   -1.805692   -0.678080    0.002319   -0.002128   -0.000879
C    -0.799553   -5.099969   -0.371659    0.001529    0.001256   -0.001052
C     4.178348   -3.310853    0.067319   -0.002517    0.005834   -0.006164
C     4.783448    1.878259   -0.664007   -0.019512    0.003304   -0.004904
O    -0.190832    4.004491   -0.008551    0.002959    0.002915    0.002430
O    -4.160717    2.253931   -0.633227   -0.002531   -0.002503    0.004871
O    -3.527009   -2.050585   -0.849821   -0.002873   -0.003396    0.001097
O     0.187055   -4.103414   -0.283244    0.000187   -0.003445   -0.004704
O     3.837378   -2.133489   -0.602636    0.004358   -0.006488    0.004479
O     3.410555    2.204376   -0.769546   -0.000882   -0.001895    0.009342
C     1.268474    5.148836   -1.542959    0.000904   -0.000687    0.000179
C    -3.909341    4.587908   -0.340416    0.003625   -0.001558    0.000009
C    -5.404182   -1.006595   -1.892633    0.001643    0.000997   -0.000691
C    -1.463193   -5.012977   -1.758603   -0.000666    0.000050   -0.001150
C     3.876264   -4.469138   -0.903236   -0.001455   -0.000515   -0.000593
C     5.164171    1.070525   -1.919168   -0.004962   -0.000039   -0.001654
O     0.313916    5.313902   -2.556999    0.001480    0.002627   -0.001226
O    -4.712699    4.834584   -1.457682   -0.000896   -0.000539    0.000936
O    -5.135406   -1.666437   -3.099625   -0.000261   -0.000169    0.000872
O    -0.585618   -5.249470   -2.824405   -0.001521   -0.000770    0.001107
O     4.590897   -4.324471   -2.099531   -0.001652    0.001667    0.001783
O     4.870012    1.769846   -3.098762   -0.000462    0.000424    0.003378
C     1.983144    3.808776   -1.749897   -0.006761   -0.006963   -0.003079
C    -2.424400    4.592286   -0.743491    0.002195   -0.004564   -0.001959
C    -4.759735    0.386608   -1.870623    0.002956    0.001159   -0.002354
C    -2.068369   -3.606700   -1.879489    0.001002    0.001768   -0.002024
C     2.364955   -4.490529   -1.188407   -0.001088    0.001837   -0.000315
C     4.433696   -0.279872   -1.879578   -0.009800    0.000445   -0.001583
O     2.668831    3.739933   -2.978216    0.006320    0.002289   -0.000469
O    -2.058321    5.864412   -1.227914   -0.000988    0.005008    0.001448
O    -5.298248    1.198670   -2.884253   -0.002750    0.000548   -0.001651
O    -2.746495   -3.423108   -3.097859   -0.000737   -0.000307    0.000336
O     2.006826   -5.636237   -1.926953   -0.002135   -0.001462    0.000709
O     4.844767   -1.121497   -2.929334    0.005857   -0.005779    0.000190
C     3.013660    3.565763   -0.643266   -0.006547   -0.004596    0.001594
C    -1.515564    4.215617    0.438297    0.008250   -0.004983   -0.001271
C    -4.977362    1.092900   -0.525855    0.000782    0.002115   -0.002196
C    -3.068566   -3.389080   -0.742773    0.000267    0.002379   -0.000754
C     1.510368   -4.458073    0.089757   -0.001313    0.003638    0.000768
C     4.707436   -1.010810   -0.560381   -0.003504    0.003025   -0.000502
C     2.448437    3.842147    0.763384   -0.004623    0.002719    0.003534
C    -2.039641    2.886288    0.998310    0.010694   -0.010564   -0.009793
C    -4.603738    0.171986    0.654686    0.002598    0.000068   -0.002596
C    -2.412936   -3.666286    0.622340    0.000361    0.001577   -0.000076
C     2.044791   -3.355431    1.011606   -0.007321    0.011507   -0.004780
C     4.426993   -0.098346    0.646138    0.000227    0.000515    0.003756
O     1.701187    5.058091    0.809930    0.002158    0.008488    0.007716
O    -3.384024    3.026035    1.419210   -0.001343   -0.001861    0.004069
O    -5.175682   -1.130410    0.507157   -0.002926   -0.002099    0.002640
O    -1.770829   -4.940326    0.624498   -0.002023   -0.001898    0.003637
O     3.430557   -3.474844    1.250751   -0.004193   -0.003264    0.010093
O     5.062564    1.176088    0.501991    0.000207   -0.000527    0.012077
C     3.581932    3.988803    1.787931   -0.001262    0.002911   -0.004559
C    -1.308178    2.361824    2.234471   -0.006492   -0.002226    0.002645
C    -5.170510    0.649563    2.004332    0.003370    0.001079   -0.004383
C    -3.454918   -3.716767    1.747241   -0.001332    0.001365   -0.003601
C     1.332294   -3.244860    2.357852   -0.023310    0.034227   -0.015654
C     4.978380   -0.685918    1.956310    0.007019   -0.003157   -0.007297
O     4.453199    5.038116    1.448719    0.004369    0.000983    0.002523
O    -1.405001    1.041308    2.247890    0.005042    0.006454    0.010817
O    -6.538014    0.947294    1.922363   -0.000902   -0.001152    0.001545
O    -4.435071   -4.689181    1.503571    0.000015   -0.001118    0.001503
O     1.893354   -2.280314    3.083573    0.009459    0.004008    0.012826
O     6.330544   -1.054475    1.838589    0.004853   -0.001342    0.004995
H     0.128500    6.053754    0.083227    0.005578    0.002712    0.000144
H    -5.267581    3.287598    0.775524   -0.000152    0.007428   -0.000322
H    -5.455151   -2.752534   -0.597489   -0.003719    0.000393   -0.000064
H    -0.372912   -6.096647   -0.207282   -0.004075   -0.001213    0.005635
H     5.229448   -3.317697    0.377445   -0.003201   -0.008804    0.002547
H     5.387919    2.791656   -0.607204   -0.001747   -0.007402   -0.003021
H     2.002428    5.968294   -1.588709   -0.007111    0.008679    0.012783
H    -4.090529    5.403360    0.367241   -0.000728   -0.004411    0.003748
H    -6.492184   -0.893368   -1.830188    0.000704   -0.004312    0.005617
H    -2.273215   -5.754806   -1.804750    0.001551   -0.004247    0.006426
H     4.182229   -5.419045   -0.455544   -0.001048    0.001538    0.005431
H     6.244208    0.887972   -1.921801   -0.002280    0.007354    0.013074
H    -0.526484    5.619215   -2.160418   -0.005764   -0.032274   -0.003375
H    -4.727950    4.032648   -2.003316    0.023704    0.000146   -0.004460
H    -4.251626   -2.073890   -3.058046    0.010863    0.018164   -0.004362
H     0.328629   -5.360678   -2.492689    0.004583    0.027533   -0.003295
H     4.516136   -3.399917   -2.391952   -0.024980    0.005967    0.003379
H     4.029926    2.252372   -2.994293   -0.039117   -0.053098   -0.000469
H     1.210595    3.026750   -1.705108   -0.022793    0.018084   -0.025732
H    -2.275035    3.833973   -1.529606   -0.005763    0.007479   -0.008495
H    -3.672560    0.279870   -2.017421   -0.002687    0.001756   -0.003737
H    -1.250611   -2.874131   -1.790243    0.005637   -0.010674    0.001602
H     2.119654   -3.581647   -1.762040   -0.001120   -0.004435   -0.002113
H     3.348575   -0.098299   -1.954014   -0.000814   -0.016751   -0.013084
H     2.071032    4.056279   -3.670893   -0.012729   -0.058942   -0.006603
H    -2.776685    6.172689   -1.805709    0.013909   -0.013287   -0.021609
H    -5.369398    0.652811   -3.682558    0.027976    0.007294   -0.007763
H    -2.205094   -3.820050   -3.796854    0.016659    0.027834   -0.002666
H     2.640095   -5.727208   -2.656991   -0.013772    0.023250   -0.012851
H     4.901680   -0.582170   -3.732272   -0.054543   -0.008665   -0.003598
H     3.872262    4.224763   -0.825558   -0.014387    0.008385    0.013489
H    -1.547138    4.989012    1.215736   -0.008804   -0.003757   -0.000023
H    -6.030338    1.395681   -0.436361   -0.002105   -0.006961    0.002577
H    -3.908138   -4.082684   -0.880933    0.003422   -0.004406    0.008706
H     1.531384   -5.430129    0.593996   -0.000248    0.005503    0.008408
H     5.752345   -1.345578   -0.542435   -0.000193    0.006232    0.002636
H     1.786113    3.018811    1.046734    0.006982    0.024255    0.075867
H    -1.963179    2.116530    0.216544   -0.003723   -0.022335    0.003682
H    -3.510191    0.101013    0.713923    0.001321   -0.008642    0.008105
H    -1.672572   -2.887221    0.839169    0.000494   -0.001763    0.024474
H     1.840954   -2.394687    0.510736    0.016404    0.010296   -0.009418
H     3.342680    0.031762    0.725238    0.007489   -0.036633    0.101863
H     4.182239    3.078266    1.797140   -0.000379    0.001767    0.003005
H     3.131634    4.151753    2.772650    0.012672   -0.001505    0.007281
H    -4.990449   -0.152173    2.730109    0.007111    0.007494    0.004882
H    -4.663174    1.553495    2.336541   -0.000810    0.002968   -0.002054
H    -3.972549   -2.758065    1.808866   -0.003535    0.000286   -0.001603
H    -2.927329   -3.915505    2.687350   -0.000972    0.011798    0.001670
H     4.856304    0.066418    2.741710    0.003006   -0.016179    0.011453
H     4.421166   -1.586378    2.221619    0.007165   -0.001080    0.002498
H     3.927919    5.848893    1.412555   -0.005120   -0.007154   -0.045123
H    -6.999534    0.137364    1.662733    0.004465    0.002850   -0.019844
H    -3.985146   -5.542210    1.422343    0.002333    0.001604   -0.018592
H     6.833285   -0.254945    1.629327   -0.010856   -0.001768   -0.040433
C     0.950805   -1.509936    3.820278    0.015856    0.027567    0.001244
H     1.526765   -0.833148    4.455142    0.016801   -0.069796    0.101890
H     0.282929   -2.147839    4.421919   -0.069941    0.016939   -0.118164
O     0.413841   -3.928709    2.725543    0.000643   -0.006330    0.006796
C    -0.805254    0.336007    3.343733    0.026200    0.006737   -0.013944
H    -1.604132   -0.149500    3.919119    0.059181   -0.129194   -0.103638
H    -0.255278    1.043900    3.979862   -0.092558    0.039266    0.047446
O    -0.776216    3.033941    3.070246   -0.011984    0.008518    0.013999
C     0.067066   -0.782990    2.801528    0.271567    0.226118   -0.106560
O    -0.205524   -1.385539    1.747055    0.025391   -0.028858    0.004744
H    -1.097782   -0.615922    0.357688    0.043592   -0.016020   -0.004101
O    -1.374367   -0.185519   -0.479309    0.021838    0.022521    0.019086
H     0.399915    0.599411   -0.641357   -0.201352   -0.007922    0.251009
O     0.918281    1.218000   -0.105522    0.054947   -0.086848    0.200917
H     1.284339    0.591561    1.483347   -0.425288    0.470734   -1.722209
O     1.528613    0.311935    2.150438   -0.237318   -0.059774   -0.084163
O     1.796083    1.519429    2.892542   -0.031212   -0.068450   -0.008647
H     2.688420    1.281272    3.229987   -0.003881   -0.069012   -0.160718
H    -1.954644   -0.848254   -0.887164    0.197197    0.027045   -0.175014
H     1.767263    1.347891   -0.553822    0.062284   -0.114004    0.106343
140
* Frequency(6) -576.3342
C     0.665862    5.121517   -0.125608   -0.008437   -0.006077   -0.001007
C    -4.262712    3.249381    0.336142    0.001060   -0.002726    0.000586
C    -4.905895   -1.805907   -0.678169    0.002319   -0.002128   -0.000879
C    -0.799398   -5.099842   -0.371765    0.001529    0.001256   -0.001052
C     4.178093   -3.310262    0.066695   -0.002517    0.005834   -0.006164
C     4.781470    1.878594   -0.664504   -0.019512    0.003304   -0.004904
O    -0.190532    4.004787   -0.008305    0.002959    0.002915    0.002430
O    -4.160973    2.253678   -0.632734   -0.002531   -0.002503    0.004871
O    -3.527301   -2.050929   -0.849710   -0.002873   -0.003396    0.001097
O     0.187074   -4.103763   -0.283720    0.000187   -0.003445   -0.004704
O     3.837820   -2.134147   -0.602182    0.004358   -0.006488    0.004479
O     3.410465    2.204184   -0.768600   -0.000882   -0.001895    0.009342
C     1.268565    5.148766   -1.542941    0.000904   -0.000687    0.000179
C    -3.908974    4.587750   -0.340415    0.003625   -0.001558    0.000009
C    -5.404016   -1.006494   -1.892703    0.001643    0.000997   -0.000691
C    -1.463260   -5.012972   -1.758719   -0.000666    0.000050   -0.001150
C     3.876116   -4.469191   -0.903297   -0.001455   -0.000515   -0.000593
C     5.163668    1.070521   -1.919336   -0.004962   -0.000039   -0.001654
O     0.314066    5.314168   -2.557124    0.001480    0.002627   -0.001226
O    -4.712790    4.834529   -1.457587   -0.000896   -0.000539    0.000936
O    -5.135432   -1.666454   -3.099537   -0.000261   -0.000169    0.000872
O    -0.585772   -5.249548   -2.824293   -0.001521   -0.000770    0.001107
O     4.590730   -4.324302   -2.099351   -0.001652    0.001667    0.001783
O     4.869965    1.769889   -3.098420   -0.000462    0.000424    0.003378
C     1.982459    3.808070   -1.750209   -0.006761   -0.006963   -0.003079
C    -2.424177    4.591824   -0.743689    0.002195   -0.004564   -0.001959
C    -4.759436    0.386726   -1.870861    0.002956    0.001159   -0.002354
C    -2.068268   -3.606521   -1.879694    0.001002    0.001768   -0.002024
C     2.364845   -4.490343   -1.188439   -0.001088    0.001837   -0.000315
C     4.432703   -0.279827   -1.879738   -0.009800    0.000445   -0.001583
O     2.669472    3.740165   -2.978264    0.006320    0.002289   -0.000469
O    -2.058421    5.864920   -1.227768   -0.000988    0.005008    0.001448
O    -5.298526    1.198726   -2.884420   -0.002750    0.000548   -0.001651
O    -2.746570   -3.423139   -3.097825   -0.000737   -0.000307    0.000336
O     2.006610   -5.636385   -1.926882   -0.002135   -0.001462    0.000709
O     4.845360   -1.122082   -2.929315    0.005857   -0.005779    0.000190
C     3.012997    3.565297   -0.643104   -0.006547   -0.004596    0.001594
C    -1.514729    4.215112    0.438168    0.008250   -0.004983   -0.001271
C    -4.977283    1.093115   -0.526077    0.000782    0.002115   -0.002196
C    -3.068539   -3.388839   -0.742849    0.000267    0.002379   -0.000754
C     1.510235   -4.457704    0.089835   -0.001313    0.003638    0.000768
C     4.707081   -1.010504   -0.560432   -0.003504    0.003025   -0.000502
C     2.447968    3.842422    0.763742   -0.004623    0.002719    0.003534
C    -2.038557    2.885218    0.997318    0.010694   -0.010564   -0.009793
C    -4.603475    0.171993    0.654423    0.002598    0.000068   -0.002596
C    -2.412899   -3.666126    0.622333    0.000361    0.001577   -0.000076
C     2.044049   -3.354265    1.011121   -0.007321    0.011507   -0.004780
C     4.427016   -0.098293    0.646519    0.000227    0.000515    0.003756
O     1.701406    5.058951    0.810712    0.002158    0.008488    0.007716
O    -3.384160    3.025847    1.419623   -0.001343   -0.001861    0.004069
O    -5.175978   -1.130622    0.507425   -0.002926   -0.002099    0.002640
O    -1.771034   -4.940518    0.624867   -0.002023   -0.001898    0.003637
O     3.430133   -3.475175    1.251774   -0.004193   -0.003264    0.010093
O     5.062585    1.176035    0.503215    0.000207   -0.000527    0.012077
C     3.581804    3.989098    1.787469   -0.001262    0.002911   -0.004559
C    -1.308836    2.361598    2.234739   -0.006492   -0.002226    0.002645
C    -5.170169    0.649672    2.003888    0.003370    0.001079   -0.004383
C    -3.455053   -3.716629    1.746876   -0.001332    0.001365   -0.003601
C     1.329932   -3.241392    2.356266   -0.023310    0.034227   -0.015654
C     4.979091   -0.686238    1.955570    0.007019   -0.003157   -0.007297
O     4.453642    5.038215    1.448974    0.004369    0.000983    0.002523
O    -1.404490    1.041962    2.248986    0.005042    0.006454    0.010817
O    -6.538106    0.947177    1.922519   -0.000902   -0.001152    0.001545
O    -4.435070   -4.689294    1.503723    0.000015   -0.001118    0.001503
O     1.894313   -2.279908    3.084873    0.009459    0.004008    0.012826
O     6.331036   -1.054611    1.839095    0.004853   -0.001342    0.004995
H     0.129065    6.054029    0.083242    0.005578    0.002712    0.000144
H    -5.267597    3.288351    0.775492   -0.000152    0.007428   -0.000322
H    -5.455528   -2.752494   -0.597496   -0.003719    0.000393   -0.000064
H    -0.373325   -6.096770   -0.206711   -0.004075   -0.001213    0.005635
H     5.229124   -3.318589    0.377704   -0.003201   -0.008804    0.002547
H     5.387742    2.790906   -0.607510   -0.001747   -0.007402   -0.003021
H     2.001707    5.969174   -1.587414   -0.007111    0.008679    0.012783
H    -4.090603    5.402913    0.367621   -0.000728   -0.004411    0.003748
H    -6.492113   -0.893805   -1.829618    0.000704   -0.004312    0.005617
H    -2.273058   -5.755236   -1.804099    0.001551   -0.004247    0.006426
H     4.182123   -5.418889   -0.454994   -0.001048    0.001538    0.005431
H     6.243977    0.888717   -1.920476   -0.002280    0.007354    0.013074
H    -0.527068    5.615945   -2.160760   -0.005764   -0.032274   -0.003375
H    -4.725548    4.032662   -2.003768    0.023704    0.000146   -0.004460
H    -4.250526   -2.072049   -3.058488    0.010863    0.018164   -0.004362
H     0.329093   -5.357888   -2.493022    0.004583    0.027533   -0.003295
H     4.513605   -3.399312   -2.391610   -0.024980    0.005967    0.003379
H     4.025962    2.246991   -2.994341   -0.039117   -0.053098   -0.000469
H     1.208285    3.028583   -1.707716   -0.022793    0.018084   -0.025732
H    -2.275619    3.834731   -1.530467   -0.005763    0.007479   -0.008495
H    -3.672833    0.280048   -2.017800   -0.002687    0.001756   -0.003737
H    -1.250040   -2.875213   -1.790081    0.005637   -0.010674    0.001602
H     2.119540   -3.582096   -1.762254   -0.001120   -0.004435   -0.002113
H     3.348492   -0.099996   -1.955340   -0.000814   -0.016751   -0.013084
H     2.069743    4.050306   -3.671563   -0.012729   -0.058942   -0.006603
H    -2.775276    6.171343   -1.807898    0.013909   -0.013287   -0.021609
H    -5.366563    0.653550   -3.683345    0.027976    0.007294   -0.007763
H    -2.203406   -3.817229   -3.797124    0.016659    0.027834   -0.002666
H     2.638699   -5.724852   -2.658294   -0.013772    0.023250   -0.012851
H     4.896154   -0.583048   -3.732636   -0.054543   -0.008665   -0.003598
H     3.870804    4.225613   -0.824191   -0.014387    0.008385    0.013489
H    -1.548030    4.988631    1.215734   -0.008804   -0.003757   -0.000023
H    -6.030551    1.394976   -0.436100   -0.002105   -0.006961    0.002577
H    -3.907791   -4.083130   -0.880050    0.003422   -0.004406    0.008706
H     1.531359   -5.429571    0.594848   -0.000248    0.005503    0.008408
H     5.752326   -1.344946   -0.542168   -0.000193    0.006232    0.002636
H     1.786820    3.021269    1.054421    0.006982    0.024255    0.075867
H    -1.963556    2.114267    0.216917   -0.003723   -0.022335    0.003682
H    -3.510057    0.100137    0.714744    0.001321   -0.008642    0.008105
H    -1.672522   -2.887400    0.841649    0.000494   -0.001763    0.024474
H     1.842617   -2.393644    0.509781    0.016404    0.010296   -0.009418
H     3.343439    0.028050    0.735560    0.007489   -0.036633    0.101863
H     4.182201    3.078445    1.797445   -0.000379    0.001767    0.003005
H     3.132918    4.151600    2.773388    0.012672   -0.001505    0.007281
H    -4.989728   -0.151414    2.730603    0.007111    0.007494    0.004882
H    -4.663256    1.553796    2.336332   -0.000810    0.002968   -0.002054
H    -3.972907   -2.758036    1.808703   -0.003535    0.000286   -0.001603
H    -2.927428   -3.914310    2.687519   -0.000972    0.011798    0.001670
H     4.856608    0.064779    2.742870    0.003006   -0.016179    0.011453
H     4.421892   -1.586487    2.221872    0.007165   -0.001080    0.002498
H     3.927400    5.848168    1.407983   -0.005120   -0.007154   -0.045123
H    -6.999081    0.137653    1.660722    0.004465    0.002850   -0.019844
H    -3.984910   -5.542047    1.420459    0.002333    0.001604   -0.018592
H     6.832185   -0.255124    1.625230   -0.010856   -0.001768   -0.040433
C     0.952412   -1.507142    3.820404    0.015856    0.027567    0.001244
H     1.528467   -0.840220    4.465466    0.016801   -0.069796    0.101890
H     0.275842   -2.146123    4.409945   -0.069941    0.016939   -0.118164
O     0.413906   -3.929351    2.726232    0.000643   -0.006330    0.006796
C    -0.802600    0.336690    3.342320    0.026200    0.006737   -0.013944
H    -1.598135   -0.162591    3.908618    0.059181   -0.129194   -0.103638
H    -0.264657    1.047879    3.984670   -0.092558    0.039266    0.047446
O    -0.777430    3.034804    3.071664   -0.011984    0.008518    0.013999
C     0.094584   -0.760077    2.790730    0.271567    0.226118   -0.106560
O    -0.202952   -1.388464    1.747536    0.025391   -0.028858    0.004744
H    -1.093365   -0.617545    0.357272    0.043592   -0.016020   -0.004101
O    -1.372154   -0.183237   -0.477375    0.021838    0.022521    0.019086
H     0.379512    0.598608   -0.615923   -0.201352   -0.007922    0.251009
O     0.923849    1.209200   -0.085163    0.054947   -0.086848    0.200917
H     1.241245    0.639260    1.308836   -0.425288    0.470734   -1.722209
O     1.504565    0.305879    2.141909   -0.237318   -0.059774   -0.084163
O     1.792920    1.512493    2.891666   -0.031212   -0.068450   -0.008647
H     2.688027    1.274279    3.213702   -0.003881   -0.069012   -0.160718
H    -1.934662   -0.845514   -0.904898    0.197197    0.027045   -0.175014
H     1.773574    1.336339   -0.543046    0.062284   -0.114004    0.106343
140
* Frequency(6) -576.3342
C     0.664903    5.120826   -0.125722   -0.008437   -0.006077   -0.001007
C    -4.262592    3.249071    0.336209    0.001060   -0.002726    0.000586
C    -4.905632   -1.806149   -0.678269    0.002319   -0.002128   -0.000879
C    -0.799224   -5.099699   -0.371885    0.001529    0.001256   -0.001052
C     4.177807   -3.309599    0.065994   -0.002517    0.005834   -0.006164
C     4.779253    1.878969   -0.665061   -0.019512    0.003304   -0.004904
O    -0.190196    4.005118   -0.008029    0.002959    0.002915    0.002430
O    -4.161261    2.253393   -0.632180   -0.002531   -0.002503    0.004871
O    -3.527627   -2.051315   -0.849585   -0.002873   -0.003396    0.001097
O     0.187095   -4.104155   -0.284255    0.000187   -0.003445   -0.004704
O     3.838315   -2.134884   -0.601673    0.004358   -0.006488    0.004479
O     3.410365    2.203969   -0.767538   -0.000882   -0.001895    0.009342
C     1.268668    5.148688   -1.542921    0.000904   -0.000687    0.000179
C    -3.908562    4.587573   -0.340414    0.003625   -0.001558    0.000009
C    -5.403829   -1.006381   -1.892781    0.001643    0.000997   -0.000691
C    -1.463336   -5.012966   -1.758850   -0.000666    0.000050   -0.001150
C     3.875951   -4.469249   -0.903364   -0.001455   -0.000515   -0.000593
C     5.163104    1.070517   -1.919524   -0.004962   -0.000039   -0.001654
O     0.314234    5.314467   -2.557263    0.001480    0.002627   -0.001226
O    -4.712892    4.834468   -1.457481   -0.000896   -0.000539    0.000936
O    -5.135462   -1.666473   -3.099438   -0.000261   -0.000169    0.000872
O    -0.585945   -5.249636   -2.824167   -0.001521   -0.000770    0.001107
O     4.590542   -4.324113   -2.099148   -0.001652    0.001667    0.001783
O     4.869913    1.769937   -3.098036   -0.000462    0.000424    0.003378
C     1.981691    3.807279   -1.750559   -0.006761   -0.006963   -0.003079
C    -2.423928    4.591305   -0.743912    0.002195   -0.004564   -0.001959
C    -4.759100    0.386857   -1.871129    0.002956    0.001159   -0.002354
C    -2.068154   -3.606320   -1.879924    0.001002    0.001768   -0.002024
C     2.364721   -4.490134   -1.188475   -0.001088    0.001837   -0.000315
C     4.431589   -0.279776   -1.879918   -0.009800    0.000445   -0.001583
O     2.670190    3.740425   -2.978317    0.006320    0.002289   -0.000469
O    -2.058533    5.865489   -1.227603   -0.000988    0.005008    0.001448
O    -5.298839    1.198788   -2.884608   -0.002750    0.000548   -0.001651
O    -2.746654   -3.423174   -3.097787   -0.000737   -0.000307    0.000336
O     2.006367   -5.636551   -1.926801   -0.002135   -0.001462    0.000709
O     4.846026   -1.122739   -2.929293    0.005857   -0.005779    0.000190
C     3.012253    3.564775   -0.642923   -0.006547   -0.004596    0.001594
C    -1.513791    4.214546    0.438024    0.008250   -0.004983   -0.001271
C    -4.977194    1.093355   -0.526327    0.000782    0.002115   -0.002196
C    -3.068509   -3.388569   -0.742935    0.000267    0.002379   -0.000754
C     1.510086   -4.457291    0.089922   -0.001313    0.003638    0.000768
C     4.706683   -1.010160   -0.560489   -0.003504    0.003025   -0.000502
C     2.447443    3.842731    0.764144   -0.004623    0.002719    0.003534
C    -2.037342    2.884017    0.996205    0.010694   -0.010564   -0.009793
C    -4.603180    0.172001    0.654128    0.002598    0.000068   -0.002596
C    -2.412858   -3.665947    0.622324    0.000361    0.001577   -0.000076
C     2.043217   -3.352957    1.010578   -0.007321    0.011507   -0.004780
C     4.427042   -0.098235    0.646946    0.000227    0.000515    0.003756
O     1.701651    5.059916    0.811589    0.002158    0.008488    0.007716
O    -3.384313    3.025635    1.420085   -0.001343   -0.001861    0.004069
O    -5.176311   -1.130861    0.507725   -0.002926   -0.002099    0.002640
O    -1.771264   -4.940734    0.625280   -0.002023   -0.001898    0.003637
O     3.429656   -3.475546    1.252921   -0.004193   -0.003264    0.010093
O     5.062608    1.175975    0.504587    0.000207   -0.000527    0.012077
C     3.581661    3.989429    1.786951   -0.001262    0.002911   -0.004559
C    -1.309574    2.361345    2.235040   -0.006492   -0.002226    0.002645
C    -5.169786    0.649795    2.003390    0.003370    0.001079   -0.004383
C    -3.455204   -3.716474    1.746467   -0.001332    0.001365   -0.003601
C     1.327283   -3.237502    2.354487   -0.023310    0.034227   -0.015654
C     4.979889   -0.686597    1.954741    0.007019   -0.003157   -0.007297
O     4.454138    5.038327    1.449261    0.004369    0.000983    0.002523
O    -1.403917    1.042695    2.250215    0.005042    0.006454    0.010817
O    -6.538208    0.947046    1.922695   -0.000902   -0.001152    0.001545
O    -4.435068   -4.689421    1.503894    0.000015   -0.001118    0.001503
O     1.895388   -2.279453    3.086331    0.009459    0.004008    0.012826
O     6.331587   -1.054764    1.839663    0.004853   -0.001342    0.004995
H     0.129699    6.054337    0.083258    0.005578    0.002712    0.000144
H    -5.267614    3.289195    0.775455   -0.000152    0.007428   -0.000322
H    -5.455951   -2.752449   -0.597503   -0.003719    0.000393   -0.000064
H    -0.373788   -6.096908   -0.206071   -0.004075   -0.001213    0.005635
H     5.228760   -3.319590    0.377993   -0.003201   -0.008804    0.002547
H     5.387543    2.790065   -0.607853   -0.001747   -0.007402   -0.003021
H     2.000899    5.970160   -1.585961   -0.007111    0.008679    0.012783
H    -4.090686    5.402412    0.368047   -0.000728   -0.004411    0.003748
H    -6.492033   -0.894295   -1.828980    0.000704   -0.004312    0.005617
H    -2.272882   -5.755719   -1.803369    0.001551   -0.004247    0.006426
H     4.182004   -5.418714   -0.454377   -0.001048    0.001538    0.005431
H     6.243718    0.889553   -1.918990   -0.002280    0.007354    0.013074
H    -0.527723    5.612277   -2.161144   -0.005764   -0.032274   -0.003375
H    -4.722854    4.032679   -2.004275    0.023704    0.000146   -0.004460
H    -4.249291   -2.069985   -3.058984    0.010863    0.018164   -0.004362
H     0.329614   -5.354759   -2.493397    0.004583    0.027533   -0.003295
H     4.510766   -3.398634   -2.391226   -0.024980    0.005967    0.003379
H     4.021517    2.240957   -2.994394   -0.039117   -0.053098   -0.000469
H     1.205695    3.030638   -1.710640   -0.022793    0.018084   -0.025732
H    -2.276274    3.835581   -1.531432   -0.005763    0.007479   -0.008495
H    -3.673138    0.280248   -2.018224   -0.002687    0.001756   -0.003737
H    -1.249399   -2.876426   -1.789899    0.005637   -0.010674    0.001602
H     2.119413   -3.582600   -1.762494   -0.001120   -0.004435   -0.002113
H     3.348400   -0.101900   -1.956827   -0.000814   -0.016751   -0.013084
H     2.068296    4.043608   -3.672313   -0.012729   -0.058942   -0.006603
H    -2.773695    6.169833   -1.810354    0.013909   -0.013287   -0.021609
H    -5.363384    0.654379   -3.684227    0.027976    0.007294   -0.007763
H    -2.201513   -3.814066   -3.797427    0.016659    0.027834   -0.002666
H     2.637134   -5.722210   -2.659754   -0.013772    0.023250   -0.012851
H     4.889955   -0.584033   -3.733045   -0.054543   -0.008665   -0.003598
H     3.869169    4.226566   -0.822658   -0.014387    0.008385    0.013489
H    -1.549031    4.988204    1.215731   -0.008804   -0.003757   -0.000023
H    -6.030790    1.394185   -0.435807   -0.002105   -0.006961    0.002577
H    -3.907402   -4.083631   -0.879061    0.003422   -0.004406    0.008706
H     1.531331   -5.428946    0.595803   -0.000248    0.005503    0.008408
H     5.752304   -1.344238   -0.541868   -0.000193    0.006232    0.002636
H     1.787614    3.024025    1.063043    0.006982    0.024255    0.075867
H    -1.963979    2.111729    0.217335   -0.003723   -0.022335    0.003682
H    -3.509907    0.099155    0.715665    0.001321   -0.008642    0.008105
H    -1.672466   -2.887600    0.844430    0.000494   -0.001763    0.024474
H     1.844481   -2.392474    0.508711    0.016404    0.010296   -0.009418
H     3.344290    0.023887    0.747136    0.007489   -0.036633    0.101863
H     4.182158    3.078646    1.797786   -0.000379    0.001767    0.003005
H     3.134358    4.151429    2.774215    0.012672   -0.001505    0.007281
H    -4.988920   -0.150562    2.731158    0.007111    0.007494    0.004882
H    -4.663348    1.554133    2.336099   -0.000810    0.002968   -0.002054
H    -3.973309   -2.758004    1.808521   -0.003535    0.000286   -0.001603
H    -2.927538   -3.912969    2.687709   -0.000972    0.011798    0.001670
H     4.856950    0.062940    2.744172    0.003006   -0.016179    0.011453
H     4.422706   -1.586610    2.222156    0.007165   -0.001080    0.002498
H     3.926818    5.847355    1.402855   -0.005120   -0.007154   -0.045123
H    -6.998574    0.137977    1.658467    0.004465    0.002850   -0.019844
H    -3.984645   -5.541865    1.418346    0.002333    0.001604   -0.018592
H     6.830951   -0.255325    1.620635   -0.010856   -0.001768   -0.040433
C     0.954214   -1.504010    3.820545    0.015856    0.027567    0.001244
H     1.530377   -0.848152    4.477045    0.016801   -0.069796    0.101890
H     0.267894   -2.144198    4.396517   -0.069941    0.016939   -0.118164
O     0.413979   -3.930070    2.727004    0.000643   -0.006330    0.006796
C    -0.799622    0.337455    3.340735    0.026200    0.006737   -0.013944
H    -1.591410   -0.177274    3.896840    0.059181   -0.129194   -0.103638
H    -0.275176    1.052342    3.990062   -0.092558    0.039266    0.047446
O    -0.778792    3.035772    3.073255   -0.011984    0.008518    0.013999
C     0.125446   -0.734380    2.778621    0.271567    0.226118   -0.106560
O    -0.200066   -1.391743    1.748075    0.025391   -0.028858    0.004744
H    -1.088411   -0.619366    0.356806    0.043592   -0.016020   -0.004101
O    -1.369672   -0.180677   -0.475206    0.021838    0.022521    0.019086
H     0.356629    0.597708   -0.587397   -0.201352   -0.007922    0.251009
O     0.930093    1.199330   -0.062330    0.054947   -0.086848    0.200917
H     1.192913    0.692757    1.113116   -0.425288    0.470734   -1.722209
O     1.477596    0.299086    2.132345   -0.237318   -0.059774   -0.084163
O     1.789373    1.504714    2.890683   -0.031212   -0.068450   -0.008647
H     2.687586    1.266436    3.195437   -0.003881   -0.069012   -0.160718
H    -1.912252   -0.842440   -0.924788    0.197197    0.027045   -0.175014
H     1.780652    1.323383   -0.530961    0.062284   -0.114004    0.106343
