19
Coordinates from ORCA-job job.QMRegion
  C          -1.22350217568310      3.06038723741602      2.56816706426481
  C           0.86820794710934     -1.88608566135576      1.43543848178917
  O          -1.38189885182143      1.94711408962966      3.28115621211671
  O           1.71497311924530     -1.23582410433772      2.22441325935706
  C           1.17795665805571     -0.49414264846804      3.34756597067911
  H           1.97057004435317     -0.53980497790124      4.08859206566053
  H           0.25996907823832     -0.99233741083538      3.64635479160544
  O          -0.34104517367687     -1.93833219176754      1.56711644044233
  C          -0.21501700659400      1.52367644021501      4.00753414617142
  H          -0.58815588913920      0.74236834242509      4.65515484951209
  H           0.21350334188428      2.35464072242164      4.56213249356097
  O          -0.44000835549750      3.95349943340139      2.83749867790785
  C           0.82865771112362      0.95497172254390      2.98786919666307
  O           0.49269402795876      1.11018491751108      1.72144893272089
  O           2.02526363638481      1.87596490127890      3.37415636462341
  O           3.31361935462732      1.22604640376909      3.23883696161060
  H           3.53652299334075      1.33636014087816      2.29519392883476
  H          -1.88468140283417      3.06311962533763      1.71090269950945
  H           1.44585597855211     -2.35512197182768      0.63701462244345
