133
Coordinates from ORCA-job job
  C           0.52189537216520      5.00186764192541     -0.43300135862979
  C          -4.43828901012946      3.42009052221287      0.42976868566232
  C          -5.07660520631288     -1.72418206035046      0.10237497684903
  C          -0.90059438184227     -4.81934984508768     -0.80747636748236
  C           4.14342228571816     -3.29255965844403     -0.16573546472130
  C           4.80415563979559      1.92922741889642     -0.15191608371329
  O          -0.34411084991945      3.92373155600878     -0.12462310931261
  O          -4.44796503505970      2.29274949457846     -0.38829239493715
  O          -3.70412324629895     -1.85453733575274     -0.23466129085556
  O           0.11155619006895     -3.85468258426739     -0.61309284836493
  O           3.91233775972617     -2.02280584311996     -0.69645676576679
  O           3.41605068991656      2.14661667322104     -0.32626566018888
  C           1.15739567357990      4.71701582320927     -1.80046290526081
  C          -4.05158254210447      4.62768615743076     -0.45413215609107
  C          -5.83441286088564     -1.07574467157896     -1.06908073008963
  C          -1.68224444585297     -4.40370199960614     -2.06105066624607
  C           3.78140139560064     -4.29590398474569     -1.28130793575173
  C           5.39594610564646      1.29050223263254     -1.42426282052683
  O           0.19962278213225      4.56834845541453     -2.81296285348699
  O          -4.90578630153360      4.76322926713074     -1.54892158476710
  O          -5.79457919750860     -1.84031016324123     -2.23816587082852
  O          -0.87905548563427     -4.33219930463870     -3.20597625852158
  O           4.54671846192994     -4.07275469327567     -2.42792136583174
  O           5.29929305560311      2.10768722515566     -2.55267310353929
  C           1.94918690043438      3.41060438452511     -1.67547725855298
  C          -2.58650114243917      4.49952865970940     -0.92984848009223
  C          -5.22616078559126      0.31184676632073     -1.30253344110365
  C          -2.32613340451769     -3.03941399297470     -1.76327987357276
  C           2.28008557309669     -4.14596822835397     -1.59408017943138
  C           4.67117243023052     -0.04315564803396     -1.64168187598075
  O           2.65077889420337      3.11693338843078     -2.85534196624366
  O          -2.18685994087646      5.64886535187201     -1.63088676928736
  O          -5.91645629648969      0.99607949998226     -2.31256890440931
  O          -3.08690112367879     -2.58443571937027     -2.85016695682039
  O           1.84454533799041     -5.07764130343428     -2.54713449906588
  O           5.16735192381107     -0.72755310583494     -2.75973540712878
  C           2.96254880867702      3.48041532002726     -0.52685019738830
  C          -1.65918763411610      4.26464798714456      0.27296242329943
  C          -5.24718463210460      1.16906099906240     -0.03008969882216
  C          -3.23438262241611     -3.15668513937890     -0.53574173027933
  C           1.42920375506812     -4.30270561624096     -0.32680284604075
  C           4.80925850759274     -0.95363917715545     -0.41705087284962
  C           2.31530536730244      4.01529826790626      0.76523510752798
  C          -2.22002616669876      3.04022408062901      0.99464650907007
  C          -4.71683803365380      0.38452767005809      1.19248110177518
  C          -2.43733658506282     -3.72497880134288      0.64924620717503
  C           1.99156010806435     -3.35957462099360      0.73734766072515
  C           4.44482028449245     -0.20494738651616      0.87835902254599
  O           1.51603899520147      5.16838112734844      0.53235595443918
  O          -3.50746680993127      3.29702255535194      1.49463968220155
  O          -5.22814413703093     -0.94768068987886      1.24748462847844
  O          -1.76752143235896     -4.92552806219057      0.28537884736673
  O           3.35819833639683     -3.54661584325341      0.98772962160203
  O           5.03441630305780      1.09179713792339      0.94183118252069
  C           3.37685130274376      4.42594848002101      1.79568964662476
  C          -1.35797338128824      2.55615113505751      2.14508604685001
  C          -5.18713794813725      0.98425092952135      2.53226137186586
  C          -3.34336547139136     -4.08922627096992      1.83324486613690
  C           1.22208278676037     -3.39221962845274      2.04971210603608
  C           4.96481770846988     -0.93434504863482      2.12821512812080
  O           4.27058845391363      5.37101343239190      1.27998404794917
  O          -1.48049669705713      1.21698266533549      2.15636044882176
  O          -6.57637675492756      1.13190711675158      2.56763869978666
  O          -4.34524223259244     -4.99035640606756      1.46666356197953
  O           1.66503541205159     -2.39664421930011      2.82543479025964
  O           6.33528299926712     -1.19681683697871      2.04092800325757
  H          -0.03110810762694      5.94822783422970     -0.44753359953372
  H          -5.40950120459074      3.57803227331119      0.91560881339738
  H          -5.50603619657735     -2.70149482965672      0.35557181318229
  H          -0.46504702205204     -5.81951387487348     -0.92220496680914
  H           5.18116567468033     -3.41421810146757      0.16759413027592
  H           5.31771199926117      2.86858209446602      0.08800794058225
  H           1.85117272975946      5.53668683104102     -2.04535898694213
  H          -4.15006205826522      5.54206598137106      0.14119428771959
  H          -6.89097824320089     -0.97651713402518     -0.79767446291347
  H          -2.48278055580747     -5.13516079446320     -2.24180472439321
  H           3.98928164458969     -5.31600958969075     -0.94448418609873
  H           6.46410274833574      1.10707246751974     -1.26456226891729
  H          -0.58405595754215      5.10563016454751     -2.58860112157851
  H          -5.02290359653749      3.89395554031570     -1.96263897614676
  H          -4.86705984988885     -2.04157603631076     -2.46351368127841
  H           0.05214183044247     -4.50238447071269     -2.97262089799394
  H           4.58386459230029     -3.11692175132471     -2.60020103840067
  H           4.37553579659894      2.39858727332920     -2.67088443122845
  H           1.23861740159415      2.59885007109983     -1.43879623999925
  H          -2.50688303697770      3.61551895721001     -1.58430405520849
  H          -4.16657649251210      0.17369759367153     -1.58541691094326
  H          -1.53082256730570     -2.31225480623668     -1.51634858838564
  H           2.11265367297811     -3.11893761537545     -1.96151147789208
  H           3.59322184980574      0.16665575493306     -1.76927549238260
  H           2.05803656474118      3.27568963638183     -3.60619435513057
  H          -2.93338699453815      5.92104382310737     -2.19277589919626
  H          -6.14516970810487      0.34264826989074     -2.99452751471647
  H          -2.63009186731152     -2.85746848658734     -3.66339282991262
  H           2.51511166628306     -5.11320433845783     -3.25111184327895
  H           5.39702254209240     -0.05927648811706     -3.42722428146990
  H           3.79767218017375      4.12919341559732     -0.82006667844916
  H          -1.64767251738851      5.12963800855556      0.94742823629788
  H          -6.27405494612331      1.50358599529625      0.17625266877451
  H          -4.07613666239748     -3.82194367387689     -0.76628427753278
  H           1.42310497573799     -5.33642150657061      0.03452526097693
  H           5.83628805207624     -1.33719199486990     -0.34955804091166
  H           1.69089873767793      3.21644108296050      1.18276013338458
  H          -2.25810555450000      2.20621319845472      0.27520966284979
  H          -3.61711804491736      0.35112782935363      1.15192991492544
  H          -1.71176780970263     -2.95730263747391      0.96365353683396
  H           1.81639686237262     -2.33185186274083      0.36407947873745
  H           3.34930691406421     -0.12625413256001      0.92370842950704
  H           3.95781352549282      3.54520370944406      2.07366615954488
  H           2.85457631525023      4.81022295409810      2.67975719886076
  H          -4.83955523133770      0.30977417693045      3.32522626738474
  H          -4.74717619146394      1.96811611666845      2.68823383598532
  H          -3.83082742750598     -3.18328174112772      2.19842039138628
  H          -2.70215693069859     -4.49782683346543      2.62430661390706
  H           4.73825943324777     -0.30787010602695      2.99911827446506
  H           4.44685788055428     -1.88888211088175      2.23798143479187
  H           3.75867616296936      6.15628532969460      1.03659658367181
  H          -6.96815479330775      0.25638092130932      2.43081465038544
  H          -3.91006393774658     -5.79235500797122      1.13935635021332
  H           6.78906967494548     -0.34529084247442      1.94513911356639
  C           0.69138404233577     -1.56983701732863      3.47767926517632
  H           1.27307906637606     -1.05649846610997      4.24335637502635
  H          -0.11574058415395     -2.18108424617776      3.88157463086066
  O           0.37115492046554     -4.19349685665504      2.36564201153563
  C          -0.75673089003362      0.42887283003247      3.14237362052288
  H          -1.52735059592893     -0.13777794268904      3.65644249148991
  H          -0.20734518035692      1.11222615082855      3.78092848889321
  O          -0.71564630204320      3.25112149978429      2.89121701534331
  C           0.11338723956433     -0.59634073620820      2.43910158480292
  O          -0.47027874046795     -1.24987984279816      1.43197056619607
  O           1.34704498485804      0.05666085173915      1.80937938070292
  O           1.51267130008294      1.45997856898757      2.21498694456927
  H           2.07318321193922      1.36640437542375      3.03134557397200
