133
Coordinates from ORCA-job job
  C           0.50294944671807      4.69405554786240     -0.46551211393481
  C          -4.36973499440631      3.13260015811396      0.65941820582990
  C          -5.45042185834877     -1.89521977148233     -0.43858057908159
  C          -1.03028372891601     -4.65215061808032     -0.99074484845276
  C           3.91242755900049     -3.15600985319836     -0.12630940056154
  C           4.91570370017612      1.81433673809219      0.15463232937546
  O          -0.37031489658912      3.68919375962596      0.00624894125106
  O          -4.21328142100420      1.92786262507263     -0.02277593567809
  O          -4.14036777755288     -2.06012967570092     -0.91276798070261
  O          -0.20717054987750     -3.50717938560602     -0.85000413036504
  O           4.08779801617880     -2.04578815747968     -0.94824305458666
  O           3.49446742755858      1.97735747838480      0.23122737228102
  C           1.15553979127153      4.15058682262223     -1.73907286398504
  C          -4.07136340395648      4.24169676680831     -0.37170555030441
  C          -6.12222014420254     -0.92104489403805     -1.42476065086843
  C          -1.78236510709041     -4.53100561008505     -2.32291622153217
  C           3.46841541204232     -4.33088449090637     -1.02082159789636
  C           5.43811295628064      1.39166578879007     -1.23364372993449
  O           0.22052163019358      3.83940561941139     -2.73442748666353
  O          -4.95544218743020      4.18232531627896     -1.45033466487201
  O          -6.12527117746361     -1.44385248227347     -2.72306172015938
  O          -0.90949232123304     -4.39343008056667     -3.41129379560164
  O           4.34359350120618     -4.53256407728821     -2.08865575016843
  O           5.27507021015593      2.33671750043493     -2.24561644325394
  C           1.91274899635114      2.87763214687529     -1.33906533388567
  C          -2.61595726820742      4.05755686294398     -0.84458593537089
  C          -5.32864690984765      0.39103592931120     -1.36040163890907
  C          -2.67719929034946     -3.29269754367561     -2.23265171032014
  C           2.03738065566128     -4.08808598093331     -1.53298798780669
  C           4.78045404406536      0.05985051807960     -1.61013495503134
  O           2.52481997825889      2.29172544626005     -2.45639053882962
  O          -2.23206397765659      5.04206886299497     -1.76850554066725
  O          -5.91883551469128      1.41433179587786     -2.11953550607346
  O          -3.51155159862515     -3.14880025988452     -3.35197758995294
  O           1.57091379920662     -5.21561389572684     -2.23078879303520
  O           5.29580783510763     -0.42621616968926     -2.81951711543171
  C           2.96509346942471      3.20211654517729     -0.27012630894811
  C          -1.68253782450095      4.08950928257395      0.36872621966820
  C          -5.19846540284020      0.90785458866035      0.07663792068464
  C          -3.58511927297420     -3.35876428084092     -0.99950404500405
  C           1.08981167150413     -3.76811831068333     -0.35940128583091
  C           4.97526037455774     -1.01265810019851     -0.52936494853514
  C           2.30695730525138      3.95580609507131      0.90111974504544
  C          -2.15619015860156      3.03925808263889      1.37745284779505
  C          -4.75384018223016     -0.18862289768274      1.05993046780780
  C          -2.81536795692054     -3.72046015092509      0.28180857497412
  C           1.69188494450396     -2.54077089200728      0.34623536729147
  C           4.67168126533562     -0.44829441520855      0.87355382272520
  O           1.49252893654848      5.03128490328214      0.46442485451559
  O          -3.49004555443567      3.22163456182144      1.76989023896688
  O          -5.48094051466536     -1.39456833303487      0.87066989418608
  O          -1.91942127937025     -4.80693087967276      0.07336024657735
  O           2.94035329639566     -2.91048445624455      0.87781720911025
  O           5.27709242700880      0.83289535064973      1.06552617346405
  C           3.35196256906562      4.58128870544885      1.83730655522900
  C          -1.22605249278995      3.03562214470308      2.57734087665428
  C          -5.01064796646959      0.23380728102131      2.51421654175181
  C          -3.76538461966301     -4.19067335978699      1.39391187711656
  C           0.89041025992754     -1.88844954833755      1.46773238640318
  C           5.23942321663026     -1.28257961336382      2.03944090140292
  O           4.20425065085636      5.44479334730028      1.14819088619392
  O          -1.37230366802363      1.91329749036933      3.27857068813203
  O          -6.35995873948118      0.53423314217886      2.72857468365511
  O          -4.54424359713584     -5.27730298100870      0.97910446658544
  O           1.74278438096868     -1.24894011000171      2.25941251000792
  O           6.54522570642984     -1.71917051539469      1.79989785419922
  H          -0.04244819977134      5.62596966992009     -0.65406599848972
  H          -5.37348503587762      3.23945794864275      1.08691736433885
  H          -5.98705651607055     -2.85131894863041     -0.39834221465161
  H          -0.42159014779225     -5.56410464916242     -0.98243886359205
  H           4.83229004921403     -3.40982882262401      0.41302190787465
  H           5.40806409565762      2.73891169800836      0.48653064107676
  H           1.87676883847040      4.89191385630247     -2.11700499676524
  H          -4.18509716286191      5.22635001120869      0.09256320553364
  H          -7.16492234728626     -0.74584089174416     -1.14461176221580
  H          -2.41254779613224     -5.42521058194027     -2.45152528803704
  H           3.47843833394798     -5.25028666278567     -0.42546746292356
  H           6.51976493828387      1.24679013211297     -1.12180803601910
  H          -0.60524321115545      4.33245634146572     -2.56572614303391
  H          -5.11409312533396      3.24918131198631     -1.69114258236131
  H          -5.25344716586218     -1.83623813732469     -2.90471626034286
  H          -0.05329783801776     -4.80011732112939     -3.17962721533979
  H           4.53022771915573     -3.67548453015716     -2.50296489063203
  H           4.32380806965277      2.41023171339087     -2.46064319804949
  H           1.19797577634205      2.16780289806125     -0.87922897845192
  H          -2.52364162563794      3.05893690294931     -1.30224286222115
  H          -4.30797564299515      0.18699112994581     -1.72467423784082
  H          -2.02267737167178     -2.41183053735952     -2.12107819568247
  H           2.04084380857580     -3.21261005627997     -2.20279769509650
  H           3.69277763913777      0.23322320720296     -1.70268979686465
  H           1.96369235543580      2.47336508359425     -3.22993923805172
  H          -2.99179862137412      5.19263486574856     -2.35887985641951
  H          -6.16066726942135      1.04197308313048     -2.98217371686760
  H          -2.96633210866506     -3.26308223876100     -4.14476449716176
  H           2.30233724196980     -5.53101839999217     -2.79006215855488
  H           5.44538730154115      0.34052154878527     -3.39800694663146
  H           3.76691562626241      3.81612871128151     -0.69576405063778
  H          -1.66474122316577      5.07927244426794      0.84100318955350
  H          -6.15698130107336      1.32928881663854      0.40518720562268
  H          -4.37619738143188     -4.10051991611426     -1.17687808066476
  H           1.06412127325853     -4.59917387911532      0.35718198381603
  H           6.00671373107439     -1.39205181725589     -0.55687692470282
  H           1.68943422849404      3.23259554670110      1.45336022167299
  H          -2.02825780993757      2.04598821878254      0.91199586357132
  H          -3.67674023933865     -0.36860325232206      0.91509217721958
  H          -2.25410903969768     -2.83531199781264      0.61432403768641
  H           1.81981675337919     -1.73746400827977     -0.40482717780725
  H           3.58335711269950     -0.36736874462856      0.99025227020591
  H           3.96505080081173      3.79596135881339      2.28315361351833
  H           2.80664139282234      5.09514028018574      2.63842239397815
  H          -4.67516760255321     -0.57767226359299      3.17153563459439
  H          -4.43094286135787      1.13175586736835      2.74096447713188
  H          -4.44898899747537     -3.38310969509905      1.65916240098735
  H          -3.15603530071389     -4.44984840973371      2.26844767624220
  H           5.18007166979283     -0.63851215266311      2.92558569637617
  H           4.61725938599755     -2.15938915506017      2.21083442040743
  H           3.66219424841596      6.15499005039511      0.77199607542046
  H          -6.87203487191917     -0.25997280790941      2.51031702640794
  H          -3.93826870739126     -5.98185570101465      0.70498609837128
  H           7.11853694936591     -0.93987613165418      1.76391361998815
  C           1.21073099345693     -0.50337466366315      3.38317483214415
  H           2.01194364375515     -0.53792287300090      4.11533880105180
  H           0.30311547715108     -1.01166579942965      3.69701453488797
  O          -0.31947644043386     -1.93235526394124      1.60078864447834
  C          -0.21579215572856      1.50185272139199      4.02789902712836
  H          -0.59545702885272      0.71721220470522      4.66685688715948
  H           0.19204017582899      2.33833659111733      4.59121415421524
  O          -0.45407508779057      3.93549170046176      2.85449204977296
  C           0.85459602790739      0.94930830209726      3.02608693276151
  O           0.54998069452244      1.11320474571760      1.75195698812655
  O           2.01771476041159      1.85690825584997      3.47814905917328
  O           3.29964048380623      1.33687013559963      3.04346303620875
  H           3.31239776189797      1.50349878261979      2.08020935075863
