19
Coordinates from ORCA-job job.QMRegion
  C          -1.22605249278995      3.03562214470308      2.57734087665428
  C           0.89041025992754     -1.88844954833755      1.46773238640318
  O          -1.37230366802363      1.91329749036933      3.27857068813203
  O           1.74278438096868     -1.24894011000171      2.25941251000792
  C           1.21073099345693     -0.50337466366315      3.38317483214415
  H           2.01194364375515     -0.53792287300090      4.11533880105180
  H           0.30311547715108     -1.01166579942965      3.69701453488797
  O          -0.31947644043386     -1.93235526394124      1.60078864447834
  C          -0.21579215572856      1.50185272139199      4.02789902712836
  H          -0.59545702885272      0.71721220470522      4.66685688715948
  H           0.19204017582899      2.33833659111733      4.59121415421524
  O          -0.45407508779057      3.93549170046176      2.85449204977296
  C           0.85459602790739      0.94930830209726      3.02608693276151
  O           0.54998069452244      1.11320474571760      1.75195698812655
  O           2.01771476041159      1.85690825584997      3.47814905917328
  O           3.29964048380623      1.33687013559963      3.04346303620875
  H           3.31239776189797      1.50349878261979      2.08020935075863
  H          -1.88971881615283      3.03821643762394      1.72120387045608
  H           1.46397920429772     -2.35527809785877      0.66514201923996
