19
Coordinates from ORCA-job job.QMRegion
  C          -0.96353709079393      3.00621394851438      2.51672000842374
  C           0.50036229060751     -1.65275061851465      1.03153474696206
  O          -0.85043652717081      1.80785730489462      3.07551631382608
  O           0.85143956996953     -1.81181494841735      2.30074936134074
  C           0.31900971673479     -0.87637505221427      3.25210026738783
  H           0.47015705846128     -1.35946058874547      4.21144637084436
  H          -0.72322733759237     -0.66375024229698      3.02296604738517
  O          -0.49258327452506     -1.06054659490192      0.62798342994753
  C           0.30198618176146      1.51168459850561      3.92398180728479
  H          -0.12015815456613      1.14900839285863      4.85750948347966
  H           0.91141925698366      2.39503399110550      4.07176979142996
  O          -0.33867811175552      3.99797388546849      2.83191068934302
  C           1.10987941444563      0.44500983784012      3.18431949484002
  O           1.47237421577023      0.84468194562356      1.95913428784091
  O           2.28174530489271      0.11909067826294      4.04501604553667
  O           3.20233083847601      1.23399362092058      3.94504159479624
  H           3.09270652055011      1.44037789111311      2.99235234612274
  H          -1.67699017358295      2.96628711454474      1.69511265510800
  H           1.21419676245291     -2.14624848273184      0.38434132045992
