133
Coordinates from ORCA-job job
  C           0.46190081814947      4.81332006364930     -0.44189302668475
  C          -4.53331059973296      3.43654103999978      0.43263500452740
  C          -5.15989598806180     -1.70873131190257     -0.05884282225271
  C          -0.86435530369267     -4.67888069875700     -0.76731606226916
  C           4.23358109335823     -3.32112542164949     -0.30986604700353
  C           4.75767989172984      1.80212661512297      0.15464573614359
  O          -0.43990537407711      3.81253154513979     -0.00360965297312
  O          -4.49564720296610      2.29944597994342     -0.36948248120776
  O          -3.80443893140513     -1.80945896490701     -0.45100270710923
  O           0.13222799666972     -3.68614745257799     -0.66377018691392
  O           4.15473232308800     -2.08969541299334     -0.95526132508667
  O           3.33520733605460      1.93235197295247      0.07816001007882
  C           1.09351170470577      4.31166353544716     -1.74703794759660
  C          -4.10180608644083      4.62251076628544     -0.45767165048215
  C          -5.93339657789498     -1.01190853542722     -1.18983217017148
  C          -1.66500926451613     -4.40543626383251     -2.04842284786302
  C           3.77135828431523     -4.39569217557568     -1.31768971264816
  C           5.38238804051741      1.39395374086666     -1.19352657942480
  O           0.13864322006538      4.07178697156445     -2.74395306688220
  O          -4.92055094213628      4.76088862394423     -1.57801837235400
  O          -5.89216806387987     -1.73037278451367     -2.38841574039432
  O          -0.84976247359041     -4.34503629586492     -3.18645537935216
  O           4.53149653669588     -4.36936189973133     -2.48687951201953
  O           5.24109634094468      2.33831512039019     -2.21055821021475
  C           1.81368680247691      2.99727029437478     -1.42532645969102
  C          -2.63224394994296      4.42981649161215     -0.88982526245043
  C          -5.32343863481120      0.38347414200640     -1.36799026154217
  C          -2.39730835423166     -3.06858727491305     -1.87149129162767
  C           2.27780408649118     -4.18623032216440     -1.63744017819818
  C           4.77337174734881      0.04869266376896     -1.60198652715334
  O           2.47516780281858      2.48692315764361     -2.55371079141460
  O          -2.18464166604168      5.51625583146756     -1.65644954719151
  O          -6.02628972694736      1.12209624659064     -2.32960416499011
  O          -3.23278431052537     -2.78834960371821     -2.96173211063148
  O           1.77650770457366     -5.21602078055066     -2.44924198467905
  O           5.32736104329831     -0.40704584299662     -2.80557698423775
  C           2.83744009754550      3.21351920995301     -0.30413112337604
  C          -1.74281248934052      4.23895400434164      0.34866218710666
  C          -5.31683824741344      1.17910417705954     -0.05611235114259
  C          -3.25981950660252     -3.10546180516613     -0.60729533365789
  C           1.44458635354689     -4.12380008462557     -0.34977611759111
  C           4.99189151874077     -1.02001584796157     -0.52312915802202
  C           2.17783131797092      3.91048416746788      0.90339903820249
  C          -2.34713357447475      3.07171591483232      1.12893523675267
  C          -4.78530436357841      0.34014224127682      1.12838613175386
  C          -2.40597432278128     -3.49790949882799      0.60770377426329
  C           2.07733440810699     -3.07136147476338      0.55837643073892
  C           4.63694551114076     -0.49544825045747      0.88488705628076
  O           1.46085645699423      5.06902772599527      0.50019237575172
  O          -3.65684679244512      3.34408027594122      1.54749068102142
  O          -5.29497768368632     -0.99114818942420      1.12903848534612
  O          -1.70537922989153     -4.70653465005102      0.35102453415401
  O           3.41651535343466     -3.37029855972378      0.85104934796264
  O           5.06962852826342      0.84872008217753      1.11170762023560
  C           3.21801716817276      4.36432092456263      1.93822434538699
  C          -1.51473730695965      2.63377251867303      2.32322251180268
  C          -5.25088297722150      0.89177803279603      2.48885080089744
  C          -3.26705235196824     -3.76494876371631      1.84966021324799
  C           1.33478007983045     -2.85485635893398      1.86667548993213
  C           5.34939982939916     -1.27416729477861      2.00807249886366
  O           4.25062659711331      5.10736773298229      1.35722017041220
  O          -1.83848490343529      1.35346359143078      2.55842644829731
  O          -6.64374413180534      0.99225121026309      2.54495881547063
  O          -4.22120092269561     -4.75692463331856      1.61515089001084
  O           1.83928175847434     -1.76098804843710      2.44096212788916
  O           6.72957692501856     -1.33662505784579      1.79346866500691
  H          -0.05708458614710      5.76649506261233     -0.58986150579914
  H          -5.52787261565816      3.59719479906511      0.86747650193492
  H          -5.57875747411835     -2.69962198836946      0.15553224716258
  H          -0.41092269946884     -5.67754128080724     -0.80136893376650
  H           5.25012683910578     -3.52725662428379      0.04866749930671
  H           5.19474024674501      2.74180879170425      0.51826902051251
  H           1.83296876423518      5.05215720295356     -2.09095549241900
  H          -4.18860574244073      5.54977560437708      0.11845588687211
  H          -6.98850553911006     -0.92280365458022     -0.91096694658129
  H          -2.41436044367825     -5.20288597706450     -2.17110112920485
  H           3.90766616184978     -5.38531538974152     -0.86982276589234
  H           6.46030367794125      1.27638048043657     -1.03215239779081
  H          -0.57795984369180      4.72602134864599     -2.65309292483950
  H          -5.05075168841737      3.88787951130460     -1.98016318564162
  H          -4.97340648093440     -1.99650359180306     -2.57578169849711
  H           0.03179474686155     -4.71358763343390     -2.98142893275791
  H           4.60760500125551     -3.45042234093448     -2.78800018251564
  H           4.29490733494985      2.43297293141963     -2.43618022249043
  H           1.06701310067466      2.26710266473795     -1.06131565927003
  H          -2.56429486960872      3.50196768027689     -1.48305713189487
  H          -4.26969307448328      0.25609473079283     -1.67478257624063
  H          -1.64569717878050     -2.27004205085465     -1.73911990818149
  H           2.16303047972155     -3.21378074680937     -2.14447998392417
  H           3.68142997939031      0.18431551225055     -1.71430328870945
  H           1.92654945473234      2.67168227176804     -3.33303682516404
  H          -2.93295026492206      5.80567968896845     -2.20867557859982
  H          -6.26060799990265      0.50940114267366     -3.04635790686811
  H          -2.74807002355234     -3.00897484700510     -3.77312286812783
  H           2.41487184306680     -5.36040058315217     -3.16920244594644
  H           5.50217378304093      0.37578814597226     -3.35550204788710
  H           3.65857779298596      3.83835928205813     -0.67422691644156
  H          -1.70211271858063      5.14338668712392      0.96746831644298
  H          -6.33505762463985      1.52278417943112      0.17511505977965
  H          -4.06288409671103     -3.84256444700766     -0.73815755911892
  H           1.42042917805908     -5.09320820655254      0.16061625739347
  H           6.04067671948666     -1.35033929457586     -0.53530667980054
  H           1.47423910324889      3.21258742371553      1.36984442097036
  H          -2.34495062306608      2.19717348109872      0.45462504911743
  H          -3.68419674352131      0.31158439708178      1.08568412508375
  H          -1.70001138859252     -2.67626552623899      0.81749170675122
  H           2.00562881033088     -2.10219700464073      0.03183625095350
  H           3.54950252615378     -0.57274162823426      1.02120386719797
  H           3.66395814743660      3.48307477530433      2.40313416724214
  H           2.68883173408401      4.93793068460917      2.70751556445900
  H          -4.86787750323808      0.21434409493573      3.26244292056226
  H          -4.83879312192509      1.88543229746764      2.65889291105676
  H          -3.79942091566896     -2.84985500270706      2.11623585254213
  H          -2.58966842974899     -4.03908399463978      2.66833448997520
  H           5.11242822786436     -0.76215234596777      2.94847735469874
  H           4.97173400304117     -2.29401248021863      2.06169304094150
  H           3.86567954702289      5.92132788994075      1.00021913423545
  H          -7.00639717820359      0.10771321799391      2.38529688978403
  H          -3.74709668681499     -5.56490519154094      1.36473941277859
  H           7.06671251697302     -0.42844904586896      1.79297838411146
  C           0.97163235171728     -1.00240799373479      3.30340067309190
  H           1.63629502503166     -0.37944326107187      3.89027804925843
  H           0.35145738261254     -1.68747597997243      3.87563282669058
  O           0.46543644506412     -3.56634018814675      2.32318930024089
  C          -0.94691048263819      0.53183413546541      3.34671091548800
  H          -1.59769846818667     -0.22172329978484      3.77988465650934
  H          -0.43893656059405      1.16145013816138      4.07746535603371
  O          -0.71783097104698      3.31152814182272      2.93052278019541
  C           0.04749966620989     -0.16918986939465      2.41149522966844
  O          -0.50587825206307     -0.79223123396030      1.38838345973513
  O           0.81608816731294      1.01600858640933      1.78842092131591
  O           2.14048970732794      1.26866220947615      2.45572395748767
  H           2.71249560276007      1.34116769862683      1.65592483775121
