19
Coordinates from ORCA-job job.QMRegion
  C          -0.82853594171719      2.84802388261912      2.43272574839473
  C           0.28619083559055     -1.41907998054794      0.42370701000773
  O          -1.02816463903202      1.74321000898220      3.13908600878223
  O           0.10503678459779     -1.83216871583649      1.67537287873081
  C          -0.42627143195713     -0.90676830346850      2.62575791546150
  H          -0.66666525916690     -1.52890116529469      3.48338801248051
  H          -1.28694866601692     -0.38607265269903      2.21137302781507
  O          -0.40972121048296     -0.61122091522444     -0.18082887978650
  C           0.07807057160581      1.17341208610014      3.90179160362372
  H          -0.38068082359645      0.76792023210765      4.79773296612688
  H           0.81252913748790      1.94190610856973      4.11261566927435
  O           0.04913107236714      3.66017338982733      2.63038214966309
  C           0.68412429968620      0.11781961149596      2.97541061118517
  O           1.22689170473630      0.65315858279915      1.87554606305796
  O           1.70235392511751     -0.71307458891640      3.69047518229067
  O           1.99561342149961     -0.17721864117465      5.02077097529370
  H           2.70695891405736      0.47166023787580      4.82946121989382
  H          -1.56913428038810      2.90528821798569      1.63676762795238
  H           1.12021664852206     -1.97036304837114      0.00713834524725
