19
Coordinates from ORCA-job job.QMRegion
  C          -1.15046928953568      2.98950980869033      2.56756171807407
  C           0.86192530029585     -1.84047214298608      1.45890638697003
  O          -1.21670103101274      1.83744110993289      3.22881425841012
  O           1.67942146913944     -1.41147245784560      2.41301613256361
  C           1.10019463947766     -0.63197225827459      3.48681852546622
  H           1.77253265778761     -0.79692061805084      4.32274308659085
  H           0.09207930178449     -1.00628038061422      3.64886761082643
  O          -0.35057036685228     -1.70287222792658      1.44036892547936
  C          -0.08490402829760      1.51299166502671      4.05954212415948
  H          -0.49086424312420      0.80718409107880      4.77092108186146
  H           0.30602306826356      2.40711166921183      4.53823890678528
  O          -0.42408938099312      3.92228901300970      2.85374384616901
  C           1.02248903764102      0.87131256956211      3.15371689680372
  O           0.90570473217575      1.11859226490881      1.85683983302843
  O           2.20442834215924      1.58164730413596      3.79356174947871
  O           3.39698745816736      1.39327660527102      2.99367647085022
  H           3.06342287566417      1.50391063563144      2.08321554748503
  H          -1.82949737378484      2.97951482462811      1.72248429632124
  H           1.44867769237044     -2.31652976151115      0.67415358637735
