19
Coordinates from ORCA-job job.QMRegion
  C          -1.37033371134165      2.91133324746999      2.47475196644710
  C           1.11854675749355     -2.76765421113143      1.71518763841262
  O          -1.78105413748163      1.74569459271094      3.00202721215491
  O           1.57788947598338     -1.62858453664006      2.21736996191119
  C           0.81398754264908     -0.94008798321472      3.22960061031518
  H           1.56470340065202     -0.42535678013182      3.82023993259961
  H           0.20266916255023     -1.65677229062476      3.77166344332377
  O           0.24169863739623     -3.46221379031850      2.18158658086909
  C          -0.79082797734650      0.89689342217254      3.62286064797140
  H          -1.37141164037694      0.23491493411639      4.25509291882451
  H          -0.06898775517430      1.51193656134456      4.16111539418861
  O          -0.47068494918141      3.60781332164330      2.88638154874935
  C          -0.11810488947030      0.04808764090817      2.53655552351272
  O          -0.94845165135776     -0.48722062005450      1.64191647639638
  O           0.69239432273044      0.98598172903888      1.68448320303289
  O           1.90308784766898      1.48226243174895      2.47762193525442
  H           2.58167685822983      1.46197688220504      1.76199302012594
  H          -1.97832847882823      3.10374677987413      1.59773342201349
  H           1.69152207475953     -2.96430733361741      0.81182328940705
