19
Coordinates from ORCA-job job.QMRegion
  C          -1.33797167105943      2.51307050668287      2.15302608286776
  C           1.20129658834041     -3.43493092313197      2.08799646762855
  O          -1.48988272270854      1.17755513226187      2.16237759087191
  O           1.64511827693928     -2.45054417418155      2.88323789793133
  C           0.66623818189665     -1.61336298262861      3.51684647769604
  H           1.24090059683015     -1.08545605493282      4.27575254881682
  H          -0.14314645273940     -2.22172677823194      3.92162206798877
  O           0.35284249440194     -4.24370790181870      2.39344463374206
  C          -0.76780185508930      0.37913746435042      3.14306026012643
  H          -1.54311252397838     -0.17379127611875      3.66541328646565
  H          -0.21858721766177      1.05798488921695      3.78825209720834
  O          -0.68783688717119      3.19495400843316      2.90366730528011
  C           0.09028978991978     -0.66470238969228      2.44947517501384
  O          -0.50372322781693     -1.31690318712267      1.45939782113701
  O           1.37703376882248     -0.01311170041799      1.87046854029127
  O           1.35231266578425      1.44991300671671      1.94841752272721
  H           1.71584721531383      1.59352221141206      2.85856518430678
  H          -1.94605849256541      2.87617065284360      1.33439240899818
  H           1.75319885919276     -3.39988092539092      1.15003220370143
