133
Coordinates from ORCA-job job
  C           0.50538695910842      4.72382770865578     -0.48586627696039
  C          -4.36293761040819      3.13801474431353      0.64587903048244
  C          -5.43543416039579     -1.90537194854266     -0.40963282019562
  C          -1.03437530417283     -4.66953040802511     -1.01460792447709
  C           3.89980964614153     -3.15566696053318     -0.13695056847310
  C           4.88448886924133      1.82156823948726      0.19775954616431
  O          -0.36232760731783      3.72078454345639      0.00106734386768
  O          -4.20134296053095      1.92868274229729     -0.02684251484289
  O          -4.13794706755446     -2.07789952249387     -0.91435535125765
  O          -0.21759072017038     -3.51937106844982     -0.88022209246541
  O           4.08462448826605     -2.04104740445353     -0.95115222990034
  O           3.46690012261022      1.99969173651542      0.26084026541151
  C           1.15749194486429      4.16409608507561     -1.75266651259089
  C          -4.06801311206335      4.24111611592816     -0.39240375520233
  C          -6.12684650879129     -0.93277619790138     -1.38362924277963
  C          -1.79529254197468     -4.55225412030663     -2.34166393086714
  C           3.46243163232902     -4.32616909980785     -1.04082025415541
  C           5.42663976518776      1.40325942559174     -1.18405525902548
  O           0.22346197614550      3.84413454632585     -2.74645712403462
  O          -4.94760021913014      4.16808601564586     -1.47388394643867
  O          -6.15745898207290     -1.45868806295150     -2.68026108145568
  O          -0.92912774044176     -4.41373293621076     -3.43548541758351
  O           4.34352762122459     -4.51997441711382     -2.10523946335477
  O           5.28177132318965      2.35481670951664     -2.19291738919364
  C           1.91064537355044      2.89394011448288     -1.33670155282183
  C          -2.60936494915380      4.06509655169438     -0.85938300502345
  C          -5.33168871803599      0.37910703228731     -1.33951449039962
  C          -2.69229558540816     -3.31586233429810     -2.24590099305338
  C           2.03231210383730     -4.08612510060305     -1.55804136158063
  C           4.77119643213163      0.07679463877364     -1.58103834998506
  O           2.53027129658733      2.29926526739096     -2.44578999501164
  O          -2.23235479048500      5.04484885898484     -1.79099256333137
  O          -5.93563676349848      1.39886881739526     -2.09241986850037
  O          -3.53639740939184     -3.17573848492205     -3.35827228236568
  O           1.57044830743397     -5.21350614319079     -2.25891923960016
  O           5.29664551820510     -0.39595263683641     -2.79088250746019
  C           2.95831737026597      3.22250546199894     -0.26476410413997
  C          -1.67887887350684      4.11402357017878      0.35603777415806
  C          -5.17619599358280      0.90077615399662      0.09315809775522
  C          -3.59001024295220     -3.37972187634631     -1.00494944191004
  C           1.07984105973468     -3.77116356453767     -0.38684746420840
  C           4.95773804930786     -1.00532928391888     -0.50946629135207
  C           2.30997114196030      4.00875470451552      0.89026397482704
  C          -2.15015414125098      3.06421671743335      1.36669902656684
  C          -4.70437398083556     -0.19238631236703      1.06757073699780
  C          -2.81375909719342     -3.74602319895923      0.27111608185643
  C           1.67538253063767     -2.54149201255415      0.31976351872075
  C           4.62452822902719     -0.45523487605130      0.89196650750335
  O           1.49818113072898      5.07854226578617      0.43473330239830
  O          -3.48530869665459      3.24048153710844      1.75649068288715
  O          -5.43352103639380     -1.40008148131593      0.89837844227239
  O          -1.91585865979060     -4.82946529623092      0.05486479692970
  O           2.91961792973210     -2.91297215093184      0.85973985948826
  O           5.21489672909405      0.83098812426624      1.11236510957655
  C           3.36607628476866      4.63547199839172      1.81274511393246
  C          -1.22350217568310      3.06038723741602      2.56816706426481
  C          -4.92742597636360      0.23141806820288      2.52703361101792
  C          -3.75650084314956     -4.22286698462137      1.38670606412857
  C           0.86820794710934     -1.88608566135576      1.43543848178917
  C           5.17874793553660     -1.29759256104409      2.06031901822543
  O           4.27062162697658      5.42824488878260      1.10594450568559
  O          -1.38189885182143      1.94711408962966      3.28115621211671
  O          -6.27329902549598      0.52101976405910      2.77424527858047
  O          -4.54030075531973     -5.30541648740815      0.97064695937461
  O           1.71497311924530     -1.23582410433772      2.22441325935706
  O           6.48682799795069     -1.73347754497134      1.83171414864028
  H          -0.04467275125332      5.65061356942918     -0.68589183262599
  H          -5.36755861804442      3.24354201225172      1.07177223585002
  H          -5.97478702143183     -2.85913957772286     -0.35302630287636
  H          -0.42000610440588     -5.57772863433241     -1.01030396201193
  H           4.81453067723815     -3.41331773466306      0.40955823192096
  H           5.38473253082849      2.73752464830684      0.54309762073637
  H           1.88134530751925      4.89887328551804     -2.13820107314545
  H          -4.18990401622161      5.22819275643383      0.06480155758328
  H          -7.16325482466572     -0.75640783225723     -1.08185294398449
  H          -2.42402300341824     -5.44804914838801     -2.46573033229344
  H           3.47221592082003     -5.24884142078114     -0.45041547454910
  H           6.50616880912389      1.25453944555340     -1.05685835311443
  H          -0.60381964495053      4.33568213549497     -2.58059124998319
  H          -5.10759817243380      3.23196081540764     -1.70162848408448
  H          -5.28938581738276     -1.85062009620889     -2.87913650937755
  H          -0.06888161488597     -4.81294980455753     -3.20673561507328
  H           4.53123790167049     -3.66028671398900     -2.51345745359127
  H           4.33523793988120      2.42579937656064     -2.42833738214816
  H           1.19254806808796      2.18811247677862     -0.87573025827506
  H          -2.50742363285618      3.06324273012342     -1.30809190024758
  H          -4.31764728183651      0.17339939009858     -1.72115483169544
  H          -2.03853977416027     -2.43354574180771     -2.14158174927045
  H           2.03543171136349     -3.20961660313121     -2.22651400325995
  H           3.68434387561774      0.25166203107624     -1.68065300278286
  H           1.97226716729326      2.47238564359936     -3.22357092892041
  H          -2.99153541428730      5.18122639533238     -2.38564350812560
  H          -6.19977921366359      1.02037189063887     -2.94587951191374
  H          -2.99767101950093     -3.29095179220638     -4.15534094462627
  H           2.30357244456092     -5.52635070686562     -2.81725282363442
  H           5.45633723722283      0.37746720279079     -3.35789183670871
  H           3.77170080701882      3.81664662055154     -0.69683616088792
  H          -1.67021604494623      5.10664611587610      0.82237490210888
  H          -6.13093113269452      1.31507128999572      0.44126885266974
  H          -4.38652384261237     -4.11694070793862     -1.17735606899588
  H           1.05784264786895     -4.60192641264874      0.33023037102003
  H           5.99217723035655     -1.37707413448379     -0.52340019971841
  H           1.69371960635151      3.30496289770957      1.46558387279446
  H          -2.01657629197413      2.07125542058081      0.90175801375153
  H          -3.63040079627203     -0.36985887296766      0.89775484455948
  H          -2.25330599556398     -2.86085312996436      0.60446734442461
  H           1.80915777987854     -1.73977514779780     -0.43196933129948
  H           3.53286165708817     -0.38225653862937      0.98360078423560
  H           3.93239517840233      3.84165687541676      2.30316656878332
  H           2.83057086231649      5.20667305876029      2.58042387768210
  H          -4.56879699003729     -0.57580067681666      3.17743209252210
  H          -4.34920607166452      1.13423808540430      2.73778379646201
  H          -4.43625778659675     -3.41594189793010      1.66341783425934
  H          -3.14055102493638     -4.48912172213690      2.25448176059327
  H           5.11010000822111     -0.66313935434688      2.95273096437107
  H           4.55449884899502     -2.17563823986429      2.21681819632588
  H           3.77335208244177      6.15675247462374      0.70417702365205
  H          -6.78360552207302     -0.27795581762110      2.56926541803185
  H          -3.93773154570891     -6.01031790915547      0.69006603415707
  H           7.06475708811462     -0.95689106256531      1.81993694175346
  C           1.17795665805571     -0.49414264846804      3.34756597067911
  H           1.97057004435317     -0.53980497790124      4.08859206566053
  H           0.25996907823832     -0.99233741083538      3.64635479160544
  O          -0.34104517367687     -1.93833219176754      1.56711644044233
  C          -0.21501700659400      1.52367644021501      4.00753414617142
  H          -0.58815588913920      0.74236834242509      4.65515484951209
  H           0.21350334188428      2.35464072242164      4.56213249356097
  O          -0.44000835549750      3.95349943340139      2.83749867790785
  C           0.82865771112362      0.95497172254390      2.98786919666307
  O           0.49269402795876      1.11018491751108      1.72144893272089
  O           2.02526363638481      1.87596490127890      3.37415636462341
  O           3.31361935462732      1.22604640376909      3.23883696161060
  H           3.53652299334075      1.33636014087816      2.29519392883476
