133
Coordinates from ORCA-job job
  C           0.50008577385472      4.92550892567060     -0.52248094134648
  C          -4.43800444723130      3.38251559100560      0.44911801398130
  C          -5.14259644586531     -1.76516721401476     -0.00548404279115
  C          -0.94012845393421     -4.82259242973627     -0.84935716665206
  C           4.11176899934332     -3.26781501487943     -0.25208035245042
  C           4.77027744042470      1.89664900990281      0.06310490017811
  O          -0.38109097664784      3.86566429101571     -0.20129508063665
  O          -4.41399766764211      2.23541077561153     -0.34006757791170
  O          -3.81290022222879     -1.90697822942555     -0.46382829949685
  O           0.05552849199778     -3.82211442922009     -0.83629243649599
  O           3.99906354160769     -2.00773407421842     -0.83877888648678
  O           3.37914942841451      2.07727524394320     -0.15397009461409
  C           1.17781991293539      4.56704088455984     -1.85045981520536
  C          -4.07902741443185      4.56661636229900     -0.47596397331352
  C          -5.94593016464599     -1.04863839229966     -1.10281330836224
  C          -1.79218552309733     -4.57072934076116     -2.10185074193687
  C           3.74810352852474     -4.29923457263123     -1.34175665311325
  C           5.45799672566694      1.37370352562521     -1.21322197306355
  O           0.24806319528491      4.37659466344115     -2.88296488500431
  O          -4.95735236743905      4.66543997384229     -1.55525189543289
  O          -5.96859434371249     -1.77012417399406     -2.30042369201425
  O          -1.03116620483347     -4.59838341458342     -3.27667012437795
  O           4.56113793282759     -4.15875066796691     -2.46770088369883
  O           5.41527808719542      2.26559752101918     -2.28666850384612
  C           1.95681141835879      3.26464307866211     -1.63115661916743
  C          -2.62718744964130      4.40181867294849     -0.97315985678870
  C          -5.30986916221439      0.33122872128515     -1.30644083003797
  C          -2.48410468583164     -3.20989099713801     -1.91898470383830
  C           2.26369746903747     -4.12217134584838     -1.71705510541655
  C           4.79056706969870      0.04353749393490     -1.57758269562981
  O           2.68941004420033      2.90202474908057     -2.77226113756592
  O          -2.22271484630019      5.49592665004569     -1.75332708293581
  O          -6.03349398641055      1.09068227135507     -2.23605908316331
  O          -3.34189339413442     -2.91910424264728     -2.98971248367361
  O           1.83396534608621     -5.09042462659820     -2.63420768654949
  O           5.38524105790400     -0.53234056379904     -2.70822683582535
  C           2.93099082171162      3.39444232781171     -0.45337249618868
  C          -1.68046931802763      4.23668281827410      0.22364550487193
  C          -5.23068786644232      1.12250855079142      0.00562597640839
  C          -3.31149036620116     -3.22009226369964     -0.63069450685223
  C           1.37177637590306     -4.19986755660068     -0.47011888090100
  C           4.86685746011593     -0.95935018241646     -0.42078156160397
  C           2.23141863431671      3.98541958969196      0.78352004197279
  C          -2.21432232283233      3.06676531471137      1.04974518441758
  C          -4.65390298289964      0.27301800896235      1.16082174272138
  C          -2.44211530257339     -3.62863447298898      0.56748621040060
  C           1.90884916397839     -3.18323107040891      0.53663241871657
  C           4.43839531208317     -0.32270066690973      0.91718853639806
  O           1.46167522360715      5.13528075417691      0.46781694784182
  O          -3.51048377402891      3.31723414445298      1.52219723989486
  O          -5.19701899788869     -1.04433367502170      1.18767164273000
  O          -1.73666110035369     -4.82951662734926      0.29856445518981
  O           3.25154356135709     -3.41862931984959      0.86500633773921
  O           4.97322459169663      0.98748801146555      1.09886854374002
  C           3.23774376684229      4.41129734965239      1.86064715909175
  C          -1.30654084411471      2.71706495978568      2.21564262777236
  C          -5.02998035426471      0.83632006182267      2.54408514830020
  C          -3.28688866303011     -3.91390086302297      1.81756800431439
  C           1.10972384885843     -3.08017222399948      1.82443400948155
  C           4.96640559599508     -1.10724670228261      2.13307103081210
  O           4.19357764068453      5.30310442413757      1.36491904659391
  O          -1.56144091755939      1.44694636625784      2.54968710600788
  O          -6.41303164118163      0.98846196719449      2.67342963414104
  O          -4.24803148406435     -4.89815497191750      1.57903552809397
  O           1.66034791159973     -2.11986833785822      2.56334389269851
  O           6.34316342111739     -1.33250142693882      2.04464944673354
  H          -0.04711679451122      5.87181312955557     -0.60331492958282
  H          -5.41413437234888      3.52782560527462      0.92881755076759
  H          -5.58133411130137     -2.74257350530280      0.22989355760781
  H          -0.48320046976394     -5.81979890122901     -0.87993264044982
  H           5.12012599274276     -3.44202742107030      0.14390293808679
  H           5.23164071289798      2.83347017204455      0.40048921580505
  H           1.88505487445692      5.36847767875872     -2.11558528977496
  H          -4.16171377055399      5.49968669163182      0.09115088587908
  H          -6.98661642341596     -0.93466298644990     -0.78247512324125
  H          -2.56318063035326     -5.34793770891917     -2.18080137979211
  H           3.90796744974276     -5.31015474250953     -0.95374304505867
  H           6.51815824482655      1.20879491036122     -0.99111314244402
  H          -0.55598611842547      4.89139732371764     -2.68478517559116
  H          -5.09019979095109      3.78168360326274     -1.93250286134777
  H          -5.06432105088957     -2.05667677905080     -2.52317072510672
  H          -0.08661097768274     -4.52574030573549     -3.05729850608122
  H           4.63046561437287     -3.21585645005689     -2.68689799202624
  H           4.48670518544902      2.47284137864571     -2.50314716422965
  H           1.23472677113562      2.46882289026997     -1.37221303373224
  H          -2.56687645176688      3.47498992560784     -1.56800925530556
  H          -4.27338557263112      0.17937361792695     -1.65744516826825
  H          -1.71305565269978     -2.42585572928981     -1.81596683986490
  H           2.13709902761929     -3.11119742809083     -2.14139911297318
  H           3.71882424595450      0.23994691458239     -1.76628082377328
  H           2.14658372120510      3.09458444689532     -3.55317325219103
  H          -2.98159676307951      5.75551391801211     -2.30471207876491
  H          -6.32684634425601      0.48451078203845     -2.93626053024644
  H          -2.90569313069981     -3.21478550880689     -3.80568007037579
  H           2.52105587892943     -5.17790442081703     -3.31648264916228
  H           5.63956062354297      0.19605379664565     -3.30016488245085
  H           3.77535031399824      4.03150388484933     -0.74353705203411
  H          -1.64135990184888      5.14387685684853      0.83816009137403
  H          -6.23318530923224      1.47495227533432      0.28671889325635
  H          -4.13985269806042     -3.93251840484728     -0.73889679665159
  H           1.38165709958314     -5.20430139722881     -0.03338413098428
  H           5.89213318151834     -1.34530504631751     -0.33107704688214
  H           1.57476323168383      3.20790704018826      1.19104196183777
  H          -2.21512014343667      2.16964545672887      0.40631584520900
  H          -3.55629826941378      0.21944699171502      1.06000273527902
  H          -1.74432714369264     -2.80047154989306      0.78066530270019
  H           1.79391220601530     -2.17825694240047      0.08410447196560
  H           3.33808385655951     -0.28462446865749      0.94336520451268
  H           3.76213531326819      3.52448333010430      2.21823499192525
  H           2.66866873282964      4.84518303599710      2.69074037209214
  H          -4.63238560504038      0.14248683147001      3.29547665967944
  H          -4.57334253730027      1.81396173773927      2.69303156827143
  H          -3.81149776525944     -3.00262017754516      2.11101557982029
  H          -2.59642956341361     -4.20674412570360      2.61820091956306
  H           4.71916259256182     -0.52693165983874      3.02974477585499
  H           4.47109545737204     -2.07651269941382      2.19439425386741
  H           3.72791771520748      6.10079373067060      1.07330789169475
  H          -6.81813471308230      0.11910447316375      2.53334197982964
  H          -3.77950259686159     -5.70460307070865      1.31384028705614
  H           6.78075658440910     -0.46796512093041      2.01899066851517
  C           0.79629044600073     -1.33736613287808      3.40322187232500
  H           1.46837846033366     -0.95890038008657      4.17324709848888
  H          -0.01039979191844     -1.95676813910523      3.79197188634415
  O           0.14823924313193     -3.74770561554995      2.13019000421239
  C          -0.63240341188841      0.73018421046256      3.40739912982338
  H          -1.27863902114906      0.10702164334358      4.01368739882705
  H          -0.03209327385752      1.44203934276704      3.96684010883609
  O          -0.48218987305467      3.45128908438216      2.71302865410559
  C           0.21033625861065     -0.20868455978184      2.55583020315961
  O          -0.41855016268410     -0.70428381109221      1.48115360922280
  O           1.41649688422060      0.48310789036923      1.93892964343740
  O           1.88051599587437      1.62049716243127      2.76572008898096
  H           2.59336738894519      1.18838570210007      3.30689604131841
