133
Coordinates from ORCA-job job
  C           0.54025182519399      4.84445855634115     -0.52861401727636
  C          -4.17912149816248      3.03955150365976      0.91690408232936
  C          -5.26638337930935     -1.95940872009568     -0.21685888168188
  C          -0.90148583676306     -4.69114322164241     -1.38652519979177
  C           3.65431474792658     -2.78126820277955      0.39723906781100
  C           4.93019325655598      2.00388184229047     -0.52424970290266
  O          -0.33685088707972      3.76475586512337     -0.30357398560103
  O          -4.13026310302787      1.91318812268633      0.09726312652481
  O          -4.00662818984000     -2.08382620917497     -0.82529805152623
  O          -0.01849178222503     -3.58201098387807     -1.46074971200278
  O           4.18523654679914     -2.03528189922307     -0.64834484669457
  O           3.58632452060497      2.13816711429577     -0.92441288729876
  C           1.10032200222640      4.69637999815494     -1.94839580487439
  C          -4.04694708095961      4.25126837415993     -0.02804438025713
  C          -6.06969595130452     -1.00159178625140     -1.11528356802409
  C          -1.86235636698122     -4.54689154799506     -2.57733328025604
  C           3.44969902480659     -4.22248237185443     -0.11051695491552
  C           5.64533860276941      1.23344401596797     -1.64344467676652
  O           0.08453142693888      4.63580882381639     -2.91322810115098
  O          -5.07342874243349      4.26175877273583     -0.97480068233938
  O          -6.20413158528617     -1.51365796824343     -2.41037131526271
  O          -1.18417983288543     -4.47713802119475     -3.79563783860763
  O           4.62520420196512     -4.73656468169246     -0.65741692313740
  O           5.53992492559088      1.89640237355821     -2.87083722149094
  C           1.93912598370351      3.41102754271888     -1.98584296178640
  C          -2.66950515059527      4.15828301406062     -0.70877277565837
  C          -5.32084236867429      0.33897007412167     -1.12679874195042
  C          -2.71689490192540     -3.29356186506850     -2.34460629577170
  C           2.29872337010336     -4.29913281005424     -1.13285538696075
  C           5.01550897319764     -0.16415577793803     -1.72636661585966
  O           2.60421819911532      3.25153660492025     -3.20844717635442
  O          -2.41123460310081      5.26057217537630     -1.53855211952351
  O          -6.03157641944269      1.33772209673233     -1.81005854218141
  O          -3.69533362830426     -3.13640763050079     -3.33760515940960
  O           2.01527822833397     -5.63714004906236     -1.44074961143357
  O           5.72263417463243     -0.97784436894305     -2.62021405090275
  C           3.00354718787061      3.42676655510943     -0.88297851020253
  C          -1.56051403906950      4.07177383583758      0.34619860763890
  C          -5.05476981166026      0.85196375149441      0.29267030182363
  C          -3.43258202992428     -3.36647157164608     -0.99371591597465
  C           1.05378990399137     -3.62745754287966     -0.54204059567922
  C           4.96985606572671     -0.87751811154764     -0.36697191742900
  C           2.37762218623941      3.73160562942234      0.48538144106569
  C          -1.86649490661507      2.92828065225935      1.31717927244790
  C          -4.46844584832925     -0.23557921562303      1.20927037592071
  C          -2.44530904773353     -3.67863825065741      0.14123399253886
  C           1.45161407181872     -2.18941356857211     -0.15838384841546
  C           4.41747655428220      0.04874995032870      0.73691433735047
  O           1.57255027541674      4.89482957784028      0.41313454592648
  O          -3.14486094680077      3.03178642644971      1.88787349303428
  O          -5.17122245076483     -1.46400078279260      1.08966728130616
  O          -1.59035871163462     -4.77050599825288     -0.17631364993836
  O           2.42975029689194     -2.21875844710119      0.85445424313605
  O           5.05276761282543      1.31947666868126      0.69180127640152
  C           3.42229744369987      4.03258409321639      1.56987335039821
  C          -0.82853594171719      2.84802388261912      2.43272574839473
  C          -4.57715287863425      0.15800067729015      2.69117354172964
  C          -3.17738891906116     -4.09440148163058      1.42683231752896
  C           0.28619083559055     -1.41907998054794      0.42370701000773
  C           4.66576212013368     -0.44851754077021      2.18067318420645
  O           4.30439022668646      5.03990917285482      1.17897924747535
  O          -1.02816463903202      1.74321000898220      3.13908600878223
  O          -5.89904340958187      0.44693009485546      3.04434819102013
  O          -3.99276717664924     -5.20899122966979      1.21092949752110
  O           0.10503678459779     -1.83216871583649      1.67537287873081
  O           5.79113282601018     -1.25643549602889      2.32083800978074
  H           0.01186818405118      5.79982639157177     -0.41927894753238
  H          -5.10683576201616      3.08474937162991      1.49994275598609
  H          -5.76541513315982     -2.93211862552075     -0.12386971549490
  H          -0.32719191393244     -5.62482107765276     -1.44742696471975
  H           4.31285214279637     -2.78790699891163      1.27223357556125
  H           5.39250183253539      2.98373614049241     -0.35356809618367
  H           1.75858257306974      5.55211904698969     -2.16122727005055
  H          -4.11808130834993      5.18353518965691      0.54029378769856
  H          -7.07938715990290     -0.86220659654889     -0.71772813877882
  H          -2.50991898896560     -5.42780639355703     -2.63020469350380
  H           3.19210127923521     -4.85498053403696      0.74619496346017
  H           6.71198051802526      1.14767838826199     -1.41553138750886
  H          -0.77037929656802      4.87154232086051     -2.50607092204548
  H          -5.21412517794530      3.35573777904305     -1.30370128742005
  H          -5.34898956910309     -1.88048647192052     -2.69531707843600
  H          -0.48592111733376     -3.81172234549540     -3.71622437629483
  H           4.98640925828478     -4.08273131986642     -1.27742142757724
  H           4.62017681698207      2.18504349208271     -2.99546834516921
  H           1.27094204455740      2.55228814514102     -1.78865286862479
  H          -2.63541351937877      3.22599942986414     -1.29624612497147
  H          -4.33792465620786      0.17609718677122     -1.60161490259362
  H          -2.04936294685558     -2.41268558027280     -2.31593175025824
  H           2.58763501230798     -3.74885715150130     -2.04294864003977
  H           3.96869296829837     -0.04107558951401     -2.05851580216808
  H           1.97569341670651      3.46287329572494     -3.91708471992247
  H          -3.22136093257308      5.43971320966562     -2.04669144388833
  H          -6.38199377026869      0.94320540743606     -2.62447966337781
  H          -3.28452345382104     -3.34081944405850     -4.19306357070440
  H           2.86501517994186     -6.08986379225940     -1.57625920433593
  H           5.92491674945390     -0.43884033857827     -3.40302368625573
  H           3.75946847348015      4.18869628517444     -1.11820555814603
  H          -1.47425676458990      5.01082067944344      0.90521365271341
  H          -5.98813920212043      1.23466202920674      0.72610367272323
  H          -4.21520409655760     -4.13563385676086     -1.03054604030728
  H           0.73884363051713     -4.14894948852015      0.37140251523736
  H           5.98161307744327     -1.20339198241158     -0.08810821683955
  H           1.78286958089516      2.85110675160447      0.79072709790334
  H          -1.76679717487767      1.97908644817597      0.75700557258432
  H          -3.40958665055885     -0.37698371761257      0.93414372636557
  H          -1.85349914788307     -2.76977660290323      0.32524376947870
  H           1.81713518513487     -1.65571225735515     -1.04920766684758
  H           3.32862138745385      0.18304299235337      0.60411582146371
  H           4.00784129197358      3.13323825965514      1.76644923947839
  H           2.86918574669143      4.30675564226567      2.47746282074370
  H          -4.17594560261535     -0.66650914253250      3.29328254052504
  H          -3.98138390216945      1.05349713875367      2.88040799304679
  H          -3.82376767523741     -3.28010253301789      1.75900756236263
  H          -2.42217981079698     -4.29278424174096      2.19773451410280
  H           4.73949871281214      0.45254903117675      2.80128244336263
  H           3.79471734269214     -1.01728736470838      2.51485167175753
  H           3.78273166814378      5.84063320149573      1.01298067510167
  H          -6.42634381794983     -0.34932327195859      2.87674373702717
  H          -3.42864742310821     -5.92739409408739      0.88749795108098
  H           6.58164810928811     -0.70843698200445      2.19152449030788
  C          -0.42627143195713     -0.90676830346850      2.62575791546150
  H          -0.66666525916690     -1.52890116529469      3.48338801248051
  H          -1.28694866601692     -0.38607265269903      2.21137302781507
  O          -0.40972121048296     -0.61122091522444     -0.18082887978650
  C           0.07807057160581      1.17341208610014      3.90179160362372
  H          -0.38068082359645      0.76792023210765      4.79773296612688
  H           0.81252913748790      1.94190610856973      4.11261566927435
  O           0.04913107236714      3.66017338982733      2.63038214966309
  C           0.68412429968620      0.11781961149596      2.97541061118517
  O           1.22689170473630      0.65315858279915      1.87554606305796
  O           1.70235392511751     -0.71307458891640      3.69047518229067
  O           1.99561342149961     -0.17721864117465      5.02077097529370
  H           2.70695891405736      0.47166023787580      4.82946121989382
