133
Coordinates from ORCA-job job
  C           0.52212129768769      4.82905120354115     -0.45288519320635
  C          -4.22816849019186      3.00540606409648      0.78103815482404
  C          -5.46206983252491     -1.94880655385133     -0.50519006265479
  C          -1.06183679602566     -4.74881931874766     -0.93501845339216
  C           3.75404168424089     -2.95433468187809     -0.00228561521982
  C           4.91990647418070      1.95868300229426     -0.09196433644613
  O          -0.30795553244771      3.74055743653556     -0.11129785774759
  O          -4.08520280836566      1.83883490201634      0.02870154011585
  O          -4.18716387120683     -2.18189841818231     -1.03890055111860
  O          -0.26811938717618     -3.57889302590861     -1.01905688250626
  O           4.04520563265409     -1.93422342619538     -0.90600086756611
  O           3.52185335885028      2.09747676350390     -0.27500402176488
  C           1.15386178068757      4.52187567481699     -1.81504972587474
  C          -4.03667307011322      4.17882882742656     -0.20270239260662
  C          -6.10628293762394     -0.90944152044708     -1.44134766328772
  C          -1.88164504547522     -4.82133855467222     -2.22473845022117
  C           3.42630164107344     -4.22580450609784     -0.81977997423581
  C           5.56684029180823      1.41179677035279     -1.37709582139849
  O           0.19306631549713      4.31086823612743     -2.81325758219254
  O          -4.99350150815059      4.15329034036231     -1.21854396759962
  O          -6.18162201963661     -1.38740453535525     -2.75375731882130
  O          -1.05828722643725     -4.85764718929882     -3.36055465388163
  O           4.41998957090750     -4.48667058829176     -1.76357437048120
  O           5.46923650183046      2.28111960120351     -2.46588968017777
  C           1.99682049509692      3.25172218325978     -1.65129644645951
  C          -2.61350605803712      4.07236684906386     -0.78091741839812
  C          -5.24630093084465      0.36149932125919     -1.36101541662653
  C          -2.77518601819379     -3.57564285498253     -2.25817092277252
  C           2.04825136605294     -4.09843076517020     -1.49578618626944
  C           4.89787712300687      0.06866654720741     -1.69026027940383
  O           2.70304508653735      2.94481250265248     -2.82295502467127
  O          -2.31442124186851      5.13910337449480     -1.64387149419932
  O          -5.80366989983838      1.42508981634499     -2.08878513821062
  O          -3.64904436146581     -3.57567463988547     -3.35509385712905
  O           1.65151449850015     -5.30617647714768     -2.09063124835431
  O           5.51315298043320     -0.55488437978349     -2.78366535781964
  C           3.00916282856462      3.39951260141752     -0.50920692350344
  C          -1.60397966000601      4.05801913081789      0.36896379449628
  C          -5.08481070448791      0.83095914060231      0.08847704483793
  C          -3.63192455613762     -3.48356990714257     -0.98839854199296
  C           1.01104781031582     -3.68789330629857     -0.44123889338319
  C           4.93297017857829     -0.89660208731561     -0.49799423844910
  C           2.33580921899195      3.92164487340436      0.77104139264016
  C          -1.96345159862805      2.95025593038927      1.36522577265414
  C          -4.64868139871875     -0.31114157113305      1.02004491939622
  C          -2.80797617315560     -3.68409049744304      0.29730256843686
  C           1.49783655028921     -2.34233824166765      0.12718113357856
  C           4.53687592948422     -0.20127668010828      0.82360080027640
  O           1.51773716682365      5.04817929878473      0.50713783930424
  O          -3.28141633296084      3.05993726645757      1.83790705980398
  O          -5.42958125454723     -1.47988286913644      0.81656301061586
  O          -1.88140783299936     -4.75984045905629      0.19235207726057
  O           2.67925141585916     -2.58029015741803      0.84844017572534
  O           5.16571717746333      1.07084563565152      0.95551915324865
  C           3.36190275616302      4.37708697309181      1.81896173543240
  C          -0.96353709079393      3.00621394851438      2.51672000842374
  C          -4.84705384164090      0.07419467819847      2.49391353761801
  C          -3.70301418674727     -4.06418573458246      1.48876124660366
  C           0.50036229060751     -1.65275061851465      1.03153474696206
  C           4.97221141425209     -0.97237633222981      2.09097847215147
  O           4.24164509125375      5.32999958148805      1.30346679848152
  O          -0.85043652717081      1.80785730489462      3.07551631382608
  O          -6.17615227621460      0.42430735397265      2.75384984964863
  O          -4.43910783132917     -5.22346473842163      1.22082111241156
  O           0.85143956996953     -1.81181494841735      2.30074936134074
  O           6.20403570721074     -1.61227493522087      1.94673896127578
  H          -0.05362465894897      5.76156053097496     -0.48689167673654
  H          -5.20378890609356      3.05817159150632      1.27859449011096
  H          -6.05371600494903     -2.87292405742053     -0.46654845570963
  H          -0.42566598131663     -5.63658478042306     -0.83283334010399
  H           4.59995993968844     -3.14979703960930      0.66653341186948
  H           5.37346469715034      2.91119455805051      0.20760044092144
  H           1.81479175147599      5.35654171682496     -2.09557221911783
  H          -4.14852447664324      5.13147691077196      0.32465725041250
  H          -7.12877539800740     -0.68773730076080     -1.12117381728664
  H          -2.51540895165869     -5.72044320094403     -2.19977425681102
  H           3.40236879079872     -5.08345908414333     -0.13862454961538
  H           6.63563890413896      1.26235030055477     -1.19098136695005
  H          -0.65508834231838      4.71044308975178     -2.53951941887837
  H          -5.11747829895113      3.23616267885803     -1.53072292525070
  H          -5.34577244032471     -1.83342445841728     -2.96796232432549
  H          -0.14031559939183     -5.01635756890515     -3.08323149790802
  H           4.63087999304308     -3.66024997320075     -2.22646216059688
  H           4.53101349768843      2.48674699129624     -2.63699230463791
  H           1.32174623729134      2.42026360007256     -1.37764725338551
  H          -2.52314745145840      3.11478028789698     -1.31866696837647
  H          -4.24062899726647      0.12152038300411     -1.74407976991761
  H          -2.11968392399708     -2.68884497679385     -2.28412569444508
  H           2.09263742980850     -3.30296044355366     -2.25696003899001
  H           3.83308215379238      0.26817180074501     -1.91023833259302
  H           2.11490682979634      3.10588511628794     -3.57858922548199
  H          -3.10271708576757      5.29655431722450     -2.19259526873400
  H          -6.08649311227291      1.07905092289779     -2.95000449928779
  H          -3.13128123582464     -3.80414995861282     -4.14185618185540
  H           2.41136436891124     -5.65261550338768     -2.58816821394038
  H           5.72222609705887      0.14127345285245     -3.42912752853540
  H           3.81109046559066      4.08408497811686     -0.81170206418373
  H          -1.59329644229953      5.02225981728082      0.89251553034205
  H          -6.03360273709808      1.25330047896762      0.44359186041842
  H          -4.42936293521914     -4.23833785345262     -1.03697288818754
  H           0.99331447121302     -4.40849458419329      0.38659943465613
  H           5.94313350468203     -1.31698136640348     -0.39098365494804
  H           1.73056793536042      3.09470262765207      1.18145329102427
  H          -1.81463977721981      1.97425629429879      0.87184431709379
  H          -3.58401633530174     -0.52350999727361      0.83058637660357
  H          -2.26914733980143     -2.74551529471852      0.50338591364197
  H           1.68246127723743     -1.64479410034242     -0.70771537759476
  H           3.44264957293513     -0.06247436110662      0.84554257068560
  H           3.95558466945767      3.51930585774678      2.14121336566730
  H           2.80411935812120      4.76515831503915      2.68066977861180
  H          -4.53082059644671     -0.77085226810065      3.11765103585764
  H          -4.22616482411865      0.94116206430118      2.73085844635581
  H          -4.41955252302370     -3.26650717914483      1.68558363346505
  H          -3.05700116258919     -4.19843264738805      2.36547010180108
  H           4.98997926891932     -0.24578732633640      2.91213212564071
  H           4.22412877721437     -1.72859564249470      2.33231873510180
  H           3.71977129920077      6.10455525943974      1.04321100273570
  H          -6.72805075482542     -0.33836898746061      2.52090279989276
  H          -3.80930456735680     -5.93019909200401      1.01534152406423
  H           6.89532923656862     -0.93399463360512      1.91322550982352
  C           0.31900971673479     -0.87637505221427      3.25210026738783
  H           0.47015705846128     -1.35946058874547      4.21144637084436
  H          -0.72322733759237     -0.66375024229698      3.02296604738517
  O          -0.49258327452506     -1.06054659490192      0.62798342994753
  C           0.30198618176146      1.51168459850561      3.92398180728479
  H          -0.12015815456613      1.14900839285863      4.85750948347966
  H           0.91141925698366      2.39503399110550      4.07176979142996
  O          -0.33867811175552      3.99797388546849      2.83191068934302
  C           1.10987941444563      0.44500983784012      3.18431949484002
  O           1.47237421577023      0.84468194562356      1.95913428784091
  O           2.28174530489271      0.11909067826294      4.04501604553667
  O           3.20233083847601      1.23399362092058      3.94504159479624
  H           3.09270652055011      1.44037789111311      2.99235234612274
