19
Coordinates from ORCA-job job.QMRegion
  C          -1.61392999872621      2.48681747498642      2.24112857187309
  C           1.44309042143252     -2.88138088217979      1.94602542811458
  O          -1.77174158904416      1.15459505167205      2.28783909668281
  O           1.99276156730132     -1.85065171601097      2.60314326205824
  C           1.09140963098830     -1.05344222861586      3.38464729043604
  H           1.72310253217108     -0.43152753064011      4.00943406588190
  H           0.42288129111680     -1.71199625923193      3.93428250872173
  O           0.54871548207057     -3.58673828589643      2.36351633275939
  C          -0.95212810262664      0.34692636473944      3.17432957052677
  H          -1.59733883419194     -0.48790593844645      3.43420258401414
  H          -0.64549848270189      0.96067725462513      4.02001848813135
  O          -0.94151172445848      3.17521433805188      2.97291917958958
  C           0.24578636557789     -0.21855940584935      2.40495245091781
  O          -0.07273703015016     -0.83094587605133      1.28647404907757
  O           0.99292395452675      1.13410459358237      2.10559871440036
  O           2.41599592720947      1.11687498411728      2.47437263557992
  H           2.84122661884011      1.24755316114304      1.59473647478353
  H          -2.20563826337855      2.83449288318627      1.40174342217657
  H           1.96690055591460     -3.01511940843491      1.00195076387041
