19
Coordinates from ORCA-job job.QMRegion
  C          -1.07607902754143      2.99476293397450      2.58036830065755
  C           0.75790272561375     -1.66992915652803      1.31773341281467
  O          -1.05370502452863      1.84032518560309      3.24169357357811
  O           1.40545505167247     -1.49314185591134      2.46336777406572
  C           0.75676709130283     -0.69413256662018      3.48069158120408
  H           1.13157475498943     -1.10447357189628      4.41276278195061
  H          -0.32073592436103     -0.79672885758326      3.35495105486042
  O          -0.37836271805291     -1.29011701526411      1.07101009388961
  C           0.05730340667822      1.62165437550510      4.14652094134947
  H          -0.37602245498489      1.07990113002571      4.97983277169291
  H           0.49143116165210      2.56601703435727      4.45401073183259
  O          -0.41046744694041      3.97536914153467      2.85002802381662
  C           1.11960638883489      0.80099920960500      3.38420672723698
  O           1.32258652158722      1.20838275659359      2.12976671634613
  O           2.31969810691384      1.07447560783005      4.27214749992327
  O           3.51057601644155      1.00347180771895      3.45597563443667
  H           3.10706410914449      1.20325095415520      2.58091221270954
  H          -1.76416892603146      2.94254966153252      1.74164778402218
  H           1.39144749639942     -2.18342682952174      0.60043775753683
