19
Coordinates from ORCA-job job.QMRegion
  C          -1.05866203794686      3.03174249984827      2.58074938257734
  C           0.68240744957040     -1.66248221255753      1.26512575768987
  O          -0.92553388374181      1.85673615036600      3.19043894550998
  O           1.21917575350657     -1.64508270387988      2.48029883000327
  C           0.60997292258675     -0.77103626457978      3.44864890543194
  H           0.90574305967066     -1.18632372475334      4.40631951074080
  H          -0.46754716255520     -0.75142845665601      3.28638594779425
  O          -0.39913892153050     -1.18424954666481      0.95291973231511
  C           0.24987302114453      1.65273969723210      4.03248746349387
  H          -0.13265170617435      1.27060931349132      4.97447706085848
  H           0.78560107942032      2.58443634332091      4.16729506214574
  O          -0.44932793670725      4.04486948711445      2.86223886888859
  C           1.15993493192279      0.65734189883759      3.31500148102489
  O           1.43938419386771      1.00848298612805      2.05847081764521
  O           2.41387798272623      0.67192811017740      4.21264321793365
  O           3.52581752164274      1.13751696739107      3.42271548639802
  H           3.05084078603609      1.23413655781351      2.55503427070081
  H          -1.75998260927031      2.95922259522400      1.75247480785541
  H           1.34258496643250     -2.16325757592725      0.56456022146550
