133
Coordinates from ORCA-job job
  C           0.54388238798943      4.83166679391966     -0.51612315830146
  C          -4.19761800012964      3.04368900841126      0.88079817215410
  C          -5.27970312605797     -1.96446828822711     -0.20022165047338
  C          -0.90844577644329     -4.67896474624697     -1.37871956871060
  C           3.66233756988831     -2.78936033977584      0.37464970290060
  C           4.94300484963966      2.00043927334077     -0.49572221781808
  O          -0.33742757632255      3.75141320924327     -0.31125604568367
  O          -4.15916065329952      1.91445426034572      0.06540460326111
  O          -4.02132242902177     -2.08458380397037     -0.81217058633095
  O          -0.03107347283174     -3.56549190307043     -1.45244632293182
  O           4.18052649706076     -2.02621637474195     -0.66549276437090
  O           3.59859029492079      2.13227924853907     -0.89493954682738
  C           1.12227397397693      4.69463804363471     -1.92994387768227
  C          -4.04878651572324      4.25009291006105     -0.06852279006041
  C          -6.09364089714998     -1.02068467115754     -1.10372814494041
  C          -1.87233971647029     -4.54000323074102     -2.56755832353758
  C           3.45240881692356     -4.22162816303608     -0.15527150332976
  C           5.66129897587866      1.24324971773194     -1.62202560619204
  O           0.11954925237799      4.64285614810475     -2.90880568853523
  O          -5.06833167492374      4.26412072282021     -1.02268391830921
  O          -6.23175957138647     -1.54596315206680     -2.39314362242861
  O          -1.19664972881603     -4.46811445078706     -3.78717623708099
  O           4.62238137801005     -4.72649919068029     -0.72241827430075
  O           5.55908435387782      1.92050971083216     -2.84194645071486
  C           1.96134791019775      3.40958660568036     -1.96667800371924
  C          -2.66704657342711      4.14582321140800     -0.73894481019109
  C          -5.35212895255257      0.32352144166770     -1.13299633109844
  C          -2.73230621520635     -3.29080753438911     -2.33403784929307
  C           2.29250948558751     -4.27696498717948     -1.16816192801731
  C           5.03089623365232     -0.15285187340228     -1.72246828998307
  O           2.64220948831601      3.25844871101126     -3.18176461658969
  O          -2.39508807568583      5.24534572574806     -1.56811708351985
  O          -6.07242822311836      1.31077260818262     -1.82291047178412
  O          -3.71573253256948     -3.14049691081363     -3.32329180616599
  O           2.00846986682315     -5.60754564523524     -1.50622671560255
  O           5.74178561716932     -0.95888229792200     -2.62057402619067
  C           3.01147599061778      3.41838313848756     -0.85035339067358
  C          -1.56814039159318      4.05556060405979      0.32592304927185
  C          -5.07965396628847      0.85316023013680      0.27924014973632
  C          -3.44238664332837     -3.36479510199939     -0.98023683295867
  C           1.05319355291455     -3.62109057246311     -0.54819271173922
  C           4.97740790883019     -0.88056298815029     -0.37112372259635
  C           2.36725156546264      3.70962931794904      0.51251741425131
  C          -1.88729770655260      2.91210528897795      1.29294924851732
  C          -4.48699530994894     -0.22200111040469      1.20698607980769
  C          -2.45019607372107     -3.67109703973636      0.15204529183939
  C           1.45176571648457     -2.18904181941506     -0.14227092401970
  C           4.43136764154289      0.03403435233222      0.74567410332639
  O           1.56327399223223      4.87375199992722      0.44022496660139
  O          -3.16807256127438      3.02893681507230      1.85684184496425
  O          -5.18255162756266     -1.45602986432945      1.10103255769537
  O          -1.59409349376117     -4.76158213468920     -0.16671125835754
  O           2.44403668873076     -2.23348546596652      0.85592474325775
  O           5.06695093691790      1.30508681402678      0.71372566322694
  C           3.39935721954813      3.99805692836212      1.61219175429968
  C          -0.85889494598015      2.83144491108041      2.41710181867234
  C          -4.59910579558407      0.18404562585524      2.68538347289490
  C          -3.17684816462622     -4.08522708931489      1.44108473987508
  C           0.29299843024582     -1.43274167040251      0.47015749194452
  C           4.68498278568264     -0.48295035386544      2.18210409412344
  O           4.28350206785574      5.01218892012596      1.24407440760690
  O          -1.04774943140850      1.71378491429691      3.10666486526990
  O          -5.92292452875746      0.46882317676321      3.03486718178634
  O          -3.99248832326614     -5.20062483233799      1.23011610001694
  O           0.13660009334275     -1.85771636448137      1.72118877318193
  O           5.80540039237000     -1.30129826045066      2.30439712267339
  H           0.01520148663337      5.78679918554940     -0.40639869948384
  H          -5.12723816031494      3.10173830245752      1.45986967570059
  H          -5.77098344752010     -2.93999848184498     -0.09594714355897
  H          -0.32985899361757     -5.60978801467953     -1.44182608529005
  H           4.33235066038983     -2.81053681007989      1.24068975748926
  H           5.40133461738602      2.98046731502177     -0.31575798918123
  H           1.78327939511992      5.55193122628873     -2.12736670301900
  H          -4.11726373648929      5.18522772687168      0.49544163194744
  H          -7.10203639412504     -0.88310375065209     -0.70235501446145
  H          -2.51573681688396     -5.42408260985328     -2.61848794938512
  H           3.20248106560420     -4.86961546817150      0.69200570577282
  H           6.72734620399193      1.15466189940406     -1.39240724084852
  H          -0.74283276656251      4.86441615159780     -2.50947127490837
  H          -5.21353938235961      3.35745511225543     -1.34685320036504
  H          -5.37489962886297     -1.90724280410111     -2.68038144220707
  H          -0.49989608493837     -3.80098094213969     -3.70896175157588
  H           4.97823625918002     -4.06211195497068     -1.33427153677772
  H           4.63933770703789      2.20966257432578     -2.96674535343605
  H           1.29089237852197      2.54952848852935     -1.78454863080258
  H          -2.63433663351516      3.21246887989951     -1.32465871523792
  H          -4.37144689670042      0.16067550470117     -1.61222818267203
  H          -2.06926976219607     -2.40660016484823     -2.30975589342312
  H           2.57195163034162     -3.70463798904686     -2.06762562638544
  H           3.98623027377461     -0.02547430741238     -2.05922269707173
  H           2.02505635632509      3.48133257441276     -3.89683382743520
  H          -3.19951626903592      5.42859982975445     -2.08370851211647
  H          -6.42506036913693      0.90489829891172     -2.63079649994548
  H          -3.30756356187270     -3.34382971812702     -4.18022852130245
  H           2.85798606583629     -6.05666744577066     -1.65455841469455
  H           5.94668270455792     -0.41353469121849     -3.39816444808409
  H           3.76763627036758      4.18503517644210     -1.06865403786729
  H          -1.48806831712961      4.99322397453211      0.88838632908040
  H          -6.01165620681734      1.23960554270832      0.71253784314620
  H          -4.22162672914377     -4.13756753695948     -1.01313328978120
  H           0.75203063896634     -4.16061956153083      0.35933684998987
  H           5.98605317063721     -1.21940429494784     -0.09643186921199
  H           1.76776439756074      2.82723157928385      0.80264438977755
  H          -1.79342645347134      1.96153634326344      0.73508590263933
  H          -3.42711755256402     -0.36024322323752      0.93425737715900
  H          -1.85977194758385     -2.76048015127057      0.33199219944720
  H           1.80281664767758     -1.63757680932935     -1.02821491227764
  H           3.34251286020642      0.17098241870146      0.61729537673609
  H           3.98523117909713      3.09728638157085      1.80130835008145
  H           2.83703030940991      4.25844923723102      2.51816237386943
  H          -4.19456549971717     -0.63364834969440      3.29464878853001
  H          -4.00828087785508      1.08397031587776      2.86831119619309
  H          -3.82235968135079     -3.27075006966859      1.77456228380378
  H          -2.41858591815812     -4.28201506392708      2.20938373704060
  H           4.77235884285827      0.40894563224396      2.81381763604061
  H           3.81312027726331     -1.05229453493195      2.51399652544500
  H           3.76205058444339      5.81392395089317      1.08281323865100
  H          -6.44624851289119     -0.33073179638047      2.87055984826881
  H          -3.42916005580891     -5.91930464559262      0.90591433959709
  H           6.59935063486876     -0.75543380465549      2.18865134415864
  C          -0.39194245894680     -0.93966734049287      2.68309084557266
  H          -0.59692654177491     -1.56028197603125      3.54918211099918
  H          -1.27074522331712     -0.43661685431382      2.28591296054653
  O          -0.41865459138729     -0.62220414110371     -0.11213569216664
  C           0.05388418525901      1.17421150297653      3.89726099048910
  H          -0.41398207062959      0.76859408149260      4.79033952998074
  H           0.76436481662651      1.95923264196103      4.12002538638236
  O           0.00022322585934      3.65766211046054      2.63585880560136
  C           0.70045355598565      0.11462241345930      3.00061534058593
  O           1.25112431980902      0.65002074137990      1.90783570301325
  O           1.68936459094318     -0.69339453950435      3.77949665131949
  O           2.21265174970054      0.06937325322968      4.89334405318429
  H           2.84647942015827      0.67998256211350      4.45422081463501
