133
Coordinates from ORCA-job job
  C           0.42071577492876      4.71245166089882     -0.42320089987988
  C          -4.61196236153720      3.44868904645106      0.38259792826588
  C          -5.18129714940251     -1.65872070856060      0.06095187875629
  C          -0.82902176170653     -4.52367135195193     -0.76698205250739
  C           4.29598798169441     -3.35656003937199     -0.31032905058239
  C           4.77701081643033      1.76576603962717      0.09903682912471
  O          -0.48846376927223      3.71145183263031      0.00221308331632
  O          -4.63272098115324      2.32549101807275     -0.43796610707530
  O          -3.78747805872233     -1.68070394684101     -0.20990090525623
  O           0.19301336086215     -3.57253707981836     -0.56029874697038
  O           4.21456326447969     -2.12915320978182     -0.96365308180481
  O           3.34898507256310      1.85997866742437      0.03319271651568
  C           1.05439626138772      4.23072964642612     -1.73549531795312
  C          -4.12667624205844      4.62621985069885     -0.49134310270356
  C          -5.93840146751366     -1.06383252165560     -1.13937255582778
  C          -1.60311994677279     -4.10465970162130     -2.02532198339691
  C           3.78267966424612     -4.42101781529335     -1.30377424841446
  C           5.39387872818400      1.36362415617050     -1.25383095386010
  O           0.10256603046529      3.99749518874558     -2.73550140758184
  O          -4.93150295257421      4.80822705055724     -1.61533979070321
  O          -5.83216301021784     -1.83537431354454     -2.29943794656344
  O          -0.76599442597989     -3.95026644081312     -3.13803328953035
  O           4.52335632198298     -4.42867268065725     -2.48541444455207
  O           5.21314139314395      2.29736561984891     -2.27417966237552
  C           1.78337354681201      2.91720079763200     -1.43187507494876
  C          -2.66120210590058      4.38929628883503     -0.91798620110181
  C          -5.39212324122224      0.34993896581720     -1.36892149580790
  C          -2.30214342208121     -2.77163328181379     -1.72659809191582
  C           2.29476430166433     -4.14848287896078     -1.59779824221630
  C           4.81223055519211      0.00110007085938     -1.64394238841615
  O           2.43756740477105      2.41884974145455     -2.56911796959488
  O          -2.17635653420874      5.47574903135207     -1.66203074002231
  O          -6.09830183024222      1.00134207301617     -2.39031783493315
  O          -3.07562903541069     -2.34250470157538     -2.81470153463227
  O           1.74174121046624     -5.13830935200873     -2.42592598586044
  O           5.36571871740549     -0.45423277524559     -2.84747434494879
  C           2.81543672247361      3.13611605360773     -0.31944765122928
  C          -1.79583523233242      4.14801465734304      0.32809992457263
  C          -5.46389959546515      1.21640243004154     -0.10381962422916
  C          -3.20986238470581     -2.93765666516666     -0.50395771442102
  C           1.49092492682970     -4.07843942974032     -0.29311125183875
  C           5.06016865241305     -1.05599391911896     -0.55929387840472
  C           2.15191543509224      3.79991837653327      0.90473681836031
  C          -2.44321743542537      2.97408943871131      1.06471850498960
  C          -4.99766125086205      0.45984429041871      1.16084988445739
  C          -2.37354648486934     -3.43998940632563      0.68452858191111
  C           2.17503479609344     -3.06825997352205      0.62682579018346
  C           4.73392586251646     -0.52862077950505      0.85355007836799
  O           1.41673758058310      4.95507622383885      0.52550313231239
  O          -3.74007825135826      3.29084602729954      1.49594269316412
  O          -5.44312733365271     -0.89575879550977      1.19473924585638
  O          -1.68613662445637     -4.63289407241092      0.33362633195939
  O           3.51567514483796     -3.39278349725631      0.87651556179390
  O           5.12800238396417      0.83054644102526      1.06049965832269
  C           3.19223937943144      4.25717861155650      1.93885978806997
  C          -1.61392999872621      2.48681747498642      2.24112857187309
  C          -5.59783634282667      1.05204044795455      2.45040465939288
  C          -3.25185039077657     -3.79430415058135      1.89216557591883
  C           1.44309042143252     -2.88138088217979      1.94602542811458
  C           5.50126589076459     -1.27910044001261      1.95904302638406
  O           4.20210177672969      5.03220968038485      1.36046984995447
  O          -1.77174158904416      1.15459505167205      2.28783909668281
  O          -6.99260225444892      1.11933692902635      2.37894721480513
  O          -4.22073802209119     -4.74539539949016      1.56549928168464
  O           1.99276156730132     -1.85065171601097      2.60314326205824
  O           6.87753952946952     -1.28477541506271      1.71473078548900
  H          -0.09418205902981      5.66983669704160     -0.55760991088628
  H          -5.59704132865324      3.65402152690314      0.82014095233929
  H          -5.54513764194055     -2.66655045540492      0.29768207398300
  H          -0.40076188616874     -5.52615290648746     -0.89024948157451
  H           5.32015134279179     -3.57744231893969      0.01630009211589
  H           5.19126509383759      2.71996952999675      0.45070176288007
  H           1.78976325171066      4.98053960176811     -2.06813953268968
  H          -4.18312005132249      5.54966339911179      0.09456104660269
  H          -7.00500357668804     -1.01556618511136     -0.89472063278780
  H          -2.37090897133371     -4.86608904600420     -2.23645438208645
  H           3.88821360100307     -5.41273193801084     -0.85249528772951
  H           6.47651499807639      1.27464064314158     -1.10722357769977
  H          -0.59948974986569      4.67036768953246     -2.66081967954792
  H          -5.08509963762361      3.94574238815230     -2.03210598741686
  H          -4.88978705149018     -1.97732240227057     -2.50913196786870
  H           0.06076534969665     -4.45039742009403     -2.99274194464349
  H           4.62182910030242     -3.51505745799064     -2.79628710314384
  H           4.26082924555697      2.37473838702171     -2.47986411779186
  H           1.04448125410886      2.18002707133150     -1.06623489194439
  H          -2.61841840276262      3.47176242234860     -1.52872602132184
  H          -4.32435915651202      0.25773481254847     -1.63832889215942
  H          -1.53348768042580     -2.01795033488016     -1.47513545503969
  H           2.21123185919001     -3.16116673228994     -2.08177049749339
  H           3.71646603709797      0.11221808562110     -1.74756598447309
  H           1.88005303394317      2.60500673156513     -3.34213634876707
  H          -2.91056496919367      5.79044710997206     -2.21982035208778
  H          -6.25725477417364      0.34586367513032     -3.08954333071831
  H          -2.58621773606489     -2.54968973440096     -3.62731165313638
  H           2.38018290992700     -5.31195024070800     -3.13998746266186
  H           5.51665339108118      0.32582478832162     -3.40830346598555
  H           3.61825601152627      3.78521307005779     -0.68795179722222
  H          -1.75658506330227      5.03357821581125      0.97443773011317
  H          -6.49622320396637      1.56485849730880      0.04525970190024
  H          -3.99198690309312     -3.67330029402039     -0.73059633087037
  H           1.43238798017636     -5.05632310861013      0.19857862136864
  H           6.10956062790388     -1.38308337320525     -0.59342317664498
  H           1.45966103485197      3.08374720942437      1.36374845509354
  H          -2.48072410645476      2.12398666736991      0.36321595908606
  H          -3.89918875769612      0.47948456451997      1.20624936823862
  H          -1.65510978579756     -2.64974052587712      0.96394457909054
  H           2.10142148355115     -2.08338943544483      0.13064788853674
  H           3.65482293428839     -0.63962865474414      1.02569523911461
  H           3.66157582260593      3.37847998906817      2.38584476557936
  H           2.65816624617779      4.80677983448584      2.72234957323216
  H          -5.27364458670577      0.41215618577048      3.28081530097286
  H          -5.22496873484010      2.06131007155632      2.61892175427981
  H          -3.77350076343349     -2.89587728281686      2.22770302404063
  H          -2.58964737418575     -4.14885789618085      2.69183311653186
  H           5.26139400098661     -0.77982102809958      2.90557070078038
  H           5.16580073423224     -2.31348378682285      2.01677170364212
  H           3.79622492866581      5.84450647402412      1.02289705456486
  H          -7.31902874461229      0.22049311143317      2.22269913582885
  H          -3.75841750405881     -5.54016928084497      1.25810986925116
  H           7.17747551013818     -0.36371208211612      1.70844292180677
  C           1.09140963098830     -1.05344222861586      3.38464729043604
  H           1.72310253217108     -0.43152753064011      4.00943406588190
  H           0.42288129111680     -1.71199625923193      3.93428250872173
  O           0.54871548207057     -3.58673828589643      2.36351633275939
  C          -0.95212810262664      0.34692636473944      3.17432957052677
  H          -1.59733883419194     -0.48790593844645      3.43420258401414
  H          -0.64549848270189      0.96067725462513      4.02001848813135
  O          -0.94151172445848      3.17521433805188      2.97291917958958
  C           0.24578636557789     -0.21855940584935      2.40495245091781
  O          -0.07273703015016     -0.83094587605133      1.28647404907757
  O           0.99292395452675      1.13410459358237      2.10559871440036
  O           2.41599592720947      1.11687498411728      2.47437263557992
  H           2.84122661884011      1.24755316114304      1.59473647478353
