19
Coordinates from ORCA-job job.QMRegion
  C          -0.85889494598015      2.83144491108041      2.41710181867234
  C           0.29299843024582     -1.43274167040251      0.47015749194452
  O          -1.04774943140850      1.71378491429691      3.10666486526990
  O           0.13660009334275     -1.85771636448137      1.72118877318193
  C          -0.39194245894680     -0.93966734049287      2.68309084557266
  H          -0.59692654177491     -1.56028197603125      3.54918211099918
  H          -1.27074522331712     -0.43661685431382      2.28591296054653
  O          -0.41865459138729     -0.62220414110371     -0.11213569216664
  C           0.05388418525901      1.17421150297653      3.89726099048910
  H          -0.41398207062959      0.76859408149260      4.79033952998074
  H           0.76436481662651      1.95923264196103      4.12002538638236
  O           0.00022322585934      3.65766211046054      2.63585880560136
  C           0.70045355598565      0.11462241345930      3.00061534058593
  O           1.25112431980902      0.65002074137990      1.90783570301325
  O           1.68936459094318     -0.69339453950435      3.77949665131949
  O           2.21265174970054      0.06937325322968      4.89334405318429
  H           2.84647942015827      0.67998256211350      4.45422081463501
  H          -1.59267479828815      2.88899722662245      1.61500312881580
  H           1.12226096583036     -1.97398181989694      0.03187799690027
