19
Coordinates from ORCA-job job.QMRegion
  C          -1.36037160256453      2.82354483000518      2.31864196963980
  C           1.09722105735505     -2.87282729742389      1.79569063011202
  O          -1.72342014062288      1.61448905511935      2.75595721745951
  O           1.61026075552304     -1.83906882116094      2.45148732530419
  C           0.75524035875241     -1.12109505597907      3.36694109091514
  H           1.44085981438373     -0.69038917153150      4.08978575328453
  H           0.01919160314485     -1.79834152256422      3.79341025348962
  O           0.15001547335343     -3.54001575897137      2.14981421196606
  C          -0.78488694523193      0.82572750374145      3.52383480806717
  H          -1.42210081305652      0.16878736731696      4.10391493124973
  H          -0.15212661884538      1.48007445191118      4.11978822256675
  O          -0.46962920615680      3.52025152801799      2.75826429972798
  C           0.03518212336580     -0.04347477170624      2.56853627307334
  O          -0.64015756041052     -0.51780901460594      1.51661783545442
  O           1.08635452337148      0.81129740031623      1.90355319789095
  O           1.94290830727371      1.46314931927224      2.95165951395298
  H           2.71306734676232      0.84842692752765      2.95942769158307
  H          -1.98672221534181      3.05346116646769      1.46558016240406
  H           1.67780305526480     -3.01551556793899      0.88708865491980
