133
Coordinates from ORCA-job job
  C           0.49082546847348      4.74498388837318     -0.41213183539834
  C          -4.29317848454438      2.99064746101153      0.78578032815440
  C          -5.51285210546471     -1.92960221591451     -0.61220610644420
  C          -1.04328611320612     -4.66062811118597     -0.87329202354830
  C           3.83972325368544     -2.99906061138455     -0.01597676388502
  C           4.94271281770960      1.91788722420762     -0.10971336481125
  O          -0.34687764034605      3.67436077258178     -0.03058698011721
  O          -4.13757956894201      1.81251639538636      0.05374401701536
  O          -4.19689065101434     -2.12110797608222     -1.05450057989463
  O          -0.24196080414495     -3.49169325474644     -0.83801668952600
  O           4.06407013286080     -1.97173264272716     -0.93129123153434
  O           3.53165138329161      2.03703699952240     -0.18273631602265
  C           1.11140295426163      4.39000954119996     -1.76763882448118
  C          -4.07050718106089      4.15402658571851     -0.20375743424779
  C          -6.10816088147595     -0.88327180810753     -1.57247588569193
  C          -1.78761391580381     -4.67466665128747     -2.21324004596329
  C           3.44262650561368     -4.25554574901620     -0.81922106008104
  C           5.51937189791618      1.40021914939824     -1.44125828055157
  O           0.14731736111691      4.15328335796071     -2.75592971906994
  O          -5.01217131431710      4.14267805124759     -1.23325877815590
  O          -6.09070016061822     -1.34309619758870     -2.89394418647784
  O          -0.90737752442451     -4.63267958392796     -3.30363669513118
  O           4.37173154118156     -4.53468393398783     -1.82180765276419
  O           5.37096829350206      2.28512364918953     -2.51021237831771
  C           1.94222216102742      3.11811896527110     -1.56595041483499
  C          -2.64124173531380      4.01994520994331     -0.76125341626646
  C          -5.26633440658458      0.39300731984785     -1.41858224676202
  C          -2.69436872894791     -3.44116322712305     -2.24293238196904
  C           2.03474781138134     -4.08472014529322     -1.41669272947868
  C           4.83859132785102      0.05947268622182     -1.74133915844206
  O           2.59492002812623      2.73957114697971     -2.74793347284902
  O          -2.32074042739429      5.07023129420818     -1.63725078950253
  O          -5.79761390314253      1.46995387830573     -2.14728800801029
  O          -3.50624903285318     -3.40028355890560     -3.38612288759199
  O           1.60293249939624     -5.27822199101727     -2.01933329742232
  O           5.37548342153836     -0.52843454574314     -2.89411862299868
  C           2.98790085157439      3.31817367013321     -0.46210302880486
  C          -1.65367542944439      4.01433310900247      0.40649977560333
  C          -5.17165569429938      0.83657169322630      0.04554034806748
  C          -3.62244316047480     -3.41373201709278     -1.02251287401783
  C           1.05069244883716     -3.67343249181592     -0.30865388462356
  C           4.97240971817503     -0.93197693131836     -0.57796879971236
  C           2.33032686748792      3.87705736604351      0.81265697931129
  C          -2.04157266069935      2.93010483580302      1.41991094244194
  C          -4.81492690581263     -0.32265786276396      0.99023768931518
  C          -2.86392120175184     -3.65213033586775      0.29574407495840
  C           1.60490433906377     -2.36223902529973      0.28619280171003
  C           4.66372830790594     -0.26863795243574      0.78193243600764
  O           1.49651048897477      4.98946011341961      0.53169168165118
  O          -3.36921920295226      3.05145215880934      1.86217233583776
  O          -5.58349677319950     -1.48521691651851      0.71599011207833
  O          -1.93360504605515     -4.72539255885464      0.19818225786497
  O           2.82684476741486     -2.64427905228869      0.91583923584092
  O           5.27554187315464      1.01308862461945      0.89684874521498
  C           3.37268450336715      4.36284106298937      1.83027733483995
  C          -1.05866203794686      3.03174249984827      2.58074938257734
  C          -5.11323169257532      0.04813607960485      2.45058134910529
  C          -3.81996856323718     -4.06894085047066      1.42546140092014
  C           0.68240744957040     -1.66248221255753      1.26512575768987
  C           5.20004514849476     -1.05566267935975      1.99981080497880
  O           4.25902089885513      5.28479985138585      1.27176927951777
  O          -0.92553388374181      1.85673615036600      3.19043894550998
  O          -6.45394639878371      0.40923714174825      2.62320325798208
  O          -4.53931879760937     -5.21964850837974      1.08264346048875
  O           1.21917575350657     -1.64508270387988      2.48029883000327
  O           6.42701212734307     -1.67632220761436      1.75406391251425
  H          -0.07859366747402      5.68005349354486     -0.46995289164524
  H          -5.27951305491677      3.05510585325962      1.25987986652584
  H          -6.08514683802997     -2.86608220023063     -0.63593160717709
  H          -0.41828856211904     -5.55609390769660     -0.77524464429620
  H           4.73235476583649     -3.20348357181247      0.58544867993218
  H           5.39891821272648      2.87253697149597      0.18030982144424
  H           1.77842892526319      5.20975066019125     -2.07658372699366
  H          -4.17241156104950      5.11104608132761      0.31791614247083
  H          -7.15174082266061     -0.67708545686520     -1.31720702825618
  H          -2.40837809450595     -5.58319448675574     -2.26232063696994
  H           3.43506518046036     -5.11774302930770     -0.14362786806626
  H           6.59615817284392      1.25015087020778     -1.30770549458691
  H          -0.69395997509436      4.58025686216324     -2.50035987725440
  H          -5.14055785177422      3.22861997766792     -1.55544472214609
  H          -5.23621560406992     -1.77501962667581     -3.06001101421327
  H          -0.03794977461411     -4.96969232167498     -3.01944381133242
  H           4.57518707103490     -3.71064314987651     -2.29195574714845
  H           4.42141208051448      2.46179293070519     -2.65464611542264
  H           1.26706256936753      2.31111021240196     -1.22679050811023
  H          -2.55489885700841      3.05360134823501     -1.28317291229783
  H          -4.24223293266922      0.16901551857979     -1.75944980598057
  H          -2.04857376421030     -2.54833370706376     -2.19345757044753
  H           2.05611799805188     -3.27564949861238     -2.16434818752917
  H           3.75916104141786      0.25511878035052     -1.87836074506556
  H           1.99892136039924      2.92958735456058     -3.49137071376951
  H          -3.10650009249738      5.23609882033593     -2.18764130434644
  H          -6.01000739212066      1.15158685923765     -3.03863881346826
  H          -2.94346736308337     -3.58495123219986     -4.15294750801110
  H           2.34836114654570     -5.62685597607124     -2.53842254693170
  H           5.53065660401933      0.18717390595066     -3.53380299067160
  H           3.77081925403997      4.00428671565690     -0.80658510731401
  H          -1.64504147808996      4.98862426384356      0.91168581990393
  H          -6.12587166954476      1.28325506433366      0.35248410204997
  H          -4.40107220400451     -4.17954490935690     -1.14431826350148
  H           1.03283201458258     -4.42525637767336      0.49132867800981
  H           5.99181557506721     -1.34277057596736     -0.55685928282220
  H           1.74065393235306      3.06052892450887      1.26096421232904
  H          -1.88180703834108      1.94166436297138      0.95696408854919
  H          -3.74159204575134     -0.54045720733653      0.87430958328047
  H          -2.33370188318425     -2.72290125421486      0.55844312032554
  H           1.75161525568690     -1.64166789031761     -0.53874112259038
  H           3.57188563278160     -0.15604987809797      0.87736383276884
  H           3.95573612954318      3.50802731155530      2.18185138363876
  H           2.82860653771628      4.79056290579384      2.68187075592371
  H          -4.84941250315974     -0.80683904366794      3.08488268610387
  H          -4.50204849124295      0.90638851459740      2.73918117777700
  H          -4.54784638626941     -3.27781407845536      1.60724723356030
  H          -3.22287509669054     -4.23088357728386      2.33143828324917
  H           5.26237778933200     -0.33707133063235      2.82481626260611
  H           4.48320779548752     -1.82776808475768      2.27991155568138
  H           3.74319423200061      6.05624797437500      0.99042470033360
  H          -6.99600557082661     -0.34373203000049      2.34154648728940
  H          -3.89788805906343     -5.91825225901299      0.88561672192885
  H           7.10505141046699     -0.98831942810390      1.68691799551249
  C           0.60997292258675     -0.77103626457978      3.44864890543194
  H           0.90574305967066     -1.18632372475334      4.40631951074080
  H          -0.46754716255520     -0.75142845665601      3.28638594779425
  O          -0.39913892153050     -1.18424954666481      0.95291973231511
  C           0.24987302114453      1.65273969723210      4.03248746349387
  H          -0.13265170617435      1.27060931349132      4.97447706085848
  H           0.78560107942032      2.58443634332091      4.16729506214574
  O          -0.44932793670725      4.04486948711445      2.86223886888859
  C           1.15993493192279      0.65734189883759      3.31500148102489
  O           1.43938419386771      1.00848298612805      2.05847081764521
  O           2.41387798272623      0.67192811017740      4.21264321793365
  O           3.52581752164274      1.13751696739107      3.42271548639802
  H           3.05084078603609      1.23413655781351      2.55503427070081
