19
Coordinates from ORCA-job job.QMRegion
  C          -1.39449648989144      2.89056607700160      2.51088452836560
  C           1.13108873936228     -2.75231946946298      1.74408492640272
  O          -1.84376618627647      1.71767567935874      2.99436186309204
  O           1.57946007983477     -1.60213426366880      2.23319487140098
  C           0.80012536009211     -0.90439273553125      3.22975144957742
  H           1.53482979233124     -0.34699571774401      3.79922353827473
  H           0.21721039514335     -1.62589276585206      3.79624058946172
  O           0.26286012674974     -3.45198893929541      2.21971238104765
  C          -0.89476886591576      0.82571576690720      3.61226008528472
  H          -1.50893128940324      0.14444157404809      4.19090298972558
  H          -0.18805451940300      1.40712703427016      4.20653809639115
  O          -0.50513841109648      3.56874872682902      2.97135765168301
  C          -0.17929416684590      0.01973988235935      2.51425980231824
  O          -0.97512816932502     -0.53768514762438      1.61308286440298
  O           0.57618852098958      1.06721333126116      1.71030860498905
  O           1.90931656632933      1.39135606905344      2.36509086952236
  H           2.49433565651605      1.42272247701726      1.56982266294739
  H          -1.98417723092148      3.10875739178411      1.62661005205714
  H           1.70444178296579     -2.95617206889480      0.84213891023327
