133
Coordinates from ORCA-job job
  C           0.50028608822126      4.91486816168439     -0.50016136052645
  C          -4.44457343566928      3.37683559290642      0.46837865847848
  C          -5.13452112942235     -1.78100038084770     -0.03334326406679
  C          -0.92786577213623     -4.81638705514641     -0.89418947680345
  C           4.11106855280260     -3.26984071182974     -0.22036798822822
  C           4.77031097711885      1.88103875854147      0.02803514540185
  O          -0.40494375551724      3.86696456874867     -0.21068731355271
  O          -4.38896539910730      2.21944889774396     -0.30406284390940
  O          -3.82015477646986     -1.92635946727023     -0.52911857484793
  O           0.05559330682375     -3.80373460684712     -0.88028812793755
  O           4.03912749058553     -2.03802390921893     -0.86854151653834
  O           3.37994264701313      2.04884953925682     -0.20294295073043
  C           1.17512139424576      4.57568869498865     -1.83481577132102
  C          -4.10250955582949      4.55137400524343     -0.47421334061224
  C          -5.95084534790428     -1.03990941949773     -1.10454700500119
  C          -1.77752059902897     -4.57855948305443     -2.15058449781060
  C           3.75436461213073     -4.35202702766061     -1.26198347920241
  C           5.46443463601911      1.36063255912587     -1.24447547793097
  O           0.24465590317908      4.41831049525112     -2.87236888391550
  O          -4.98145317845893      4.61735851061964     -1.55564939946703
  O          -5.98922821204695     -1.74278532069035     -2.31304906365215
  O          -1.00688503856096     -4.59907328417890     -3.31935955096667
  O           4.60049663165724     -4.30198506907219     -2.37013837859542
  O           5.40729079925582      2.24916415808927     -2.32061906000678
  C           1.94158491511054      3.26177137303348     -1.64106849898589
  C          -2.64876085647571      4.39237159986690     -0.96601538633249
  C          -5.30807632403633      0.33897951441454     -1.29169019984308
  C          -2.48950275022681     -3.22727206539685     -1.97540993889657
  C           2.28515703277101     -4.16447227616610     -1.68800586207020
  C           4.81209214413487      0.02194233178442     -1.60596231473645
  O           2.66858430884172      2.91106404587991     -2.78919953264317
  O          -2.24809482473179      5.47776458766070     -1.76034052827774
  O          -6.03906552924834      1.12702714270172     -2.19107509830875
  O          -3.35482725550800     -2.95431941310708     -3.04455712606185
  O           1.86010599085284     -5.16868865103840     -2.56807135602224
  O           5.42392298440461     -0.54882339781633     -2.73011593194035
  C           2.92018090609245      3.36749641611274     -0.46555471182940
  C          -1.69599872020206      4.25312005687788      0.22913723410446
  C          -5.20105002248291      1.10220656698718      0.03463450251295
  C          -3.31641695853911     -3.23988419100226     -0.68669207403615
  C           1.36087461236104     -4.16413860702689     -0.46131584507105
  C           4.88697418742691     -0.97553455286095     -0.44350079443476
  C           2.22151400909242      3.92103044049521      0.78737858182607
  C          -2.22161513885674      3.10911456986966      1.09542460868093
  C          -4.60247914842925      0.23033445475282      1.16091474226183
  C          -2.44868188365652     -3.63848665827581      0.51484826191649
  C           1.88759942594371     -3.09854278566677      0.50043219678035
  C           4.44025336992374     -0.33432020613862      0.88863416227144
  O           1.45918113773865      5.08340818785326      0.50132813177093
  O          -3.52519267243623      3.34885621324830      1.54897181922662
  O          -5.15459926295137     -1.08237966298184      1.17545953775155
  O          -1.72623700541708     -4.83017213864720      0.25264526725743
  O           3.21570757031686     -3.34838500016216      0.87772641907302
  O           4.97064642138783      0.97738704011515      1.06765394312706
  C           3.22599812753155      4.31586500438532      1.87838981507339
  C          -1.31786303584246      2.80422432246503      2.27587714819418
  C          -4.94288035521651      0.77557255031726      2.56022235564648
  C          -3.29175247601225     -3.93189800423150      1.76406892729668
  C           1.07150827256751     -2.91552055207878      1.76923482813104
  C           4.96400820044783     -1.10368528983299      2.11751146091392
  O           4.17971760527367      5.22364330287216      1.40880535135935
  O          -1.65712333706317      1.60125275640667      2.74621346676016
  O          -6.32202412033447      0.92263874820400      2.72728663895831
  O          -4.24614000492563     -4.92201078000339      1.52319750004552
  O           1.60780367266712     -1.91026851930782      2.44822766639084
  O           6.33870693405395     -1.34239477289214      2.02881791262696
  H          -0.02720832323771      5.87410799595469     -0.56016859373688
  H          -5.42719077230249      3.50806200364739      0.93865218345933
  H          -5.57759011389633     -2.75825631664932      0.19436355644519
  H          -0.45812097774238     -5.80771827940944     -0.92249164242307
  H           5.10424593177772     -3.44372596729030      0.21246973783470
  H           5.22224507131354      2.82231621547666      0.36473309119783
  H           1.89078279177507      5.37464438903910     -2.08404451532512
  H          -4.19735790457331      5.49282515327214      0.07667813203910
  H          -6.98686101920730     -0.92620176014266     -0.77015131578180
  H          -2.53666696997902     -5.36685399182125     -2.23258128461625
  H           3.87866783449190     -5.34120025093134     -0.80977450316785
  H           6.52706127163949      1.20891711102078     -1.02534011654643
  H          -0.57315832845541      4.89890438005445     -2.64514973925076
  H          -5.11228921929366      3.72261513011072     -1.90768944182906
  H          -5.08957530253343     -2.03519246807451     -2.54511319039556
  H          -0.06719479190495     -4.51109124062110     -3.08955872259074
  H           4.68494112390054     -3.37947957155324     -2.65769418423895
  H           4.47635833873142      2.45715722662099     -2.52471006362153
  H           1.21275193805229      2.46878442210232     -1.39207325518728
  H          -2.58060143839652      3.45674469363227     -1.54614624400383
  H          -4.27848613006676      0.18692963375434     -1.66224292320127
  H          -1.73001613334498     -2.43106562955223     -1.87853724367204
  H           2.19144212526035     -3.17422137289939     -2.16633003546258
  H           3.74065799897848      0.20797144708378     -1.80612627775419
  H           2.12752432643698      3.12642263336277     -3.56547749171741
  H          -3.00277220609700      5.71866822897372     -2.32568575360403
  H          -6.34850178600616      0.54190622194932     -2.90203138500987
  H          -2.91522242668401     -3.24288496677727     -3.86111458476279
  H           2.57065552328179     -5.31621570672763     -3.21502045017536
  H           5.66552546323532      0.18158512847105     -3.32481560809927
  H           3.75731397910901      4.01951385988012     -0.74337499499536
  H          -1.64421946326797      5.17669086223000      0.81704479873247
  H          -6.19700885829645      1.44918387360469      0.34393279913724
  H          -4.14343886914015     -3.95404475214918     -0.79429698268514
  H           1.35399621583261     -5.14206815396118      0.03180514049761
  H           5.91585861708440     -1.34856236192912     -0.34035292359926
  H           1.56198768009856      3.13129693453577      1.16926974901582
  H          -2.19652688551245      2.18806981196668      0.48432029443000
  H          -3.50601601391234      0.17327105999140      1.03645449630958
  H          -1.76263687654540     -2.80017102507899      0.72755165172471
  H           1.81220772192679     -2.12013201847305     -0.01203456812499
  H           3.33871012902625     -0.29768195962739      0.90337752523106
  H           3.75172951066975      3.42114992774350      2.21342187459907
  H           2.65388030073528      4.72277209140908      2.71995561254813
  H          -4.52232215393875      0.07550039943982      3.29298260197833
  H          -4.48317177423303      1.75220143889803      2.70740557176841
  H          -3.82141931087360     -3.02476427826643      2.06080346229006
  H          -2.59874262407936     -4.22122715494902      2.56371761870995
  H           4.72665586550457     -0.50326103012595      3.00366323731659
  H           4.46215435129829     -2.06755950178185      2.19955334813243
  H           3.71329167428452      6.03132604739865      1.14741898290491
  H          -6.72898937812483      0.05391699632080      2.58723322979662
  H          -3.77251810011508     -5.72589997663371      1.25904613160547
  H           6.78512555230827     -0.48282638047755      1.99508864430805
  C           0.76966737366637     -1.18329942916987      3.36791586451131
  H           1.46936810906412     -0.82407884494881      4.12013606912127
  H          -0.00526232346348     -1.83674319606753      3.76259120749522
  O           0.10894751878704     -3.56802848474064      2.10529538786513
  C          -0.69130761648565      0.85452504760128      3.52908461881449
  H          -1.31172280458507      0.20665681062335      4.13582037994777
  H          -0.06235938341791      1.53794620860244      4.09395255340944
  O          -0.41823223121594      3.51197798331013      2.67682303103423
  C           0.12381380768615     -0.03876810586795      2.59819352088894
  O          -0.54920282686492     -0.49576571569543      1.52911922572389
  O           1.25338126477053      0.72076695278380      1.95190708060767
  O           1.93580612909980      1.57400256374510      2.96881082970520
  H           2.70419301271738      0.99837833922633      3.21277811571578
