133
Coordinates from ORCA-job job
  C           0.49632880402669      4.73228332293364     -0.43608218850501
  C          -4.29335335143443      2.99589464327782      0.77480432995504
  C          -5.51589030458780     -1.92668545262465     -0.59408003454251
  C          -1.03852869864085     -4.63856939038698     -0.88609898469428
  C           3.86556956292262     -3.03992159605345     -0.03775590143513
  C           4.93341959475056      1.89378784717113     -0.10581350156645
  O          -0.33991707706564      3.66532492993252     -0.03952333450776
  O          -4.14911296663080      1.81955412185491      0.03898266126365
  O          -4.20114120464109     -2.10678631501569     -1.04410529638078
  O          -0.23492396485953     -3.47237202385835     -0.81010281912271
  O           4.07421484869797     -1.99742019546994     -0.93812101124364
  O           3.52263927905279      2.01685237678246     -0.18977668718800
  C           1.10919817219344      4.36239224539820     -1.79162148173567
  C          -4.06341520289106      4.15988888507035     -0.21178337205581
  C          -6.12681049828718     -0.88794414818095     -1.55306899793071
  C          -1.76997207979220     -4.62120208259231     -2.23416522042504
  C           3.44459048376832     -4.27890810865664     -0.85400106251128
  C           5.51920426082216      1.37804870950059     -1.43397206943366
  O           0.13926479883624      4.11714011499235     -2.77207267288836
  O          -5.00224104876607      4.15146044443824     -1.24427405076978
  O          -6.11668311159479     -1.35327384348276     -2.87277604524792
  O          -0.88202407285275     -4.54495808163671     -3.31594605868800
  O           4.35122533121588     -4.55220302195554     -1.87849783591718
  O           5.37119585219469      2.26333873939403     -2.50313578735324
  C           1.93817246584495      3.09107859902083     -1.58131667111519
  C          -2.63318075868400      4.02376945651953     -0.76670722121181
  C          -5.29049833035425      0.39289225542585     -1.41103879994982
  C          -2.68275561053277     -3.39276636770930     -2.24378958112864
  C           2.02813990691526     -4.08448674497386     -1.42357265171926
  C           4.84579796509847      0.03538975396823     -1.73872236866252
  O           2.58568296706689      2.69782178717732     -2.76148387679206
  O          -2.31093654267413      5.07428291468810     -1.64174003883337
  O          -5.83333794173667      1.46681456735769     -2.13557116915328
  O          -3.48587203674671     -3.33105333281667     -3.39242162782997
  O           1.58246941349579     -5.26686669753422     -2.03883769350745
  O           5.39213188331213     -0.55124245146111     -2.88771782269656
  C           2.98954993824781      3.29908741735751     -0.48522659331495
  C          -1.64440917535683      4.01037494234381      0.40101119756803
  C          -5.18074555699810      0.84096769878426      0.05060162771670
  C          -3.62115527144183     -3.39687648739896     -1.03156629091153
  C           1.06058312318458     -3.67923884067218     -0.29637354644387
  C           4.97575193499198     -0.95584186899531     -0.57497871330685
  C           2.34476145108910      3.87935130802028      0.78564844234250
  C          -2.04044667664408      2.92158529990761      1.40488972633644
  C          -4.81258178207689     -0.31297731940998      0.99776736089851
  C          -2.87350711646708     -3.66122478706451      0.28783164713310
  C           1.64318443466453     -2.38746344692668      0.31542267980748
  C           4.65540201747820     -0.29713543341345      0.78492882545375
  O           1.50844523015633      4.98908003201101      0.49679078176549
  O          -3.36703548771917      3.04708495745649      1.84903725612487
  O          -5.57877525566359     -1.47955292833622      0.73362598751412
  O          -1.94063470415842     -4.73065579206458      0.17349027660747
  O           2.86993382035395     -2.70319501574941      0.91848818580186
  O           5.25416562417469      0.99067910209252      0.90508803049288
  C           3.39650086909529      4.37828886017834      1.78624407578178
  C          -1.07607902754143      2.99476293397450      2.58036830065755
  C          -5.10127474687473      0.06126950731561      2.45912239916024
  C          -3.83871585902759     -4.10352543983685      1.39990231128992
  C           0.75790272561375     -1.66992915652803      1.31773341281467
  C           5.20889123117754     -1.07648066843145      1.99886912604651
  O           4.27226038188075      5.30024113853489      1.21097937919799
  O          -1.05370502452863      1.84032518560309      3.24169357357811
  O          -6.44202810092369      0.41789126923938      2.64092505099137
  O          -4.56227664255553     -5.24102074573493      1.02304961574553
  O           1.40545505167247     -1.49314185591134      2.46336777406572
  O           6.48511194248728     -1.59646443975286      1.76824622933279
  H          -0.07416603330871      5.66628304170602     -0.50127154661660
  H          -5.27818732458225      3.06672164659741      1.25122683489349
  H          -6.08012107115146     -2.86808259002277     -0.61178594351652
  H          -0.41623424047521     -5.53736588162066     -0.80381285609253
  H           4.76876015197834     -3.25703607471349      0.54335254959938
  H           5.38965603216129      2.84768378489822      0.18651385950888
  H           1.77587359061711      5.17816594237997     -2.11184801428221
  H          -4.16405543921886      5.11639250859889      0.31106633276012
  H          -7.16953801814156     -0.68713949687744     -1.29035914634827
  H          -2.38553111966702     -5.53165591638538     -2.31053237293736
  H           3.44007648274828     -5.15187080083071     -0.19228766566174
  H           6.59608469107083      1.23303732851336     -1.29591956764748
  H          -0.69570133072251      4.55871744023549     -2.52114842215087
  H          -5.13980294371638      3.23626199918308     -1.55880701862360
  H          -5.25822013687883     -1.77470037631334     -3.04569412594876
  H          -0.02623423429650     -4.92736976049234     -3.04610211621984
  H           4.55392543303163     -3.72383759571806     -2.34113207242173
  H           4.42140082467418      2.43039396625137     -2.65591800776005
  H           1.26175137070010      2.29043343071005     -1.23003931968155
  H          -2.54921814034158      3.05809404872119     -1.29045221364568
  H          -4.26917752744970      0.17276724300369     -1.76253170008858
  H          -2.04252836704478     -2.49757302227197     -2.16942746538226
  H           2.04490614402295     -3.26514662621720     -2.16018115631661
  H           3.76670494264877      0.22752903884444     -1.88327518438602
  H           1.98565294765216      2.87620084763222     -3.50443010403509
  H          -3.09856627292657      5.24499829759941     -2.18819136453755
  H          -6.05198982929785      1.14673522580851     -3.02476856987050
  H          -2.91592442780381     -3.49418621693548     -4.15879122789566
  H           2.32355129936380     -5.61506273496449     -2.56495483774136
  H           5.54826310923798      0.16386063168385     -3.52750180613805
  H           3.77695372726796      3.97272430178482     -0.84385801438158
  H          -1.62942291540409      4.98162315998884      0.91160989370932
  H          -6.13204258340795      1.28792407217281      0.36622380536888
  H          -4.39506677889182     -4.16341347283134     -1.17719220441130
  H           1.04051933769858     -4.44637450989470      0.48906855367186
  H           5.99709151072935     -1.36180079437492     -0.54535888601133
  H           1.75881696520860      3.07159652789639      1.25223099011874
  H          -1.88661776371961      1.93673737515561      0.93191809056903
  H          -3.73939589992362     -0.52780238536563      0.87588369418610
  H          -2.34642919138838     -2.73834347053348      0.57652900676443
  H           1.79290645801136     -1.65760189174490     -0.50217421280613
  H           3.56226114329719     -0.19827304572627      0.88269305684244
  H           3.98883745972701      3.52968371388322      2.13638942210958
  H           2.86024836738451      4.80715781790755      2.64226016057634
  H          -4.82963139282203     -0.79131068999877      3.09337895528943
  H          -4.49038835327707      0.92192097229110      2.74124871068913
  H          -4.56292217929233     -3.31305471537992      1.59876939133444
  H          -3.24790748889006     -4.29286013292151      2.30459834745988
  H           5.19734820402129     -0.37788818023328      2.84349693829406
  H           4.54509204412034     -1.90581026068498      2.24016462947059
  H           3.74849347716875      6.06334211942977      0.92228606333575
  H          -6.98323269522279     -0.33846155353601      2.36659827759525
  H          -3.92342315266722     -5.93757373622561      0.81084677992123
  H           7.10630618844978     -0.85564060311184      1.71612192351371
  C           0.75676709130283     -0.69413256662018      3.48069158120408
  H           1.13157475498943     -1.10447357189628      4.41276278195061
  H          -0.32073592436103     -0.79672885758326      3.35495105486042
  O          -0.37836271805291     -1.29011701526411      1.07101009388961
  C           0.05730340667822      1.62165437550510      4.14652094134947
  H          -0.37602245498489      1.07990113002571      4.97983277169291
  H           0.49143116165210      2.56601703435727      4.45401073183259
  O          -0.41046744694041      3.97536914153467      2.85002802381662
  C           1.11960638883489      0.80099920960500      3.38420672723698
  O           1.32258652158722      1.20838275659359      2.12976671634613
  O           2.31969810691384      1.07447560783005      4.27214749992327
  O           3.51057601644155      1.00347180771895      3.45597563443667
  H           3.10706410914449      1.20325095415520      2.58091221270954
