19
Coordinates from ORCA-job job.QMRegion
  C          -1.16243298776405      3.01906588009732      2.57785938458183
  C           0.86759063458422     -1.88815693965609      1.48393340087354
  O          -1.28455966773268      1.88954054260870      3.27042315339008
  O           1.71626030455718     -1.32429465983063      2.33537734916097
  C           1.16840871688855     -0.56154580769023      3.44018968110229
  H           1.91788328065148     -0.66302895189190      4.21940259063499
  H           0.20961534933251     -1.00835823410061      3.68925587463190
  O          -0.34837173642857     -1.86013323665431      1.56186053193053
  C          -0.14410217291302      1.51335069693263      4.06085955246190
  H          -0.53901262508102      0.76202658433655      4.72982619164641
  H           0.25518149699166      2.37527482004195      4.59129407980537
  O          -0.40512992676974      3.93077610447616      2.85398739959931
  C           0.94883544769523      0.92472461285755      3.10135288692877
  O           0.74050013320080      1.15759506336402      1.81426261206934
  O           2.11589528251576      1.72367696362233      3.67717590502248
  O           3.36108003811114      1.34026196765139      3.04247268139396
  H           3.21128305732860      1.52650263378884      2.09650532277071
  H          -1.83471631089228      3.01398369653764      1.72760467514802
  H           1.44367431009622     -2.35555878733456      0.68415398181081
