133
Coordinates from ORCA-job job
  C           0.50756334817320      4.79547121700165     -0.46301696826070
  C          -4.24198114170192      2.99898977607301      0.80083899016002
  C          -5.47795362352058     -1.93852714668450     -0.54846571222629
  C          -1.05576327231027     -4.71383776896229     -0.91911637884956
  C           3.78484075407938     -2.97414425618623     -0.00722738302202
  C           4.91889273610662      1.94246976198848     -0.08860199574884
  O          -0.32141951064448      3.71556558233592     -0.09208914869514
  O          -4.09204599821904      1.82850676766340      0.05546578129143
  O          -4.19190665456738     -2.15882768519708     -1.05986263465852
  O          -0.26148210221668     -3.54138061283345     -0.96012200108135
  O           4.05934004184072     -1.95025677102111     -0.91196931366978
  O           3.51646302064940      2.07166293597209     -0.24616984949323
  C           1.12984709836067      4.45755378570463     -1.82229410489976
  C          -4.04762755421202      4.17049435855594     -0.18479382666146
  C          -6.10696377902324     -0.88810646420292     -1.48257387159952
  C          -1.84642858001238     -4.76912574415102     -2.22854520852883
  C           3.42961548944535     -4.23635705474290     -0.82543349828903
  C           5.55486149091085      1.40721930990409     -1.38468059922841
  O           0.16230997282280      4.22405185242910     -2.80881597679431
  O          -5.00639256719637      4.15301052816840     -1.19855736735717
  O          -6.15814259782920     -1.34946787480589     -2.80220935737498
  O          -1.00077393615082     -4.78066854450041     -3.34783956977755
  O           4.40043425734228     -4.50282498956542     -1.79116881123095
  O           5.44253168078143      2.27987741104228     -2.46914015758179
  C           1.97226716241921      3.19038509457597     -1.63592985040507
  C          -2.62656500596152      4.05259233177355     -0.76536231698055
  C          -5.24955827359134      0.38231480748265     -1.37141679072315
  C          -2.74425128846682     -3.52752436094166     -2.26407948185967
  C           2.04111856534398     -4.08716851550053     -1.47402100322470
  C           4.89171369441370      0.06138031077869     -1.69841036342107
  O           2.66220159956730      2.85135295778584     -2.80876196310965
  O          -2.32564884096920      5.10882715440201     -1.64064758936784
  O          -5.79891345025866      1.45593866227927     -2.09092683901105
  O          -3.59255264936714     -3.51465176036696     -3.38080554825655
  O           1.62854643036513     -5.28693932916333     -2.07566219113359
  O           5.49555870636407     -0.54896186501538     -2.80536931032691
  C           2.99622220409571      3.36580048808045     -0.50790300932283
  C          -1.61640145952450      4.04534401202571      0.38387245926635
  C          -5.10540780361914      0.83254606519154      0.08618869193528
  C          -3.63036776796976     -3.45767538159729     -1.01352424214352
  C           1.02291680135074     -3.67639639552176     -0.39948992356073
  C           4.95099407254549     -0.91229318893909     -0.51409262104788
  C           2.33016622538977      3.91341458074672      0.76568971488629
  C          -1.97843634277469      2.95033009473913      1.39390007596464
  C          -4.69365307343176     -0.32298429858204      1.01233268280902
  C          -2.83428412734368     -3.67306005639463      0.28743152862901
  C           1.53625277112611     -2.34434195172631      0.18034937125460
  C           4.57020345749103     -0.22808247433019      0.81748520388226
  O           1.51031209989201      5.03486002512097      0.48480215034748
  O          -3.29875997323368      3.05991238587439      1.86053958312742
  O          -5.47335630017462     -1.48695821963808      0.77970905406935
  O          -1.90264182969941     -4.74500302697089      0.18758968910068
  O           2.73068582822709     -2.60489029887921      0.87104400690653
  O           5.18677308298356      1.04981325619535      0.94870828267628
  C           3.36122990374818      4.38585854918960      1.80084358563909
  C          -0.98142898323730      3.02775191706292      2.54666348843293
  C          -4.91947481827217      0.04722550238905      2.48590904382293
  C          -3.75469460807675     -4.07453005359990      1.45230469546214
  C           0.56683357253953     -1.64631715822581      1.11095576625894
  C           5.03250789691055     -1.00097343028703      2.07409177575139
  O           4.25308439713898      5.31382502479254      1.26127417687527
  O          -0.87889746079006      1.84625733157086      3.14402858902237
  O          -6.25328932515303      0.39515497889740      2.72471022227805
  O          -4.48142318962347     -5.23122987039923      1.14859749727724
  O           0.98695834584819     -1.74379132832541      2.36553239092128
  O           6.27464574383788     -1.61648652342606      1.91046561379275
  H          -0.06777551972067      5.72741521579129     -0.51352557901687
  H          -5.21961111769820      3.05157580688256      1.29430074081462
  H          -6.06676096073795     -2.86516429405021     -0.53480747582473
  H          -0.42164816961198     -5.60273406566092     -0.81624028866135
  H           4.64528533770010     -3.17780073278881      0.64023084501275
  H           5.36862231077539      2.89664577475710      0.21171519925766
  H           1.78927249532625      5.28539129972713     -2.12559413948476
  H          -4.15122966176505      5.12381268367814      0.34312840650238
  H          -7.13523671873149     -0.67169341446862     -1.17795053370497
  H          -2.47656658915322     -5.67168310081756     -2.22873409659779
  H           3.40882683644892     -5.09831764313659     -0.14970115411214
  H           6.62620763647320      1.26417298837802     -1.20821661078174
  H          -0.68014288578767      4.64135965462419     -2.54390632089362
  H          -5.13298372210221      3.23823310268588     -1.51810704418041
  H          -5.31727575620186     -1.79013595446456     -3.00753663550862
  H          -0.09666880493107     -4.99831686147060     -3.06074244441672
  H           4.61088686154064     -3.67631706808862     -2.25400945161731
  H           4.50025036147679      2.46567968765623     -2.64182247078086
  H           1.29863588564782      2.36782496388891     -1.33353602973323
  H          -2.54137066421792      3.08938646232212     -1.29363655948983
  H          -4.23910991153138      0.14854805510517     -1.74529534560166
  H          -2.09177850941433     -2.63819881742107     -2.26224204081445
  H           2.07999572740641     -3.28498968949521     -2.22833965662963
  H           3.82258348403277      0.25519513009408     -1.90216326534249
  H           2.06648604105464      3.00263553199847     -3.56058557039191
  H          -3.11905718560956      5.26993648370050     -2.18115528344098
  H          -6.05993231030580      1.12555798666021     -2.96502717324397
  H          -3.05637354213313     -3.73198696011086     -4.15825694122205
  H           2.38184584684923     -5.63420239255629     -2.58312116479087
  H           5.69037633627296      0.15375362194058     -3.44825654362234
  H           3.79297056454742      4.04652634204035     -0.83131002812405
  H          -1.60022582165966      5.01560208498870      0.89613127347324
  H          -6.05488456185590      1.26115713418639      0.43134190929738
  H          -4.42214713019543     -4.21602981454657     -1.09108730074582
  H           1.00562480554064     -4.40898026894641      0.41793692143962
  H           5.96447773936390     -1.32887556538068     -0.42600132853539
  H           1.72739192047852      3.09521300437578      1.19515938753622
  H          -1.82362195553031      1.96833721617186      0.91449879779284
  H          -3.62643155897861     -0.53687082326259      0.84156190077951
  H          -2.30145767276082     -2.73697630665050      0.51924830301987
  H           1.71196158884325     -1.63919948503270     -0.65083527911620
  H           3.47518294717004     -0.10412745890141      0.85312871159394
  H           3.94235690792508      3.52946344052287      2.14952050074070
  H           2.80674403039571      4.80397683919219      2.65050572884531
  H          -4.61529599995267     -0.80410592791442      3.10702480157206
  H          -4.30279372434308      0.91160615777570      2.74275722253698
  H          -4.47791743395659     -3.28231289796624      1.64633969945813
  H          -3.12810706261698     -4.22233601431083      2.34077490272390
  H           5.04411607804433     -0.27820295961611      2.89876316460864
  H           4.30262290975872     -1.77378185134915      2.31726208711078
  H           3.74074615302927      6.08848879859436      0.98264827593450
  H          -6.80092284992209     -0.36349475875951      2.46967526060609
  H          -3.84495210691275     -5.93223693990614      0.94415402438343
  H           6.95233465151486     -0.92515775848596      1.87371157188665
  C           0.41221703999505     -0.83939808996748      3.32221477014623
  H           0.60558832838893     -1.30973562482962      4.28089485870294
  H          -0.64486343962493     -0.69525153104034      3.10625055105891
  O          -0.45719967683588     -1.09029512726735      0.73711278125711
  C           0.28146663787816      1.56829779378325      3.98757561209749
  H          -0.13105476743574      1.19639986418440      4.92108714892198
  H           0.87811946782099      2.46194199512696      4.13462907458670
  O          -0.34633489956873      4.02276730056845      2.83266866300850
  C           1.11770744243191      0.52322435438512      3.25287559590679
  O           1.46553861192582      0.91868626767888      2.02419366811387
  O           2.32045830117327      0.27908540113269      4.13214607134632
  O           3.32739829533341      1.24568426475751      3.75648945846424
  H           3.05243274627095      1.37879431219786      2.81847561296943
