133
Coordinates from ORCA-job job
  C           0.50620940528782      4.71407485961362     -0.48098332595825
  C          -4.33066749213550      3.09252237855375      0.69764555273558
  C          -5.46704250212875     -1.90134014835838     -0.47777704409211
  C          -1.04164915873954     -4.66719932719588     -0.97198874774427
  C           3.89486500803200     -3.13890008441215     -0.11603547877033
  C           4.91321481277308      1.83577240580685      0.11729124173465
  O          -0.34438423914980      3.69284838791245     -0.00214148513921
  O          -4.17554944045009      1.89300106828785      0.00456430152139
  O          -4.14710800910117     -2.07353141984745     -0.92002172509571
  O          -0.22284227537351     -3.51926098863150     -0.82823831383439
  O           4.05608931076441     -2.02838023743714     -0.94112603382047
  O           3.49474335855096      2.00446707487208      0.17697511845398
  C           1.15046216951989      4.18969540077267     -1.76694997353462
  C          -4.05448863892204      4.21659317231613     -0.32351477426425
  C          -6.10257776733948     -0.90915905446248     -1.47008541950479
  C          -1.78582077865855     -4.55189247977751     -2.30946321769538
  C           3.45765867460040     -4.31945442084882     -1.00592621880827
  C           5.43928379625782      1.39311779627127     -1.26377129408563
  O           0.20760122707974      3.87731793828303     -2.75473450635520
  O          -4.95474894433053      4.17087379507407     -1.38905045515701
  O          -6.08626715352962     -1.42089081059195     -2.77271210841118
  O          -0.90773866144643     -4.41888787176748     -3.39404854320073
  O           4.32894168016787     -4.51444337340854     -2.07819550210656
  O           5.29248743221905      2.32924965260585     -2.28651098615203
  C           1.92424097790667      2.92086729604393     -1.38721698497554
  C          -2.60596984154605      4.04717740867304     -0.82107361905064
  C          -5.28960670484126      0.38964915052382     -1.37647261200829
  C          -2.68037036389176     -3.31279268771483     -2.22921695808160
  C           2.02250068400362     -4.09105264943293     -1.51239258438584
  C           4.76381086835297      0.06631575453090     -1.62676361696791
  O           2.54140553439052      2.35635623819979     -2.51259649985735
  O          -2.24442784655658      5.04408227907518     -1.74077954546145
  O          -5.84850855001326      1.42856397866955     -2.13824421788587
  O          -3.50727530998078     -3.17069203553887     -3.35440739764746
  O           1.56390937860750     -5.22656806460526     -2.20257876392443
  O           5.26951391102373     -0.43821438152036     -2.83243675451552
  C           2.97570554859382      3.23672346806731     -0.31444157356812
  C          -1.65645755893859      4.07520107349674      0.37967522009681
  C          -5.18235965175676      0.89099789952105      0.06798871271973
  C          -3.59652972295234     -3.37413686123834     -1.00207028525906
  C           1.07535794839670     -3.77354672507493     -0.33773414526195
  C           4.94898364009795     -0.99584774539534     -0.53424338749429
  C           2.32000414340144      3.98158178592893      0.86387964074003
  C          -2.10464749967420      3.01194312851717      1.38621547718762
  C          -4.78166687584687     -0.22162651969596      1.05198567649235
  C          -2.83672439938191     -3.73469557341666      0.28559528310015
  C           1.67257927047977     -2.54127937962690      0.36636425087732
  C           4.64728638138602     -0.41331449802404      0.86194252879182
  O           1.50357238646199      5.05915757518937      0.43831262968599
  O          -3.43616308456642      3.17458325084442      1.79670953671126
  O          -5.52579736100629     -1.41243155271691      0.83477310631574
  O          -1.93787100829504     -4.82062044978592      0.08648001106795
  O           2.92528179344959     -2.90069852374787      0.89217887225814
  O           5.26634943645344      0.86156668477908      1.04026429502687
  C           3.36395896979814      4.59118999628978      1.81069059779792
  C          -1.16243298776405      3.01906588009732      2.57785938458183
  C          -5.06471615004179      0.19513396507275      2.50293859266246
  C          -3.79818767819798     -4.20354263680500      1.38837043977807
  C           0.86759063458422     -1.88815693965609      1.48393340087354
  C           5.20357962289230     -1.24035430002939      2.03806065836275
  O           4.22029482576919      5.46219291883821      1.13596751953966
  O          -1.28455966773268      1.88954054260870      3.27042315339008
  O          -6.41210689259776      0.52332704178549      2.68764206917209
  O          -4.56997741756306     -5.29301278912056      0.96755452941148
  O           1.71626030455718     -1.32429465983063      2.33537734916097
  O           6.51189725738319     -1.67608657046400      1.81100544375823
  H          -0.05572686100349      5.63860403582822     -0.65616833666574
  H          -5.32904466597050      3.18832522217595      1.13992866667228
  H          -6.01408873728153     -2.85220936357462     -0.46118545767972
  H          -0.43069817969966     -5.57748344440132     -0.95676903585973
  H           4.81970674447662     -3.38240585525414      0.41947873997046
  H           5.40869193620079      2.76077538974572      0.44270781200796
  H           1.85943424301570      4.94255065771954     -2.14499319740960
  H          -4.16591240783777      5.19375182226274      0.15709133818634
  H          -7.14824591658441     -0.71874247601339     -1.21117714449487
  H          -2.41544358588880     -5.44660593193057     -2.43744216304377
  H           3.47929390969296     -5.23769260596272     -0.40908262791214
  H           6.51826151598075      1.23460040664050     -1.14638385096311
  H          -0.61942001220296      4.36418454865515     -2.57532181971395
  H          -5.10260007401038      3.24230974304687     -1.65452409730038
  H          -5.21846893890753     -1.82918522176476     -2.93856308518752
  H          -0.05277717922810     -4.82518054000603     -3.15698089772473
  H           4.50679257309602     -3.65605626877109     -2.49360925606498
  H           4.34225685453936      2.42357070908935     -2.49757346105098
  H           1.21825599722120      2.19717304171807     -0.93637139879778
  H          -2.51360835291066      3.05410160956497     -1.29057353238544
  H          -4.26498968027666      0.17345853206164     -1.72169767926361
  H          -2.02581298686861     -2.43227955586268     -2.11580708469715
  H           2.01576671844846     -3.21893183162141     -2.18656428295852
  H           3.67802314853256      0.25248214031022     -1.71816799233409
  H           1.97511074080612      2.53631615181844     -3.28250335807446
  H          -3.02028664470395      5.20688748886216     -2.30656962623747
  H          -6.07684459308952      1.06855706498654     -3.00972840520907
  H          -2.95671261082229     -3.28486241569709     -4.14346865860305
  H           2.29724824548499     -5.54021319175778     -2.76043230560271
  H           5.43241681332323      0.32194523959666     -3.41616815757052
  H           3.78060388768242      3.85012936847187     -0.73493650557024
  H          -1.64325622323544      5.06072503033279      0.86114357208975
  H          -6.14043365114382      1.32783640565906      0.37703391832039
  H          -4.38865170697779     -4.11373779790346     -1.18317840011921
  H           1.05486470409317     -4.60400594933212      0.37971139713315
  H           5.97829024171205     -1.38157713476973     -0.55468136431937
  H           1.69872490004868      3.25201784363088      1.40297523273124
  H          -1.96891400043172      2.02268084653787      0.91460528199811
  H          -3.70523216119153     -0.42015392595461      0.93017950813111
  H          -2.27859186350351     -2.84872405002175      0.62132059137823
  H           1.79139233089377     -1.73822828143536     -0.38704394455097
  H           3.55861049029954     -0.31809873548960      0.97374212527234
  H           3.97389095826934      3.79695666482092      2.24579833231591
  H           2.81932329794522      5.09598521938017      2.61827604757303
  H          -4.76325302474689     -0.62829923651577      3.16176607607263
  H          -4.47170403556710      1.07899552756104      2.74978916511772
  H          -4.48718214513957     -3.39670537448451      1.64196966109932
  H          -3.19952807690969     -4.45903084453738      2.27129820194881
  H           5.13584964278939     -0.58974428516261      2.91876154378556
  H           4.58095652277664     -2.11659194585627      2.21035414254302
  H           3.68059185450465      6.17725403260907      0.76544419210722
  H          -6.93572748755630     -0.25819170199373      2.45204058150984
  H          -3.95957891576203     -5.99672585934451      0.70132304751381
  H           7.08191554730240     -0.89463838134406      1.76837922795620
  C           1.16840871688855     -0.56154580769023      3.44018968110229
  H           1.91788328065148     -0.66302895189190      4.21940259063499
  H           0.20961534933251     -1.00835823410061      3.68925587463190
  O          -0.34837173642857     -1.86013323665431      1.56186053193053
  C          -0.14410217291302      1.51335069693263      4.06085955246190
  H          -0.53901262508102      0.76202658433655      4.72982619164641
  H           0.25518149699166      2.37527482004195      4.59129407980537
  O          -0.40512992676974      3.93077610447616      2.85398739959931
  C           0.94883544769523      0.92472461285755      3.10135288692877
  O           0.74050013320080      1.15759506336402      1.81426261206934
  O           2.11589528251576      1.72367696362233      3.67717590502248
  O           3.36108003811114      1.34026196765139      3.04247268139396
  H           3.21128305732860      1.52650263378884      2.09650532277071
