133
Coordinates from ORCA-job job
  C           0.48608009105029      4.73011495432125     -0.42619326358487
  C          -4.28589395979911      2.97246176551613      0.81123952942056
  C          -5.52112462568602     -1.92633531663015     -0.64139402897015
  C          -1.04090088348089     -4.64201575742102     -0.87401479946754
  C           3.85023726713582     -3.01359425249347     -0.00668328672271
  C           4.93910995733584      1.90708378394097     -0.13074892932168
  O          -0.34420490150212      3.65953498168319     -0.02740190743310
  O          -4.13210446803591      1.79636356554272      0.07537650483979
  O          -4.20110057061408     -2.11013883088735     -1.07413035228078
  O          -0.24063878072889     -3.47313101219589     -0.80490392300639
  O           4.06394625695853     -1.98765057292385     -0.92575425694654
  O           3.52802985015161      2.02693224927907     -0.20512557619883
  C           1.09404361736483      4.36704142179435     -1.78554493624814
  C          -4.06842363002138      4.14178607908021     -0.17216751571654
  C          -6.10918720357729     -0.86869413912677     -1.59362742538316
  C          -1.76381126381458     -4.63818878857600     -2.22650160187876
  C           3.44052032816154     -4.26835919900282     -0.80442487063270
  C           5.51339711610866      1.38220972284167     -1.46042293548581
  O           0.12059615778061      4.11894129275766     -2.76184669884595
  O          -5.01696644186105      4.14223349782651     -1.19509734103657
  O          -6.08296778514408     -1.31305265452449     -2.92023891265388
  O          -0.86849251677660     -4.57326624732396     -3.30306666211315
  O           4.35854512593311     -4.55525680593011     -1.81498911963394
  O           5.35901455677790      2.26106586025261     -2.53381297843102
  C           1.93162130030804      3.09978552248531     -1.58396832476641
  C          -2.64372220256517      4.00712821882298     -0.74034620023056
  C          -5.26702817956405      0.40473168811468     -1.41975916223142
  C          -2.67510583870563     -3.40859502289559     -2.25354951102315
  C           2.02973983526866     -4.08722729335259     -1.39169928050399
  C           4.83428256397208      0.03883431943720     -1.75134110379382
  O           2.57676732654853      2.71709314757506     -2.76880374825605
  O          -2.33065109474391      5.05712773545793     -1.61933926377074
  O          -5.79476399544887      1.49135272841947     -2.13676170741214
  O          -3.46885231224774     -3.35574664469806     -3.40899741723724
  O           1.59296737711745     -5.27871585353986     -1.99538847030459
  O           5.37020753408688     -0.55540627037793     -2.90137280113022
  C           2.98613281368615      3.30790703975525     -0.49046652949366
  C          -1.64756147202924      3.99978741358516      0.42039524183701
  C          -5.17604513860877      0.83073901230982      0.04984055805897
  C          -3.62254277274399     -3.40090123135411     -1.04809946646813
  C           1.05151357083238     -3.66983493892635     -0.27908911190931
  C           4.97237438909032     -0.94501237416663     -0.58238001534540
  C           2.34093856062218      3.87826180862195      0.78506647468394
  C          -2.02950661186918      2.91532453850060      1.43605761672617
  C          -4.83418234570217     -0.34057538828853      0.98518386607598
  C          -2.88419813173097     -3.65504458938719      0.27876547481131
  C           1.62150498625409     -2.36541117677267      0.31767913493614
  C           4.66679957970744     -0.27582931562791      0.77534371506268
  O           1.50156074549147      4.98691129894524      0.50330700235840
  O          -3.35649107454669      3.02958643873171      1.88269740021846
  O          -5.60412673082556     -1.49726569225549      0.69119713052329
  O          -1.94930019782332     -4.72421090534233      0.18074280038893
  O           2.84618140622690     -2.66082844573471      0.93527051112674
  O           5.27233947613411      1.00965396248106      0.88230101904896
  C           3.39243440967274      4.37368452405115      1.78788403729889
  C          -1.05234832370473      3.02086664632477      2.60053550233787
  C          -5.14459326575387      0.01650139870639      2.44631297610445
  C          -3.85678708817050     -4.09195082519206      1.38667032968135
  C           0.71952866638109     -1.64769473467034      1.30425535860723
  C           5.21467556798953     -1.05700089808373      1.99214360369504
  O           4.26858904066507      5.29738838891609      1.21613995474090
  O          -0.96520406938840      1.86597913978293      3.25555257535969
  O          -6.48495311189426      0.38304259642952      2.61013022489849
  O          -4.56920295930245     -5.23773583940699      1.01358810016204
  O           1.31324243640468     -1.54745950271277      2.48847083249391
  O           6.44417231273771     -1.67082797175523      1.73996295364766
  H          -0.08771348207531      5.66242795648536     -0.48573665241131
  H          -5.26983346465252      3.03382362277012      1.29072484986899
  H          -6.09188572717884     -2.86319028649772     -0.68181299027739
  H          -0.41727690618867     -5.53853565293291     -0.77861887028432
  H           4.74905637127363     -3.21768212299273      0.58551523539212
  H           5.39611947556785      2.86342726305324      0.15213855177556
  H           1.75448427751243      5.18743471412216     -2.10685825968280
  H          -4.16334258493307      5.09500478927197      0.35780952810393
  H          -7.15425836449423     -0.66473417131142     -1.34316401277906
  H          -2.37962061827059     -5.54879577545183     -2.29806958684621
  H           3.43212196805747     -5.12984743614140     -0.12801202363999
  H           6.59094019644342      1.23534297752988     -1.32979838011575
  H          -0.71558335304584      4.55534371929103     -2.50590071120071
  H          -5.14735043051297      3.23219406325127     -1.52857485052510
  H          -5.22586811965147     -1.73950008240350     -3.08634587214099
  H          -0.01434417072162     -4.95183085075825     -3.02352956565197
  H           4.56344594667063     -3.73306670971438     -2.28770732561724
  H           4.40870225436117      2.43457668200073     -2.67595997981076
  H           1.26153077716594      2.29303553409853     -1.23462975795345
  H          -2.56182973880664      3.04089470374802     -1.26318023496750
  H          -4.24207107704178      0.18401871016401     -1.76004343674475
  H          -2.03381517994821     -2.51400365218767     -2.18199070718078
  H           2.05174333442988     -3.27762164914291     -2.13884659349767
  H           3.75445277217036      0.23224710073724     -1.88797273795015
  H           1.96952111732566      2.88851693264723     -3.50748731730549
  H          -3.12418848544955      5.22734336416552     -2.15744233501710
  H          -6.00356358427719      1.18572026412235     -3.03336244463673
  H          -2.89218407474545     -3.52312920948937     -4.16937403312514
  H           2.33915245752281     -5.63029837570676     -2.51187022928061
  H           5.52165452431743      0.15598742753547     -3.54647191032081
  H           3.76822014574682      3.98832338520012     -0.84789277905689
  H          -1.63372172853586      4.97382569513682      0.92597519486690
  H          -6.12780980801182      1.28286508769313      0.35631389179490
  H          -4.39635000774780     -4.16769488363132     -1.19266537950598
  H           1.02787511996604     -4.42489474294341      0.51785772441292
  H           5.99234371525717     -1.35440258755521     -0.56196898528734
  H           1.75828174404733      3.06531614635657      1.24721604983090
  H          -1.86509167638216      1.92724711575849      0.97365905177827
  H          -3.76069589009412     -0.56112846913557      0.87745611134870
  H          -2.36009816960758     -2.72879956487550      0.56343738426856
  H           1.76980552054572     -1.64556188943484     -0.50843831903881
  H           3.57477922928408     -0.16770282317040      0.87605870945458
  H           3.98360967763476      3.52307372338104      2.13575494808313
  H           2.85609335984778      4.80124279534557      2.64449494654968
  H          -4.89145658733382     -0.84644473848039      3.07411181713097
  H          -4.53142517808897      0.86838475495306      2.74941814973304
  H          -4.58853983795963     -3.30504978804983      1.57092665608236
  H          -3.27321381367906     -4.26893168303802      2.29854204816390
  H           5.27660034239777     -0.33703605262422      2.81562522843336
  H           4.50414539379561     -1.83279525614973      2.27735470755620
  H           3.74530482408896      6.06291020940576      0.93266666264615
  H          -7.02834741234806     -0.36364480882824      2.31469051391699
  H          -3.92374008100845     -5.93201099752553      0.81446658051713
  H           7.11874951484704     -0.97955973932754      1.67376370742447
  C           0.68169744978872     -0.70347164620298      3.47520210313723
  H           0.99717884908008     -1.12546627739335      4.42352311458643
  H          -0.39642035314893     -0.72747820975367      3.31701350773227
  O          -0.38693836384635     -1.21100049585859      1.01930705068772
  C           0.19128504860973      1.67435969420419      4.11881293740818
  H          -0.20557260941048      1.22934717400814      5.02604417087015
  H           0.68047923954006      2.62022068047168      4.31528580286408
  O          -0.41716576759666      4.02498083200662      2.85675699091836
  C           1.16707582333438      0.75349614434036      3.37536850830504
  O           1.42052104231430      1.14819016142481      2.12636688097322
  O           2.40531592208501      0.86864306628227      4.27654389505681
  O           3.56217727170586      1.05466856637096      3.43515766707797
  H           3.09274586451263      1.22181856066154      2.57832548982394
