133
Coordinates from ORCA-job job
  C           0.50155860935161      4.88501230260757     -0.50097926941567
  C          -4.41992912205991      3.37495562734480      0.50671279522541
  C          -5.13306278118545     -1.78006525519754     -0.10402539202339
  C          -0.91534855007177     -4.81900063942643     -0.88688893389573
  C           4.12391908325793     -3.28633301994057     -0.27726735023824
  C           4.74074154568946      1.83494889645628      0.23265984415234
  O          -0.37331725509435      3.89146837647797      0.00496639900432
  O          -4.29900060613895      2.20799959175972     -0.24509538085395
  O          -3.80587871081368     -1.94693731763142     -0.55361317796182
  O           0.03599630376012     -3.78017462012904     -0.82192251086455
  O           4.08110970172236     -2.05049496179133     -0.91711000760177
  O           3.32602387786676      2.01040936801222      0.14910570479062
  C           1.11840650154919      4.32856561809871     -1.79061568902578
  C          -4.05987264852461      4.53589892823592     -0.44351126588254
  C          -5.88828692943887     -0.99550900395879     -1.19026776562412
  C          -1.74241546577924     -4.59326114559009     -2.15861845092037
  C           3.72444267574633     -4.35851078799956     -1.31651893661679
  C           5.37486339710465      1.41354709797161     -1.10858715263566
  O           0.15636652686868      4.03953786884933     -2.76868555404918
  O          -4.89523971218451      4.56613760270928     -1.56084911012367
  O          -5.90191761254317     -1.67065265074766     -2.41414157542778
  O          -0.94717363888015     -4.56901827395453     -3.31255448537059
  O           4.53789921875287     -4.30550692906650     -2.44862700431414
  O           5.27219749155170      2.36064472501545     -2.12841478547437
  C           1.84777944735878      3.03311394247545     -1.41790398398953
  C          -2.58858688335977      4.37761776544317     -0.87686994290143
  C          -5.19917334449760      0.36753132955242     -1.32084949040235
  C          -2.48216446178955     -3.25743016448101     -1.99248288125644
  C           2.24207928881757     -4.17701963275884     -1.70313141040223
  C           4.74765272984418      0.08188204957820     -1.53306183082267
  O           2.51037687283901      2.48498212969297     -2.52893778397226
  O          -2.18860400680014      5.42706563379867     -1.71794761998008
  O          -5.86004787037940      1.19578831886060     -2.23760616250708
  O          -3.34943286124006     -3.00412533201244     -3.06454373927911
  O           1.79118650284585     -5.21035668393217     -2.53852489346920
  O           5.32322324448201     -0.38492356966898     -2.72302385012714
  C           2.87387818731675      3.28494258798999     -0.30594142491571
  C          -1.67966190493435      4.30407748727554      0.35901678402579
  C          -5.14148583771773      1.09713698252632      0.02613241680621
  C          -3.31690858267951     -3.26710878258041     -0.70811984766491
  C           1.35547386316974     -4.13725345186264     -0.44956631439305
  C           4.91381430873946     -0.99194385821772     -0.45039555532411
  C           2.24496111865512      4.06977219308515      0.86339770144825
  C          -2.22244691032104      3.18100351338627      1.24559816870808
  C          -4.60224079548435      0.19097731185406      1.15308153338970
  C          -2.47054672632685     -3.67753420368777      0.50530588179368
  C           1.91919193918149     -3.04244680731790      0.45287442605443
  C           4.51379680908708     -0.45555457198856      0.94112075416798
  O           1.51805362160573      5.20115828590626      0.40255201104377
  O          -3.55256588851809      3.38837750299382      1.62927013516976
  O          -5.18522866563698     -1.10706502818992      1.11991729224183
  O          -1.73979457216388     -4.86392095572482      0.24352415508181
  O           3.23886499156525     -3.33713245693474      0.83326187664009
  O           5.00772538869435      0.86385565203610      1.18657574416780
  C           3.31277610027560      4.58644555611389      1.83857469494142
  C          -1.37033371134165      2.91133324746999      2.47475196644710
  C          -4.97220473347879      0.72561925772508      2.54803103954570
  C          -3.34137869424046     -3.98524952303849      1.73184782153078
  C           1.11854675749355     -2.76765421113143      1.71518763841262
  C           5.12629734915808     -1.27052002678907      2.09703372477235
  O           4.34934057545045      5.26058290581656      1.18449155297094
  O          -1.78105413748163      1.74569459271094      3.00202721215491
  O          -6.35185619745893      0.89929173585110      2.67683704698041
  O          -4.28372489431008     -4.97849095513666      1.46117398366132
  O           1.57788947598338     -1.62858453664006      2.21736996191119
  O           6.50544197768801     -1.43842013561459      1.93794287613573
  H          -0.03660436347991      5.82119005923201     -0.68482469483668
  H          -5.42647598408624      3.48859144457462      0.92757415739030
  H          -5.60768961421236     -2.75063720352104      0.08565207651808
  H          -0.41967982065625     -5.79742145262051     -0.91312362251684
  H           5.11735019731605     -3.49349293809623      0.13970156566721
  H           5.20699013659093      2.75733300879714      0.60498531897657
  H           1.84985196195445      5.05668593444869     -2.17557599929439
  H          -4.18571471746576      5.48831272338733      0.08139062240224
  H          -6.93214157134690     -0.85734004007290     -0.89103775612004
  H          -2.48552082592551     -5.39827262197919     -2.25126157542668
  H           3.85958165603528     -5.35034552235062     -0.87299658522935
  H           6.44747254568280      1.27386092645178     -0.92885581613525
  H          -0.58727366510537      4.66201818788384     -2.66991775622548
  H          -5.00945671941103      3.66063878179870     -1.89202625781648
  H          -5.00749219392309     -2.00301525508919     -2.61250375329057
  H          -0.01637717620912     -4.74025674721857     -3.07684472845618
  H           4.61418147227884     -3.38166856103036     -2.73441493903025
  H           4.33504731080422      2.45390371887310     -2.38929367636948
  H           1.10381027360105      2.31380598974795     -1.02770388770600
  H          -2.48812943934030      3.41458843176707     -1.40624203497963
  H          -4.15600257783282      0.19449536127589     -1.64081793396523
  H          -1.73528528096012     -2.45004693798966     -1.89776629549224
  H           2.13252867083403     -3.20485748676393     -2.21213718782812
  H           3.66257401720366      0.24144786946651     -1.67398568827748
  H           1.96205150539116      2.64367546283522     -3.31387810820856
  H          -2.95043369994400      5.64637758476463     -2.28369786589953
  H          -6.15729077533719      0.63371361886873     -2.97228206848132
  H          -2.88390319641220     -3.23507144699649     -3.88449390045551
  H           2.46033774783041     -5.34519867975260     -3.23105313324770
  H           5.52222773569980      0.39387549484004     -3.27017974532259
  H           3.71551243158093      3.86026648002889     -0.70889805973184
  H          -1.65392055873448      5.25394002700878      0.90617739675531
  H          -6.14511513408990      1.45022044840934      0.30094507078468
  H          -4.15147408731953     -3.97115325124393     -0.82546966110679
  H           1.36521124473867     -5.09720940285256      0.07804316303676
  H           5.95793881385785     -1.33536734529043     -0.42298433344720
  H           1.55517827483262      3.41148309933569      1.40047866781841
  H          -2.13824219130959      2.24178975792552      0.66450684693025
  H          -3.50356189763273      0.11176714255470      1.06348387969782
  H          -1.79178629570495     -2.84014508664266      0.74671972887643
  H           1.89365467838951     -2.09467170245498     -0.11449810367415
  H           3.41771997861956     -0.47343787243332      1.01970495460451
  H           3.75185356943803      3.73569653447993      2.36265339664048
  H           2.80806426013355      5.22907413231199      2.56857806309607
  H          -4.58490268796468      0.01069710068089      3.28468444784436
  H          -4.49513797017914      1.69066745015399      2.71821087835775
  H          -3.88113651362405     -3.08124106035747      2.02030661397827
  H          -2.66787536910570     -4.27458983741014      2.54831976941852
  H           4.89398540721660     -0.73165874730042      3.02362890396671
  H           4.67329591020042     -2.25962700357374      2.14464731479588
  H           3.97427312582822      6.05065554847552      0.76854635416712
  H          -6.77203504322561      0.04027406449548      2.51580969622253
  H          -3.79979104772896     -5.77754632621122      1.20033027288486
  H           6.91102201264161     -0.55872456699524      1.94804923892665
  C           0.81398754264908     -0.94008798321472      3.22960061031518
  H           1.56470340065202     -0.42535678013182      3.82023993259961
  H           0.20266916255023     -1.65677229062476      3.77166344332377
  O           0.24169863739623     -3.46221379031850      2.18158658086909
  C          -0.79082797734650      0.89689342217254      3.62286064797140
  H          -1.37141164037694      0.23491493411639      4.25509291882451
  H          -0.06898775517430      1.51193656134456      4.16111539418861
  O          -0.47068494918141      3.60781332164330      2.88638154874935
  C          -0.11810488947030      0.04808764090817      2.53655552351272
  O          -0.94845165135776     -0.48722062005450      1.64191647639638
  O           0.69239432273044      0.98598172903888      1.68448320303289
  O           1.90308784766898      1.48226243174895      2.47762193525442
  H           2.58167685822983      1.46197688220504      1.76199302012594
