19
Coordinates from ORCA-job job.QMRegion
  C          -0.91461901629202      2.84371771527614      2.38583513325700
  C           0.31221056455975     -1.48705296292974      0.56531767869358
  O          -1.04910295698878      1.68625293599982      3.02131175784187
  O           0.23283060950869     -1.90633830586592      1.82594979154344
  C          -0.27849811851448     -0.99925294635541      2.80739556530997
  H          -0.37757539070834     -1.60734513919161      3.69942833076773
  H          -1.21299660212140     -0.55759122685699      2.46692212683258
  O          -0.46091831282317     -0.71345678759146      0.01004762619064
  C           0.04617705642993      1.20684667336985      3.85701724539283
  H          -0.43216900547744      0.80527287314262      4.74690568519732
  H           0.71910389071947      2.02030814960950      4.08885570789542
  O          -0.10813273801557      3.70750708805995      2.65394184104681
  C           0.75573343854559      0.13628960872299      3.02060635631538
  O           1.26993217743165      0.63570494315534      1.89281497354539
  O           1.77139887972709     -0.55003584851423      3.85890341514680
  O           2.49719371388156      0.43156640198347      4.63500515294590
  H           2.90771631753246      0.98075166119061      3.93162778285690
  H          -1.63968866155185      2.89667517968607      1.57647133019892
  H           1.13335313749222     -2.00659327595581      0.08674059944287
