19
Coordinates from ORCA-job job.QMRegion
  C          -1.02175206503102      3.03923326549735      2.56532488436401
  C           0.62474147838021     -1.66292376720469      1.21450034630713
  O          -0.89853168670385      1.86172346590736      3.16945998363966
  O           1.10746122880981     -1.69876514161717      2.45117534722426
  C           0.51203107316524     -0.80574949403362      3.40825643345533
  H           0.76079232899601     -1.24158938276098      4.37044193869099
  H          -0.55775291690836     -0.72808928379826      3.21944249961533
  O          -0.43301719438518     -1.15249461360940      0.87275102365605
  C           0.27298912621124      1.62311724900543      4.00974866449195
  H          -0.12006518494458      1.25885078267027      4.95441188128919
  H           0.84550050606612      2.53502956306248      4.13658514280500
  O          -0.40224875046446      4.04597606658179      2.84672124654029
  C           1.13849894647206      0.59033398881620      3.29396794066126
  O           1.45602010560138      0.95016553400518      2.04873057511647
  O           2.37564475070645      0.47470847517993      4.19079649420589
  O           3.44269893501462      1.21207501470920      3.55993088260998
  H           3.03783108637065      1.29509102726511      2.65812864783469
  H          -1.72926931975505      2.97172491043257      1.74117802901929
  H           1.30266626685980     -2.15864596309358      0.52815609330455
