19
Coordinates from ORCA-job job.QMRegion
  C          -1.30654084411471      2.71706495978568      2.21564262777236
  C           1.10972384885843     -3.08017222399948      1.82443400948155
  O          -1.56144091755939      1.44694636625784      2.54968710600788
  O           1.66034791159973     -2.11986833785822      2.56334389269851
  C           0.79629044600073     -1.33736613287808      3.40322187232500
  H           1.46837846033366     -0.95890038008657      4.17324709848888
  H          -0.01039979191844     -1.95676813910523      3.79197188634415
  O           0.14823924313193     -3.74770561554995      2.13019000421239
  C          -0.63240341188841      0.73018421046256      3.40739912982338
  H          -1.27863902114906      0.10702164334358      4.01368739882705
  H          -0.03209327385752      1.44203934276704      3.96684010883609
  O          -0.48218987305467      3.45128908438216      2.71302865410559
  C           0.21033625861065     -0.20868455978184      2.55583020315961
  O          -0.41855016268410     -0.70428381109221      1.48115360922280
  O           1.41649688422060      0.48310789036923      1.93892964343740
  O           1.88051599587437      1.62049716243127      2.76572008898096
  H           2.59336738894519      1.18838570210007      3.30689604131841
  H          -1.95425571315160      2.96658108773403      1.38375838300921
  H           1.68161148577748     -3.15392546272380      0.90282910643500
