133
Coordinates from ORCA-job job
  C           0.50570703778232      4.92459905016239     -0.45076523766417
  C          -4.41490141369697      3.38231926947145      0.51809810402962
  C          -5.11727337372917     -1.77147045952503     -0.13743864044587
  C          -0.90027226155351     -4.83170133461413     -0.84765251612978
  C           4.13383364957392     -3.29116466398592     -0.25417978311367
  C           4.72647737480080      1.83282948787764      0.16718781733666
  O          -0.36706030885953      3.93191723416511      0.06004200372535
  O          -4.27946021643245      2.22485641896425     -0.24634683386120
  O          -3.78400501294240     -1.95022656540300     -0.56376130874366
  O           0.04788689935134     -3.79067438640321     -0.77314550894247
  O           4.08303018083381     -2.07096421765920     -0.92269808569118
  O           3.30906339302043      2.00210120999252      0.08254074342581
  C           1.09305080312607      4.38458671830007     -1.76219812067310
  C          -4.05567713597303      4.55998096068191     -0.41123076887132
  C          -5.84588590835273     -0.97820356457751     -1.23533265156837
  C          -1.71311763579508     -4.61365010480186     -2.12988172866653
  C           3.73292445417409     -4.38778230544738     -1.26636646340861
  C           5.34518309694890      1.40150364203893     -1.17763688874182
  O           0.11468135116325      4.13027702784986     -2.73280361358107
  O          -4.87694151214615      4.59822845249709     -1.53882111930296
  O          -5.83997681215145     -1.64821524512186     -2.46194914886973
  O          -0.90577112756176     -4.59446492613259     -3.27542978775819
  O           4.54329342998769     -4.36091606085058     -2.40154709373503
  O           5.21525696841616      2.33744998248275     -2.20481611488571
  C           1.80520643857066      3.07009907547905     -1.42391232950434
  C          -2.57780465497352      4.42665749778613     -0.83006140609624
  C          -5.14796213240091      0.38230664926132     -1.34721896087892
  C          -2.45234223227005     -3.27598005022050     -1.98031433512077
  C           2.25021325417182     -4.21433301421172     -1.65346414205336
  C           4.72195773189866      0.05991879183527     -1.57664672640063
  O           2.44173300476203      2.52586379011667     -2.55180385054391
  O          -2.18408803869847      5.49791151024700     -1.64675297004424
  O          -5.78452649829393      1.21400801073183     -2.27783144553718
  O          -3.30736078563812     -3.02743261168601     -3.06328237518695
  O           1.79890462576838     -5.26558633903059     -2.46645545932649
  O           5.28423752165109     -0.41726934349495     -2.76880925191501
  C           2.85403260949559      3.29096369214622     -0.32756340212304
  C          -1.67609398818302      4.33790554752453      0.41111767226072
  C          -5.12073050553006      1.10759479676117      0.00281429654686
  C          -3.30094563154251     -3.27446908164796     -0.70498303893853
  C           1.36691549134017     -4.14766997244749     -0.39890346495151
  C           4.91372342918725     -0.99914022904976     -0.48337568889103
  C           2.25364802725590      4.05688446835283      0.86936074175113
  C          -2.22094232378053      3.19636426667590      1.27156144027724
  C          -4.60048700803817      0.19590545603944      1.13414334823875
  C          -2.47060408464369     -3.68360986761818      0.52046874059281
  C           1.93226173570999     -3.03717223116386      0.48375361678458
  C           4.53290793815562     -0.45208737858475      0.90915526409067
  O           1.54359753539783      5.21088897330989      0.43937776583030
  O          -3.55601413963232      3.38921485184297      1.64694279305395
  O          -5.18664195048678     -1.10054049892617      1.08671900440115
  O          -1.73896466017854     -4.87261951203229      0.27255582777190
  O           3.25516565195856     -3.31932197261429      0.86267713985426
  O           5.01015638519798      0.87774253392123      1.13066056580697
  C           3.34103499012005      4.52880057614750      1.84526792568861
  C          -1.39449648989144      2.89056607700160      2.51088452836560
  C          -4.99110641884355      0.72417758176828      2.52589075962574
  C          -3.35841609958607     -3.98480726449799      1.73621970860320
  C           1.13108873936228     -2.75231946946298      1.74408492640272
  C           5.18136321947318     -1.24342975036810      2.06205734337004
  O           4.38385354045226      5.19796882652392      1.19633124358269
  O          -1.84376618627647      1.71767567935874      2.99436186309204
  O          -6.37206701689161      0.90276482210285      2.63278511571060
  O          -4.29743740221330     -4.97893479443881      1.45701247019801
  O           1.57946007983477     -1.60213426366880      2.23319487140098
  O           6.55863799417334     -1.39703672308157      1.87493412013072
  H          -0.02540311165267      5.86957001382262     -0.60663010096098
  H          -5.42561546986668      3.48298168213739      0.93221376122153
  H          -5.60414505361390     -2.73804451863720      0.04179960935074
  H          -0.40256807569745     -5.80926840150099     -0.86326702168430
  H           5.13046135981156     -3.48587993994824      0.16111028473770
  H           5.18900533107889      2.76268474982930      0.52401541671052
  H           1.83115934190293      5.10847935640007     -2.14236145503193
  H          -4.19908808186644      5.50271160138861      0.12647804572523
  H          -6.89460949800216     -0.83489178905247     -0.95588313898028
  H          -2.45607291502337     -5.41900261013905     -2.22404848185689
  H           3.86944650090049     -5.36872301377130     -0.79969891068451
  H           6.42177029540246      1.27318801524864     -1.01543394484050
  H          -0.62193660315120      4.75741507149692     -2.60795221478114
  H          -4.97483425884973      3.69714413547084     -1.88682253221389
  H          -4.94671666480529     -1.99504307464520     -2.63996206895912
  H           0.01621664769009     -4.80405013783482     -3.03398481107416
  H           4.61661183806476     -3.44391786421364     -2.70960021093728
  H           4.27106915127798      2.43659072888681     -2.43600764411944
  H           1.05444225844108      2.35851948323211     -1.03298101826486
  H          -2.46179751417519      3.47563621182827     -1.37773175377602
  H          -4.09805359202891      0.20602014453518     -1.64261646480198
  H          -1.70469739653999     -2.46977699582249     -1.88252359207178
  H           2.13948900660417     -3.25340093339697     -2.18295719227867
  H           3.63376699213880      0.20998898785062     -1.70423638242199
  H           1.88603045696589      2.70660435295645     -3.32667556764609
  H          -2.94354542480425      5.71803488911532     -2.21553846270858
  H          -6.06897868876816      0.65304892368930     -3.01853227038520
  H          -2.83200008387570     -3.25988109173644     -3.87705796916754
  H           2.46738177094188     -5.41353185041553     -3.15715615101497
  H           5.46725925302226      0.35582520202524     -3.32927549627619
  H           3.69002191701273      3.87010598702356     -0.73687700280212
  H          -1.65707171320728      5.27929105432378      0.97292058811181
  H          -6.13137847064271      1.45430610225038      0.25950167690588
  H          -4.13831384326561     -3.97425817387378     -0.82812292531911
  H           1.37368525275118     -5.09761193106348      0.14674923090657
  H           5.96118955606659     -1.33335822455732     -0.47012489762006
  H           1.55485535289986      3.40151888371702      1.39834484810858
  H          -2.12811729445119      2.27121730858656      0.66958749025587
  H          -3.50116765067335      0.11413601260256      1.05945789344770
  H          -1.79169227867192     -2.84893738833156      0.76695160232742
  H           1.89924253974550     -2.09850567791896     -0.09784488146790
  H           3.43997804815149     -0.48716908220997      1.01347060689654
  H           3.76771124376970      3.65623085851435      2.34359859467504
  H           2.85724283273493      5.16334997858874      2.59620324214123
  H          -4.61958384291672      0.00292167762160      3.26443832102722
  H          -4.51267466221748      1.68586257506214      2.70989543968831
  H          -3.90172375159660     -3.07904752227911      2.01223127297723
  H          -2.69699295081588     -4.27075310071113      2.56370409657070
  H           4.96234299652427     -0.69339679848881      2.98527374729927
  H           4.74146045670915     -2.23692933881992      2.13461798098808
  H           4.01994122468725      6.00512018242440      0.80375336425720
  H          -6.79271741378212      0.04573467525486      2.46276024412813
  H          -3.81017653041129     -5.77869445707856      1.20471535918679
  H           6.95299679798632     -0.51233797178471      1.86135584109207
  C           0.80012536009211     -0.90439273553125      3.22975144957742
  H           1.53482979233124     -0.34699571774401      3.79922353827473
  H           0.21721039514335     -1.62589276585206      3.79624058946172
  O           0.26286012674974     -3.45198893929541      2.21971238104765
  C          -0.89476886591576      0.82571576690720      3.61226008528472
  H          -1.50893128940324      0.14444157404809      4.19090298972558
  H          -0.18805451940300      1.40712703427016      4.20653809639115
  O          -0.50513841109648      3.56874872682902      2.97135765168301
  C          -0.17929416684590      0.01973988235935      2.51425980231824
  O          -0.97512816932502     -0.53768514762438      1.61308286440298
  O           0.57618852098958      1.06721333126116      1.71030860498905
  O           1.90931656632933      1.39135606905344      2.36509086952236
  H           2.49433565651605      1.42272247701726      1.56982266294739
