19
Coordinates from ORCA-job job.QMRegion
  C          -0.98142898323730      3.02775191706292      2.54666348843293
  C           0.56683357253953     -1.64631715822581      1.11095576625894
  O          -0.87889746079006      1.84625733157086      3.14402858902237
  O           0.98695834584819     -1.74379132832541      2.36553239092128
  C           0.41221703999505     -0.83939808996748      3.32221477014623
  H           0.60558832838893     -1.30973562482962      4.28089485870294
  H          -0.64486343962493     -0.69525153104034      3.10625055105891
  O          -0.45719967683588     -1.09029512726735      0.73711278125711
  C           0.28146663787816      1.56829779378325      3.98757561209749
  H          -0.13105476743574      1.19639986418440      4.92108714892198
  H           0.87811946782099      2.46194199512696      4.13462907458670
  O          -0.34633489956873      4.02276730056845      2.83266866300850
  C           1.11770744243191      0.52322435438512      3.25287559590679
  O           1.46553861192582      0.91868626767888      2.02419366811387
  O           2.32045830117327      0.27908540113269      4.13214607134632
  O           3.32739829533341      1.24568426475751      3.75648945846424
  H           3.05243274627095      1.37879431219786      2.81847561296943
  H          -1.69280777477624      2.97251035653021      1.72415055966930
  H           1.26059066441743     -2.14585301588535      0.44497474667268
