133
Coordinates from ORCA-job job
  C           0.49568806413191      4.76536513844903     -0.44186793798388
  C          -4.27144691880233      2.99698882540437      0.79893323367993
  C          -5.49710437000912     -1.93132538609582     -0.58659417529780
  C          -1.04864814816022     -4.67917028360977     -0.89875316969782
  C           3.81441736173907     -2.98733399921882      0.00187085391715
  C           4.93131562503966      1.92856510889040     -0.10945913026716
  O          -0.33998125775732      3.69270680988994     -0.06390036820571
  O          -4.11725372118049      1.82196673312455      0.06156417597220
  O          -4.19723014214529     -2.13508543331162     -1.06901017833344
  O          -0.25001249772853     -3.50813608401049     -0.88610884645091
  O           4.05997251568499     -1.96241166052543     -0.91043748185727
  O           3.52304210841781      2.04792987063384     -0.22062125886967
  C           1.11475324675788      4.41594882315153     -1.79955527873521
  C          -4.06458703518598      4.16422044409033     -0.18943196014603
  C          -6.11241333047534     -0.87916888342259     -1.52779841895125
  C          -1.80579312768088     -4.70537828934371     -2.23013057085542
  C           3.43646598699487     -4.24645674998414     -0.80832613710803
  C           5.53622760232335      1.39846718979130     -1.42300738155321
  O           0.14667803069477      4.17996471542859     -2.78462961742719
  O          -5.01740899275621      4.15138634696202     -1.20860718388751
  O          -6.13158283975444     -1.33409313793215     -2.85074502117379
  O          -0.93432865610382     -4.67879195595077     -3.32865121969286
  O           4.38618601795878     -4.52093081280283     -1.79266765436742
  O           5.39994606810524      2.27203198833390     -2.50337602730472
  C           1.95104235949006      3.14586330167789     -1.60575532987947
  C          -2.64080872925840      4.03633032357185     -0.76178525504472
  C          -5.26338538922565      0.39439329092538     -1.39167785383777
  C          -2.71093645144952     -3.46999681868255     -2.26137421869548
  C           2.03893326364506     -4.08217367997988     -1.43181777921162
  C           4.86878393386160      0.05114604436436     -1.72287510054921
  O           2.62055321143937      2.78686474403233     -2.78442322987992
  O          -2.33087357536606      5.08782991868875     -1.63986944112027
  O          -5.80653791765928      1.47207163187042     -2.11018716417305
  O          -3.53289302857747     -3.43862722097996     -3.39744736984582
  O           1.61639824810893     -5.27591705941514     -2.03973642430022
  O           5.44217914279609     -0.55262035646705     -2.84970535091329
  C           2.98751501029182      3.33431496586460     -0.49120633839337
  C          -1.63950127786711      4.03107127160018      0.39464730919563
  C          -5.14084078337614      0.83551554630762      0.07089888518025
  C          -3.62751208150121     -3.43024855616018     -1.03207905031554
  C           1.03737852771213     -3.67394511275743     -0.33955864016382
  C           4.96729790407393     -0.92631044353572     -0.54409104040248
  C           2.32610429524161      3.88718518799660      0.78329951399866
  C          -2.01334742653110      2.94461935848974      1.41027150086249
  C          -4.75278882006317     -0.32562318040804      1.00053798297725
  C          -2.85947703922797     -3.66428476774096      0.28197789932293
  C           1.57203745970263     -2.35561955292902      0.25543945382782
  C           4.63002619422936     -0.24723362421506      0.80114125028097
  O           1.50126146448248      5.00571855092188      0.50305220773374
  O          -3.33694955531738      3.06025558095685      1.86612369420857
  O          -5.52641793043952     -1.48877414393137      0.74422188170431
  O          -1.92634480118597     -4.73517822046855      0.18320363542226
  O           2.78315472165794     -2.62674674390369      0.91111534503003
  O           5.23987744087531      1.03527795711225      0.91541828594908
  C           3.36297690345703      4.36346678610448      1.81095188228292
  C          -1.02175206503102      3.03923326549735      2.56532488436401
  C          -5.01154508289876      0.03829825307902      2.47012527567370
  C          -3.80460831638848     -4.08336300224533      1.42034440683451
  C           0.62474147838021     -1.66292376720469      1.21450034630713
  C           5.13836080007337     -1.02101837399091      2.03909445773946
  O           4.25588442068461      5.28509721276503      1.26251056780791
  O          -0.89853168670385      1.86172346590736      3.16945998363966
  O          -6.35020916307999      0.38598919858770      2.68143638505116
  O          -4.52517993594862     -5.23491591786642      1.08314429169139
  O           1.10746122880981     -1.69876514161717      2.45117534722426
  O           6.37645492574087     -1.63228138265288      1.83160679357201
  H          -0.07434960459053      5.70031494647313     -0.49635613801017
  H          -5.25319361834101      3.05475050245369      1.28341271355878
  H          -6.07776894277717     -2.86305245947351     -0.59406825011469
  H          -0.42007633648655     -5.57213076756988     -0.79925496725583
  H           4.69359508253138     -3.19075124387224      0.62331986712063
  H           5.38183822238897      2.88575786356173      0.18046074350907
  H           1.77803832939443      5.23868511787525     -2.10840098763539
  H          -4.16475554367847      5.11937024947501      0.33595906292961
  H          -7.14825428422835     -0.67005026800507     -1.24478728063453
  H          -2.42905840813939     -5.61251552117941     -2.26605821363478
  H           3.42047669127931     -5.10857534730905     -0.13280303342049
  H           6.61139925403692      1.25685615082027     -1.26964408867426
  H          -0.69408191881283      4.60386312986578     -2.52379690327199
  H          -5.14654599422244      3.23725340780611     -1.53001330601795
  H          -5.28273782540589     -1.76674002422323     -3.04030174841540
  H          -0.05173274954620     -4.97278952324721     -3.03936072064162
  H           4.59333542107882     -3.69629233107620     -2.26028447646427
  H           4.45304231140291      2.45064576699478     -2.65939481509852
  H           1.27650574709754      2.33148832158225     -1.28385267226443
  H          -2.55704314479630      3.07064984687788     -1.28546460841801
  H          -4.24664239370932      0.16783804813517     -1.75240039341994
  H          -2.06369289935815     -2.57755445051647     -2.22586836350429
  H           2.07079256578528     -3.27347211172605     -2.17948853632859
  H           3.79357350856953      0.24210994751012     -1.89478245088580
  H           2.02111172613017      2.95266960763696     -3.53049586792255
  H          -3.12196785013252      5.25217193159386     -2.18288190434828
  H          -6.03880021911372      1.15279459383447     -2.99632863257815
  H          -2.97734927307829     -3.63402258126465     -4.16695800056220
  H           2.36698268951377     -5.62350127079394     -2.55165010877084
  H           5.61105525760766      0.15257090607421     -3.49722847246092
  H           3.77559763187479      4.01941844387532     -0.82601224660295
  H          -1.62440721696224      5.00467404549090      0.90075220410383
  H          -6.09246259921234      1.27085202848088      0.40121931834449
  H          -4.41111960408152     -4.19292934176847     -1.14234900524236
  H           1.01643658408699     -4.42073521511303      0.46492626051359
  H           5.98278223676454     -1.34415549862960     -0.49271095451812
  H           1.72756332618029      3.07102158226137      1.22099080945922
  H          -1.85601831400177      1.95790319977232      0.94222426205471
  H          -3.68229294622614     -0.53957840320742      0.85354487043974
  H          -2.33076356858722     -2.73255797515692      0.53909612329559
  H           1.72941806353754     -1.63800569892783     -0.56955559947510
  H           3.53662520449045     -0.13401730559009      0.87195447698218
  H           3.94124453381881      3.50605589912941      2.16316654399292
  H           2.81381333490650      4.78903573639734      2.66034190161618
  H          -4.72154159907986     -0.81580931544398      3.09413836396226
  H          -4.40032847931380      0.90138164612608      2.74392607781355
  H          -4.53167118897230     -3.29381053722776      1.61104571236828
  H          -3.19763900525496     -4.24565860326547      2.31975892674644
  H           5.17320851075563     -0.29771099619012      2.86235372710742
  H           4.42029611978260     -1.79737969667802      2.30474083773710
  H           3.74494237974202      6.06066529584548      0.98353524256432
  H          -6.89259139253331     -0.37098619467450      2.41095812379458
  H          -3.88446905204593     -5.93230698436922      0.87964731049436
  H           7.04987916026424     -0.93865034365541      1.77365984855015
  C           0.51203107316524     -0.80574949403362      3.40825643345533
  H           0.76079232899601     -1.24158938276098      4.37044193869099
  H          -0.55775291690836     -0.72808928379826      3.21944249961533
  O          -0.43301719438518     -1.15249461360940      0.87275102365605
  C           0.27298912621124      1.62311724900543      4.00974866449195
  H          -0.12006518494458      1.25885078267027      4.95441188128919
  H           0.84550050606612      2.53502956306248      4.13658514280500
  O          -0.40224875046446      4.04597606658179      2.84672124654029
  C           1.13849894647206      0.59033398881620      3.29396794066126
  O           1.45602010560138      0.95016553400518      2.04873057511647
  O           2.37564475070645      0.47470847517993      4.19079649420589
  O           3.44269893501462      1.21207501470920      3.55993088260998
  H           3.03783108637065      1.29509102726511      2.65812864783469
