133
Coordinates from ORCA-job job
  C           0.50292605880121      4.71038458326825     -0.45422085624493
  C          -4.33232942685914      3.07285132278943      0.70772572154412
  C          -5.48463636887267     -1.90502148144164     -0.50049693431365
  C          -1.03761377653018     -4.65166759710014     -0.94081671844921
  C           3.90006867873289     -3.12291116875810     -0.10375249404040
  C           4.92339008920191      1.84440183264236      0.06194707749361
  O          -0.34706016833765      3.67495828291048     -0.00496483838179
  O          -4.18581197134488      1.88016703844796      0.00120678694738
  O          -4.16045331456033     -2.07286635528547     -0.93117290648526
  O          -0.21952573343967     -3.50142000102515     -0.80738021030990
  O           4.07107895672030     -2.02716619604541     -0.94628595196065
  O           3.50632955611217      1.99522984839182      0.08844358468008
  C           1.14371258871403      4.23079136367593     -1.75952118638017
  C          -4.05898871319619      4.20649527237248     -0.30364222367469
  C          -6.11173958569190     -0.91012801897274     -1.49542374934798
  C          -1.77822262128661     -4.55258451285327     -2.28177484312952
  C           3.45830191130390     -4.31484699960040     -0.97607087547587
  C           5.46349558623390      1.38717580828015     -1.30886743345864
  O           0.19794068223136      3.94140671277215     -2.75141493012032
  O          -4.96592905467009      4.17314995660068     -1.36407735606963
  O          -6.08475979278329     -1.41856822779699     -2.79920250170256
  O          -0.89789201810275     -4.42872134851984     -3.36542311431872
  O           4.33218163334758     -4.53223770594462     -2.04182152785214
  O           5.31377166449844      2.31123057739756     -2.34282496759902
  C           1.92811015762142      2.95740220382996     -1.42297547632636
  C          -2.61371342258424      4.04058106649531     -0.81174218127263
  C          -5.29901603412474      0.38819686028837     -1.39165900558197
  C          -2.67645654512123     -3.31522416312538     -2.21802513802286
  C           2.02581140887522     -4.08768413116253     -1.49078457018054
  C           4.78994597888324      0.05524045655107     -1.65723024268124
  O           2.55152598746771      2.43265986536060     -2.56410385131750
  O          -2.25429803490903      5.05393293385799     -1.71456469736394
  O          -5.85315048141042      1.43082600212049     -2.15202704736102
  O          -3.49666419039995     -3.18555820073306     -3.34956535383733
  O           1.56479207505135     -5.23204507278432     -2.16440452527641
  O           5.30356826546806     -0.46794265018438     -2.85145875145510
  C           2.98008929234168      3.24427869090567     -0.34327754580487
  C          -1.65931146843250      4.04902942578029      0.38480613453980
  C          -5.19941091395634      0.88457389148343      0.05507252484323
  C          -3.59966381359824     -3.36974397883043     -0.99605658538710
  C           1.08063398230211     -3.74932721030454     -0.32094603842006
  C           4.96441195938139     -0.99159663534511     -0.54811720043569
  C           2.32740583262611      3.94441057529049      0.86440362481047
  C          -2.10213667881001      2.97550169826166      1.38317385202067
  C          -4.81287263920610     -0.23151426189941      1.04067901241821
  C          -2.84329243591738     -3.71106165270055      0.29914005946086
  C           1.68182183231403     -2.50568969598060      0.36233463304406
  C           4.65862839644581     -0.39091499934962      0.84018336911371
  O           1.49960596023729      5.02848195100932      0.47533636421624
  O          -3.43124940881936      3.13837295732357      1.80268729101143
  O          -5.55755031615456     -1.42006163860100      0.81270708664305
  O          -1.93630477629830     -4.79336473998384      0.11721752278113
  O           2.93031103610019     -2.86011188761323      0.89844520886940
  O           5.27723794076016      0.88473969327362      1.00162899626627
  C           3.37458283074772      4.53597592211946      1.81919346301832
  C          -1.15046928953568      2.98950980869033      2.56756171807407
  C          -5.11093479450033      0.18288845420430      2.48930705526854
  C          -3.80799667859670     -4.17494216709474      1.40150299712771
  C           0.86192530029585     -1.84047214298608      1.45890638697003
  C           5.21249966224137     -1.20328371522169      2.02797293688471
  O           4.21665994010354      5.43585341509923      1.16402622629201
  O          -1.21670103101274      1.83744110993289      3.22881425841012
  O          -6.45842124143998      0.51899580558507      2.65911568065663
  O          -4.57128224357034     -5.27257465083559      0.98656720688020
  O           1.67942146913944     -1.41147245784560      2.41301613256361
  O           6.52073769528228     -1.64262413949313      1.80859668825726
  H          -0.06035836415762      5.63949407141220     -0.59884818784658
  H          -5.32781507707077      3.16820142284518      1.15661834765008
  H          -6.03012952972019     -2.85696000180563     -0.49248094974306
  H          -0.42617332634046     -5.56129693439711     -0.91286438505304
  H           4.82207483945279     -3.36375650006107      0.43784902037857
  H           5.40603952923723      2.77752358549915      0.38173371825077
  H           1.84470680185397      5.00078298341414     -2.11734304925744
  H          -4.16605377113560      5.17914827606559      0.18696507089584
  H          -7.15949821391998     -0.72018664429950     -1.24466979134774
  H          -2.40520119879411     -5.45033580700646     -2.40183722417261
  H           3.47271615199052     -5.22333758953014     -0.36426301889380
  H           6.54232097682208      1.23320406755371     -1.18806821881027
  H          -0.63210863764843      4.41690006597375     -2.55443114208797
  H          -5.11293262444017      3.24827304224533     -1.64201573521700
  H          -5.21620844018720     -1.82782155243452     -2.95785725756098
  H          -0.04421474915663     -4.83507980074188     -3.12363624875711
  H           4.51789806636088     -3.68154225298790     -2.46948502451764
  H           4.36174016081762      2.42628147616446     -2.53311940802335
  H           1.22827258378424      2.21411393518982     -0.99581753388445
  H          -2.52616065354471      3.05601562080467     -1.29925517106004
  H          -4.27268105388728      0.17288721373249     -1.73211589471549
  H          -2.02510183407323     -2.43187405013696     -2.10792766521004
  H           2.02401094477272     -3.22582929781046     -2.17787945541075
  H           3.70493522704566      0.24187066869601     -1.75940090879423
  H           1.98234604234962      2.62613729385212     -3.32829829972447
  H          -3.02945208957140      5.22381017140553     -2.27905180426116
  H          -6.07473418583923      1.07555520719419     -3.02709543809318
  H          -2.94040619117969     -3.30421201253614     -4.13392064145685
  H           2.29714678270899     -5.55441494373165     -2.71865329581319
  H           5.47001493135115      0.28357983954694     -3.44524107726207
  H           3.77752669885126      3.87880328770816     -0.74699640892632
  H          -1.64624265092762      5.02821587342960      0.87940924966172
  H          -6.15726281613771      1.32706148529372      0.35702281551055
  H          -4.38531151217072     -4.11718275278962     -1.17327744257978
  H           1.06313005937185     -4.56725465658002      0.41113698693819
  H           5.99263668077937     -1.38073287179004     -0.55728409869482
  H           1.71978818437426      3.19316403990807      1.39294767760605
  H          -1.97087703931579      1.98881939073052      0.90609572441927
  H          -3.73583840869535     -0.43276770226510      0.92953963828801
  H          -2.29291589093987     -2.81696951967120      0.62671793287719
  H           1.80399622710600     -1.71647644622656     -0.40467799398081
  H           3.56899680047410     -0.29380004176954      0.94896618344617
  H           3.99416846711510      3.73315089251400      2.22458081021851
  H           2.83357890700630      5.01264424742488      2.64635181477300
  H          -4.82278932093999     -0.64429230051311      3.14936441504715
  H          -4.51604317366478      1.06269436339908      2.74546553154823
  H          -4.50349449970164     -3.37007353399380      1.64327548084217
  H          -3.21328101131514     -4.41935859874400      2.29019391120051
  H           5.14451849732423     -0.54042716021903      2.89945221849984
  H           4.58901281794012     -2.07664981351667      2.21212714039027
  H           3.66527232188083      6.15273090775745      0.81472014052872
  H          -6.98425494109705     -0.25833778996765      2.41509174613305
  H          -3.95585450491263     -5.97531188672093      0.72958141162420
  H           7.09005169035006     -0.86139564207815      1.75334248837495
  C           1.10019463947766     -0.63197225827459      3.48681852546622
  H           1.77253265778761     -0.79692061805084      4.32274308659085
  H           0.09207930178449     -1.00628038061422      3.64886761082643
  O          -0.35057036685228     -1.70287222792658      1.44036892547936
  C          -0.08490402829760      1.51299166502671      4.05954212415948
  H          -0.49086424312420      0.80718409107880      4.77092108186146
  H           0.30602306826356      2.40711166921183      4.53823890678528
  O          -0.42408938099312      3.92228901300970      2.85374384616901
  C           1.02248903764102      0.87131256956211      3.15371689680372
  O           0.90570473217575      1.11859226490881      1.85683983302843
  O           2.20442834215924      1.58164730413596      3.79356174947871
  O           3.39698745816736      1.39327660527102      2.99367647085022
  H           3.06342287566417      1.50391063563144      2.08321554748503
