133
Coordinates from ORCA-job job
  C           0.54873320515291      4.84229366496883     -0.47534350771489
  C          -4.23338363327668      3.06356227238405      0.81171740957588
  C          -5.29200793346151     -1.96388745530677     -0.18222823363880
  C          -0.91991834325915     -4.68478824408370     -1.34129471960370
  C           3.69008698615651     -2.81698131357821      0.32693346231902
  C           4.94356628180074      1.98715433680536     -0.44691967025334
  O          -0.34628117049259      3.76476880609014     -0.31929543584956
  O          -4.19465642619122      1.92502907275733      0.01002043080466
  O          -4.02200735071683     -2.08731848383894     -0.76985164796151
  O          -0.04835775573987     -3.56739877591606     -1.41415481055547
  O           4.17608762488563     -2.02838743697857     -0.71095197800060
  O           3.58680215794608      2.12089065187625     -0.80528156036831
  C           1.16780336706348      4.72715988990830     -1.87391519444795
  C          -4.06329540510851      4.25748835109128     -0.15030048699773
  C          -6.10109633427996     -1.04414674121082     -1.11444477610231
  C          -1.88492829100911     -4.54904382893214     -2.52955452891992
  C           3.46827117547348     -4.23750991643450     -0.22785644993552
  C           5.63780026499727      1.26555416862766     -1.61105166165722
  O           0.19497751372446      4.71051335814131     -2.88343939267683
  O          -5.06689021437075      4.26183095087783     -1.12134757942737
  O          -6.22608788942926     -1.59607031410750     -2.39391064095032
  O          -1.20992546489194     -4.48029987799801     -3.74979151924508
  O           4.62313725344334     -4.72873852955472     -0.83654827556573
  O           5.51402513044081      1.97853688724302     -2.80838873755641
  C           1.99281674466987      3.43274524677844     -1.91124166120339
  C          -2.67044706888374      4.14513494997676     -0.79675246759610
  C          -5.36522972794144      0.30221392467830     -1.16488726364931
  C          -2.74242967708966     -3.29850787869389     -2.29672395793630
  C           2.28263683661551     -4.26901496215177     -1.21013387810932
  C           5.00254034148792     -0.12593485890831     -1.73899212230289
  O           2.70674260562962      3.29486982209509     -3.10922878658930
  O          -2.37999785464945      5.24010585529541     -1.62552469682652
  O          -6.08150779060980      1.26965817556900     -1.88649464714465
  O          -3.72749491797009     -3.14726254632172     -3.28453642282545
  O           1.99379858559700     -5.58995888033861     -1.58048138743080
  O           5.68772567751319     -0.90308441098402     -2.68168001920533
  C           3.01001626928916      3.41177025970775     -0.76539193733534
  C          -1.59319774591126      4.06042960617044      0.28955389507567
  C          -5.11295411108477      0.86481414274209      0.23836234720086
  C          -3.45097079082611     -3.37034216718918     -0.94226170537382
  C           1.05808658901522     -3.63701599409741     -0.53791518861478
  C           4.98700195300246     -0.89415066409644     -0.40954757259524
  C           2.33007252471029      3.68432181035283      0.58337261107293
  C          -1.93081429945101      2.91793834482980      1.25150040499442
  C          -4.53067228446857     -0.18673517178179      1.20009768591653
  C          -2.46234647282536     -3.68268684787536      0.19167563628786
  C           1.45963144759934     -2.21303091657320     -0.10342043448852
  C           4.47868790845349     -0.01622996464855      0.75413841357775
  O           1.53935849769464      4.85751864145112      0.51265577147773
  O          -3.21671105614517      3.05174184512270      1.80162542617793
  O          -5.21640692651678     -1.42823525383912      1.10930817144589
  O          -1.60463132591925     -4.77146740812401     -0.12842115477018
  O           2.48669528819023     -2.27462560146726      0.85712819072068
  O           5.10216191308201      1.26176342694623      0.73906471791793
  C           3.33980644533817      3.93349567507279      1.71255160043717
  C          -0.91461901629202      2.84371771527614      2.38583513325700
  C          -4.67539284026083      0.24838228143195      2.66742099587374
  C          -3.19806741064443     -4.10029451921923      1.47435894810643
  C           0.31221056455975     -1.48705296292974      0.56531767869358
  C           4.79354639918704     -0.57843130390284      2.16284463934555
  O           4.22609960895400      4.96392424589862      1.39882384728204
  O          -1.04910295698878      1.68625293599982      3.02131175784187
  O          -6.00701072696800      0.53619298484815      2.98301060053390
  O          -4.01548990621436     -5.21260934021183      1.25422949774008
  O           0.23283060950869     -1.90633830586592      1.82594979154344
  O           5.90630856207601     -1.41679322312932      2.20579264439326
  H           0.02422727490193      5.79925749052403     -0.36236411257884
  H          -5.17012482042171      3.13658438750664      1.37758227773384
  H          -5.77796283193008     -2.94058091386836     -0.06550310441144
  H          -0.33793297654115     -5.61319824365296     -1.40694776748750
  H           4.38694223303421     -2.85724598944081      1.17049629845368
  H           5.40032614238609      2.96497510320148     -0.25186461597062
  H           1.84383593208360      5.58003343141153     -2.03477879660719
  H          -4.13920899003173      5.19968844178548      0.40081938860052
  H          -7.11366978922884     -0.90266674554055     -0.72490388172338
  H          -2.52892281131319     -5.43278363365333     -2.57798808645779
  H           3.24132642680786     -4.90478209129733      0.61085301680916
  H           6.70800750629902      1.16828561761650     -1.40522631164100
  H          -0.68517974421159      4.88174453135596     -2.49894572518150
  H          -5.20928544813628      3.35116278648490     -1.43455371476173
  H          -5.36496666341318     -1.95742677090901     -2.66959016410504
  H          -0.51184262992326     -3.81440333956221     -3.67281927715664
  H           4.96272333312054     -4.05143419790473     -1.44347658404416
  H           4.59316692244446      2.27587161700414     -2.90951367549007
  H           1.30816296834928      2.57761740837543     -1.76490518467126
  H          -2.62994117576621      3.20878092437199     -1.37699733237126
  H          -4.37799949269909      0.13314277018987     -1.62823128356645
  H          -2.07812679276202     -2.41555275271203     -2.27372057074150
  H           2.53581644065069     -3.66919315364067     -2.09953301283611
  H           3.94933440102317      0.01219932393362     -2.04319145124814
  H           2.11740818389890      3.54895117052207     -3.83739417422840
  H          -3.17336322425166      5.42482469953240     -2.15701878890499
  H          -6.42564967160969      0.84163483521050     -2.68661804292026
  H          -3.32110307239164     -3.34921247980032     -4.14263197530606
  H           2.84118254153332     -6.03408195269206     -1.75405049451214
  H           5.87962773299159     -0.33016109842247     -3.44258875306259
  H           3.77793922364661      4.17549796785361     -0.94815435758679
  H          -1.53174184196387      4.99836721808524      0.85416714502344
  H          -6.05201633687558      1.25840926942424      0.64978989121645
  H          -4.23414863950024     -4.13905306526708     -0.97625490384667
  H           0.78373170260670     -4.20294905525339      0.36184009314891
  H           6.00256492917171     -1.24477106480303     -0.17887829098002
  H           1.71367700547454      2.80300217175989      0.83761845656213
  H          -1.84267100322622      1.96423395511323      0.69992193657663
  H          -3.46481160694292     -0.32426810408694      0.95174565075982
  H          -1.87310718851587     -2.77312281580311      0.37952238241404
  H           1.77345197403096     -1.63446336880241     -0.98620777113648
  H           3.38541426938752      0.11623031364474      0.66675640466530
  H           3.92742696440066      3.02801481627413      1.87393938658335
  H           2.76343470080802      4.15661460226241      2.61970851484601
  H          -4.28270381049240     -0.55669456281107      3.30088463033975
  H          -4.09084519454203      1.15320895261052      2.84508137074608
  H          -3.84346230286802     -3.28452192201580      1.80554977740788
  H          -2.44622678174029     -4.30197518739220      2.24756274754210
  H           4.92804120511811      0.28977472933019      2.81825205379424
  H           3.93120742685126     -1.14667714796635      2.52098835730080
  H           3.70363133657763      5.76827346369407      1.25514722353657
  H          -6.52562901069276     -0.26645726078459      2.81878827360451
  H          -3.45205482862700     -5.93150581515975      0.93064413826595
  H           6.70339358304226     -0.87572367728664      2.09124246197093
  C          -0.27849811851448     -0.99925294635541      2.80739556530997
  H          -0.37757539070834     -1.60734513919161      3.69942833076773
  H          -1.21299660212140     -0.55759122685699      2.46692212683258
  O          -0.46091831282317     -0.71345678759146      0.01004762619064
  C           0.04617705642993      1.20684667336985      3.85701724539283
  H          -0.43216900547744      0.80527287314262      4.74690568519732
  H           0.71910389071947      2.02030814960950      4.08885570789542
  O          -0.10813273801557      3.70750708805995      2.65394184104681
  C           0.75573343854559      0.13628960872299      3.02060635631538
  O           1.26993217743165      0.63570494315534      1.89281497354539
  O           1.77139887972709     -0.55003584851423      3.85890341514680
  O           2.49719371388156      0.43156640198347      4.63500515294590
  H           2.90771631753246      0.98075166119061      3.93162778285690
