133
Coordinates from ORCA-job job
  C           0.50993407307510      4.94743204773174     -0.42582709151124
  C          -4.44934205245772      3.38771463795085      0.45448639526637
  C          -5.12314894314850     -1.77995479709251     -0.07135454507720
  C          -0.91045099794180     -4.82926615791617     -0.83331950721652
  C           4.11719153928783     -3.26564554976492     -0.22743454317541
  C           4.77349878286456      1.88233208410170     -0.02354471097210
  O          -0.40455137646599      3.90613756196887     -0.14390401545628
  O          -4.36278990369418      2.23011769358672     -0.31536299456010
  O          -3.80569296294249     -1.94835906403632     -0.54957878344728
  O           0.05471847548078     -3.80100181503559     -0.80023519622344
  O           4.03662600934620     -2.04554847499326     -0.89612628894495
  O           3.37803806260586      2.05163435498162     -0.22179002262089
  C           1.16884532378477      4.62562092950397     -1.77328993981746
  C          -4.10180794005117      4.56773085986549     -0.47918925102367
  C          -5.91000942687918     -1.02667486336146     -1.15614090891495
  C          -1.73953428727203     -4.61973158016503     -2.10714025231930
  C           3.74329039276549     -4.36547255654009     -1.24508631133072
  C           5.43746845216490      1.36011933139459     -1.31110582792491
  O           0.23223873072688      4.50141205831904     -2.80922892792973
  O          -4.95652711048880      4.62335757492565     -1.58059687247541
  O          -5.93280175211067     -1.72621253778149     -2.36681639085964
  O          -0.94530547574411     -4.62129290098921     -3.26239348360919
  O           4.57020231901080     -4.33042477566235     -2.36815090851941
  O           5.35594712335052      2.24726857595105     -2.38682568161168
  C           1.91738247577263      3.29705162135905     -1.61153321392458
  C          -2.63503398031706      4.43317730915735     -0.93958096942436
  C          -5.24885999855646      0.34595831925349     -1.32714045336705
  C          -2.47582968047175     -3.27918881902947     -1.96202215940408
  C           2.26634022057034     -4.18945650133809     -1.64808882293047
  C           4.77925368800046      0.01938116732153     -1.65555943149520
  O           2.62304352243438      2.95651630275058     -2.77567202784330
  O          -2.23499090333561      5.53310253421351     -1.71447893585220
  O          -5.94896591306607      1.14085363317960     -2.24455971087261
  O          -3.34278972718271     -3.04036257721354     -3.03793271628547
  O           1.82355373788308     -5.22097838526664     -2.48938704809692
  O           5.36857718475685     -0.55239993171078     -2.79145164776308
  C           2.91170472512745      3.37353146882144     -0.44786423930536
  C          -1.70231229802219      4.29506185250963      0.27212346781752
  C          -5.17174352038732      1.10511438357803      0.00318379538202
  C          -3.31095047580792     -3.26883223856578     -0.67826309885945
  C           1.36728985069909     -4.15721609199703     -0.40442059765992
  C           4.88503402539141     -0.97509768176527     -0.49287026546017
  C           2.22881840839586      3.90315007026150      0.82477238736932
  C          -2.23821077631718      3.14577580210810      1.12306387528254
  C          -4.58877547485502      0.22770283827538      1.13328273986525
  C          -2.45853181825566     -3.65238562154572      0.53914548470280
  C           1.90849540931011     -3.07221228457556      0.52605863796793
  C           4.46418769180165     -0.33230206208595      0.84714258301072
  O           1.48009771703608      5.08214740870354      0.57032746609969
  O          -3.55176010679944      3.37305622186539      1.55320565978467
  O          -5.15044241093347     -1.08124195382755      1.13762585882532
  O          -1.72953497577716     -4.84434879354830      0.29954293391541
  O           3.24090935004820     -3.31997699004828      0.88812104069903
  O           4.99702841457601      0.98021992383658      1.01227297391486
  C           3.24883598938275      4.26110067336508      1.91435924380805
  C          -1.36037160256453      2.82354483000518      2.31864196963980
  C          -4.94164159061112      0.77006536938764      2.53059827659304
  C          -3.31724515352794     -3.93411473753897      1.78015195104557
  C           1.09722105735505     -2.87282729742389      1.79569063011202
  C           5.01729427595671     -1.09607101453731      2.06775846651062
  O           4.20672329385124      5.16992787865093      1.45532670543309
  O          -1.72342014062288      1.61448905511935      2.75595721745951
  O          -6.32205246910481      0.91963706015155      2.68402627886651
  O          -4.26203130149378     -4.93330396014995      1.53894065302298
  O           1.61026075552304     -1.83906882116094      2.45148732530419
  O           6.38705095722777     -1.34729632715816      1.94009332468688
  H          -0.00521115220501      5.91448307369992     -0.46110445493066
  H          -5.44308564982764      3.50620549314291      0.90415282378137
  H          -5.58587188486505     -2.74952671621182      0.15031365143509
  H          -0.42536545227223     -5.81358292231030     -0.84249322552463
  H           5.11748383918591     -3.43447510259150      0.19090766165895
  H           5.23414384297592      2.82352421805710      0.30137454666004
  H           1.89467830569518      5.41888185551405     -2.01129268391835
  H          -4.22251263000565      5.50653107807443      0.07124979851175
  H          -6.95094207102950     -0.90105520736256     -0.84165520630297
  H          -2.48505573510780     -5.42341392509858     -2.18796823853472
  H           3.87825894868485     -5.34700540679728     -0.77952212704428
  H           6.50499471943450      1.20902303320581     -1.11649771787189
  H          -0.58173201619138      4.98396769105034     -2.56889010683358
  H          -5.06869713180892      3.72715628794823     -1.93545929893618
  H          -5.03535324268669     -2.04371023274388     -2.57378057546516
  H          -0.00965761749310     -4.74357698283338     -3.01907799738035
  H           4.64473380655110     -3.41227417146721     -2.67202534490193
  H           4.42157912019572      2.46553092724075     -2.56251081610223
  H           1.18080476291555      2.51019404156686     -1.36604435185278
  H          -2.54143516133155      3.50449015959799     -1.52735057553134
  H          -4.21115176551320      0.18506871480446     -1.67045518212140
  H          -1.72695459495548     -2.47172618292754     -1.87925911113491
  H           2.15992997770708     -3.21500212530098     -2.15385987520413
  H           3.70342599007777      0.20224442907753     -1.83319242920096
  H           2.07187434492437      3.18972492220769     -3.53965502374545
  H          -2.97721382281772      5.76162479579418     -2.30108234748559
  H          -6.25116439232962      0.55725662838690     -2.95999401674853
  H          -2.88109275698839     -3.29433687786023     -3.85308892142681
  H           2.50319260598461     -5.36071720187834     -3.17060038450311
  H           5.58893844389471      0.17654600134840     -3.39587991778463
  H           3.74397597061655      4.03333772432364     -0.72213221665560
  H          -1.66150464213266      5.21825666038358      0.86132731933926
  H          -6.17540275435494      1.44310339468689      0.29696473411572
  H          -4.14223068932283     -3.97877116214379     -0.78225310057807
  H           1.36913919133478     -5.12358764622316      0.11170094811682
  H           5.91867516674063     -1.34059648055818     -0.41207748339355
  H           1.55983866841738      3.11560932463951      1.19510063929124
  H          -2.19771400364030      2.23071965615571      0.50336161175499
  H          -3.49108363970256      0.16429030965883      1.02016952534372
  H          -1.77582674667634     -2.81162626495845      0.75091165528176
  H           1.82860560319660     -2.10518404399778     -0.00600557878154
  H           3.36240737064374     -0.29685428289928      0.88235909270646
  H           3.76959426933374      3.35371151724156      2.22243254841479
  H           2.69069880805512      4.65419440784056      2.77177064670882
  H          -4.52997570142133      0.06710559722557      3.26559391604954
  H          -4.48122569147801      1.74513797572507      2.68500581007134
  H          -3.85642239138133     -3.02637788405188      2.05717067720149
  H          -2.63429537481040     -4.20903653677156      2.59366002889384
  H           4.81311564825745     -0.48535397368193      2.95535139081376
  H           4.51173949383630     -2.05545437467897      2.17418578540827
  H           3.74571920151718      5.98782553477024      1.21698951439826
  H          -6.72919988975377      0.05199924929502      2.53763101260956
  H          -3.78009434122957     -5.73645172540751      1.28795070311511
  H           6.84036514809238     -0.49237150498325      1.88852171669073
  C           0.75524035875241     -1.12109505597907      3.36694109091514
  H           1.44085981438373     -0.69038917153150      4.08978575328453
  H           0.01919160314485     -1.79834152256422      3.79341025348962
  O           0.15001547335343     -3.54001575897137      2.14981421196606
  C          -0.78488694523193      0.82572750374145      3.52383480806717
  H          -1.42210081305652      0.16878736731696      4.10391493124973
  H          -0.15212661884538      1.48007445191118      4.11978822256675
  O          -0.46962920615680      3.52025152801799      2.75826429972798
  C           0.03518212336580     -0.04347477170624      2.56853627307334
  O          -0.64015756041052     -0.51780901460594      1.51661783545442
  O           1.08635452337148      0.81129740031623      1.90355319789095
  O           1.94290830727371      1.46314931927224      2.95165951395298
  H           2.71306734676232      0.84842692752765      2.95942769158307
