19
Coordinates from ORCA-job job.QMRegion
  C          -1.00326366471018      2.94959964211496      2.41210628368048
  C           0.37737979584625     -1.56596295013367      0.62662724489205
  O          -1.01425898147459      1.74066244658138      2.95781261926612
  O           0.39398204266033     -1.88796252836669      1.91542158432976
  C          -0.13708753918384     -0.94424306228471      2.85425968874773
  H          -0.19866601330775     -1.50384223388012      3.78071043826399
  H          -1.09459984440411     -0.56166602315733      2.50703476480379
  O          -0.44112918978953     -0.83919893779631      0.07481463634679
  C           0.09476927778521      1.31293803324392      3.80350509398010
  H          -0.36952014805406      0.91526789188916      4.70281774718685
  H           0.75013872946372      2.14505613879515      4.02215291841118
  O          -0.29634967113944      3.87526401804474      2.74684223934207
  C           0.83983400701017      0.24421822381198      2.99679951267016
  O           1.33757860743872      0.72725771454749      1.85264783910625
  O           1.88524700938352     -0.34028854137215      3.86762869990708
  O           2.76825270013902      0.73987870363766      4.26345263822798
  H           2.91235116327756      1.17041487098733      3.39348389005844
  H          -1.72066680003564      2.97847223719565      1.59521912094622
  H           1.18087130050663     -2.09284141803643      0.12637503093291
