19
Coordinates from ORCA-job job.QMRegion
  C          -1.57233506163687      2.51529428606530      2.21882025190561
  C           1.43174992875908     -2.90073752274039      1.92865489820325
  O          -1.79992367405072      1.19663611633939      2.31951323051661
  O           1.94850078227451     -1.83342891773130      2.54844788779910
  C           1.03712624772779     -1.04793114936544      3.33424094712594
  H           1.66333853616923     -0.40372436815757      3.94098343037709
  H           0.38631399479365     -1.71477602396077      3.89443858985345
  O           0.55392042110503     -3.61681133508691      2.36106907691720
  C          -0.96682929435994      0.38295306498515      3.18369973783995
  H          -1.62983564953354     -0.41357174210551      3.51061348910236
  H          -0.58213053482317      1.00985052539830      3.98768916483820
  O          -0.84589810007418      3.19197131851206      2.90843696585731
  C           0.16021377773240     -0.24683326187107      2.36029124966596
  O          -0.24948614667443     -0.89207555138007      1.28737141590659
  O           0.91586241838575      1.03511211347797      1.88556283975634
  O           2.28565051003120      1.16269822622671      2.45051983790688
  H           2.80208015001254      1.27694685971308      1.61840532218498
  H          -2.16811191835022      2.86115674368229      1.38152283979758
  H           1.95496507186238     -3.03481814860935      0.98490007488301
