19
Coordinates from ORCA-job job.QMRegion
  C          -1.51473730695965      2.63377251867303      2.32322251180268
  C           1.33478007983045     -2.85485635893398      1.86667548993213
  O          -1.83848490343529      1.35346359143078      2.55842644829731
  O           1.83928175847434     -1.76098804843710      2.44096212788916
  C           0.97163235171728     -1.00240799373479      3.30340067309190
  H           1.63629502503166     -0.37944326107187      3.89027804925843
  H           0.35145738261254     -1.68747597997243      3.87563282669058
  O           0.46543644506412     -3.56634018814675      2.32318930024089
  C          -0.94691048263819      0.53183413546541      3.34671091548800
  H          -1.59769846818667     -0.22172329978484      3.77988465650934
  H          -0.43893656059405      1.16145013816138      4.07746535603371
  O          -0.71783097104698      3.31152814182272      2.93052278019541
  C           0.04749966620989     -0.16918986939465      2.41149522966844
  O          -0.50587825206307     -0.79223123396030      1.38838345973513
  O           0.81608816731294      1.01600858640933      1.78842092131591
  O           2.14048970732794      1.26866220947615      2.45572395748767
  H           2.71249560276007      1.34116769862683      1.65592483775121
  H          -2.10866376617974      2.94625129923771      1.47108172232083
  H           1.86618314271344     -3.00979651253676      0.93040173763197
