19
Coordinates from ORCA-job job.QMRegion
  C          -1.35797338128824      2.55615113505751      2.14508604685001
  C           1.22208278676037     -3.39221962845274      2.04971210603608
  O          -1.48049669705713      1.21698266533549      2.15636044882176
  O           1.66503541205159     -2.39664421930011      2.82543479025964
  C           0.69138404233577     -1.56983701732863      3.47767926517632
  H           1.27307906637606     -1.05649846610997      4.24335637502635
  H          -0.11574058415395     -2.18108424617776      3.88157463086066
  O           0.37115492046554     -4.19349685665504      2.36564201153563
  C          -0.75673089003362      0.42887283003247      3.14237362052288
  H          -1.52735059592893     -0.13777794268904      3.65644249148991
  H          -0.20734518035692      1.11222615082855      3.78092848889321
  O          -0.71564630204320      3.25112149978429      2.89121701534331
  C           0.11338723956433     -0.59634073620820      2.43910158480292
  O          -0.47027874046795     -1.24987984279816      1.43197056619607
  O           1.34704498485804      0.05666085173915      1.80937938070292
  O           1.51267130008294      1.45997856898757      2.21498694456927
  H           2.07318321193922      1.36640437542375      3.03134557397200
  H          -1.97306018366917      2.90154399875425      1.32423123540283
  H           1.77275307415738     -3.36885749010000      1.11052899269324
