133
Coordinates from ORCA-job job
  C           0.53813549044525      5.02595663905353     -0.40481427903124
  C          -4.41284793989757      3.41024727508503      0.45561133839015
  C          -5.07222240794527     -1.72843941885592      0.07095570582551
  C          -0.90573553423384     -4.85498909711141     -0.78400454681526
  C           4.12220840711075     -3.27510477947761     -0.12128410573035
  C           4.82527048762233      1.94852205214706     -0.23066294005820
  O          -0.31826983821330      3.93690994550249     -0.10643443362408
  O          -4.42364388866527      2.29676822972436     -0.38102755995828
  O          -3.69908825603521     -1.87350143169113     -0.25544168691279
  O           0.10377308354233     -3.88873419564171     -0.58590117490998
  O           3.86541440169457     -2.00266315728993     -0.63617715271779
  O           3.44111233037600      2.18219246633650     -0.40066036929817
  C           1.15916333989699      4.77725834078928     -1.78654412309539
  C          -4.03090705376241      4.63469462875307     -0.40613841680142
  C          -5.81076393979266     -1.06385162941922     -1.10373560986301
  C          -1.67632028277275     -4.44564893100075     -2.04694875680473
  C           3.78034719370667     -4.27284204361889     -1.24822732097957
  C           5.38273911634613      1.26463130653210     -1.49515966716454
  O           0.19045578052348      4.63933367049373     -2.78989346016914
  O          -4.88641769154211      4.78918446849507     -1.49755283131095
  O          -5.76177587603057     -1.81872860324972     -2.27882388225429
  O          -0.86621190781845     -4.38673172582770     -3.18747590914664
  O           4.54155103859310     -4.01891622896926     -2.39176253175997
  O           5.26675584966984      2.05396850781497     -2.64165731430781
  C           1.96703729362799      3.47733871704938     -1.70330355687737
  C          -2.56619893358651      4.52169589022092     -0.88610601206702
  C          -5.19028891088733      0.32161318433652     -1.31837786431115
  C          -2.31579166113331     -3.07630639706497     -1.76279655941119
  C           2.27666844898496     -4.14979751394542     -1.56033421642425
  C           4.63492338104345     -0.06437975664960     -1.65896337468676
  O           2.66457284099924      3.22350861548785     -2.89476417441883
  O          -2.17447048203011      5.68950739237017     -1.56127692927855
  O          -5.86361263273519      1.01793305622195     -2.33164550306518
  O          -3.06351613696220     -2.62302953733898     -2.85955260013087
  O           1.85946722846833     -5.08412250461759     -2.51922519948454
  O           5.10187524127447     -0.79485347102451     -2.76076144553835
  C           2.98981380727926      3.52210184871675     -0.56200572288086
  C          -1.63234322982344      4.26240779936945      0.30743451653731
  C          -5.22305195714717      1.16813646181838     -0.03933506663555
  C          -3.23651167783662     -3.18146796519771     -0.54369912020158
  C           1.42414679424660     -4.32759216432196     -0.29631231481579
  C           4.78060067033087     -0.93711746106113     -0.40845282880569
  C           2.35204580352581      4.02414734993364      0.74734146191461
  C          -2.19021388503887      3.02196045712432      1.00569950057334
  C          -4.70202543559230      0.37023780149778      1.17847815030314
  C          -2.45687193352619     -3.75158415063815      0.65243433846463
  C           1.97249541768797     -3.38595392366288      0.77733517755396
  C           4.44417922467796     -0.14507840384181      0.86782511359784
  O           1.54471084561093      5.17810006239581      0.55062140443612
  O          -3.47704165322770      3.27018658710996      1.51351909902789
  O          -5.22596127812296     -0.95769762875069      1.21991418876348
  O          -1.78456434981595     -4.95492579581719      0.30016217781845
  O           3.34213967929488     -3.55396022217285      1.02885018874052
  O           5.05919713527593      1.14054447499116      0.88620823512445
  C           3.42047041058733      4.41194216999116      1.77943413613048
  C          -1.33797167105943      2.51307050668287      2.15302608286776
  C          -5.16960942625756      0.96147057347949      2.52302739982054
  C          -3.38085047869449     -4.11143400435933      1.82371383472732
  C           1.20129658834041     -3.43493092313197      2.08799646762855
  C           4.95858006686763     -0.85617483367300      2.12963303642411
  O           4.30707623075660      5.37245616297252      1.27988210986652
  O          -1.48988272270854      1.17755513226187      2.16237759087191
  O          -6.55637116303066      1.13161308158189      2.55460042580697
  O          -4.37970875371738     -5.01106906071163      1.44460739629232
  O           1.64511827693928     -2.45054417418155      2.88323789793133
  O           6.32510578949779     -1.13795225147370      2.04429164352059
  H          -0.02016362519316      5.96921908821375     -0.39174709160316
  H          -5.38237267392575      3.55813328463034      0.94796579136425
  H          -5.51585448759917     -2.70204015148763      0.31363707175284
  H          -0.46916044400955     -5.85579780347328     -0.88842450131658
  H           5.16220446923260     -3.38039424265973      0.20987347411232
  H           5.35757596931356      2.88579675019364     -0.02637174351368
  H           1.84014762057296      5.61060635563900     -2.02116838911159
  H          -4.13156287844670      5.53709996368881      0.20689199993246
  H          -6.86984417935053     -0.95879034768623     -0.84468105011017
  H          -2.47861603418819     -5.17471717130536     -2.22832988619481
  H           4.00886296904437     -5.29261368233852     -0.92396976544152
  H           6.45179090655000      1.07074444780139     -1.35655028722193
  H          -0.59064765047794      5.17367024608337     -2.54941645293206
  H          -5.00089682317253      3.92787101929805     -1.92833216951821
  H          -4.83393916655158     -2.03558345760607     -2.48772506749322
  H           0.06627858123943     -4.53488551867043     -2.94397900491818
  H           4.56695123630461     -3.05919359940560     -2.54819438329565
  H           4.35086171658484      2.37927999827287     -2.72690025638556
  H           1.26618265683020      2.65301881314611     -1.48296014976391
  H          -2.48472551514284      3.65386345123647     -1.56158861953993
  H          -4.12807101497815      0.17905733738789     -1.58876848318737
  H          -1.51897550662979     -2.35225144156535     -1.51250317807018
  H           2.09118433587613     -3.12390631662161     -1.92246295941192
  H           3.55841128045528      0.15711719800758     -1.77615994136511
  H           2.05619384049066      3.36439337857691     -3.63630663318271
  H          -2.92299844172539      5.96861652520619     -2.11710711995652
  H          -6.07956318204373      0.37257790925443     -3.02534084610814
  H          -2.60055335165150     -2.90404786555465     -3.66655749834414
  H           2.53148883236442     -5.10485157413848     -3.22225736446970
  H           5.31803477756104     -0.15610639640517     -3.46067215026362
  H           3.82367878478532      4.17582525690183     -0.84779957520160
  H          -1.62007906596123      5.11303558871118      1.00015992205823
  H          -6.25196922832330      1.49923182868077      0.16219596592626
  H          -4.08146557100868     -3.84063842670310     -0.78033871158992
  H           1.42629418152247     -5.36456908173630      0.05516459627039
  H           5.80404573045647     -1.33004664689433     -0.34398344891701
  H           1.73071385610921      3.21158823697276      1.14192751118378
  H          -2.22970145480423      2.20248368980794      0.27008355970009
  H          -3.60262758795972      0.32736349976084      1.14028704229619
  H          -1.73311988485085     -2.98756287541081      0.97706208426053
  H           1.78767256501333     -2.35974307332139      0.40710391247576
  H           3.35143382500137     -0.04453918345176      0.92435434864642
  H           4.00827661971615      3.52697257569171      2.02971872999598
  H           2.90588516277213      4.77437327480840      2.67728540830576
  H          -4.83656549116072      0.27156692008817      3.30890169023553
  H          -4.71462286300070      1.93602767805891      2.69327056856812
  H          -3.87139368171847     -3.20359834899234      2.17996368026216
  H          -2.75235196216230     -4.52005638503408      2.62483379460262
  H           4.74000779674083     -0.21279580695562      2.99020411511448
  H           4.42742457730770     -1.80184032672097      2.25605442141067
  H           3.79030324673736      6.16041824502395      1.05606052084727
  H          -6.96226722515646      0.26407561487060      2.40857837432481
  H          -3.94118443225337     -5.81372693783986      1.12364088657371
  H           6.78875083115024     -0.29411105375193      1.92863336019406
  C           0.66623818189665     -1.61336298262861      3.51684647769604
  H           1.24090059683015     -1.08545605493282      4.27575254881682
  H          -0.14314645273940     -2.22172677823194      3.92162206798877
  O           0.35284249440194     -4.24370790181870      2.39344463374206
  C          -0.76780185508930      0.37913746435042      3.14306026012643
  H          -1.54311252397838     -0.17379127611875      3.66541328646565
  H          -0.21858721766177      1.05798488921695      3.78825209720834
  O          -0.68783688717119      3.19495400843316      2.90366730528011
  C           0.09028978991978     -0.66470238969228      2.44947517501384
  O          -0.50372322781693     -1.31690318712267      1.45939782113701
  O           1.37703376882248     -0.01311170041799      1.87046854029127
  O           1.35231266578425      1.44991300671671      1.94841752272721
  H           1.71584721531383      1.59352221141206      2.85856518430678
