19
Coordinates from ORCA-job job.QMRegion
  C          -1.05234832370473      3.02086664632477      2.60053550233787
  C           0.71952866638109     -1.64769473467034      1.30425535860723
  O          -0.96520406938840      1.86597913978293      3.25555257535969
  O           1.31324243640468     -1.54745950271277      2.48847083249391
  C           0.68169744978872     -0.70347164620298      3.47520210313723
  H           0.99717884908008     -1.12546627739335      4.42352311458643
  H          -0.39642035314893     -0.72747820975367      3.31701350773227
  O          -0.38693836384635     -1.21100049585859      1.01930705068772
  C           0.19128504860973      1.67435969420419      4.11881293740818
  H          -0.20557260941048      1.22934717400814      5.02604417087015
  H           0.68047923954006      2.62022068047168      4.31528580286408
  O          -0.41716576759666      4.02498083200662      2.85675699091836
  C           1.16707582333438      0.75349614434036      3.37536850830504
  O           1.42052104231430      1.14819016142481      2.12636688097322
  O           2.40531592208501      0.86864306628227      4.27654389505681
  O           3.56217727170586      1.05466856637096      3.43515766707797
  H           3.09274586451263      1.22181856066154      2.57832548982394
  H          -1.74956452329148      2.94556086607931      1.76966413201555
  H           1.36502080180628     -2.16132276307316      0.59821997902339
