133
Coordinates from ORCA-job job
  C           0.52744336718342      4.86805489237470     -0.43252775651275
  C          -4.29155655285244      3.11249534198978      0.76043993210118
  C          -5.27177600106959     -1.95065154328239     -0.17778035846587
  C          -0.92537603510473     -4.72033620443134     -1.32772267443156
  C           3.74213451980508     -2.90880160275439      0.27510663998113
  C           4.89040922907867      1.94270151034056     -0.33616268051728
  O          -0.37465822757047      3.79963893393548     -0.25482386440540
  O          -4.21529124002181      1.95591558170273     -0.01204761577831
  O          -3.98851336441397     -2.08062609130209     -0.73638703407098
  O          -0.04035190099044     -3.61420803160056     -1.38851914399601
  O           4.19463132530579     -2.08534911292356     -0.75155034499548
  O           3.51078562608431      2.07672678143651     -0.61256666416192
  C           1.16644483792525      4.70134090824819     -1.81644424763886
  C          -4.09909704708512      4.28386435805772     -0.22564778420196
  C          -6.06971215648300     -1.04644149092325     -1.13512412242778
  C          -1.88528392337957     -4.55920447110369     -2.51703429984300
  C           3.50695911746375     -4.31420011572956     -0.31212633163680
  C           5.54783644632568      1.28034134742278     -1.55658390363803
  O           0.21463208863875      4.68157356556452     -2.84490944722982
  O          -5.07322113795115      4.25769102520920     -1.22581204039135
  O          -6.17413287825420     -1.61304154492510     -2.40984047629472
  O          -1.20685266463725     -4.49400752370992     -3.73547066254555
  O           4.64121658889998     -4.78444913641248     -0.97419208355009
  O           5.39295355353926      2.03968150102794     -2.72033830585238
  C           1.95765445595096      3.38520098476192     -1.80099257926174
  C          -2.68625362740109      4.16784655302106     -0.82848756240977
  C          -5.34106476517497      0.30333230881518     -1.19026450756212
  C          -2.71923953017389     -3.29436504353544     -2.27615022554199
  C           2.28737237165452     -4.32951869315667     -1.25236009962121
  C           4.91736193200721     -0.10842353680353     -1.72466306384302
  O           2.66942263348403      3.18809272306435     -2.99237160295008
  O          -2.37798917143127      5.24731294967195     -1.67102089822370
  O          -6.04740533283304      1.25521724729914     -1.94210165794652
  O          -3.69571557515912     -3.11563378074157     -3.26842070554398
  O           1.98822978682733     -5.64455775384460     -1.63622556487292
  O           5.55455159496488     -0.82295546155670     -2.74733083073404
  C           2.96624128344556      3.38343542064539     -0.64761919390093
  C          -1.64509044175839      4.11413368483774      0.29345364607396
  C          -5.12459929874996      0.88673879624461      0.21037718379491
  C          -3.43626452882931     -3.36978616897845     -0.92655442749304
  C           1.08053367907398     -3.71299893484995     -0.53352194839134
  C           4.98538426137070     -0.93990739984029     -0.43592878189561
  C           2.28353839088787      3.72587660163834      0.68442490999821
  C          -2.00871422660753      2.99006498930659      1.26722746125203
  C          -4.54797456520186     -0.14777159654697      1.19394001783226
  C          -2.46032100137658     -3.71283650586528      0.20998520770541
  C           1.50013601648620     -2.30219485044369     -0.07239854673586
  C           4.50818937334371     -0.12404262592465      0.78550134913954
  O           1.50747017841346      4.90613814056567      0.56695074856759
  O          -3.30707652632662      3.13517925799596      1.78314482941838
  O          -5.21970084875966     -1.39787549927826      1.10735464743883
  O          -1.61517612922871     -4.80957125581155     -0.11743358539891
  O           2.55281742128658     -2.39005102468351      0.85613706664405
  O           5.10783045860755      1.16704118132138      0.80532081566588
  C           3.30107567934044      3.99502980910610      1.80204391805998
  C          -1.00326366471018      2.94959964211496      2.41210628368048
  C          -4.72283838752611      0.30409003613736      2.65269313433711
  C          -3.21520907229805     -4.13584666288856      1.47973507641081
  C           0.37737979584625     -1.56596295013367      0.62662724489205
  C           4.88903617242441     -0.74335636062317      2.15395233396353
  O           4.19988720961682      5.00355086570404      1.45351181832176
  O          -1.01425898147459      1.74066244658138      2.95781261926612
  O          -6.06407774957967      0.57281183686631      2.94425547936728
  O          -4.05366881549858     -5.22747873475752      1.23553074632681
  O           0.39398204266033     -1.88796252836669      1.91542158432976
  O           6.02706386199659     -1.54904962257841      2.11118029171391
  H           0.00794365833173      5.83099421402096     -0.35525219525646
  H          -5.24727357106867      3.19090022698290      1.29268893593837
  H          -5.75753786477396     -2.92676824978842     -0.05656571527654
  H          -0.35615015422400     -5.65601132091950     -1.40177156355491
  H           4.46525198611969     -2.97244534749896      1.09449134927530
  H           5.34494609216548      2.91635632889482     -0.11734019362800
  H           1.86757594399655      5.53140584508884     -1.98781188398918
  H          -4.19735500638838      5.23861450238870      0.29987440124459
  H          -7.08882610898157     -0.90567158103465     -0.76231338277322
  H          -2.54571763495670     -5.43022805416706     -2.57298548031376
  H           3.31292699184125     -5.00462818931530      0.51625641135044
  H           6.62401005187827      1.18013129001206     -1.38399747190309
  H          -0.67303862313909      4.86279016568580     -2.48201738337046
  H          -5.20318558713719      3.33850572103878     -1.51919051954049
  H          -5.30728869382787     -1.97181145201543     -2.67231803558010
  H          -0.49766681089474     -3.84070013366545     -3.65225632331156
  H           4.95936756691068     -4.08823596234205     -1.57079591364666
  H           4.46355438610841      2.31856381879530     -2.80633283377051
  H           1.25281015580458      2.55202237277663     -1.62751965565301
  H          -2.62239882488301      3.21991180805465     -1.38730345215653
  H          -4.34291761851088      0.13378186466073     -1.62943918390479
  H          -2.03892122411475     -2.42433133982147     -2.24082530759972
  H           2.50947492373060     -3.71354668518996     -2.13911108988123
  H           3.84703711193702      0.03416846980014     -1.96147632919757
  H           2.09599599715705      3.45439506205050     -3.72933392423168
  H          -3.15636727781170      5.41711467130421     -2.22888989157398
  H          -6.37634329431472      0.81140142977716     -2.74004556125461
  H          -3.28864473531269     -3.31831266388253     -4.12605113048212
  H           2.83022883390365     -6.08568688502073     -1.84026682440000
  H           5.71885919177816     -0.19715514318110     -3.47275126234458
  H           3.75423678250933      4.11934046092619     -0.85470727026891
  H          -1.60480413425888      5.06491981987967      0.83829694088709
  H          -6.07666835660018      1.27220847260819      0.59878997293082
  H          -4.23108832944206     -4.12559844993185     -0.97535066197052
  H           0.82166923916839     -4.30413146680229      0.35424583943127
  H           6.01977184333565     -1.26950307154705     -0.26638259022918
  H           1.65104346399495      2.86621284185664      0.96895661834324
  H          -1.91270791597615      2.02690601233846      0.73590240100508
  H          -3.47714508882416     -0.27792898328749      0.96571422992407
  H          -1.85988478095572     -2.81484890395164      0.41530561655533
  H           1.79633289960330     -1.71074565740711     -0.95383053638450
  H           3.41195990960747     -0.00552303988588      0.73995339268235
  H           3.87859140566961      3.08623647402857      1.98355555736173
  H           2.73810391611140      4.25056537794757      2.70897918213971
  H          -4.32635244570360     -0.48511899721510      3.30350666229233
  H          -4.15804924764995      1.22208648089413      2.82645225790667
  H          -3.84644036002898     -3.31160675488140      1.81769387170030
  H          -2.47532746134600     -4.36565367522591      2.25651607312402
  H           5.01974309288219      0.09229696158737      2.85089428798777
  H           4.05821917140096     -1.35376610938388      2.51611941010054
  H           3.68907100364894      5.81262537534577      1.29587832710643
  H          -6.56714468189793     -0.23900429618376      2.77675902648133
  H          -3.50226718091658     -5.95226528953190      0.90436803911201
  H           6.80309257569880     -0.97676128483624      2.00872437414211
  C          -0.13708753918384     -0.94424306228471      2.85425968874773
  H          -0.19866601330775     -1.50384223388012      3.78071043826399
  H          -1.09459984440411     -0.56166602315733      2.50703476480379
  O          -0.44112918978953     -0.83919893779631      0.07481463634679
  C           0.09476927778521      1.31293803324392      3.80350509398010
  H          -0.36952014805406      0.91526789188916      4.70281774718685
  H           0.75013872946372      2.14505613879515      4.02215291841118
  O          -0.29634967113944      3.87526401804474      2.74684223934207
  C           0.83983400701017      0.24421822381198      2.99679951267016
  O           1.33757860743872      0.72725771454749      1.85264783910625
  O           1.88524700938352     -0.34028854137215      3.86762869990708
  O           2.76825270013902      0.73987870363766      4.26345263822798
  H           2.91235116327756      1.17041487098733      3.39348389005844
