133
Coordinates from ORCA-job job
  C           0.44294159388750      4.74464232192269     -0.45146688508318
  C          -4.58385375968831      3.44697273711985      0.37310232959540
  C          -5.17078440483921     -1.67129795092640      0.11405982721513
  C          -0.83930134318846     -4.55998563422938     -0.77068946280259
  C           4.28202059953865     -3.34453825940809     -0.33533499141686
  C           4.77994179203179      1.77910156859322      0.12969645551382
  O          -0.46791748308373      3.74002654949460     -0.04074369891289
  O          -4.59953055178681      2.31307227490040     -0.43356123066419
  O          -3.77512518157286     -1.71636808394279     -0.14746019411901
  O           0.17582305442918     -3.60364654978000     -0.55241503561596
  O           4.19322343582083     -2.10643375747621     -0.96704278043133
  O           3.35467226412682      1.88713441727546      0.05059978531017
  C           1.09322284277212      4.26373411260572     -1.75546773697887
  C          -4.11509208023287      4.62037582386066     -0.51587186312160
  C          -5.91993192179715     -1.08045238378393     -1.09378904463608
  C          -1.61999400291576     -4.12385255486937     -2.01841854643649
  C           3.77092540789046     -4.39845409354451     -1.34147829121038
  C           5.40921754393113      1.37800457452021     -1.21797319764926
  O           0.15210245433405      4.02883737357404     -2.76595051536090
  O          -4.92694822963092      4.77913020479766     -1.63850517741430
  O          -5.82872039496825     -1.86543844068080     -2.24556976783201
  O          -0.79017493407026     -3.95214301994941     -3.13393196813312
  O           4.50172603296661     -4.37912756217774     -2.52909115733649
  O           5.25788713854728      2.32146600175417     -2.23399877387121
  C           1.81993095944731      2.95073876531394     -1.44323196749431
  C          -2.64792627109407      4.39947458801646     -0.94540421592298
  C          -5.35555766635727      0.32347918351214     -1.33957066860398
  C          -2.31320644914273     -2.79460021773538     -1.69225571600809
  C           2.27635868986606     -4.14295460964749     -1.62094116852642
  C           4.81154363795919      0.02724746373801     -1.62498997752425
  O           2.49175842651215      2.45677602722379     -2.57224520227509
  O          -2.17531236729773      5.48816533724678     -1.69355741675493
  O          -6.04642775973178      0.96776517751587     -2.37546060574821
  O          -3.08093937004493     -2.33815110421461     -2.77325946781399
  O           1.73210746050328     -5.12938593421648     -2.45833999606580
  O           5.36572273865199     -0.42389902879126     -2.82989848546011
  C           2.83441219239696      3.16523622980927     -0.31325856521309
  C          -1.77316360010887      4.17240347856526      0.29694019355720
  C          -5.42809547277930      1.20620160797809     -0.08600626282007
  C          -3.22256405279553     -2.97791295771403     -0.47330493324478
  C           1.48221205712442     -4.10037317973411     -0.30895316380939
  C           5.04117362737944     -1.04063398725522     -0.54721891941323
  C           2.15180959272519      3.83003961154763      0.90000494629974
  C          -2.40732468720648      3.00002537410611      1.04533617855083
  C          -4.96039178044784      0.46039849504233      1.18450457546478
  C          -2.39386347217337     -3.51642952259370      0.70517495250195
  C           2.16286289416692     -3.08809464585683      0.60990218893891
  C           4.70507043604211     -0.52081230210364      0.86679837807877
  O           1.42705666786825      4.98781218179594      0.50954812742157
  O          -3.70376867552628      3.30950924953616      1.48209659175189
  O          -5.42328775866611     -0.88914910810168      1.23663659867798
  O          -1.69285991351980     -4.69411115455597      0.32964246111770
  O           3.50625495053125     -3.40202212025388      0.85370757901039
  O           5.10818938370490      0.83336504616155      1.08905921935338
  C           3.17400561301506      4.28003039563917      1.95473013418185
  C          -1.57233506163687      2.51529428606530      2.21882025190561
  C          -5.54245752225459      1.07309548387291      2.47273132600122
  C          -3.28156782846053     -3.91151820759226      1.89346921428504
  C           1.43174992875908     -2.90073752274039      1.92865489820325
  C           5.45808459785130     -1.28568530047497      1.97260590967746
  O           4.19694357181154      5.05425773378498      1.39825170065191
  O          -1.79992367405072      1.19663611633939      2.31951323051661
  O          -6.93650302769631      1.15917433198208      2.41167350369259
  O          -4.24484579574265     -4.85474286126773      1.52988937295954
  O           1.94850078227451     -1.83342891773130      2.54844788779910
  O           6.83676163567085     -1.29343428504801      1.74107227296824
  H          -0.07289448109520      5.70072229020509     -0.59196028021307
  H          -5.56819133474287      3.64795001376486      0.81432716673067
  H          -5.54888317441626     -2.67104440886292      0.36270701812452
  H          -0.40309036224254     -5.55674260591048     -0.91115722777818
  H           5.30842447949618     -3.56489215563180     -0.01530031192393
  H           5.20058908146318      2.72648841332189      0.49243076388828
  H           1.83123526162038      5.01414168450930     -2.08065359017781
  H          -4.18183476750557      5.54946156162227      0.06014757592713
  H          -6.98514781795780     -1.01481711875959     -0.84661156135515
  H          -2.39022834135445     -4.88057949131138     -2.23676632780683
  H           3.89238966608387     -5.39571197105798     -0.90657836804083
  H           6.48818811523901      1.27056567206820     -1.05705528872729
  H          -0.55476075783400      4.69624713966475     -2.69591461438292
  H          -5.07042040666513      3.91001678562094     -2.04472939169792
  H          -4.88892644436586     -2.00888946849788     -2.46645315158711
  H           0.03839114603318     -4.45322673920008     -3.00191706594609
  H           4.59202243729916     -3.45953601562193     -2.82432498751812
  H           4.31015883877739      2.41142805415498     -2.45536256782732
  H           1.07623517987192      2.21176943897281     -1.09093882440596
  H          -2.59621677106804      3.47983014160940     -1.55261681487504
  H          -4.28646635564248      0.21581166281546     -1.59890600886311
  H          -1.54195336188773     -2.04921564811113     -1.42216637276942
  H           2.17528620237733     -3.15048558051735     -2.09114139755151
  H           3.71800593598486      0.15320536539925     -1.73378934895101
  H           1.94657062389090      2.64545778331041     -3.35330648851061
  H          -2.91300360090892      5.79543997624052     -2.25049197087517
  H          -6.21700400866549      0.30130492063758     -3.06167627827085
  H          -2.59693172852799     -2.54531436758134     -3.58946269536389
  H           2.36867839957313     -5.28484811484926     -3.17831376190740
  H           5.53448579259704      0.36038776544208     -3.37977813684201
  H           3.64639047436211      3.81099149300000     -0.66718469386443
  H          -1.73250960630175      5.06272708417675      0.93629475100931
  H          -6.46059669618419      1.55502554771190      0.06067563545708
  H          -4.01855157659331     -3.69322775108349     -0.71550270388415
  H           1.44076965983799     -5.08382994846903      0.17295903391620
  H           6.08871865573889     -1.37420492384378     -0.57364698355517
  H           1.44969190691009      3.11388167129226      1.34316851676641
  H          -2.44340568067202      2.14560493386739      0.34829363163957
  H          -3.86130673301422      0.46675883843330      1.22013358061917
  H          -1.68691827545232     -2.72807355082379      1.01448713938319
  H           2.07931836207922     -2.10382325835991      0.11289001137153
  H           3.62306727408682     -0.62477654195027      1.02647801911329
  H           3.63226044468904      3.39806095091940      2.40635685360655
  H           2.62724067971024      4.82791680371379      2.73062229660235
  H          -5.22007591452864      0.43635312668230      3.30626395696331
  H          -5.15392566914210      2.07836894406119      2.62875360125162
  H          -3.80779534014827     -3.02489747853252      2.25228292458277
  H          -2.62500953005204     -4.28853589176369      2.68731222950735
  H           5.21206912326887     -0.79554841379307      2.92226148559892
  H           5.11917700706462     -2.31961984872008      2.01607046625827
  H           3.79941128171396      5.86781843546577      1.05410492893645
  H          -7.27688036675865      0.26363456258854      2.26656267417899
  H          -3.77785417347627     -5.64056775925523      1.20713143566966
  H           7.13916760691240     -0.37313831196472      1.74627349155962
  C           1.03712624772779     -1.04793114936544      3.33424094712594
  H           1.66333853616923     -0.40372436815757      3.94098343037709
  H           0.38631399479365     -1.71477602396077      3.89443858985345
  O           0.55392042110503     -3.61681133508691      2.36106907691720
  C          -0.96682929435994      0.38295306498515      3.18369973783995
  H          -1.62983564953354     -0.41357174210551      3.51061348910236
  H          -0.58213053482317      1.00985052539830      3.98768916483820
  O          -0.84589810007418      3.19197131851206      2.90843696585731
  C           0.16021377773240     -0.24683326187107      2.36029124966596
  O          -0.24948614667443     -0.89207555138007      1.28737141590659
  O           0.91586241838575      1.03511211347797      1.88556283975634
  O           2.28565051003120      1.16269822622671      2.45051983790688
  H           2.80208015001254      1.27694685971308      1.61840532218498
