19
Coordinates from ORCA-job job.QMRegion
  C          -1.31786303584246      2.80422432246503      2.27587714819418
  C           1.07150827256751     -2.91552055207878      1.76923482813104
  O          -1.65712333706317      1.60125275640667      2.74621346676016
  O           1.60780367266712     -1.91026851930782      2.44822766639084
  C           0.76966737366637     -1.18329942916987      3.36791586451131
  H           1.46936810906412     -0.82407884494881      4.12013606912127
  H          -0.00526232346348     -1.83674319606753      3.76259120749522
  O           0.10894751878704     -3.56802848474064      2.10529538786513
  C          -0.69130761648565      0.85452504760128      3.52908461881449
  H          -1.31172280458507      0.20665681062335      4.13582037994777
  H          -0.06235938341791      1.53794620860244      4.09395255340944
  O          -0.41823223121594      3.51197798331013      2.67682303103423
  C           0.12381380768615     -0.03876810586795      2.59819352088894
  O          -0.54920282686492     -0.49576571569543      1.52911922572389
  O           1.25338126477053      0.72076695278380      1.95190708060767
  O           1.93580612909980      1.57400256374510      2.96881082970520
  H           2.70419301271738      0.99837833922633      3.21277811571578
  H          -1.96270288857071      3.02176780765189      1.43360763734759
  H           1.65553737586878     -3.04649894894582      0.86122637835382
