11
Coordinates from ORCA-job job.QMRegion
  C          -0.42138428434211      2.18674626514291      0.28424960112761
  O           0.26730680943086      3.15407822838259     -0.02438810523037
  H           0.00122684701397      1.38533082778894      0.92770685299247
  C          -2.04507809133672      3.73439494378037      2.50109182180367
  O          -1.63307138184319      2.49953738565815      2.73697196249448
  H          -1.30253755530358      4.35791722732914      1.92850101951750
  O          -2.19803713011799      4.50632003872462      3.82112528811890
  O          -0.94778324127397      4.28462257357480      4.54948312869989
  H          -0.80166436951575      3.33272691514269      4.31878876436196
  H          -1.44411683479800      2.01684892388637     -0.07035795387791
  H          -3.05724662515517      3.87742277736283      2.08229761557184
