131
 xtb: 6.7.1 (edcfbbe)
C           -0.58635009064803        4.65806518254866        0.80985579834437
C            4.43023859195236        3.17003897871462        0.23197039232948
C            5.15591527965639       -1.96550735735495        0.46964946724207
C            0.77175906351938       -4.75170931448618       -0.41584573810610
C           -4.08377108580330       -3.03153246590457       -1.47527468138926
C           -4.97926110289765        1.83803150332830        0.07809457048848
O            0.34092559652835        3.62294214753441        0.58991983940345
O            4.29754577051025        1.98844281393834        0.95856983559150
O            3.76443580471087       -2.12156884459866        0.58632794975586
O           -0.11850548539436       -3.66601356497023       -0.51905944975890
O           -4.11776955742654       -2.11502085166837       -0.42576158603253
O           -3.63474182674973        1.92294724414811        0.47700707848887
C           -1.35656051072228        4.36454003244500        2.10812892094451
C            3.99686304646620        4.32193883997050        1.15922385189738
C            5.66703086659509       -1.35381454193562        1.78269302152096
C            1.27567269424234       -4.84374409580741        1.03412382841109
C           -3.79290790230493       -4.41359249491829       -0.85916110057426
C           -5.69467353169223        0.89356042902642        1.05592870700453
O           -0.50472579902995        4.18855747586908        3.20868975426393
O            4.77497425254059        4.38384449769719        2.31996028561383
O            5.40530705817558       -2.17969398452530        2.88594920798415
O            0.22723896346681       -4.94348033420473        1.96088044968863
O           -4.76729730366898       -4.79333824832894        0.06900136807930
O           -5.65215209213554        1.36959268327094        2.37455922185139
C           -2.17206907194213        3.08257509496976        1.90903615995544
C            2.50967936444425        4.14669979864949        1.51115821079251
C            5.00809269330428        0.02049423461965        1.95407630965374
C            2.08726910592355       -3.58231104138369        1.34684957225580
C           -2.40244540750556       -4.38010819036900       -0.20324999223192
C           -5.03707657252738       -0.48816592591229        0.94576270887768
O           -3.01448917352974        2.81439419060519        3.00222120568199
O            2.03806499823320        5.23494432955231        2.27503206360071
O            5.53800973273762        0.71548745327642        3.05579129441683
O            2.70267852178281       -3.64553666820777        2.60932491089542
O           -2.04487058865370       -5.65021152906081        0.29443145836373
O           -5.72887143299333       -1.45127418341451        1.70073233606386
C           -3.05468481042153        3.20242168621996        0.66224353114567
C            1.65530917024894        4.01644933031117        0.23852039388501
C            5.19245405327235        0.90809643053102        0.71511818846633
C            3.19116599652815       -3.38645522152692        0.30261621330141
C           -1.33282311838696       -3.91116668070277       -1.20516497769980
C           -4.98306163711185       -0.98714539998287       -0.50517339294947
C           -2.22384723719052        3.62878717163203       -0.55814948562917
C            2.26550429224147        2.91837560928134       -0.64104873916104
C            4.88824920726042        0.15218708365896       -0.59336201904846
C            2.61550895788601       -3.44224787019427       -1.12097206414162
C           -1.80308469234197       -2.59262681832356       -1.83387731631549
C           -4.47381722737036        0.09921983777142       -1.47321735681323
O           -1.46710660933286        4.80065863534878       -0.26697266445743
O            3.62425529499170        3.17426837051268       -0.92940030765921
O            5.49148166068483       -1.14194638255004       -0.61072876874793
O            1.84358675728392       -4.62606199943238       -1.30520485338459
O           -3.08064335186456       -2.72038184409012       -2.42268297772730
O           -5.09923202582948        1.35994344284305       -1.23082726614747
C           -3.10791342274904        3.98209025198198       -1.76067008635966
C            1.54045332175798        2.70815071207772       -1.96094954937553
C            5.46125315823357        0.85446246336117       -1.83752606071811
C            3.71730866065515       -3.48364917761126       -2.18740922705893
C           -0.85475745108677       -2.03354069678641       -2.88335700718208
C           -4.79750480136170       -0.20907963477790       -2.94626726499126
O           -3.98958602793654        5.03629874543541       -1.47545994299937
O            2.23279255255929        1.88303196414155       -2.73541577939967
O            6.81665347508394        1.18401023177249       -1.68607610018367
O            4.55940463312252       -4.59625849471041       -2.03440149339217
O           -1.41935336842612       -1.02473281031508       -3.53475963716775
O           -6.14519892958299       -0.55064596996798       -3.13698282281637
H           -0.07341207943322        5.62376335777579        0.89032468195243
H            5.45614034013652        3.31461671362011       -0.12692331291081
H            5.64862590595395       -2.92579745108182        0.26844719182909
H            0.27490361579772       -5.68931101968393       -0.69765505806865
H           -5.02340421879579       -3.04138172942317       -2.04180690659425
H           -5.45516644858481        2.82683842092351        0.06968327090869
H           -2.04651981155823        5.20199181242548        2.29329497909871
H            4.13660068609327        5.27170919422508        0.63460659609580
H            6.75367858464513       -1.23716922818406        1.73462989133870
H            1.93629582275823       -5.72376958689931        1.11189127921696
H           -3.80429594890491       -5.16776023264686       -1.65335087786960
H           -6.75344610578228        0.82002856069013        0.78518505103941
H            0.31929614825741        4.69046899963076        3.07149502587178
H            4.88557676896552        3.48551520985110        2.67678968728260
H            4.49898555457010       -2.53821786197337        2.82401327624374
H           -0.54115335474162       -5.37299756389577        1.54086571704753
H           -4.97026773361833       -4.04088649875819        0.64766929028230
H           -4.76284174869581        1.71719829088398        2.57162533245769
H           -1.46872246092577        2.24938645997424        1.75440441158302
H            2.39331938646243        3.21174745736268        2.08314134886415
H            3.92415172601274       -0.13502522305662        2.08936547578860
H            1.40733423645980       -2.71912638973574        1.29524236736300
H           -2.42570703527956       -3.65493860164587        0.62503572341503
H           -3.99844087944164       -0.40161294429530        1.30133444619175
H           -2.49089447269987        2.88594649577547        3.81512060456918
H            2.74884005970383        5.49410188429761        2.88434666702187
H            5.61311553795452        0.09206994975385        3.79680341320772
H            2.03308899644942       -3.90795343527500        3.26108605435801
H           -2.85325529363971       -6.06960091716971        0.64616384163298
H           -5.93621615490296       -1.06442635801698        2.56609984117706
H           -3.83666265733444        3.95008108240753        0.84811246337602
H            1.63863804194823        4.96498741761383       -0.30982710676734
H            6.22350846926145        1.28264559835675        0.68798679161867
H            3.94187425578353       -4.17929565938006        0.42249417804135
H           -1.18744956389498       -4.66489887813540       -1.98632454663177
H           -5.98587974312408       -1.31151836066157       -0.81717431968840
H           -1.54310594177443        2.81036720059855       -0.82877703085598
H            2.16739525524822        1.96246919192699       -0.10008716102537
H            3.79932225305698        0.04477100849262       -0.69566159549563
H            1.97947921161020       -2.56201898539746       -1.28188498030560
H           -1.83467511070164       -1.83760403164452       -1.02410325037771
H           -3.38658070227035        0.20286389833438       -1.34655338349731
H           -3.72404880505069        3.12185455043055       -2.02420314953999
H           -2.44924808334641        4.23509521065558       -2.59942203586067
H            5.31761133057707        0.17846203434179       -2.68793870316096
H            4.92436181716498        1.78231206605146       -2.02365253334211
H            4.34828348862692       -2.59900381673207       -2.09107600351956
H            3.23400514877744       -3.48655507801112       -3.17029859620289
H           -4.53134632269122        0.67934328142217       -3.53032264000625
H           -4.20068548081415       -1.05327265271924       -3.29215390938859
H           -3.46276637034907        5.82367984117762       -1.27236799441305
H            7.32977776468908        0.36360204829713       -1.63150559101843
H            4.02874188694355       -5.39711674508506       -2.15962235355873
H           -6.68917987733419        0.23002400815700       -2.95741257853039
C           -0.54140809038570       -0.21450748625042       -4.30776974992114
H           -1.16748018024558        0.49672713616268       -4.83616115095462
H            0.03361432060751       -0.82838003057854       -5.01829060656213
O            0.26814447735020       -2.42250814800573       -3.09615743148277
C            1.53983647724843        1.35056431654402       -3.86257494161528
H            2.24915777693093        0.80609239095404       -4.45485719376075
H            1.08850236349840        2.17771975594938       -4.48010286514928
O            0.47885018558858        3.19008941989272       -2.26672365630428
C            0.41537898619841        0.48105476109483       -3.36418923932404
O           -0.07366576509298        0.97626474395660       -2.39798929261389
O            0.88455604193057       -0.36997008061145       -2.57072702840978
