133
Coordinates from ORCA-job job E -252.583552421160
  C          -0.36324065778535      4.22030389339942      5.35153722430740
  C           1.01678481007375      1.13594446194638      9.36102464337405
  C          -0.82871129279523     -3.77536048725838      9.65451180227122
  C          -1.64446231056405     -5.50837493459535      4.81717835109953
  C          -0.74050394958149     -2.68647753062276      0.48912256935953
  C          -1.34159943460085      2.47000532247822      0.52045352395508
  O          -0.17671575651294      2.91782049949218      5.85194195747169
  O          -0.01812503907010      0.21674890886945      9.17241174665504
  O          -1.52179592166430     -3.68503916767356      8.44337009772037
  O          -1.38923501701857     -4.21961873929359      4.30591659324963
  O          -1.57493913676390     -1.60094241749581      0.75887468942019
  O          -1.58956061703957      2.41374871977925      1.89950394874276
  C          -1.84708265125270      4.41984390215353      5.00290747431463
  C           0.36603239747692      2.51662543684939      9.54810110206499
  C          -1.54606177016815     -2.83446126138312     10.64028176379224
  C          -2.98497896359189     -5.48769648716821      5.56325006137262
  C          -1.60823352120520     -3.95715856057169      0.55158247520316
  C          -2.56509315967225      1.85012933346515     -0.17596413373719
  O          -2.70263043675725      4.21284375624667      6.09571541650555
  O          -0.51046939059311      2.54259636511838     10.63903864284263
  O          -2.88849317474009     -3.18958880885215     10.81892861655485
  O          -4.04803599523587     -5.06659085775583      4.75037799028531
  O          -2.68469425027339     -3.90328112114496     -0.33970468629206
  O          -3.74202349106669      2.55217040452691      0.11733706323602
  C          -2.21531303574026      3.42277414743770      3.90015288573580
  C          -0.36505515235075      2.88003841539309      8.24907421288807
  C          -1.41864090842979     -1.40008139407390     10.10758539532056
  C          -2.85799048034914     -4.51483351228765      6.73848554534538
  C          -2.10565176676682     -4.15478520650217      1.99325225808364
  C          -2.67218909523072      0.38402023671349      0.26714081258383
  O          -3.51698749347546      3.63138320061487      3.41414979136815
  O          -0.91004770745993      4.18016419500196      8.32628074637215
  O          -1.92543381181078     -0.45616479546862     11.01809686330223
  O          -3.99393598851706     -4.54018080108109      7.56412842383309
  O          -2.83421884840330     -5.35688265508524      2.10688140016588
  O          -3.66551878814228     -0.30282623237754     -0.45182418182829
  C          -1.25698593499677      3.52910498714983      2.70815683322397
  C           0.58209751340021      2.79945989396592      7.04035666314347
  C           0.04571131322939     -1.03756056054324      9.83485648420185
  C          -1.64336800163248     -4.83712123370929      7.61976181838400
  C          -0.91761426096935     -4.16870153464813      2.97495310611132
  C          -1.35351832510766     -0.37594989522808      0.07041792735465
  C           0.21308300800189      3.51606149793299      3.16632651776075
  C           1.29057788992739      1.43640441288683      7.03302017949196
  C           0.74252744823768     -2.11463721452992      8.98595468334438
  C          -0.37236100381253     -5.10272831809388      6.79097254821964
  C          -0.12630515824468     -2.86538674843297      2.75669745778846
  C          -0.14727564370119      0.41491771288446      0.61246517183203
  O           0.42183749212394      4.45470466623610      4.22012157947294
  O           1.91045102663067      1.16863820101837      8.27567964096719
  O           0.52252755708305     -3.41137223491668      9.53648694558360
  O          -0.62940207193186     -5.94871062837190      5.66878644454649
  O           0.31700140051742     -2.78273332144093      1.41935350558691
  O          -0.18231070136624      1.77027743821488      0.16563056488215
  C           1.18682773869730      3.93576775238045      2.05605053161364
  C           2.40525664095561      1.35521934147884      5.97636316759451
  C           2.26740226696428     -1.93576596675778      8.95018379984757
  C           0.70945425698282     -5.84536823839240      7.59047766259538
  C           1.08507834625335     -2.69219111254652      3.66446129664587
  C           1.20633197895730     -0.12318483181727      0.11848132459077
  O           0.84745684510842      5.17490188968714      1.48844204106579
  O           3.46211801214042      0.64385947814358      6.46987152534583
  O           2.82663835527644     -1.91384417384452     10.23632663957289
  O           0.23132586586332     -7.03823301179402      8.15544456287650
  O           2.07735247550361     -2.11388490364363      3.01337629657436
  O           1.23449771811999     -0.30905262919257     -1.27257810244588
  H          -0.04412062435878      4.96945616300090      6.08653372232038
  H           1.63647754577728      0.87292982157757     10.22767330420315
  H          -0.82017197097694     -4.80590076216482     10.03443032216036
  H          -1.67522706296679     -6.24718956089466      4.00716652613158
  H          -0.25607530855737     -2.59149934785501     -0.49034897418667
  H          -1.18045911426978      3.50212551482325      0.18385452074426
  H          -1.97058037276086      5.44525570824845      4.61876421021590
  H           1.14643150050870      3.25828092116582      9.74855194031409
  H          -1.07039458748573     -2.90377232415280     11.62358284712030
  H          -3.17920161940998     -6.50079777035253      5.94975602901159
  H          -1.00034917611051     -4.81964436766604      0.25848542181100
  H          -2.43510658492530      1.89860359214993     -1.26152717997955
  H          -2.21443892689801      4.36028033418133      6.92732668965485
  H          -1.03109874729181      1.71998242195427     10.66051864722111
  H          -3.28237572372011     -3.39022089962501      9.95387499484672
  H          -3.86715047181679     -5.31699197354807      3.82654356016893
  H          -3.09328588912879     -3.02242053057673     -0.29652333837992
  H          -3.76759099064343      2.75200702291703      1.06842986691108
  H          -2.12038284294080      2.40939819699087      4.31980779651525
  H          -1.17161748491557      2.14914788955619      8.08506101660734
  H          -1.96179155028351     -1.33457516246798      9.15190013967855
  H          -2.70634651940496     -3.50736366148829      6.32180928967742
  H          -2.75220854212925     -3.30629059410832      2.26523882192592
  H          -2.90305467856425      0.36906034708124      1.34421480710933
  H          -4.11629240345288      3.69648731016180      4.17398104632705
  H          -1.22366959692002      4.31327475182250      9.23831728558088
  H          -2.76322152947209     -0.79457596849749     11.37347100766920
  H          -4.77941428342737     -4.44512167153811      7.00277557911745
  H          -3.33818385018475     -5.47220742317931      1.28200172446932
  H          -4.45984014734328      0.25360433805355     -0.48477500062828
  H          -1.46154549282353      4.46127210321279      2.16350133997305
  H           1.33408945713300      3.59726514958292      7.09430495228169
  H           0.57625742994255     -0.92972826328829     10.79031977041502
  H          -1.87048051968198     -5.71579271316739      8.24014128523015
  H          -0.26686000789128     -5.02820897983015      2.76667354539293
  H          -1.20630789151351     -0.57563175928828     -0.99966676515461
  H           0.46374545268804      2.50970412351707      3.52724358872849
  H           0.54506460693907      0.66363046864209      6.80116029493779
  H           0.34514488146483     -2.07088706918232      7.96244791438043
  H           0.01952802878684     -4.14238926140095      6.43552481321029
  H          -0.79846137313028     -2.02314047620972      2.99045405253363
  H          -0.17276573077158      0.39086218906634      1.71079924806240
  H           1.16379304586130      3.20518435856807      1.24713764084355
  H           2.18683943361809      3.97290542247086      2.50051164641817
  H           2.68539847507443     -2.75504512151551      8.35341160818854
  H           2.51880119809228     -0.98387676043863      8.47926575197356
  H           1.05502365965542     -5.22225589418088      8.41423906193657
  H           1.54550088648896     -6.04185246026395      6.90995006310439
  H           1.96970699957609      0.59461575539502      0.43499516308461
  H           1.41389681810692     -1.08970070660725      0.57639725543506
  H           0.93431227739496      5.85646572369858      2.17031487610067
  H           2.67311081021863     -2.77542255788802     10.65236698950391
  H          -0.00920023544505     -7.64139689592458      7.43718455273605
  H           1.17581135727199      0.55689644410873     -1.70153243611027
  C           3.23950268465501     -1.76435434041933      3.75975226284648
  H           4.05918488953726     -1.74436581428613      3.04480071530041
  H           3.40662741681834     -2.51191853805223      4.54334026498179
  O           1.13563984125074     -3.02618751813152      4.82362465286172
  C           4.18040018777560      0.01793613279897      5.42447380362674
  H           4.68871578973301     -0.83760458414971      5.86687841497143
  H           4.89874995667122      0.70589782002627      4.97484116998396
  O           2.57419773835905      2.23500690939043      5.12337892765078
  C           3.04251245036113     -0.42078586217808      4.45121287034366
  O           1.89917908105326     -0.10882440741484      4.89462666963829
  O           3.28191085943978      0.71679960902481      3.09163514388650
  H           3.05011860295199      1.54753746716613      3.58815007341865
  H           4.21081624727794      0.78129604870898      2.79364528823220
