133
 xtb: 6.7.1 (edcfbbe)
C           -0.36386780772279        4.22089223491539        5.35203546954438
C            1.01128524396587        1.13836561950854        9.37263417725098
C           -0.82869572598528       -3.77551266999551        9.65466083843143
C           -1.64440135725580       -5.50838080855676        4.81712088455579
C           -0.74058984011125       -2.68641866740144        0.48936506456278
C           -1.34148878618195        2.46976010640404        0.52065961647822
O           -0.17284572035855        2.92123163449767        5.85843845126836
O           -0.01879536502703        0.21626237518627        9.17188829713626
O           -1.52169667371697       -3.68507214400932        8.44330656765203
O           -1.38916974917377       -4.21939323178024        4.30616592094087
O           -1.57515054240236       -1.60080012459644        0.75861629263970
O           -1.58972123310415        2.41394779541687        1.89935691809904
C           -1.84738232672505        4.41935117245942        5.00291634455992
C            0.35936089221122        2.51874311329412        9.55535514721489
C           -1.54634009798857       -2.83464158014563       10.64034523472624
C           -2.98491800004528       -5.48769298473736        5.56324145805323
C           -1.60839785015224       -3.95700471736313        0.55186611988559
C           -2.56504526419490        1.85007016001456       -0.17584894090652
O           -2.70271877833482        4.21182595095942        6.09561739265871
O           -0.51713000747544        2.54462182522931       10.64690296148468
O           -2.88878469285956       -3.19003699131916       10.81907255075368
O           -4.04813841694576       -5.06675832502086        4.75048589982850
O           -2.68500785338186       -3.90334638074921       -0.33926792604196
O           -3.74186820547701        2.55219133809668        0.11737709817666
C           -2.21530318951101        3.42229837103334        3.90011045166050
C           -0.37369552384493        2.88403355154722        8.25701105971301
C           -1.41948447619912       -1.40040488598744       10.10750928590531
C           -2.85795055733049       -4.51477829514882        6.73842585489154
C           -2.10545551194249       -4.15438247327108        1.99358762918150
C           -2.67208976380910        0.38403534464505        0.26722454290725
O           -3.51673536669775        3.63137501345491        3.41395306593899
O           -0.91841711104147        4.18439960041354        8.33469833512509
O           -1.92584656767646       -0.45615174030472       11.01810145794868
O           -3.99385426366970       -4.54006548590422        7.56413360343036
O           -2.83407296912851       -5.35646692024906        2.10732496694992
O           -3.66538462546206       -0.30278958152643       -0.45169953913036
C           -1.25667299480712        3.52903202868723        2.70821012480643
C            0.57650582077417        2.81449456680835        7.05376212153655
C            0.04446260685176       -1.03761361949587        9.83469095303671
C           -1.64329523924471       -4.83694836635399        7.61965612986520
C           -0.91738661337034       -4.16789443327241        2.97535577493216
C           -1.35326555686007       -0.37574684653435        0.07065786478914
C            0.21336263412566        3.51552592137247        3.16621916675856
C            1.30611989313744        1.46481397399589        7.05245746134893
C            0.74192973443409       -2.11456699164970        8.98585474401322
C           -0.37229167462245       -5.10255348087018        6.79076177099465
C           -0.12563693469074       -2.86455968972368        2.75713665981134
C           -0.14669076224079        0.41496307275378        0.61234813113556
O            0.42311843735292        4.45233346135144        4.22111806865764
O            1.91143155455485        1.17665706243105        8.29945646141452
O            0.52233723036793       -3.41128864094027        9.53668708172460
O           -0.62949623321838       -5.94890874887484        5.66880837267856
O            0.31664033509694       -2.78338759341435        1.41925980034676
O           -0.18200654251078        1.77002605082072        0.16519548638117
C            1.18667904602741        3.93603187684457        2.05588386421697
C            2.45230118841405        1.44603598467687        6.04522816839616
C            2.26690531358297       -1.93524665343346        8.95045282463666
C            0.70949159421790       -5.84515277434017        7.59039503225685
C            1.08985400588308       -2.69459671397374        3.66177885807400
C            1.20629633066913       -0.12444275776557        0.11886682019255
O            0.84697009795683        5.17480754680595        1.48843193025041
O            3.44464024743564        0.64755140073773        6.47322255975188
O            2.82634159164388       -1.91411552519571       10.23647222716128
O            0.23138569601871       -7.03802638249231        8.15529686975201
O            2.08682780331346       -2.13673862002976        3.00270065688200
O            1.23462727619473       -0.30771852707048       -1.27251936176846
H           -0.04479614482789        4.97059001137574        6.08594704218699
H            1.63286680936576        0.87367795787908       10.23249320686303
H           -0.82017958472112       -4.80592990018022       10.03446127319344
H           -1.67520070643367       -6.24711973658649        4.00711120209550
H           -0.25609215594075       -2.59146656011060       -0.49026679944443
H           -1.18033979957774        3.50204513636093        0.18386473754098
H           -1.97072149277738        5.44506529614194        4.61863144619073
H            1.14446917937739        3.25903436823740        9.75064900582822
H           -1.07046161023347       -2.90379501862144       11.62361848507446
H           -3.17916422976752       -6.50079732934372        5.94974367453455
H           -1.00033867727330       -4.81954879260375        0.25860012552867
H           -2.43498601240146        1.89857276627277       -1.26146920353305
H           -2.21498079195797        4.36154837277920        6.92738402579717
H           -1.03291822718344        1.72063723077978       10.66233894987213
H           -3.28240844276923       -3.39039154531048        9.95393807326566
H           -3.86702506715063       -5.31661653304905        3.82652438042358
H           -3.09318138761751       -3.02232204137167       -0.29661606671248
H           -3.76763685000324        2.75187753381614        1.06848809187162
H           -2.12043746892581        2.40915760713823        4.31951600110166
H           -1.17356199017654        2.14998796497393        8.08660401268008
H           -1.96216932078411       -1.33477659977376        9.15196452065965
H           -2.70636679347890       -3.50736820371627        6.32170472466101
H           -2.75214559956965       -3.30614198267512        2.26529595736809
H           -2.90298422206489        0.36900447754999        1.34424467179796
H           -4.11629617911651        3.69609386682371        4.17391705744653
H           -1.22686187671860        4.31447508940698        9.23998458060831
H           -2.76330558322931       -0.79441633443461       11.37352009001316
H           -4.77939163938180       -4.44513208300146        7.00278646581924
H           -3.33812958102114       -5.47207660072434        1.28209964061065
H           -4.45980293535715        0.25367054646980       -0.48472845241611
H           -1.46136602786525        4.46128416624273        2.16353654474839
H            1.32835850986158        3.60555506571986        7.09979862124612
H            0.57581474827874       -0.92982667636372       10.79032284329647
H           -1.87041962124284       -5.71577399814308        8.24007057482236
H           -0.26671530314397       -5.02789468973980        2.76672708191484
H           -1.20608179128147       -0.57551301444968       -0.99958583578403
H            0.46394573512394        2.50907828553876        3.52592604564713
H            0.55562128310027        0.66926839467234        6.79577044434015
H            0.34493766867279       -2.07115015790441        7.96240068156662
H            0.01956772734830       -4.14240935635427        6.43521736767179
H           -0.79787371430163       -2.02269284316287        2.99068468194306
H           -0.17195230422824        0.39081334950298        1.71075509839478
H            1.16405689265636        3.20494362315299        1.24736918139725
H            2.18706170438307        3.97294528734599        2.49996883851415
H            2.68530174796974       -2.75457125987525        8.35307286697646
H            2.51853541414218       -0.98340556540856        8.48005432858172
H            1.05499336342656       -5.22222400975830        8.41426707622246
H            1.54551884007039       -6.04175131495924        6.90992995489292
H            1.97053325898688        0.59275938113016        0.43649578602925
H            1.41325433171016       -1.09026977069997        0.57629163255879
H            0.93440506758232        5.85656488659584        2.17020668660372
H            2.67321384399292       -2.77549028188340       10.65234800552170
H           -0.00924638950678       -7.64130521600906        7.43716000133585
H            1.17680882990015        0.55757555691410       -1.70096692769129
C            3.25586169563288       -1.79128425383632        3.74117599347948
H            4.05959057363575       -1.73648756778473        3.03533648098153
H            3.42190341942627       -2.52883899032032        4.52768401734056
O            1.13898864440208       -3.02466928072617        4.82324360212749
C            4.15890579145816        0.01508104594810        5.42420427529702
H            4.69257568120257       -0.83034685980973        5.87120269818194
H            4.88373280747586        0.70542478547398        4.96227152757390
O            2.58034241401763        2.25260562813843        5.14414173505085
C            3.00767122012226       -0.50773824244583        4.51485440467684
O            1.87380561678238       -0.19490461327282        4.83046765600301
O            3.31538018628541        0.75858604901593        2.96825712470672
H            3.05778661994626        1.55269328629754        3.54556535942092
H            4.21781638057085        0.79773640683177        2.76641190897499
