134
Coordinates from ORCA-job job E -256.637161710050
  C          -0.22268814094959      3.52606328413675      6.79040161246192
  C           1.40367547437633      0.07652125255901     10.39882373919368
  C          -0.01757373665671     -4.72311946061381      9.47600273911818
  C          -1.35115724798676     -5.15948941483690      4.36950295633171
  C          -1.56331469776176     -1.95459898805232      0.22531542696235
  C          -1.73872000265536      2.99731551063607      1.76425084770943
  O          -0.16325910906788      2.16636874327947      7.14972419492292
  O           0.32408734966796     -0.80057828112274     10.41011322621674
  O          -0.53535591960462     -4.15612688111742      8.30030012429053
  O          -1.12724841445666     -3.85440608239494      3.85747476914379
  O          -2.18449274324713     -0.94093733728149      0.95341683772101
  O          -1.66770801898300      2.50587141912140      3.07664239488963
  C          -1.69074781728576      3.89516564246288      6.52304723741675
  C           0.85893729369696      1.48494798790302     10.71273423345213
  C          -0.90941186921785     -4.28380905352831     10.64869538907591
  C          -2.54504895750290     -5.15242143955733      5.34615215515281
  C          -2.43948604498330     -3.20808945401617      0.37960923863133
  C          -3.12425522936075      2.63092656824071      1.20871895152849
  O          -2.52051331562915      3.58668220767398      7.61076432716814
  O           0.17453271515052      1.52400696053292     11.93089803298634
  O          -2.22345836188578     -4.75390769317296     10.51953065208867
  O          -3.67513663359714     -4.52067133078907      4.81208799104518
  O          -3.72987831412608     -3.03035603476670     -0.12792482412584
  O          -4.16079857094389      3.23107542242529      1.93510111145817
  C          -2.17039714614825      3.11101007768210      5.29753892973362
  C          -0.04936854238727      1.95680143074811      9.56339338741810
  C          -0.87711214275855     -2.75085128450164     10.71675534502715
  C          -2.16793371036748     -4.42626079733951      6.64006621880630
  C          -2.49248270456423     -3.57697051628706      1.87043503237997
  C          -3.24382045654383      1.10073372793156      1.23285801799787
  O          -3.46825454405790      3.48032737613019      4.90362792436836
  O          -0.48312120551704      3.28103190116377      9.77389971959381
  O          -1.51326837766364     -2.27821053490530     11.87731218163954
  O          -3.16776502088784     -4.56310562604748      7.62016666414444
  O          -3.22392352052190     -4.76989313097258      2.05242869304694
  O          -4.42069704805124      0.66264454851505      0.60334063134635
  C          -1.23263999828330      3.36785294269543      4.11244032691052
  C           0.70331999291111      1.86110526493571      8.22576944789341
  C           0.54909714323696     -2.17854697859546     10.70687170842603
  C          -0.87280287638913     -5.00200109311847      7.21773515130580
  C          -1.07526626562965     -3.75313521782105      2.43888537741312
  C          -2.06218728899290      0.41331114079192      0.53292222579926
  C           0.22715374931680      3.08428713709525      4.50401869669723
  C           1.18589246577693      0.41613722280535      8.08282034866658
  C           1.47357409001841     -2.88476780043955      9.69195724320674
  C           0.23658342219504     -5.02589911452135      6.15296167823253
  C          -0.21597272058259     -2.53395122676902      2.07107915075036
  C          -0.70349190407123      1.02672137001563      0.92473531751976
  O           0.57834186611096      3.80755885443670      5.67895808046598
  O           2.06355200122339      0.08450555734576      9.14490798089436
  O           1.29611053803539     -4.30227079420248      9.70057669511813
  O          -0.20667078440847     -5.68453708300481      4.96660959346437
  O          -0.26140630939126     -2.24570166146290      0.69194221426472
  O          -0.73909004835945      2.45146154249857      0.95055111465298
  C           1.21107052521776      3.54135198102668      3.41870914344982
  C           1.94006674732172      0.13782013185976      6.78895448262329
  C           2.97242010513551     -2.69505089804625      9.99644458041135
  C           1.46469836709483     -5.80887842638072      6.64033471895483
  C           1.28433486272852     -2.76649394772492      2.38371064780152
  C           0.41167592240932      0.68557526153485     -0.08008858841437
  O           1.13935939080341      4.92385519824666      3.19346602714040
  O           2.11230138796280     -1.17135661424213      6.66150404394406
  O           3.28404956547179     -2.88699388045498     11.35072486191867
  O           1.14626551404160     -7.12814754534653      6.99683230899767
  O           2.06075290053298     -1.67516672995378      1.95509205535651
  O           0.04601237455518      0.99845928253898     -1.39718698211852
  H           0.17803845790036      4.15580038164574      7.59413636835093
  H           2.17002316984802     -0.21113485716070     11.12961415294435
  H           0.02790645612439     -5.81736011240146      9.40985990533061
  H          -1.57172125883647     -5.84040074419396      3.53917002010620
  H          -1.43279440102712     -1.68098970023344     -0.82890965941940
  H          -1.57760666471099      4.08224640233629      1.73271754781850
  H          -1.73933470659638      4.97323706034662      6.30000344626607
  H           1.70444708816008      2.17514432340389     10.80600731257216
  H          -0.51952007241795     -4.70393697337907     11.58116757454524
  H          -2.77106550892420     -6.20329327603079      5.59228712463556
  H          -1.98608545849610     -4.02941348114979     -0.18479686454028
  H          -3.21322040654906      2.99112765339102      0.17860861359969
  H          -2.01639513617412      3.67030020590507      8.43895963727294
  H          -0.42127340673829      0.75892958030619     11.98520424355801
  H          -2.54127576246445     -4.60046294477236      9.61010643993183
  H          -3.76662755077276     -4.76714705649231      3.87178620497764
  H          -4.06942896688074     -2.16386523707234      0.15043301935620
  H          -3.96566432833493      3.19055154019616      2.89006869449378
  H          -2.13315853521202      2.03836443961877      5.54061754656075
  H          -0.92283063657514      1.28936356546896      9.50376132410353
  H          -1.38575044792655     -2.36322295198060      9.81928436891112
  H          -1.99882590926962     -3.36187371259778      6.42036102593894
  H          -2.98016767061602     -2.75617984275526      2.41793508709911
  H          -3.23219781777269      0.77620617562909      2.28561412095373
  H          -4.03921628102125      3.46377924702783      5.68797351646610
  H          -0.63537658983547      3.39229627595967     10.72839283858357
  H          -2.35365902804569     -2.75314963518753     11.97714099603160
  H          -4.01551379476450     -4.29878866318013      7.22926437559561
  H          -3.93194899059201     -4.78294782350069      1.38453227610537
  H          -5.15225328661888      1.22682880984778      0.90153714088688
  H          -1.32640172077183      4.41591638073747      3.79894991219615
  H           1.56900537067984      2.53521490909049      8.21927427416186
  H           0.98098705776893     -2.26605736597630     11.71366729490354
  H          -1.05920300544663     -6.02347814966003      7.57449610823976
  H          -0.61006146334083     -4.64927676766012      2.01193124278692
  H          -2.19427592692840      0.47976232239330     -0.55550247854724
  H           0.34389385928026      2.00644045780671      4.68212973788806
  H           0.31236707050418     -0.25282814098792      8.09067294683122
  H           1.25392531778244     -2.50160832486972      8.68717250913173
  H           0.52966811704163     -3.99452525552122      5.92743140899336
  H          -0.56832069236708     -1.66298828634958      2.64047541995755
  H          -0.43709014055068      0.65600253231506      1.92508024377752
  H           0.96050752649873      3.05970375294717      2.47202774763710
  H           2.21911729277822      3.24160449931487      3.72734700475216
  H           3.51856894064941     -3.40479921516695      9.36544410426398
  H           3.28191140908224     -1.68379912362461      9.73656222700089
  H           1.86261372899066     -5.32977230750379      7.53707221670673
  H           2.22067342666804     -5.79035587441305      5.84751389205814
  H           1.30883357329363      1.23942729294824      0.21951209504240
  H           0.63224054960183     -0.38176519489652     -0.05202109101997
  H           1.39124571409626      5.37722993062361      4.01188471584463
  H           3.16404985848106     -3.82273017335992     11.56811138075639
  H           0.84651958607176     -7.59427895644366      6.20242807157098
  H          -0.03412838107540      1.96059784013931     -1.47552238594602
  C           2.26768469544750     -0.78137984791943      3.02913913694598
  H           1.68868197390661      0.13809182812387      2.90423813697584
  H           3.33171623001388     -0.55523300071714      3.08609585814436
  O           1.67647078285947     -3.90731568069201      1.78215443271353
  C           2.72600139618305     -1.63365376331776      5.46919528787460
  H           2.97682342746853     -2.67885025184343      5.64940132235281
  H           3.61613893875325     -1.03521913327953      5.26286416424144
  O           2.34521890021045      0.95802807968337      6.00655976938215
  C           1.74918970822536     -1.55261359425253      4.26526596494488
  O           1.51432968841502     -2.84398742843523      3.78671135676415
  H           2.64872961666100     -3.97700695698207      1.74661829529836
  H          -0.67303637146547     -2.36026689703304      4.92094391363760
  O          -0.26631196279778     -1.64851342262146      5.47593229852769
  O           0.53294415425847     -0.90036439647271      4.58153485828289
