134
 xtb: 6.7.1 (edcfbbe)
C           -0.21980637688202        3.68831200389199        6.82883560582045
C            1.44438732160953        0.09705011466683       10.28915829196406
C           -0.17121799609863       -4.71921024374173        9.34240816861037
C           -1.57635180705866       -5.49060082329927        4.33071343848665
C           -1.41917390360267       -2.00106988379102        0.43086509975314
C           -1.90470445238316        3.00161235111775        1.90795966807930
O            0.07538054211275        2.31859074848692        7.04254084383841
O            0.35255362228603       -0.75773275495724       10.14692085943182
O           -0.73830167259535       -4.23785349181410        8.14877209626427
O           -1.42922037301335       -4.15881512838846        3.91197938742386
O           -2.08593744558152       -1.01346469252942        1.15676430873081
O           -1.92433353418279        2.61892987664338        3.25529126239644
C           -1.74257553933131        3.89086257166495        6.73265261165953
C            0.89832383349623        1.49026765935965       10.64752022637573
C           -1.01656937135464       -4.18227165249365       10.50917874103181
C           -2.75744064071710       -5.55214359095145        5.31590173450750
C           -2.34683159134591       -3.22873937488599        0.39852333501647
C           -3.22218879453687        2.51669554482079        1.27825103702197
O           -2.43136590845515        3.42035488451960        7.85985045784380
O            0.13105792677035        1.47552433260440       11.81695499741549
O           -2.34508106886267       -4.62323710886423       10.44573338168171
O           -3.94810588389721       -5.05806368045184        4.76032585373256
O           -3.57495772107242       -2.94539653873170       -0.21030265420088
O           -4.33823249808286        3.07087968457417        1.92010620097507
C           -2.25964840863441        3.13220811661253        5.50809580387777
C            0.07159238449125        2.04456579640096        9.47287896819274
C           -0.94118926287618       -2.64952331899165       10.48147979349714
C           -2.39625134264446       -4.71376815075025        6.54694148046425
C           -2.54596919084072       -3.70764061258371        1.84142100951341
C           -3.25260746320617        0.98338147028214        1.34781389904302
O           -3.62743999253353        3.36948770077023        5.28141884320710
O           -0.34529199644283        3.36086331935312        9.76608991783313
O           -1.56145105149186       -2.08329723507042       11.60777461958651
O           -3.35476359890326       -4.82686088988483        7.56929116834667
O           -3.32294284205117       -4.88419615872631        1.89496163224880
O           -4.35197155169563        0.45442106277048        0.64862590604285
C           -1.50538099383562        3.55292284724910        4.24282347534121
C            0.88723029731807        2.02299850843997        8.16489056417687
C            0.50683630116228       -2.14027518389879       10.44578192814496
C           -1.04833682857455       -5.16190020408294        7.12288106585080
C           -1.19496928418290       -3.95518732614473        2.52791303953033
C           -1.98242136967353        0.35184072777606        0.76101546807467
C            0.01863190221423        3.52605949993004        4.45641650143260
C            1.41248370129910        0.59130405128039        7.98923052491405
C            1.36485532912501       -2.89863115199024        9.41113076423409
C            0.03029841080807       -5.19714255370776        6.02597991535360
C           -0.29727168044319       -2.72781750692249        2.36224465506403
C           -0.71144370680369        1.03504950531657        1.29643459728266
O            0.39932065430815        4.16762996582265        5.67683461292227
O            2.20139983459625        0.19423327252707        9.10039042409404
O            1.15617502049195       -4.30941591182414        9.48493462082927
O           -0.42216144990027       -5.99493040690823        4.93777927040313
O           -0.17987198916126       -2.35384886600533        1.00853038570389
O           -0.81282829701656        2.45554981430772        1.21837257976997
C            0.76538896712190        4.28409968567491        3.34541965132510
C            2.33177385945728        0.36733141218768        6.79344473976315
C            2.87854926550187       -2.73927916318485        9.64535788969600
C            1.33772276986104       -5.83495522306604        6.50716632957511
C            1.14813422355120       -3.00603189615290        2.92054236963716
C            0.54424374211675        0.67326301962192        0.48817469393809
O            0.25412288409551        5.57935653062007        3.13958860576659
O            2.35518158055307       -0.92357200535596        6.51077395158114
O            3.24582887274065       -3.01530741916660       10.97006034369984
O            1.15720062035063       -7.16025527000499        6.92981155491750
O            2.06341296528780       -2.30106759087584        2.07027145091743
O            0.37102808388024        0.89101609272958       -0.88798259438524
H            0.18379744146574        4.29515875058875        7.64872448601569
H            2.14497833447354       -0.26183732457314       11.05400221603539
H           -0.14117703232742       -5.81677879189821        9.35348601995729
H           -1.76066843906518       -6.15540014351109        3.47427860908569
H           -1.17590096257699       -1.66195073448583       -0.58602419053279
H           -1.80455600363745        4.08927164461923        1.80282993027375
H           -1.93202027674050        4.96718125071216        6.59317025170787
H            1.74516785376229        2.15831245035404       10.83840578368021
H           -0.60882430773032       -4.55431169382079       11.45514400984369
H           -2.89393829060576       -6.60199719983085        5.62100551259310
H           -1.87350414510235       -4.02047164642102       -0.19289353947806
H           -3.27185279541424        2.83624173486278        0.23413857469248
H           -1.90387878990490        3.61798176191710        8.65722532237954
H           -0.47396867689636        0.71584823452227       11.79163637166543
H           -2.66653588681062       -4.57800287596800        9.52635127282981
H           -3.90236303287789       -5.11143227829407        3.78655579428001
H           -3.90313401538652       -2.08652374594778        0.11233745306984
H           -4.20794254050628        3.02603115178722        2.88477715815262
H           -2.08107359413267        2.05861543821356        5.67299034937967
H           -0.80927936947419        1.39993844780470        9.32779215219041
H           -1.43499293902834       -2.30383622858776        9.55957977116121
H           -2.29950956614208       -3.66621960262631        6.22349488495205
H           -3.05446621393338       -2.91252935005343        2.40361865318671
H           -3.30159784561557        0.68666498664169        2.40909696589035
H           -4.10018346927203        3.24022233663382        6.11974398128629
H           -0.51358432511552        3.40689076169136       10.72455022582227
H           -2.40783570611266       -2.53701114268641       11.74778495817808
H           -4.23483659834402       -4.69829825174979        7.17608632292817
H           -3.99511371055929       -4.82697879083323        1.18681068101754
H           -5.13563800860348        0.98334545416058        0.87139202045620
H           -1.82932384437840        4.56376243919557        3.95783486724415
H            1.72477989304483        2.72896037980865        8.23206833833351
H            0.95751160276886       -2.25479102699054       11.44134665446869
H           -1.15934632343014       -6.17186790007778        7.54182047773148
H           -0.68282890328696       -4.82946435855916        2.09309841945532
H           -2.00828221564378        0.42207663820534       -0.33411263236040
H            0.33224502266136        2.47927678135768        4.48616240200718
H            0.55199776384567       -0.08280412347311        7.88194598339159
H            1.10466993265685       -2.54672789272927        8.40279325462521
H            0.23229660637639       -4.17905701599892        5.66839194119371
H           -0.74283163819935       -1.91577806099162        2.93238574438519
H           -0.57749028735124        0.73908142784774        2.34432647121684
H            0.64741772390062        3.75197285478802        2.40333276638657
H            1.82050697734295        4.33428574026009        3.62259851394066
H            3.38485843629627       -3.41722220290941        8.94609765757875
H            3.18847304599190       -1.71744815560567        9.43599193346832
H            1.71664047870190       -5.28329002151901        7.37061706120012
H            2.05136142728185       -5.77058688293856        5.67896129013556
H            1.37116153179965        1.27778071805691        0.87390076095646
H            0.78183258124310       -0.38405395228285        0.61939901653748
H            0.44737878948859        6.11171864512738        3.92652523510001
H            3.09014958975999       -3.95594226936438       11.14381638901816
H            0.85409041791053       -7.67757598987431        6.16725343050115
H            0.25574266343263        1.84551525327574       -1.02928523957701
C            3.14804956527890       -1.93286824145060        2.88663549569602
H            3.72537862795631       -1.20153288131345        2.33916430653103
H            3.74201475051458       -2.80887742423414        3.18540677245394
O            1.44656286590867       -4.21316242526359        3.14740116010597
C            3.18172834446679       -1.39408450714524        5.44388918790009
H            3.41850863173008       -2.42721130923143        5.68095748372459
H            4.07457372019362       -0.77405139379290        5.35951674651024
O            2.98720557163822        1.21160702521075        6.24155651691740
C            2.40038537668941       -1.37359137887377        4.11619767342312
O            1.23480663311088       -2.10615750347519        4.18837874929602
H            1.51776984477377       -4.70365953959133        2.40679021813904
H            0.36585896976839       -0.39772114112937        4.35869522369961
O            0.87142894373093        0.41340372090261        4.32716733615050
O            2.09849045516836       -0.01002169461526        3.75916391745053
