39
* (null), Energy   -1000.0000000
O    -6.067397    2.447964   -2.414511   -0.018620    0.000300   -0.013972
C    -4.862453    2.494802   -1.778249    0.001618    0.002902   -0.003484
C    -4.284180    1.429029   -1.096209   -0.022434    0.003480   -0.003376
C    -3.055079    1.590603   -0.481934   -0.009598    0.002288   -0.023858
C    -2.383719    2.801508   -0.538360   -0.015914   -0.018536   -0.091304
C    -2.964412    3.862556   -1.223683   -0.005214   -0.008072   -0.032716
C    -4.187553    3.714968   -1.838914   -0.018366    0.004466   -0.008376
H    -4.778272    0.473406   -1.030064   -0.026496    0.004448    0.003160
H    -2.612101    0.764057    0.056675    0.011748    0.000166   -0.025780
C    -1.067793    3.001139    0.177474   -0.021880   -0.064842   -0.022718
H    -2.424437    4.797621   -1.257992    0.036956   -0.042494   -0.018368
H    -4.646500    4.533415   -2.369908   -0.033468   -0.000078   -0.005802
O    -0.311985    4.026720   -0.094978    0.092880    0.145544   -0.090008
H    -0.541691    2.020154    0.353241    0.200120   -0.165810   -1.075658
O    -2.447225    8.617213    0.015828    0.002250   -0.015804    0.011848
C    -2.243404    7.447287    0.679071    0.008074   -0.009364   -0.012054
C    -3.396226    6.707580    0.968736   -0.000112   -0.023432   -0.002156
C    -3.298008    5.504657    1.622837   -0.002208   -0.022942   -0.016400
C    -2.052065    5.025102    2.029033    0.016214   -0.090576   -0.029676
C    -0.904837    5.752871    1.735576    0.024262   -0.047400   -0.038590
C    -1.002688    6.968522    1.078277    0.002304   -0.028596   -0.005576
H    -4.350417    7.095052    0.650535   -0.004918   -0.025408    0.009364
H    -4.172741    4.908808    1.837825   -0.035486    0.007344   -0.021738
C    -1.970186    3.670991    2.626602   -0.087744    0.257082    0.540190
H     0.056456    5.383488    2.053495    0.032252   -0.026964   -0.060464
H    -0.096111    7.508103    0.860196    0.001318   -0.032222   -0.008438
O    -2.937608    3.005265    3.076313    0.029040    0.048642   -0.036230
H    -1.547508    3.096598    1.341423    0.642122   -0.436840   -0.865374
O    -0.714789    3.540764    3.315737   -0.088884   -0.087864   -0.024144
O    -0.674711    2.250356    3.976463    0.025274   -0.016984    0.043830
H    -1.644770    2.081619    4.100127    0.152882    0.086656    0.955756
C    -1.322757    9.403614   -0.341101   -0.008008    0.002564   -0.000448
C    -6.806948    1.239274   -2.382670    0.003436   -0.003040   -0.009378
H    -7.715411    1.450843   -2.941581   -0.000290   -0.018276   -0.011530
H    -6.255069    0.428034   -2.863698    0.012170   -0.004198   -0.001846
H    -7.058867    0.959026   -1.356921    0.004288   -0.007190   -0.006686
H    -1.734556   10.253990   -0.879331   -0.021436   -0.012128   -0.009918
H    -0.786998    9.747110    0.546960   -0.020320    0.020960   -0.003068
H    -0.642887    8.844846   -0.988817   -0.001718    0.004630    0.010570
39
* Frequency(6) -470.5500
O    -6.069513    2.447998   -2.416099   -0.018620    0.000300   -0.013972
C    -4.862269    2.495132   -1.778645    0.001618    0.002902   -0.003484
C    -4.286730    1.429424   -1.096593   -0.022434    0.003480   -0.003376
C    -3.056170    1.590863   -0.484645   -0.009598    0.002288   -0.023858
C    -2.385528    2.799401   -0.548736   -0.015914   -0.018536   -0.091304
C    -2.965005    3.861639   -1.227401   -0.005214   -0.008072   -0.032716
C    -4.189640    3.715476   -1.839866   -0.018366    0.004466   -0.008376
H    -4.781283    0.473911   -1.029705   -0.026496    0.004448    0.003160
H    -2.610766    0.764076    0.053745    0.011748    0.000166   -0.025780
C    -1.070280    2.993770    0.174892   -0.021880   -0.064842   -0.022718
H    -2.420237    4.792792   -1.260079    0.036956   -0.042494   -0.018368
H    -4.650303    4.533406   -2.370567   -0.033468   -0.000078   -0.005802
O    -0.301430    4.043260   -0.105207    0.092880    0.145544   -0.090008
H    -0.518948    2.001311    0.230998    0.200120   -0.165810   -1.075658
O    -2.446969    8.615417    0.017174    0.002250   -0.015804    0.011848
C    -2.242486    7.446223    0.677701    0.008074   -0.009364   -0.012054
C    -3.396239    6.704917    0.968491   -0.000112   -0.023432   -0.002156
C    -3.298259    5.502050    1.620973   -0.002208   -0.022942   -0.016400
C    -2.050222    5.014809    2.025660    0.016214   -0.090576   -0.029676
C    -0.902080    5.747484    1.731190    0.024262   -0.047400   -0.038590
C    -1.002426    6.965272    1.077643    0.002304   -0.028596   -0.005576
H    -4.350976    7.092165    0.651599   -0.004918   -0.025408    0.009364
H    -4.176774    4.909643    1.835355   -0.035486    0.007344   -0.021738
C    -1.980158    3.700207    2.687992   -0.087744    0.257082    0.540190
H     0.060121    5.380424    2.046624    0.032252   -0.026964   -0.060464
H    -0.095961    7.504441    0.859237    0.001318   -0.032222   -0.008438
O    -2.934308    3.010793    3.072196    0.029040    0.048642   -0.036230
H    -1.474534    3.046953    1.243078    0.642122   -0.436840   -0.865374
O    -0.724890    3.530779    3.312993   -0.088884   -0.087864   -0.024144
O    -0.671839    2.248426    3.981444    0.025274   -0.016984    0.043830
H    -1.627396    2.091467    4.208744    0.152882    0.086656    0.955756
C    -1.323667    9.403905   -0.341152   -0.008008    0.002564   -0.000448
C    -6.806558    1.238929   -2.383736    0.003436   -0.003040   -0.009378
H    -7.715444    1.448766   -2.942891   -0.000290   -0.018276   -0.011530
H    -6.253686    0.427557   -2.863908    0.012170   -0.004198   -0.001846
H    -7.058380    0.958209   -1.357681    0.004288   -0.007190   -0.006686
H    -1.736992   10.252612   -0.880458   -0.021436   -0.012128   -0.009918
H    -0.789307    9.749492    0.546611   -0.020320    0.020960   -0.003068
H    -0.643082    8.845372   -0.987616   -0.001718    0.004630    0.010570
39
* Frequency(6) -470.5500
O    -6.071400    2.448028   -2.417515   -0.018620    0.000300   -0.013972
C    -4.862105    2.495426   -1.778998    0.001618    0.002902   -0.003484
C    -4.289003    1.429777   -1.096935   -0.022434    0.003480   -0.003376
C    -3.057142    1.591095   -0.487063   -0.009598    0.002288   -0.023858
C    -2.387140    2.797523   -0.557988   -0.015914   -0.018536   -0.091304
C    -2.965533    3.860821   -1.230716   -0.005214   -0.008072   -0.032716
C    -4.191501    3.715928   -1.840715   -0.018366    0.004466   -0.008376
H    -4.783968    0.474362   -1.029385   -0.026496    0.004448    0.003160
H    -2.609575    0.764093    0.051133    0.011748    0.000166   -0.025780
C    -1.072497    2.987200    0.172590   -0.021880   -0.064842   -0.022718
H    -2.416492    4.788486   -1.261941    0.036956   -0.042494   -0.018368
H    -4.653695    4.533398   -2.371155   -0.033468   -0.000078   -0.005802
O    -0.292018    4.058008   -0.114327    0.092880    0.145544   -0.090008
H    -0.498670    1.984509    0.122002    0.200120   -0.165810   -1.075658
O    -2.446741    8.613816    0.018375    0.002250   -0.015804    0.011848
C    -2.241668    7.445274    0.676480    0.008074   -0.009364   -0.012054
C    -3.396250    6.702543    0.968273   -0.000112   -0.023432   -0.002156
C    -3.298483    5.499725    1.619311   -0.002208   -0.022942   -0.016400
C    -2.048579    5.005630    2.022653    0.016214   -0.090576   -0.029676
C    -0.899621    5.742681    1.727280    0.024262   -0.047400   -0.038590
C    -1.002193    6.962375    1.077078    0.002304   -0.028596   -0.005576
H    -4.351474    7.089590    0.652548   -0.004918   -0.025408    0.009364
H    -4.180370    4.910387    1.833152   -0.035486    0.007344   -0.021738
C    -1.989049    3.726257    2.742729   -0.087744    0.257082    0.540190
H     0.063389    5.377691    2.040497    0.032252   -0.026964   -0.060464
H    -0.095828    7.501176    0.858382    0.001318   -0.032222   -0.008438
O    -2.931365    3.015722    3.068524    0.029040    0.048642   -0.036230
H    -1.409468    3.002689    1.155390    0.642122   -0.436840   -0.865374
O    -0.733897    3.521875    3.310547   -0.088884   -0.087864   -0.024144
O    -0.669278    2.246705    3.985885    0.025274   -0.016984    0.043830
H    -1.611904    2.100248    4.305590    0.152882    0.086656    0.955756
C    -1.324479    9.404165   -0.341197   -0.008008    0.002564   -0.000448
C    -6.806209    1.238620   -2.384686    0.003436   -0.003040   -0.009378
H    -7.715473    1.446914   -2.944060   -0.000290   -0.018276   -0.011530
H    -6.252453    0.427132   -2.864095    0.012170   -0.004198   -0.001846
H    -7.057945    0.957480   -1.358358    0.004288   -0.007190   -0.006686
H    -1.739164   10.251383   -0.881463   -0.021436   -0.012128   -0.009918
H    -0.791366    9.751616    0.546300   -0.020320    0.020960   -0.003068
H    -0.643256    8.845841   -0.986545   -0.001718    0.004630    0.010570
39
* Frequency(6) -470.5500
O    -6.072853    2.448052   -2.418605   -0.018620    0.000300   -0.013972
C    -4.861979    2.495652   -1.779270    0.001618    0.002902   -0.003484
C    -4.290753    1.430049   -1.097198   -0.022434    0.003480   -0.003376
C    -3.057891    1.591273   -0.488925   -0.009598    0.002288   -0.023858
C    -2.388382    2.796077   -0.565113   -0.015914   -0.018536   -0.091304
C    -2.965940    3.860191   -1.233269   -0.005214   -0.008072   -0.032716
C    -4.192934    3.716277   -1.841368   -0.018366    0.004466   -0.008376
H    -4.786036    0.474709   -1.029138   -0.026496    0.004448    0.003160
H    -2.608659    0.764106    0.049121    0.011748    0.000166   -0.025780
C    -1.074204    2.982140    0.170817   -0.021880   -0.064842   -0.022718
H    -2.413609    4.785170   -1.263374    0.036956   -0.042494   -0.018368
H    -4.656306    4.533392   -2.371608   -0.033468   -0.000078   -0.005802
O    -0.284770    4.069366   -0.121351    0.092880    0.145544   -0.090008
H    -0.483054    1.971570    0.038064    0.200120   -0.165810   -1.075658
O    -2.446566    8.612582    0.019300    0.002250   -0.015804    0.011848
C    -2.241038    7.444543    0.675539    0.008074   -0.009364   -0.012054
C    -3.396259    6.700714    0.968104   -0.000112   -0.023432   -0.002156
C    -3.298655    5.497935    1.618032   -0.002208   -0.022942   -0.016400
C    -2.047314    4.998562    2.020338    0.016214   -0.090576   -0.029676
C    -0.897728    5.738982    1.724269    0.024262   -0.047400   -0.038590
C    -1.002013    6.960143    1.076643    0.002304   -0.028596   -0.005576
H    -4.351858    7.087607    0.653279   -0.004918   -0.025408    0.009364
H    -4.183139    4.910960    1.831456   -0.035486    0.007344   -0.021738
C    -1.995896    3.746318    2.784882   -0.087744    0.257082    0.540190
H     0.065906    5.375587    2.035779    0.032252   -0.026964   -0.060464
H    -0.095725    7.498662    0.857724    0.001318   -0.032222   -0.008438
O    -2.929099    3.019518    3.065697    0.029040    0.048642   -0.036230
H    -1.359361    2.968600    1.087861    0.642122   -0.436840   -0.865374
O    -0.740833    3.515019    3.308663   -0.088884   -0.087864   -0.024144
O    -0.667306    2.245380    3.989306    0.025274   -0.016984    0.043830
H    -1.599974    2.107010    4.380171    0.152882    0.086656    0.955756
C    -1.325103    9.404365   -0.341232   -0.008008    0.002564   -0.000448
C    -6.805941    1.238383   -2.385418    0.003436   -0.003040   -0.009378
H    -7.715496    1.445488   -2.944959   -0.000290   -0.018276   -0.011530
H    -6.251503    0.426804   -2.864239    0.012170   -0.004198   -0.001846
H    -7.057611    0.956919   -1.358880    0.004288   -0.007190   -0.006686
H    -1.740837   10.250436   -0.882237   -0.021436   -0.012128   -0.009918
H    -0.792952    9.753251    0.546061   -0.020320    0.020960   -0.003068
H    -0.643390    8.846203   -0.985720   -0.001718    0.004630    0.010570
39
* Frequency(6) -470.5500
O    -6.073715    2.448066   -2.419252   -0.018620    0.000300   -0.013972
C    -4.861904    2.495787   -1.779431    0.001618    0.002902   -0.003484
C    -4.291792    1.430210   -1.097354   -0.022434    0.003480   -0.003376
C    -3.058336    1.591379   -0.490029   -0.009598    0.002288   -0.023858
C    -2.389118    2.795219   -0.569339   -0.015914   -0.018536   -0.091304
C    -2.966181    3.859817   -1.234783   -0.005214   -0.008072   -0.032716
C    -4.193784    3.716483   -1.841756   -0.018366    0.004466   -0.008376
H    -4.787262    0.474915   -1.028992   -0.026496    0.004448    0.003160
H    -2.608115    0.764113    0.047928    0.011748    0.000166   -0.025780
C    -1.075217    2.979139    0.169766   -0.021880   -0.064842   -0.022718
H    -2.411898    4.783203   -1.264224    0.036956   -0.042494   -0.018368
H    -4.657855    4.533389   -2.371877   -0.033468   -0.000078   -0.005802
O    -0.280472    4.076102   -0.125517    0.092880    0.145544   -0.090008
H    -0.473792    1.963896   -0.011719    0.200120   -0.165810   -1.075658
O    -2.446462    8.611851    0.019848    0.002250   -0.015804    0.011848
C    -2.240665    7.444110    0.674981    0.008074   -0.009364   -0.012054
C    -3.396264    6.699630    0.968004   -0.000112   -0.023432   -0.002156
C    -3.298757    5.496873    1.617273   -0.002208   -0.022942   -0.016400
C    -2.046564    4.994370    2.018964    0.016214   -0.090576   -0.029676
C    -0.896605    5.736789    1.722483    0.024262   -0.047400   -0.038590
C    -1.001906    6.958820    1.076385    0.002304   -0.028596   -0.005576
H    -4.352086    7.086431    0.653712   -0.004918   -0.025408    0.009364
H    -4.184781    4.911300    1.830450   -0.035486    0.007344   -0.021738
C    -1.999957    3.758216    2.809883   -0.087744    0.257082    0.540190
H     0.067399    5.374339    2.032980    0.032252   -0.026964   -0.060464
H    -0.095664    7.497170    0.857333    0.001318   -0.032222   -0.008438
O    -2.927755    3.021769    3.064021    0.029040    0.048642   -0.036230
H    -1.329642    2.948383    1.047810    0.642122   -0.436840   -0.865374
O    -0.744946    3.510953    3.307545   -0.088884   -0.087864   -0.024144
O    -0.666136    2.244593    3.991334    0.025274   -0.016984    0.043830
H    -1.592899    2.111021    4.424406    0.152882    0.086656    0.955756
C    -1.325474    9.404484   -0.341253   -0.008008    0.002564   -0.000448
C    -6.805782    1.238243   -2.385852    0.003436   -0.003040   -0.009378
H    -7.715509    1.444642   -2.945493   -0.000290   -0.018276   -0.011530
H    -6.250940    0.426610   -2.864324    0.012170   -0.004198   -0.001846
H    -7.057412    0.956587   -1.359189    0.004288   -0.007190   -0.006686
H    -1.741829   10.249875   -0.882696   -0.021436   -0.012128   -0.009918
H    -0.793892    9.754222    0.545919   -0.020320    0.020960   -0.003068
H    -0.643470    8.846417   -0.985231   -0.001718    0.004630    0.010570
39
* Frequency(6) -470.5500
O    -6.073892    2.448069   -2.419384   -0.018620    0.000300   -0.013972
C    -4.861889    2.495814   -1.779464    0.001618    0.002902   -0.003484
C    -4.292005    1.430243   -1.097387   -0.022434    0.003480   -0.003376
C    -3.058427    1.591401   -0.490256   -0.009598    0.002288   -0.023858
C    -2.389270    2.795043   -0.570207   -0.015914   -0.018536   -0.091304
C    -2.966231    3.859740   -1.235094   -0.005214   -0.008072   -0.032716
C    -4.193959    3.716526   -1.841836   -0.018366    0.004466   -0.008376
H    -4.787514    0.474957   -1.028962   -0.026496    0.004448    0.003160
H    -2.608003    0.764115    0.047683    0.011748    0.000166   -0.025780
C    -1.075425    2.978522    0.169550   -0.021880   -0.064842   -0.022718
H    -2.411547    4.782799   -1.264399    0.036956   -0.042494   -0.018368
H    -4.658174    4.533388   -2.371932   -0.033468   -0.000078   -0.005802
O    -0.279588    4.077486   -0.126373    0.092880    0.145544   -0.090008
H    -0.471888    1.962319   -0.021953    0.200120   -0.165810   -1.075658
O    -2.446440    8.611700    0.019961    0.002250   -0.015804    0.011848
C    -2.240588    7.444021    0.674867    0.008074   -0.009364   -0.012054
C    -3.396265    6.699407    0.967984   -0.000112   -0.023432   -0.002156
C    -3.298778    5.496655    1.617117   -0.002208   -0.022942   -0.016400
C    -2.046409    4.993509    2.018682    0.016214   -0.090576   -0.029676
C    -0.896374    5.736338    1.722116    0.024262   -0.047400   -0.038590
C    -1.001884    6.958548    1.076332    0.002304   -0.028596   -0.005576
H    -4.352132    7.086190    0.653801   -0.004918   -0.025408    0.009364
H    -4.185119    4.911370    1.830243   -0.035486    0.007344   -0.021738
C    -2.000792    3.760662    2.815023   -0.087744    0.257082    0.540190
H     0.067706    5.374083    2.032405    0.032252   -0.026964   -0.060464
H    -0.095651    7.496864    0.857253    0.001318   -0.032222   -0.008438
O    -2.927479    3.022232    3.063676    0.029040    0.048642   -0.036230
H    -1.323533    2.944226    1.039577    0.642122   -0.436840   -0.865374
O    -0.745792    3.510117    3.307315   -0.088884   -0.087864   -0.024144
O    -0.665895    2.244432    3.991751    0.025274   -0.016984    0.043830
H    -1.591444    2.111845    4.433499    0.152882    0.086656    0.955756
C    -1.325550    9.404508   -0.341257   -0.008008    0.002564   -0.000448
C    -6.805750    1.238214   -2.385941    0.003436   -0.003040   -0.009378
H    -7.715512    1.444468   -2.945603   -0.000290   -0.018276   -0.011530
H    -6.250824    0.426570   -2.864342    0.012170   -0.004198   -0.001846
H    -7.057371    0.956518   -1.359253    0.004288   -0.007190   -0.006686
H    -1.742033   10.249760   -0.882790   -0.021436   -0.012128   -0.009918
H    -0.794086    9.754421    0.545890   -0.020320    0.020960   -0.003068
H    -0.643486    8.846461   -0.985130   -0.001718    0.004630    0.010570
39
* Frequency(6) -470.5500
O    -6.073365    2.448060   -2.418989   -0.018620    0.000300   -0.013972
C    -4.861934    2.495732   -1.779366    0.001618    0.002902   -0.003484
C    -4.291371    1.430144   -1.097291   -0.022434    0.003480   -0.003376
C    -3.058155    1.591336   -0.489581   -0.009598    0.002288   -0.023858
C    -2.388820    2.795567   -0.567625   -0.015914   -0.018536   -0.091304
C    -2.966083    3.859969   -1.234169   -0.005214   -0.008072   -0.032716
C    -4.193440    3.716399   -1.841599   -0.018366    0.004466   -0.008376
H    -4.786765    0.474832   -1.029051   -0.026496    0.004448    0.003160
H    -2.608336    0.764110    0.048412    0.011748    0.000166   -0.025780
C    -1.074806    2.980356    0.170192   -0.021880   -0.064842   -0.022718
H    -2.412592    4.784001   -1.263879    0.036956   -0.042494   -0.018368
H    -4.657227    4.533390   -2.371768   -0.033468   -0.000078   -0.005802
O    -0.282215    4.073370   -0.123827    0.092880    0.145544   -0.090008
H    -0.477548    1.967008    0.008470    0.200120   -0.165810   -1.075658
O    -2.446504    8.612147    0.019626    0.002250   -0.015804    0.011848
C    -2.240816    7.444286    0.675207    0.008074   -0.009364   -0.012054
C    -3.396262    6.700070    0.968045   -0.000112   -0.023432   -0.002156
C    -3.298716    5.497304    1.617580   -0.002208   -0.022942   -0.016400
C    -2.046868    4.996071    2.019521    0.016214   -0.090576   -0.029676
C    -0.897061    5.737678    1.723207    0.024262   -0.047400   -0.038590
C    -1.001950    6.959356    1.076490    0.002304   -0.028596   -0.005576
H    -4.351993    7.086908    0.653536   -0.004918   -0.025408    0.009364
H    -4.184115    4.911162    1.830858   -0.035486    0.007344   -0.021738
C    -1.998310    3.753391    2.799744   -0.087744    0.257082    0.540190
H     0.066793    5.374845    2.034115    0.032252   -0.026964   -0.060464
H    -0.095689    7.497775    0.857491    0.001318   -0.032222   -0.008438
O    -2.928300    3.020856    3.064701    0.029040    0.048642   -0.036230
H    -1.341695    2.956582    1.064053    0.642122   -0.436840   -0.865374
O    -0.743278    3.512602    3.307998   -0.088884   -0.087864   -0.024144
O    -0.666610    2.244912    3.990511    0.025274   -0.016984    0.043830
H    -1.595768    2.109394    4.406467    0.152882    0.086656    0.955756
C    -1.325324    9.404436   -0.341245   -0.008008    0.002564   -0.000448
C    -6.805847    1.238300   -2.385676    0.003436   -0.003040   -0.009378
H    -7.715504    1.444985   -2.945277   -0.000290   -0.018276   -0.011530
H    -6.251168    0.426688   -2.864290    0.012170   -0.004198   -0.001846
H    -7.057493    0.956721   -1.359064    0.004288   -0.007190   -0.006686
H    -1.741427   10.250103   -0.882510   -0.021436   -0.012128   -0.009918
H    -0.793511    9.753828    0.545977   -0.020320    0.020960   -0.003068
H    -0.643438    8.846330   -0.985429   -0.001718    0.004630    0.010570
39
* Frequency(6) -470.5500
O    -6.072192    2.448041   -2.418109   -0.018620    0.000300   -0.013972
C    -4.862036    2.495549   -1.779146    0.001618    0.002902   -0.003484
C    -4.289957    1.429925   -1.097078   -0.022434    0.003480   -0.003376
C    -3.057551    1.591192   -0.488078   -0.009598    0.002288   -0.023858
C    -2.387817    2.796735   -0.561871   -0.015914   -0.018536   -0.091304
C    -2.965755    3.860477   -1.232107   -0.005214   -0.008072   -0.032716
C    -4.192282    3.716118   -1.841071   -0.018366    0.004466   -0.008376
H    -4.785095    0.474551   -1.029250   -0.026496    0.004448    0.003160
H    -2.609076    0.764100    0.050037    0.011748    0.000166   -0.025780
C    -1.073427    2.984442    0.171624   -0.021880   -0.064842   -0.022718
H    -2.414921    4.786679   -1.262722    0.036956   -0.042494   -0.018368
H    -4.655118    4.533395   -2.371402   -0.033468   -0.000078   -0.005802
O    -0.288068    4.064198   -0.118155    0.092880    0.145544   -0.090008
H    -0.490159    1.977457    0.076255    0.200120   -0.165810   -1.075658
O    -2.446646    8.613143    0.018879    0.002250   -0.015804    0.011848
C    -2.241325    7.444876    0.675967    0.008074   -0.009364   -0.012054
C    -3.396255    6.701546    0.968181   -0.000112   -0.023432   -0.002156
C    -3.298577    5.498749    1.618614   -0.002208   -0.022942   -0.016400
C    -2.047890    5.001778    2.021391    0.016214   -0.090576   -0.029676
C    -0.898589    5.740665    1.725639    0.024262   -0.047400   -0.038590
C    -1.002095    6.961158    1.076841    0.002304   -0.028596   -0.005576
H    -4.351683    7.088509    0.652946   -0.004918   -0.025408    0.009364
H    -4.181879    4.910699    1.832227   -0.035486    0.007344   -0.021738
C    -1.992780    3.737190    2.765703   -0.087744    0.257082    0.540190
H     0.064761    5.376545    2.037925    0.032252   -0.026964   -0.060464
H    -0.095772    7.499806    0.858023    0.001318   -0.032222   -0.008438
O    -2.930130    3.017790    3.066984    0.029040    0.048642   -0.036230
H    -1.382159    2.984110    1.118586    0.642122   -0.436840   -0.865374
O    -0.737677    3.518139    3.309520   -0.088884   -0.087864   -0.024144
O    -0.668203    2.245983    3.987749    0.025274   -0.016984    0.043830
H    -1.605402    2.103933    4.346237    0.152882    0.086656    0.955756
C    -1.324819    9.404274   -0.341216   -0.008008    0.002564   -0.000448
C    -6.806063    1.238491   -2.385085    0.003436   -0.003040   -0.009378
H    -7.715486    1.446137   -2.944550   -0.000290   -0.018276   -0.011530
H    -6.251935    0.426953   -2.864173    0.012170   -0.004198   -0.001846
H    -7.057763    0.957175   -1.358643    0.004288   -0.007190   -0.006686
H    -1.740076   10.250867   -0.881885   -0.021436   -0.012128   -0.009918
H    -0.792230    9.752507    0.546170   -0.020320    0.020960   -0.003068
H    -0.643329    8.846038   -0.986095   -0.001718    0.004630    0.010570
39
* Frequency(6) -470.5500
O    -6.070499    2.448014   -2.416838   -0.018620    0.000300   -0.013972
C    -4.862183    2.495285   -1.778829    0.001618    0.002902   -0.003484
C    -4.287917    1.429609   -1.096771   -0.022434    0.003480   -0.003376
C    -3.056678    1.590984   -0.485908   -0.009598    0.002288   -0.023858
C    -2.386370    2.798420   -0.553570   -0.015914   -0.018536   -0.091304
C    -2.965281    3.861211   -1.229133   -0.005214   -0.008072   -0.032716
C    -4.190612    3.715712   -1.840309   -0.018366    0.004466   -0.008376
H    -4.782686    0.474147   -1.029538   -0.026496    0.004448    0.003160
H    -2.610144    0.764085    0.052381    0.011748    0.000166   -0.025780
C    -1.071438    2.990338    0.173690   -0.021880   -0.064842   -0.022718
H    -2.418281    4.790542   -1.261052    0.036956   -0.042494   -0.018368
H    -4.652075    4.533402   -2.370875   -0.033468   -0.000078   -0.005802
O    -0.296513    4.050965   -0.109972    0.092880    0.145544   -0.090008
H    -0.508355    1.992533    0.174056    0.200120   -0.165810   -1.075658
O    -2.446850    8.614580    0.017802    0.002250   -0.015804    0.011848
C    -2.242059    7.445727    0.677063    0.008074   -0.009364   -0.012054
C    -3.396245    6.703677    0.968377   -0.000112   -0.023432   -0.002156
C    -3.298376    5.500835    1.620105   -0.002208   -0.022942   -0.016400
C    -2.049364    5.010014    2.024090    0.016214   -0.090576   -0.029676
C    -0.900795    5.744975    1.729148    0.024262   -0.047400   -0.038590
C    -1.002304    6.963758    1.077348    0.002304   -0.028596   -0.005576
H    -4.351236    7.090819    0.652095   -0.004918   -0.025408    0.009364
H    -4.178652    4.910031    1.834204   -0.035486    0.007344   -0.021738
C    -1.984803    3.713816    2.716588   -0.087744    0.257082    0.540190
H     0.061829    5.378996    2.043423    0.032252   -0.026964   -0.060464
H    -0.095891    7.502735    0.858790    0.001318   -0.032222   -0.008438
O    -2.932770    3.013368    3.070278    0.029040    0.048642   -0.036230
H    -1.440542    3.023828    1.197268    0.642122   -0.436840   -0.865374
O    -0.729595    3.526127    3.311715   -0.088884   -0.087864   -0.024144
O    -0.670501    2.247527    3.983764    0.025274   -0.016984    0.043830
H    -1.619303    2.096054    4.259338    0.152882    0.086656    0.955756
C    -1.324091    9.404041   -0.341176   -0.008008    0.002564   -0.000448
C    -6.806376    1.238768   -2.384232    0.003436   -0.003040   -0.009378
H    -7.715459    1.447799   -2.943502   -0.000290   -0.018276   -0.011530
H    -6.253042    0.427335   -2.864006    0.012170   -0.004198   -0.001846
H    -7.058153    0.957828   -1.358035    0.004288   -0.007190   -0.006686
H    -1.738127   10.251970   -0.880983   -0.021436   -0.012128   -0.009918
H    -0.790383    9.750602    0.546449   -0.020320    0.020960   -0.003068
H    -0.643173    8.845617   -0.987056   -0.001718    0.004630    0.010570
39
* Frequency(6) -470.5500
O    -6.068470    2.447981   -2.415316   -0.018620    0.000300   -0.013972
C    -4.862360    2.494969   -1.778450    0.001618    0.002902   -0.003484
C    -4.285472    1.429229   -1.096403   -0.022434    0.003480   -0.003376
C    -3.055632    1.590735   -0.483308   -0.009598    0.002288   -0.023858
C    -2.384636    2.800440   -0.543620   -0.015914   -0.018536   -0.091304
C    -2.964712    3.862091   -1.225568   -0.005214   -0.008072   -0.032716
C    -4.188611    3.715225   -1.839397   -0.018366    0.004466   -0.008376
H    -4.779798    0.473662   -1.029882   -0.026496    0.004448    0.003160
H    -2.611424    0.764067    0.055190    0.011748    0.000166   -0.025780
C    -1.069053    2.997404    0.176165   -0.021880   -0.064842   -0.022718
H    -2.422308    4.795173   -1.259050    0.036956   -0.042494   -0.018368
H    -4.648428    4.533411   -2.370242   -0.033468   -0.000078   -0.005802
O    -0.306634    4.035105   -0.100163    0.092880    0.145544   -0.090008
H    -0.530162    2.010602    0.291274    0.200120   -0.165810   -1.075658
O    -2.447095    8.616303    0.016511    0.002250   -0.015804    0.011848
C    -2.242939    7.446748    0.678377    0.008074   -0.009364   -0.012054
C    -3.396232    6.706230    0.968612   -0.000112   -0.023432   -0.002156
C    -3.298135    5.503335    1.621892   -0.002208   -0.022942   -0.016400
C    -2.051131    5.019884    2.027323    0.016214   -0.090576   -0.029676
C    -0.903439    5.750140    1.733353    0.024262   -0.047400   -0.038590
C    -1.002555    6.966875    1.077956    0.002304   -0.028596   -0.005576
H    -4.350700    7.093588    0.651074   -0.004918   -0.025408    0.009364
H    -4.174785    4.909231    1.836573   -0.035486    0.007344   -0.021738
C    -1.975241    3.685801    2.657721   -0.087744    0.257082    0.540190
H     0.058314    5.381935    2.050012    0.032252   -0.026964   -0.060464
H    -0.096035    7.506247    0.859710    0.001318   -0.032222   -0.008438
O    -2.935935    3.008067    3.074226    0.029040    0.048642   -0.036230
H    -1.510517    3.071432    1.291570    0.642122   -0.436840   -0.865374
O    -0.719909    3.535702    3.314346   -0.088884   -0.087864   -0.024144
O    -0.673255    2.249378    3.978988    0.025274   -0.016984    0.043830
H    -1.635963    2.086611    4.155186    0.152882    0.086656    0.955756
C    -1.323218    9.403762   -0.341127   -0.008008    0.002564   -0.000448
C    -6.806750    1.239099   -2.383210    0.003436   -0.003040   -0.009378
H    -7.715428    1.449790   -2.942245   -0.000290   -0.018276   -0.011530
H    -6.254368    0.427792   -2.863804    0.012170   -0.004198   -0.001846
H    -7.058620    0.958612   -1.357306    0.004288   -0.007190   -0.006686
H    -1.735791   10.253291   -0.879902   -0.021436   -0.012128   -0.009918
H    -0.788169    9.748317    0.546783   -0.020320    0.020960   -0.003068
H    -0.642986    8.845113   -0.988208   -0.001718    0.004630    0.010570
39
* Frequency(6) -470.5500
O    -6.066324    2.447947   -2.413706   -0.018620    0.000300   -0.013972
C    -4.862546    2.494635   -1.778048    0.001618    0.002902   -0.003484
C    -4.282888    1.428829   -1.096015   -0.022434    0.003480   -0.003376
C    -3.054526    1.590471   -0.480560   -0.009598    0.002288   -0.023858
C    -2.382802    2.802576   -0.533100   -0.015914   -0.018536   -0.091304
C    -2.964112    3.863021   -1.221798   -0.005214   -0.008072   -0.032716
C    -4.186495    3.714711   -1.838431   -0.018366    0.004466   -0.008376
H    -4.776746    0.473150   -1.030246   -0.026496    0.004448    0.003160
H    -2.612778    0.764047    0.058160    0.011748    0.000166   -0.025780
C    -1.066533    3.004874    0.178783   -0.021880   -0.064842   -0.022718
H    -2.426566    4.800069   -1.256934    0.036956   -0.042494   -0.018368
H    -4.644572    4.533419   -2.369574   -0.033468   -0.000078   -0.005802
O    -0.317336    4.018335   -0.089793    0.092880    0.145544   -0.090008
H    -0.553220    2.029706    0.415208    0.200120   -0.165810   -1.075658
O    -2.447355    8.618123    0.015145    0.002250   -0.015804    0.011848
C    -2.243869    7.447826    0.679765    0.008074   -0.009364   -0.012054
C    -3.396220    6.708930    0.968860   -0.000112   -0.023432   -0.002156
C    -3.297881    5.505979    1.623782   -0.002208   -0.022942   -0.016400
C    -2.052999    5.030320    2.030743    0.016214   -0.090576   -0.029676
C    -0.906235    5.755602    1.737799    0.024262   -0.047400   -0.038590
C    -1.002821    6.970169    1.078598    0.002304   -0.028596   -0.005576
H    -4.350134    7.096516    0.649996   -0.004918   -0.025408    0.009364
H    -4.170697    4.908385    1.839077   -0.035486    0.007344   -0.021738
C    -1.965131    3.656181    2.595483   -0.087744    0.257082    0.540190
H     0.054598    5.385041    2.056978    0.032252   -0.026964   -0.060464
H    -0.096187    7.509959    0.860682    0.001318   -0.032222   -0.008438
O    -2.939281    3.002463    3.078400    0.029040    0.048642   -0.036230
H    -1.584499    3.121764    1.391276    0.642122   -0.436840   -0.865374
O    -0.709669    3.545826    3.317128   -0.088884   -0.087864   -0.024144
O    -0.676167    2.251334    3.973938    0.025274   -0.016984    0.043830
H    -1.653577    2.076627    4.045068    0.152882    0.086656    0.955756
C    -1.322296    9.403466   -0.341075   -0.008008    0.002564   -0.000448
C    -6.807146    1.239449   -2.382130    0.003436   -0.003040   -0.009378
H    -7.715394    1.451896   -2.940917   -0.000290   -0.018276   -0.011530
H    -6.255770    0.428276   -2.863592    0.012170   -0.004198   -0.001846
H    -7.059114    0.959440   -1.356536    0.004288   -0.007190   -0.006686
H    -1.733321   10.254689   -0.878760   -0.021436   -0.012128   -0.009918
H    -0.785827    9.745903    0.547137   -0.020320    0.020960   -0.003068
H    -0.642788    8.844579   -0.989426   -0.001718    0.004630    0.010570
39
* Frequency(6) -470.5500
O    -6.064295    2.447914   -2.412184   -0.018620    0.000300   -0.013972
C    -4.862723    2.494319   -1.777669    0.001618    0.002902   -0.003484
C    -4.280443    1.428449   -1.095647   -0.022434    0.003480   -0.003376
C    -3.053480    1.590222   -0.477960   -0.009598    0.002288   -0.023858
C    -2.381068    2.804596   -0.523150   -0.015914   -0.018536   -0.091304
C    -2.963543    3.863901   -1.218233   -0.005214   -0.008072   -0.032716
C    -4.184494    3.714224   -1.837519   -0.018366    0.004466   -0.008376
H    -4.773858    0.472665   -1.030590   -0.026496    0.004448    0.003160
H    -2.614058    0.764029    0.060969    0.011748    0.000166   -0.025780
C    -1.064148    3.011940    0.181258   -0.021880   -0.064842   -0.022718
H    -2.430593    4.804700   -1.254932    0.036956   -0.042494   -0.018368
H    -4.640925    4.533428   -2.368941   -0.033468   -0.000078   -0.005802
O    -0.327457    4.002475   -0.079984    0.092880    0.145544   -0.090008
H    -0.575027    2.047775    0.532426    0.200120   -0.165810   -1.075658
O    -2.447600    8.619846    0.013854    0.002250   -0.015804    0.011848
C    -2.244749    7.448847    0.681079    0.008074   -0.009364   -0.012054
C    -3.396207    6.711483    0.969095   -0.000112   -0.023432   -0.002156
C    -3.297640    5.508479    1.625569   -0.002208   -0.022942   -0.016400
C    -2.054766    5.040190    2.033976    0.016214   -0.090576   -0.029676
C    -0.908879    5.760767    1.742004    0.024262   -0.047400   -0.038590
C    -1.003072    6.973286    1.079206    0.002304   -0.028596   -0.005576
H    -4.349598    7.099285    0.648975   -0.004918   -0.025408    0.009364
H    -4.166830    4.907585    1.841446   -0.035486    0.007344   -0.021738
C    -1.955569    3.628166    2.536616   -0.087744    0.257082    0.540190
H     0.051083    5.387980    2.063567    0.032252   -0.026964   -0.060464
H    -0.096331    7.513471    0.861602    0.001318   -0.032222   -0.008438
O    -2.942446    2.997162    3.082348    0.029040    0.048642   -0.036230
H    -1.654474    3.169368    1.485578    0.642122   -0.436840   -0.865374
O    -0.699983    3.555401    3.319759   -0.088884   -0.087864   -0.024144
O    -0.678921    2.253185    3.969162    0.025274   -0.016984    0.043830
H    -1.670237    2.067184    3.940916    0.152882    0.086656    0.955756
C    -1.321423    9.403187   -0.341026   -0.008008    0.002564   -0.000448
C    -6.807520    1.239780   -2.381108    0.003436   -0.003040   -0.009378
H    -7.715363    1.453887   -2.939660   -0.000290   -0.018276   -0.011530
H    -6.257096    0.428733   -2.863390    0.012170   -0.004198   -0.001846
H    -7.059581    0.960224   -1.355807    0.004288   -0.007190   -0.006686
H    -1.730985   10.256010   -0.877679   -0.021436   -0.012128   -0.009918
H    -0.783613    9.743618    0.547471   -0.020320    0.020960   -0.003068
H    -0.642601    8.844075   -0.990578   -0.001718    0.004630    0.010570
39
* Frequency(6) -470.5500
O    -6.062602    2.447887   -2.410913   -0.018620    0.000300   -0.013972
C    -4.862870    2.494055   -1.777352    0.001618    0.002902   -0.003484
C    -4.278403    1.428133   -1.095340   -0.022434    0.003480   -0.003376
C    -3.052607    1.590014   -0.475790   -0.009598    0.002288   -0.023858
C    -2.379621    2.806281   -0.514849   -0.015914   -0.018536   -0.091304
C    -2.963069    3.864635   -1.215259   -0.005214   -0.008072   -0.032716
C    -4.182824    3.713818   -1.836757   -0.018366    0.004466   -0.008376
H    -4.771449    0.472261   -1.030878   -0.026496    0.004448    0.003160
H    -2.615126    0.764014    0.063313    0.011748    0.000166   -0.025780
C    -1.062159    3.017836    0.183324   -0.021880   -0.064842   -0.022718
H    -2.433953    4.808563   -1.253262    0.036956   -0.042494   -0.018368
H    -4.637882    4.533435   -2.368414   -0.033468   -0.000078   -0.005802
O    -0.335902    3.989242   -0.071801    0.092880    0.145544   -0.090008
H    -0.593223    2.062851    0.630227    0.200120   -0.165810   -1.075658
O    -2.447804    8.621283    0.012777    0.002250   -0.015804    0.011848
C    -2.245483    7.449698    0.682175    0.008074   -0.009364   -0.012054
C    -3.396197    6.713614    0.969291   -0.000112   -0.023432   -0.002156
C    -3.297439    5.510565    1.627060   -0.002208   -0.022942   -0.016400
C    -2.056240    5.048426    2.036675    0.016214   -0.090576   -0.029676
C    -0.911085    5.765077    1.745513    0.024262   -0.047400   -0.038590
C    -1.003281    6.975886    1.079713    0.002304   -0.028596   -0.005576
H    -4.349151    7.101595    0.648124   -0.004918   -0.025408    0.009364
H    -4.163603    4.906917    1.843423   -0.035486    0.007344   -0.021738
C    -1.947592    3.604792    2.487501   -0.087744    0.257082    0.540190
H     0.048151    5.390431    2.069065    0.032252   -0.026964   -0.060464
H    -0.096450    7.516400    0.862369    0.001318   -0.032222   -0.008438
O    -2.945086    2.992740    3.085642    0.029040    0.048642   -0.036230
H    -1.712857    3.209086    1.564260    0.642122   -0.436840   -0.865374
O    -0.691901    3.563389    3.321954   -0.088884   -0.087864   -0.024144
O    -0.681219    2.254729    3.965177    0.025274   -0.016984    0.043830
H    -1.684138    2.059305    3.854017    0.152882    0.086656    0.955756
C    -1.320695    9.402954   -0.340986   -0.008008    0.002564   -0.000448
C    -6.807833    1.240057   -2.380255    0.003436   -0.003040   -0.009378
H    -7.715336    1.455549   -2.938612   -0.000290   -0.018276   -0.011530
H    -6.258203    0.429115   -2.863223    0.012170   -0.004198   -0.001846
H    -7.059971    0.960877   -1.355199    0.004288   -0.007190   -0.006686
H    -1.729036   10.257113   -0.876777   -0.021436   -0.012128   -0.009918
H    -0.781766    9.741713    0.547750   -0.020320    0.020960   -0.003068
H    -0.642445    8.843654   -0.991539   -0.001718    0.004630    0.010570
39
* Frequency(6) -470.5500
O    -6.061429    2.447868   -2.410033   -0.018620    0.000300   -0.013972
C    -4.862972    2.493872   -1.777132    0.001618    0.002902   -0.003484
C    -4.276989    1.427914   -1.095127   -0.022434    0.003480   -0.003376
C    -3.052003    1.589870   -0.474287   -0.009598    0.002288   -0.023858
C    -2.378618    2.807449   -0.509095   -0.015914   -0.018536   -0.091304
C    -2.962741    3.865143   -1.213197   -0.005214   -0.008072   -0.032716
C    -4.181666    3.713537   -1.836229   -0.018366    0.004466   -0.008376
H    -4.769779    0.471980   -1.031077   -0.026496    0.004448    0.003160
H    -2.615866    0.764004    0.064938    0.011748    0.000166   -0.025780
C    -1.060780    3.021922    0.184756   -0.021880   -0.064842   -0.022718
H    -2.436282    4.811241   -1.252105    0.036956   -0.042494   -0.018368
H    -4.635773    4.533440   -2.368048   -0.033468   -0.000078   -0.005802
O    -0.341755    3.980070   -0.066129    0.092880    0.145544   -0.090008
H    -0.605834    2.073300    0.698012    0.200120   -0.165810   -1.075658
O    -2.447946    8.622279    0.012030    0.002250   -0.015804    0.011848
C    -2.245992    7.450288    0.682935    0.008074   -0.009364   -0.012054
C    -3.396190    6.715090    0.969427   -0.000112   -0.023432   -0.002156
C    -3.297300    5.512010    1.628094   -0.002208   -0.022942   -0.016400
C    -2.057262    5.054133    2.038545    0.016214   -0.090576   -0.029676
C    -0.912613    5.768064    1.747945    0.024262   -0.047400   -0.038590
C    -1.003426    6.977688    1.080064    0.002304   -0.028596   -0.005576
H    -4.348841    7.103196    0.647534   -0.004918   -0.025408    0.009364
H    -4.161367    4.906454    1.844792   -0.035486    0.007344   -0.021738
C    -1.942062    3.588591    2.453460   -0.087744    0.257082    0.540190
H     0.046119    5.392131    2.072875    0.032252   -0.026964   -0.060464
H    -0.096533    7.518431    0.862901    0.001318   -0.032222   -0.008438
O    -2.946916    2.989674    3.087925    0.029040    0.048642   -0.036230
H    -1.753321    3.236614    1.618793    0.642122   -0.436840   -0.865374
O    -0.686300    3.568926    3.323476   -0.088884   -0.087864   -0.024144
O    -0.682812    2.255800    3.962415    0.025274   -0.016984    0.043830
H    -1.693772    2.053844    3.793787    0.152882    0.086656    0.955756
C    -1.320190    9.402792   -0.340957   -0.008008    0.002564   -0.000448
C    -6.808049    1.240248   -2.379664    0.003436   -0.003040   -0.009378
H    -7.715318    1.456701   -2.937885   -0.000290   -0.018276   -0.011530
H    -6.258970    0.429380   -2.863106    0.012170   -0.004198   -0.001846
H    -7.060241    0.961331   -1.354778    0.004288   -0.007190   -0.006686
H    -1.727685   10.257877   -0.876152   -0.021436   -0.012128   -0.009918
H    -0.780485    9.740392    0.547943   -0.020320    0.020960   -0.003068
H    -0.642336    8.843362   -0.992205   -0.001718    0.004630    0.010570
39
* Frequency(6) -470.5500
O    -6.060902    2.447859   -2.409638   -0.018620    0.000300   -0.013972
C    -4.863017    2.493790   -1.777034    0.001618    0.002902   -0.003484
C    -4.276355    1.427815   -1.095031   -0.022434    0.003480   -0.003376
C    -3.051731    1.589805   -0.473612   -0.009598    0.002288   -0.023858
C    -2.378168    2.807973   -0.506513   -0.015914   -0.018536   -0.091304
C    -2.962593    3.865372   -1.212272   -0.005214   -0.008072   -0.032716
C    -4.181147    3.713410   -1.835992   -0.018366    0.004466   -0.008376
H    -4.769030    0.471855   -1.031166   -0.026496    0.004448    0.003160
H    -2.616199    0.763999    0.065667    0.011748    0.000166   -0.025780
C    -1.060161    3.023756    0.185398   -0.021880   -0.064842   -0.022718
H    -2.437327    4.812443   -1.251585    0.036956   -0.042494   -0.018368
H    -4.634826    4.533442   -2.367884   -0.033468   -0.000078   -0.005802
O    -0.344382    3.975954   -0.063583    0.092880    0.145544   -0.090008
H    -0.611494    2.077989    0.728435    0.200120   -0.165810   -1.075658
O    -2.448010    8.622726    0.011695    0.002250   -0.015804    0.011848
C    -2.246220    7.450553    0.683275    0.008074   -0.009364   -0.012054
C    -3.396187    6.715753    0.969488   -0.000112   -0.023432   -0.002156
C    -3.297238    5.512659    1.628557   -0.002208   -0.022942   -0.016400
C    -2.057721    5.056695    2.039384    0.016214   -0.090576   -0.029676
C    -0.913300    5.769404    1.749036    0.024262   -0.047400   -0.038590
C    -1.003492    6.978496    1.080222    0.002304   -0.028596   -0.005576
H    -4.348702    7.103914    0.647269   -0.004918   -0.025408    0.009364
H    -4.160363    4.906246    1.845407   -0.035486    0.007344   -0.021738
C    -1.939580    3.581320    2.438181   -0.087744    0.257082    0.540190
H     0.045206    5.392893    2.074585    0.032252   -0.026964   -0.060464
H    -0.096571    7.519342    0.863139    0.001318   -0.032222   -0.008438
O    -2.947737    2.988298    3.088950    0.029040    0.048642   -0.036230
H    -1.771483    3.248970    1.643269    0.642122   -0.436840   -0.865374
O    -0.683786    3.571411    3.324159   -0.088884   -0.087864   -0.024144
O    -0.683527    2.256280    3.961175    0.025274   -0.016984    0.043830
H    -1.698096    2.051393    3.766755    0.152882    0.086656    0.955756
C    -1.319964    9.402720   -0.340945   -0.008008    0.002564   -0.000448
C    -6.808146    1.240334   -2.379399    0.003436   -0.003040   -0.009378
H    -7.715310    1.457218   -2.937559   -0.000290   -0.018276   -0.011530
H    -6.259314    0.429498   -2.863054    0.012170   -0.004198   -0.001846
H    -7.060363    0.961534   -1.354589    0.004288   -0.007190   -0.006686
H    -1.727079   10.258220   -0.875872   -0.021436   -0.012128   -0.009918
H    -0.779910    9.739799    0.548030   -0.020320    0.020960   -0.003068
H    -0.642288    8.843231   -0.992504   -0.001718    0.004630    0.010570
39
* Frequency(6) -470.5500
O    -6.061079    2.447862   -2.409770   -0.018620    0.000300   -0.013972
C    -4.863002    2.493817   -1.777067    0.001618    0.002902   -0.003484
C    -4.276568    1.427848   -1.095064   -0.022434    0.003480   -0.003376
C    -3.051822    1.589827   -0.473839   -0.009598    0.002288   -0.023858
C    -2.378320    2.807797   -0.507381   -0.015914   -0.018536   -0.091304
C    -2.962643    3.865295   -1.212583   -0.005214   -0.008072   -0.032716
C    -4.181322    3.713453   -1.836072   -0.018366    0.004466   -0.008376
H    -4.769282    0.471897   -1.031136   -0.026496    0.004448    0.003160
H    -2.616087    0.764001    0.065422    0.011748    0.000166   -0.025780
C    -1.060369    3.023139    0.185182   -0.021880   -0.064842   -0.022718
H    -2.436976    4.812039   -1.251760    0.036956   -0.042494   -0.018368
H    -4.635145    4.533441   -2.367939   -0.033468   -0.000078   -0.005802
O    -0.343498    3.977338   -0.064439    0.092880    0.145544   -0.090008
H    -0.609590    2.076412    0.718201    0.200120   -0.165810   -1.075658
O    -2.447988    8.622575    0.011808    0.002250   -0.015804    0.011848
C    -2.246143    7.450464    0.683161    0.008074   -0.009364   -0.012054
C    -3.396188    6.715530    0.969468   -0.000112   -0.023432   -0.002156
C    -3.297259    5.512441    1.628401   -0.002208   -0.022942   -0.016400
C    -2.057566    5.055834    2.039102    0.016214   -0.090576   -0.029676
C    -0.913069    5.768953    1.748669    0.024262   -0.047400   -0.038590
C    -1.003470    6.978224    1.080169    0.002304   -0.028596   -0.005576
H    -4.348748    7.103673    0.647358   -0.004918   -0.025408    0.009364
H    -4.160701    4.906316    1.845200   -0.035486    0.007344   -0.021738
C    -1.940415    3.583766    2.443321   -0.087744    0.257082    0.540190
H     0.045513    5.392637    2.074010    0.032252   -0.026964   -0.060464
H    -0.096558    7.519036    0.863059    0.001318   -0.032222   -0.008438
O    -2.947461    2.988761    3.088605    0.029040    0.048642   -0.036230
H    -1.765374    3.244813    1.635036    0.642122   -0.436840   -0.865374
O    -0.684632    3.570575    3.323929   -0.088884   -0.087864   -0.024144
O    -0.683286    2.256119    3.961592    0.025274   -0.016984    0.043830
H    -1.696641    2.052217    3.775848    0.152882    0.086656    0.955756
C    -1.320040    9.402744   -0.340949   -0.008008    0.002564   -0.000448
C    -6.808114    1.240305   -2.379488    0.003436   -0.003040   -0.009378
H    -7.715313    1.457044   -2.937669   -0.000290   -0.018276   -0.011530
H    -6.259198    0.429458   -2.863072    0.012170   -0.004198   -0.001846
H    -7.060322    0.961465   -1.354653    0.004288   -0.007190   -0.006686
H    -1.727283   10.258105   -0.875966   -0.021436   -0.012128   -0.009918
H    -0.780104    9.739998    0.548001   -0.020320    0.020960   -0.003068
H    -0.642304    8.843275   -0.992403   -0.001718    0.004630    0.010570
39
* Frequency(6) -470.5500
O    -6.061941    2.447876   -2.410417   -0.018620    0.000300   -0.013972
C    -4.862927    2.493952   -1.777228    0.001618    0.002902   -0.003484
C    -4.277607    1.428009   -1.095220   -0.022434    0.003480   -0.003376
C    -3.052267    1.589933   -0.474943   -0.009598    0.002288   -0.023858
C    -2.379056    2.806939   -0.511607   -0.015914   -0.018536   -0.091304
C    -2.962884    3.864921   -1.214097   -0.005214   -0.008072   -0.032716
C    -4.182172    3.713659   -1.836460   -0.018366    0.004466   -0.008376
H    -4.770508    0.472103   -1.030990   -0.026496    0.004448    0.003160
H    -2.615543    0.764008    0.064229    0.011748    0.000166   -0.025780
C    -1.061382    3.020138    0.184131   -0.021880   -0.064842   -0.022718
H    -2.435265    4.810072   -1.252610    0.036956   -0.042494   -0.018368
H    -4.636694    4.533438   -2.368208   -0.033468   -0.000078   -0.005802
O    -0.339200    3.984074   -0.068605    0.092880    0.145544   -0.090008
H    -0.600328    2.068738    0.668418    0.200120   -0.165810   -1.075658
O    -2.447884    8.621844    0.012356    0.002250   -0.015804    0.011848
C    -2.245770    7.450031    0.682603    0.008074   -0.009364   -0.012054
C    -3.396193    6.714446    0.969368   -0.000112   -0.023432   -0.002156
C    -3.297361    5.511379    1.627642   -0.002208   -0.022942   -0.016400
C    -2.056816    5.051642    2.037728    0.016214   -0.090576   -0.029676
C    -0.911946    5.766760    1.746883    0.024262   -0.047400   -0.038590
C    -1.003363    6.976901    1.079911    0.002304   -0.028596   -0.005576
H    -4.348976    7.102497    0.647791   -0.004918   -0.025408    0.009364
H    -4.162343    4.906656    1.844194   -0.035486    0.007344   -0.021738
C    -1.944476    3.595664    2.468322   -0.087744    0.257082    0.540190
H     0.047006    5.391389    2.071211    0.032252   -0.026964   -0.060464
H    -0.096497    7.517544    0.862668    0.001318   -0.032222   -0.008438
O    -2.946117    2.991012    3.086929    0.029040    0.048642   -0.036230
H    -1.735655    3.224596    1.594985    0.642122   -0.436840   -0.865374
O    -0.688745    3.566509    3.322811   -0.088884   -0.087864   -0.024144
O    -0.682116    2.255332    3.963620    0.025274   -0.016984    0.043830
H    -1.689566    2.056228    3.820083    0.152882    0.086656    0.955756
C    -1.320411    9.402863   -0.340970   -0.008008    0.002564   -0.000448
C    -6.807955    1.240165   -2.379922    0.003436   -0.003040   -0.009378
H    -7.715326    1.456198   -2.938203   -0.000290   -0.018276   -0.011530
H    -6.258635    0.429264   -2.863157    0.012170   -0.004198   -0.001846
H    -7.060123    0.961133   -1.354962    0.004288   -0.007190   -0.006686
H    -1.728275   10.257544   -0.876425   -0.021436   -0.012128   -0.009918
H    -0.781044    9.740969    0.547859   -0.020320    0.020960   -0.003068
H    -0.642384    8.843489   -0.991914   -0.001718    0.004630    0.010570
39
* Frequency(6) -470.5500
O    -6.063394    2.447900   -2.411507   -0.018620    0.000300   -0.013972
C    -4.862801    2.494178   -1.777500    0.001618    0.002902   -0.003484
C    -4.279357    1.428281   -1.095483   -0.022434    0.003480   -0.003376
C    -3.053016    1.590111   -0.476805   -0.009598    0.002288   -0.023858
C    -2.380298    2.805493   -0.518732   -0.015914   -0.018536   -0.091304
C    -2.963291    3.864291   -1.216650   -0.005214   -0.008072   -0.032716
C    -4.183605    3.714008   -1.837113   -0.018366    0.004466   -0.008376
H    -4.772576    0.472450   -1.030743   -0.026496    0.004448    0.003160
H    -2.614627    0.764021    0.062217    0.011748    0.000166   -0.025780
C    -1.063089    3.015078    0.182358   -0.021880   -0.064842   -0.022718
H    -2.432382    4.806756   -1.254043    0.036956   -0.042494   -0.018368
H    -4.639305    4.533432   -2.368661   -0.033468   -0.000078   -0.005802
O    -0.331952    3.995432   -0.075629    0.092880    0.145544   -0.090008
H    -0.584712    2.055799    0.584480    0.200120   -0.165810   -1.075658
O    -2.447709    8.620610    0.013281    0.002250   -0.015804    0.011848
C    -2.245140    7.449300    0.681662    0.008074   -0.009364   -0.012054
C    -3.396202    6.712617    0.969199   -0.000112   -0.023432   -0.002156
C    -3.297533    5.509589    1.626363   -0.002208   -0.022942   -0.016400
C    -2.055551    5.044574    2.035413    0.016214   -0.090576   -0.029676
C    -0.910053    5.763061    1.743872    0.024262   -0.047400   -0.038590
C    -1.003183    6.974669    1.079476    0.002304   -0.028596   -0.005576
H    -4.349360    7.100514    0.648522   -0.004918   -0.025408    0.009364
H    -4.165112    4.907229    1.842498   -0.035486    0.007344   -0.021738
C    -1.951323    3.615725    2.510475   -0.087744    0.257082    0.540190
H     0.049523    5.389285    2.066493    0.032252   -0.026964   -0.060464
H    -0.096394    7.515030    0.862010    0.001318   -0.032222   -0.008438
O    -2.943851    2.994808    3.084102    0.029040    0.048642   -0.036230
H    -1.685548    3.190507    1.527456    0.642122   -0.436840   -0.865374
O    -0.695681    3.559653    3.320927   -0.088884   -0.087864   -0.024144
O    -0.680144    2.254007    3.967041    0.025274   -0.016984    0.043830
H    -1.677636    2.062990    3.894664    0.152882    0.086656    0.955756
C    -1.321035    9.403063   -0.341005   -0.008008    0.002564   -0.000448
C    -6.807687    1.239928   -2.380654    0.003436   -0.003040   -0.009378
H    -7.715349    1.454772   -2.939102   -0.000290   -0.018276   -0.011530
H    -6.257685    0.428936   -2.863301    0.012170   -0.004198   -0.001846
H    -7.059789    0.960572   -1.355484    0.004288   -0.007190   -0.006686
H    -1.729948   10.256597   -0.877199   -0.021436   -0.012128   -0.009918
H    -0.782630    9.742604    0.547620   -0.020320    0.020960   -0.003068
H    -0.642518    8.843851   -0.991089   -0.001718    0.004630    0.010570
39
* Frequency(6) -470.5500
O    -6.065281    2.447930   -2.412923   -0.018620    0.000300   -0.013972
C    -4.862637    2.494472   -1.777853    0.001618    0.002902   -0.003484
C    -4.281630    1.428634   -1.095825   -0.022434    0.003480   -0.003376
C    -3.053988    1.590343   -0.479223   -0.009598    0.002288   -0.023858
C    -2.381910    2.803615   -0.527984   -0.015914   -0.018536   -0.091304
C    -2.963819    3.863473   -1.219965   -0.005214   -0.008072   -0.032716
C    -4.185466    3.714460   -1.837962   -0.018366    0.004466   -0.008376
H    -4.775261    0.472901   -1.030423   -0.026496    0.004448    0.003160
H    -2.613436    0.764038    0.059605    0.011748    0.000166   -0.025780
C    -1.065306    3.008508    0.180056   -0.021880   -0.064842   -0.022718
H    -2.428637    4.802450   -1.255905    0.036956   -0.042494   -0.018368
H    -4.642697    4.533424   -2.369249   -0.033468   -0.000078   -0.005802
O    -0.322540    4.010180   -0.084749    0.092880    0.145544   -0.090008
H    -0.564434    2.038997    0.475484    0.200120   -0.165810   -1.075658
O    -2.447481    8.619009    0.014482    0.002250   -0.015804    0.011848
C    -2.244322    7.448351    0.680441    0.008074   -0.009364   -0.012054
C    -3.396213    6.710243    0.968981   -0.000112   -0.023432   -0.002156
C    -3.297757    5.507264    1.624701   -0.002208   -0.022942   -0.016400
C    -2.053908    5.035395    2.032406    0.016214   -0.090576   -0.029676
C    -0.907594    5.758258    1.739962    0.024262   -0.047400   -0.038590
C    -1.002950    6.971772    1.078911    0.002304   -0.028596   -0.005576
H    -4.349858    7.097939    0.649471   -0.004918   -0.025408    0.009364
H    -4.168708    4.907973    1.840295   -0.035486    0.007344   -0.021738
C    -1.960214    3.641775    2.565212   -0.087744    0.257082    0.540190
H     0.052791    5.386552    2.060366    0.032252   -0.026964   -0.060464
H    -0.096261    7.511765    0.861155    0.001318   -0.032222   -0.008438
O    -2.940908    2.999737    3.080430    0.029040    0.048642   -0.036230
H    -1.620482    3.146243    1.439768    0.642122   -0.436840   -0.865374
O    -0.704688    3.550749    3.318481   -0.088884   -0.087864   -0.024144
O    -0.677583    2.252286    3.971482    0.025274   -0.016984    0.043830
H    -1.662144    2.071771    3.991510    0.152882    0.086656    0.955756
C    -1.321847    9.403323   -0.341050   -0.008008    0.002564   -0.000448
C    -6.807338    1.239619   -2.381604    0.003436   -0.003040   -0.009378
H    -7.715378    1.452920   -2.940271   -0.000290   -0.018276   -0.011530
H    -6.256452    0.428511   -2.863488    0.012170   -0.004198   -0.001846
H    -7.059354    0.959843   -1.356161    0.004288   -0.007190   -0.006686
H    -1.732120   10.255368   -0.878204   -0.021436   -0.012128   -0.009918
H    -0.784689    9.744728    0.547309   -0.020320    0.020960   -0.003068
H    -0.642692    8.844320   -0.990018   -0.001718    0.004630    0.010570
39
* Frequency(6) -470.5500
O    -6.067397    2.447964   -2.414511   -0.018620    0.000300   -0.013972
C    -4.862453    2.494802   -1.778249    0.001618    0.002902   -0.003484
C    -4.284180    1.429029   -1.096209   -0.022434    0.003480   -0.003376
C    -3.055079    1.590603   -0.481934   -0.009598    0.002288   -0.023858
C    -2.383719    2.801508   -0.538360   -0.015914   -0.018536   -0.091304
C    -2.964412    3.862556   -1.223683   -0.005214   -0.008072   -0.032716
C    -4.187553    3.714968   -1.838914   -0.018366    0.004466   -0.008376
H    -4.778272    0.473406   -1.030064   -0.026496    0.004448    0.003160
H    -2.612101    0.764057    0.056675    0.011748    0.000166   -0.025780
C    -1.067793    3.001139    0.177474   -0.021880   -0.064842   -0.022718
H    -2.424437    4.797621   -1.257992    0.036956   -0.042494   -0.018368
H    -4.646500    4.533415   -2.369908   -0.033468   -0.000078   -0.005802
O    -0.311985    4.026720   -0.094978    0.092880    0.145544   -0.090008
H    -0.541691    2.020154    0.353241    0.200120   -0.165810   -1.075658
O    -2.447225    8.617213    0.015828    0.002250   -0.015804    0.011848
C    -2.243404    7.447287    0.679071    0.008074   -0.009364   -0.012054
C    -3.396226    6.707580    0.968736   -0.000112   -0.023432   -0.002156
C    -3.298008    5.504657    1.622837   -0.002208   -0.022942   -0.016400
C    -2.052065    5.025102    2.029033    0.016214   -0.090576   -0.029676
C    -0.904837    5.752871    1.735576    0.024262   -0.047400   -0.038590
C    -1.002688    6.968522    1.078277    0.002304   -0.028596   -0.005576
H    -4.350417    7.095052    0.650535   -0.004918   -0.025408    0.009364
H    -4.172741    4.908808    1.837825   -0.035486    0.007344   -0.021738
C    -1.970186    3.670991    2.626602   -0.087744    0.257082    0.540190
H     0.056456    5.383488    2.053495    0.032252   -0.026964   -0.060464
H    -0.096111    7.508103    0.860196    0.001318   -0.032222   -0.008438
O    -2.937608    3.005265    3.076313    0.029040    0.048642   -0.036230
H    -1.547508    3.096598    1.341423    0.642122   -0.436840   -0.865374
O    -0.714789    3.540764    3.315737   -0.088884   -0.087864   -0.024144
O    -0.674711    2.250356    3.976463    0.025274   -0.016984    0.043830
H    -1.644770    2.081619    4.100127    0.152882    0.086656    0.955756
C    -1.322757    9.403614   -0.341101   -0.008008    0.002564   -0.000448
C    -6.806948    1.239274   -2.382670    0.003436   -0.003040   -0.009378
H    -7.715411    1.450843   -2.941581   -0.000290   -0.018276   -0.011530
H    -6.255069    0.428034   -2.863698    0.012170   -0.004198   -0.001846
H    -7.058867    0.959026   -1.356921    0.004288   -0.007190   -0.006686
H    -1.734556   10.253990   -0.879331   -0.021436   -0.012128   -0.009918
H    -0.786998    9.747110    0.546960   -0.020320    0.020960   -0.003068
H    -0.642887    8.844846   -0.988817   -0.001718    0.004630    0.010570
