11
Coordinates from ORCA-job job.QMRegion
  C          -1.06779266454837      3.00113933900784      0.17747400824961
  O          -0.31198495387603      4.02672031957491     -0.09497829952575
  H          -0.54169078854139      2.02015369231587      0.35324123049446
  C          -1.97018607273179      3.67099068621858      2.62660249432063
  O          -2.93760767666944      3.00526491521677      3.07631341677595
  H          -1.54750838036723      3.09659806191902      1.34142269343633
  O          -0.71478945035229      3.54076446606920      3.31573683526193
  O          -0.67471135937827      2.25035624402463      3.97646291437583
  H          -1.64477001148288      2.08161893084758      4.10012677008188
  H          -2.03921536128621      2.85377039001580     -0.35095822627503
  H          -2.03176273473643      4.68934422618884      2.17720275078889
