39
 xtb: 6.7.1 (edcfbbe)
H           -5.72743233368564        2.56720182296900       -2.24167850374160
C           -4.76408892983120        2.62764753747831       -1.75285437472371
C           -4.28116821670590        1.54918997897420       -1.02944491052501
C           -3.05531526089181        1.63341681876024       -0.39570067011965
C           -2.30559494532777        2.79947087494163       -0.48036635395155
C           -2.79284570294904        3.87848601868280       -1.20619656830487
C           -4.01038256454693        3.78482138271164       -1.85505011023321
H           -4.86560561843711        0.64367623221294       -0.95704831262809
H           -2.67874402792047        0.79732395389166        0.17686712731035
C           -0.98886164452025        2.92766350396340        0.25141437693431
H           -2.18424903113163        4.76727299696262       -1.24943284263856
O           -4.41334233242180        4.64124946550220       -2.37047643740050
O           -0.18140593586937        3.91400273440044       -0.00287068824001
H           -0.51673962542183        1.91519119925486        0.42293072050416
O           -2.51145153510438        8.24735433673143        0.15430213544331
C           -2.39122716737075        7.30514742039840        0.65387776951013
C           -3.49949375056443        6.53997462288424        0.96303400238070
C           -3.33352111190902        5.34846545811194        1.63932965902872
C           -2.06308840879379        4.94985101090929        2.04871020222293
C           -0.95082528675425        5.73290136706531        1.75526669500286
C           -1.12653826266616        6.91728396111943        1.06116437496101
H           -4.48159145943014        6.84739152524583        0.65071745560232
H           -4.16679116326606        4.69885393871137        1.86361047953886
C           -1.91107874124958        3.61374705601648        2.68529545881588
H            0.02715497950145        5.42192295167139        2.08717498014570
H           -0.26520903975386        7.52875514085782        0.83174778929215
O           -2.84409908874960        2.92181825327578        3.16856700753104
H           -1.47719180561029        3.03175807833927        1.40687873143814
O           -0.64575342307245        3.56272678791457        3.36256326840484
O           -0.53997124314674        2.29835723787701        4.06494234763318
H           -1.49536220575673        2.08852435570439        4.20981452895465
C           -3.41758517360007        8.38450723600794       -0.10541203574196
C           -5.25217254645908        4.43390104450803       -2.76095547090928
H           -3.54654667148744        9.28291432841963       -0.63714441927646
H           -3.78184687170265        7.55035635249082       -0.67220934556175
H           -3.99802423567236        8.43007428920405        0.81985357571197
H           -5.61414727739664        5.27753421400324       -3.30492853160650
H           -5.14739597589764        3.59683591109545       -3.42053809848655
H           -5.92922983637784        4.18789170914712       -1.97531342973482
