39
Coordinates from ORCA-job job
  O          -6.06739650096237      2.44796361624556     -2.41451114788862
  C          -4.86245334296691      2.49480174172185     -1.77824879199310
  C          -4.28417964035224      1.42902907794922     -1.09620947627714
  C          -3.05507867307249      1.59060340939919     -0.48193366773976
  C          -2.38371877536919      2.80150775889953     -0.53836038345808
  C          -2.96441238445262      3.86255553735982     -1.22368299624065
  C          -4.18755277078060      3.71496813137182     -1.83891375022010
  H          -4.77827198043916      0.47340578067955     -1.03006386700967
  H          -2.61210135742967      0.76405732612316      0.05667453222709
  C          -1.06779266454837      3.00113933900784      0.17747400824961
  H          -2.42443744702394      4.79762130056037     -1.25799228187680
  H          -4.64649951654995      4.53341548804562     -2.36990781918956
  O          -0.31198495387603      4.02672031957491     -0.09497829952575
  H          -0.54169078854139      2.02015369231587      0.35324123049446
  O          -2.44722454308338      8.61721317614174      0.01582832828479
  C          -2.24340438636669      7.44728744134667      0.67907070965197
  C          -3.39622647680869      6.70758042975744      0.96873585838339
  C          -3.29800845571845      5.50465679922939      1.62283713018568
  C          -2.05206498864273      5.02510247390452      2.02903252847444
  C          -0.90483682208119      5.75287063764034      1.73557591991729
  C          -1.00268812880011      6.96852242398002      1.07827710978496
  H          -4.35041668475230      7.09505236099698      0.65053534596537
  H          -4.17274071407130      4.90880761855176      1.83782484965184
  C          -1.97018607273179      3.67099068621858      2.62660249432063
  H           0.05645628991055      5.38348788365727      2.05349532472682
  H          -0.09611077644842      7.50810290387956      0.86019567452096
  O          -2.93760767666944      3.00526491521677      3.07631341677595
  H          -1.54750838036723      3.09659806191902      1.34142269343633
  O          -0.71478945035229      3.54076446606920      3.31573683526193
  O          -0.67471135937827      2.25035624402463      3.97646291437583
  H          -1.64477001148288      2.08161893084758      4.10012677008188
  C          -1.32275711474919      9.40361396419894     -0.34110148953628
  C          -6.80694820463071      1.23927393889571     -2.38266982077941
  H          -7.71541103193441      1.45084272409951     -2.94158067363164
  H          -6.25506940906277      0.42803419343207     -2.86369849332651
  H          -7.05886700359033      0.95902628391840     -1.35692065447241
  H          -1.73455589338137     10.25399021110120     -0.87933149859740
  H          -0.78699816094294      9.74710969455601      0.54695978931202
  H          -0.64288709665994      8.84484611532939     -0.98881746745331
