31
Coordinates from ORCA-job job
H     -5.7312059825    2.5713388984   -2.2376320200
C     -4.7715674135    2.6353006772   -1.7483463253
C     -4.2877754588    1.5525260013   -1.0308147597
C     -3.0614452392    1.6312565161   -0.3975422012
C     -2.3087080556    2.7953279600   -0.4801628663
C     -2.7960868652    3.8762568579   -1.2016438411
C     -4.0231342146    3.7968909355   -1.8345348382
H     -4.8677217033    0.6446685938   -0.9602833554
H     -2.6809131283    0.7953884940    0.1745691403
C     -0.9906492924    2.9224825519    0.2525570042
H     -2.1836776469    4.7657321290   -1.2486851578
H     -4.3930984058    4.6447701036   -2.3903324338
O     -0.1808390133    3.9108254091   -0.0072089322
H     -0.5165018163    1.9130969902    0.4191130984
H     -2.5146642837    8.2433926517    0.1203079658
C     -2.3892355379    7.3201512441    0.6648180878
C     -3.4937682350    6.5306357501    0.9529196908
C     -3.3297593204    5.3424236732    1.6333220043
C     -2.0598928038    4.9503158416    2.0523391923
C     -0.9500240817    5.7366345082    1.7589433394
C     -1.1268251810    6.9249185636    1.0686833063
H     -4.4789494250    6.8342436612    0.6350401315
H     -4.1653473433    4.6949581391    1.8574735095
C     -1.9102955321    3.6204057266    2.6969458140
H      0.0273455788    5.4223092069    2.0874613440
H     -0.2645556823    7.5301138781    0.8349290587
O     -2.8410627112    2.9235724736    3.1695379029
H     -1.4743989595    3.0297680377    1.4023838012
O     -0.6442663464    3.5621358358    3.3627063567
O     -0.5358764509    2.2975731854    4.0643180315
H     -1.4943694487    2.0864355050    4.2092279514
