32
Coordinates from ORCA-job job
  C           4.64389193911065     13.94929606836142     20.30130251654869
  O           1.83241544088468     14.35271109531947     19.88872643846938
  C           6.00987593338021     13.79800539219701     20.43116561239957
  C           6.34510800721805     15.03031596421528     18.39016430743850
  C           4.12493505185228     14.64417092820840     19.20720759295391
  H           6.41284855845010     13.26000451320651     21.27443622687353
  H           4.56559339130748     15.72414735121459     17.40971110681933
  H           3.95846687915944     13.53858935541359     21.02674884636041
  C           6.85951346182618     14.33793401644313     19.47673927123751
  C           4.98017849862304     15.18852989233224     18.24862129185145
  O           2.30028165762603     15.41629518726801     17.94663674430586
  H           7.01066184631695     15.44747575349360     17.65125367477027
  C           2.67124365551192     14.76937903164347     19.10214876309878
  O           0.86151702303192     15.51358779121539     17.83271908956172
  H           7.92678835986116     14.21860148807944     19.57969602503056
  H           0.56724212831049     14.99157652964972     18.62282150001336
  H           1.39227646300836     17.90221686880984     18.67615676175156
  C           1.87933025327541     18.68084978786916     19.27870510705001
  O           0.85793196793006     19.18047850902205     20.15449128331547
  H           2.21845174265531     19.46746867455473     18.58445976579977
  H           4.50841249261752     18.83971770130067     18.61641819533785
  C           3.06702717520767     18.08383478200348     20.00235963025569
  C           2.87626418958882     17.34571447443777     21.16345144938031
  C           3.95859784664504     16.81268270273843     21.84008157967011
  C           5.24197364253591     17.00745161100425     21.35856359449511
  C           5.43731000455864     17.73041655831281     20.19425962126713
  C           4.35520942230434     18.26922345556227     19.52065110841193
  H           1.87141088561400     17.20055151802394     21.53395313075600
  H           3.79686940393021     16.24542183294836     22.74400729754799
  H           6.08694639815972     16.59695743575631     21.88912694495450
  H           6.43555987945838     17.88431948911464     19.81460406409514
  H           1.24808771114000     19.87819753027972     20.69697581137833
