32
 xtb: 6.7.1 (edcfbbe)
C            5.05004470667483       12.12904846957851       18.82477813748391
O            3.45174942673270       14.32240705247943       19.62065852971235
C            5.85384876121990       11.08795901386496       18.40208491331054
C            6.96328247701324       12.56591389717815       16.86136612551256
C            5.20092242925065       13.40412478452913       18.26223499716057
H            5.73785713780623       10.10324061243198       18.83587078333108
H            6.27257237901463       14.59615069283003       16.85154585595791
H            4.29991757119117       11.98069539697759       19.58728627487968
C            6.81083977670629       11.30487671363581       17.42046819220744
C            6.16496256660784       13.61731029373350       17.27541558980836
O            4.49808010857103       15.70744200654340       18.16980919851196
H            7.70926022380764       12.72855707924939       16.09827119317901
C            4.30783717006326       14.46078809706126       18.76301293751351
O            3.62881908594032       16.66375897270508       18.68323629127849
H            7.43925679720551       10.48826506454455       17.09058116365376
H            3.04763258511085       16.18138625232360       19.37796356120296
H            2.59350824424258       17.99258445026760       19.16339839725855
C            1.98358514371112       18.89778960738683       19.44576432106740
O            0.57239846935932       18.61983620976267       19.34056595986982
H            2.30977987654557       19.66803519281556       18.74487340524090
H            4.34760737132190       19.82960702302606       20.27369310944372
C            2.36858638805274       19.26481260642706       20.86323553059689
C            1.48400667575314       19.11620204360684       21.91354327109089
C            1.87111164408756       19.46158619599765       23.19840770741322
C            3.14388390965433       19.94773814211442       23.43228626605898
C            4.03712786051482       20.07978633056811       22.38140045681040
C            3.65099175642534       19.73684535627201       21.09966418090938
H            0.49171033255175       18.73338245074447       21.71800755808859
H            1.17189004820137       19.35353267629920       24.01260661578793
H            3.44332821177611       20.22079947707765       24.43012014914742
H            5.03280367637606       20.45625706810719       22.55895074212984
H            0.37777476766674       18.58084080680600       18.39717548791170
