12
Coordinates from ORCA-job job.QMRegion
  O           1.83241544088468     14.35271109531947     19.88872643846938
  O           2.30028165762603     15.41629518726801     17.94663674430586
  C           2.67124365551192     14.76937903164347     19.10214876309878
  O           0.86151702303192     15.51358779121539     17.83271908956172
  H           0.56724212831049     14.99157652964972     18.62282150001336
  H           1.39227646300836     17.90221686880984     18.67615676175156
  C           1.87933025327541     18.68084978786916     19.27870510705001
  O           0.85793196793006     19.18047850902205     20.15449128331547
  H           2.21845174265531     19.46746867455473     18.58445976579977
  H           1.24808771114000     19.87819753027972     20.69697581137833
  H           3.76719720410297     14.67498329839673     19.18135374269790
  H           2.74554507093164     18.24543294465412     19.80648307741378
