17
Coordinates from ORCA-job job.activeRegion
  O          -1.50187321211274      1.03479575523782      2.43241335779610
  O           1.87844747033346     -2.30102018405716      3.11465769894238
  C           1.08321372734026     -1.65868840835632      3.99499913180704
  H           1.67359147358895     -1.03287240626331      4.65125735877517
  H           0.30111115845120     -2.26263053071097      4.45597913338318
  C          -0.87929410886156      0.39535747005901      3.53463738658886
  H          -1.60682184586388     -0.21752182613578      4.06081712223835
  H          -0.42028302578629      1.11805573527655      4.20785602557277
  C           0.14991668883915     -0.58212767159968      2.89462055804596
  O          -0.25601237201599     -1.39183781857500      2.02815197543352
  H           0.75872641050332      1.01732286049364     -1.40510439122585
  O           0.91403779175731      1.30754365981609     -0.51046962271566
  H           1.06367125035915      0.44176018174704     -0.16835604333659
  O           1.40170715960600      0.28234909461813      2.39893867343650
  O           1.65205752932612      1.34998224165087      3.32023631148893
  H           2.58375267453792      1.16973512064725      3.55926161273979
  H           1.82770418661582      1.47996245260721     -0.73954262319918
