137
Coordinates from ORCA-job job
  C           0.56163520604558      5.14877351672191     -0.06452175068639
  C          -4.36293871433060      3.29002039829525      0.50149478476112
  C          -5.12807487120514     -1.75508391256977     -0.47005982402269
  C          -0.92215538028938     -4.95255545440801     -0.43446409517801
  C           4.07508530382826     -3.22357399226745     -0.06142872428281
  C           4.72288770526422      1.96823753813647     -0.67633777786641
  O          -0.29484524693256      4.03284830968453      0.05239199425654
  O          -4.29089275014132      2.27881952828793     -0.45466270164671
  O          -3.75318001438308     -1.97245354397264     -0.67549092615517
  O           0.06196040154207     -3.95423546922571     -0.36366430709166
  O           3.75010039656063     -2.02381501392206     -0.69067352583891
  O           3.34728390764706      2.27282451761126     -0.75742190945596
  C           1.14637337397991      5.18641097727283     -1.48894510426980
  C          -4.02157561148926      4.62105716704708     -0.19848355396178
  C          -5.66165470769665     -0.94899746518286     -1.66610453241351
  C          -1.64619348992801     -4.83222997122341     -1.78748205650800
  C           3.73405686434869     -4.34833098446037     -1.05827898837489
  C           5.10433852948246      1.19155524752665     -1.95135639582628
  O           0.17014042436222      5.33059553891514     -2.48595756550571
  O          -4.85084652506637      4.85488239736171     -1.29994085786095
  O          -5.46387279685479     -1.61354502359747     -2.88263157303320
  O          -0.79739302289457     -4.97865003196360     -2.89264714970067
  O           4.43129991925824     -4.18316004816945     -2.26160846967854
  O           4.80739654506920      1.91758412729097     -3.11247377439142
  C           1.87995080830738      3.85869863310781     -1.71134615555297
  C          -2.54475644529717      4.62976126847479     -0.63474726593647
  C          -4.95824168137006      0.41513788560145     -1.66814968056251
  C          -2.31905854469719     -3.45324804853684     -1.83275415066182
  C           2.21817638742618     -4.32946046868952     -1.31500190483800
  C           4.37072594685214     -0.15802487690201     -1.93909072170663
  O           2.55651366623494      3.81061477650023     -2.94604581998576
  O          -2.18928850463567      5.90609423648396     -1.11843767912507
  O          -5.46618881514333      1.24218804574841     -2.68380352910755
  O          -3.06410015978569     -3.27494513252912     -3.01117334940740
  O           1.82069290486873     -5.44487027315071     -2.07995280526314
  O           4.77665605084754     -0.97891643203378     -3.00897797267780
  C           2.92513960250931      3.62490576646371     -0.61522972513974
  C          -1.60855736304259      4.24715899151112      0.52555014801592
  C          -5.12727192543386      1.13609921827764     -0.32436451159455
  C          -3.26574998571519     -3.30060626945293     -0.64106273402735
  C           1.39101522938789     -4.32032723586561     -0.01858022266182
  C           4.64723065859231     -0.92130643493438     -0.63853140295875
  C           2.36441797332253      3.87734541347661      0.79799793041787
  C          -2.12695076522549      2.91814856605788      1.08846119571286
  C          -4.74695332448735      0.20624668096114      0.84926652649625
  C          -2.52576868043643     -3.59196357748574      0.67632532239571
  C           1.95615881161348     -3.25396406173094      0.92772596603705
  C           4.40845928102135     -0.03929205858745      0.59971955320538
  O           1.60474057056817      5.08478801391656      0.86415316982319
  O          -3.45445690101844      3.07146023226650      1.56234095103346
  O          -5.36949475755841     -1.07365995747302      0.72267242081346
  O          -1.84629646391284     -4.84349468897523      0.61314362821711
  O           3.34626457928050     -3.40789289333854      1.13507348736454
  O           5.02990014553604      1.24346107834795      0.47387959093057
  C           3.50257441003132      4.02334984647133      1.81670518169446
  C          -1.35893132868895      2.35966276327541      2.28560014284603
  C          -5.25365935310907      0.70836628821242      2.21338581769528
  C          -3.50337030548531     -3.70738023312948      1.85218935498377
  C           1.27222226172226     -3.18902650494411      2.29416930876120
  C           5.00619446971786     -0.66516651528728      1.87033522419548
  O           4.35755621871866      5.09012676533729      1.49096493672833
  O          -1.50187321211274      1.03479575523782      2.43241335779610
  O          -6.61629980534367      1.03541447675673      2.17347647044782
  O          -4.44659089450817     -4.72187825552200      1.64155697131191
  O           1.87844747033346     -2.30102018405716      3.11465769894238
  O           6.35090613519939     -1.03567722166029      1.69849389084767
  H           0.02693398602147      6.08025911041790      0.15461011701060
  H          -5.35498870163792      3.34039468363497      0.96719027915530
  H          -5.66738726144180     -2.70595114898041     -0.37318098528536
  H          -0.47997664559895     -5.95051934614570     -0.32217469590177
  H           5.13105015620199     -3.26367190116002      0.23069395530773
  H           5.31744660596010      2.88721837306651     -0.60525037775741
  H           1.86248016480686      6.02139051704289     -1.54275898654211
  H          -4.19058992870460      5.44246028457164      0.50581759262946
  H          -6.74174343402553     -0.80145369577337     -1.55769734674552
  H          -2.42474549704371     -5.60804852027565     -1.83373297155613
  H           4.02747777296253     -5.31641637554054     -0.64197705260713
  H           6.18487578671604      1.01117912656593     -1.95802869188031
  H          -0.65512779550179      5.66245752526852     -2.08278628151030
  H          -4.88127652300035      4.04525876321200     -1.83402202066047
  H          -4.57676357834986     -2.01927246283830     -2.88753880388927
  H           0.12259988955630     -5.12993701318867     -2.59432657079410
  H           4.37127132651581     -3.24728519942931     -2.52356779471065
  H           3.95382895335851      2.37774244129073     -3.00059031654802
  H           1.11769866867221      3.06882526908513     -1.66795412793424
  H          -2.41470154517624      3.88073716256517     -1.43179417802992
  H          -3.88069092895340      0.24397005467208     -1.82502819440246
  H          -1.53695280341468     -2.68259938789697     -1.75627165890293
  H           1.97933474571123     -3.40056799368253     -1.85628796326344
  H           3.28805846848636      0.02427627814511     -2.00879315340392
  H           1.94601737482933      4.11355225543737     -3.63236708110150
  H          -2.91472570417008      6.21468176669653     -1.68582047413787
  H          -5.59931152126470      0.68434968052673     -3.46612335537812
  H          -2.53052003252489     -3.60963946079856     -3.74809474118414
  H           2.43587921210394     -5.52153646925472     -2.82719927534126
  H           4.82399611676794     -0.42204216853436     -3.80022341083095
  H           3.76773508945169      4.30489495850037     -0.79333221395482
  H          -1.62549757124776      5.01734724690354      1.30667898146923
  H          -6.17175768864975      1.45793895319820     -0.20777444760414
  H          -4.09385443306998     -4.01289964108270     -0.75163839569552
  H           1.41385753683928     -5.30540965874356      0.46118848036616
  H           5.68459031412099     -1.28068105276923     -0.64550166284556
  H           1.71733276445161      3.04662814568397      1.09156907609307
  H          -2.10286844965010      2.16073524951862      0.29436356997274
  H          -3.65527184541912      0.08454426686926      0.87602830071763
  H          -1.80305373847802     -2.78790360435930      0.87142446656123
  H           1.76208436988923     -2.27305229300985      0.46858314826237
  H           3.32973985246066      0.07154274183482      0.74482210212364
  H           4.11555642550894      3.12081231581064      1.80871458690137
  H           3.05950656966784      4.16103656105862      2.80941743299336
  H          -5.06587546582998     -0.09010956172856      2.94155325861375
  H          -4.71636342294238      1.60407216615023      2.52090325538623
  H          -4.05959663384357     -2.77438031242520      1.95716735149233
  H          -2.91838845376319     -3.89378928012729      2.76118129587707
  H           4.91327032092749      0.06138742983555      2.68493888044817
  H           4.45314397706252     -1.57017466150905      2.13074991837376
  H           3.82049730735838      5.89384711949244      1.47140926478323
  H          -7.10196887754942      0.23498541595431      1.92818957077549
  H          -3.95868371878517     -5.54509733733448      1.49458114045813
  H           6.84853910903418     -0.23176552991567      1.49247241752639
  C           1.08321372734026     -1.65868840835632      3.99499913180704
  H           1.67359147358895     -1.03287240626331      4.65125735877517
  H           0.30111115845120     -2.26263053071097      4.45597913338318
  O           0.38242626366732     -3.91218247271380      2.67043533942224
  C          -0.87929410886156      0.39535747005901      3.53463738658886
  H          -1.60682184586388     -0.21752182613578      4.06081712223835
  H          -0.42028302578629      1.11805573527655      4.20785602557277
  O          -0.82966933595355      3.00874655659958      3.14329172505768
  C           0.14991668883915     -0.58212767159968      2.89462055804596
  O          -0.25601237201599     -1.39183781857500      2.02815197543352
  H           0.75872641050332      1.01732286049364     -1.40510439122585
  O           0.91403779175731      1.30754365981609     -0.51046962271566
  H           1.06367125035915      0.44176018174704     -0.16835604333659
  O           1.40170715960600      0.28234909461813      2.39893867343650
  O           1.65205752932612      1.34998224165087      3.32023631148893
  H           2.58375267453792      1.16973512064725      3.55926161273979
  H           1.82770418661582      1.47996245260721     -0.73954262319918
