134
 xtb: 6.7.1 (edcfbbe)
C           -0.21953984904920        3.69020140541714        6.83062172783060
C            1.44481784211913        0.09839612473628       10.29202596883231
C           -0.16850260974993       -4.71822717238755        9.34008997017423
C           -1.57340769317001       -5.49060326721832        4.32662229262967
C           -1.42865766475181       -2.00434132234159        0.41983197892195
C           -1.90266843688492        2.99844694340695        1.90934374572655
O            0.07520349831371        2.32082951301537        7.04569670115189
O            0.35365140472632       -0.75695105199643       10.15090244249176
O           -0.73622803448941       -4.23617124777582        8.14686074745703
O           -1.42395666142917       -4.16096112819237        3.89908148746071
O           -2.08949578667459       -1.01720597147428        1.15192775955565
O           -1.92215094781397        2.61713746828797        3.25758775338241
C           -1.74222224974101        3.89262205721161        6.73390024504910
C            0.89838382889706        1.49154074986443       10.65052321832419
C           -1.01351223866199       -4.18306419034639       10.50787887253515
C           -2.75411380749074       -5.54958204709363        5.31224746441319
C           -2.35889437000973       -3.23028497195317        0.39143572170500
C           -3.22107936550718        2.51494327498775        1.28052161932833
O           -2.43082112529769        3.42284887785356        7.86154443751956
O            0.13158399649862        1.47656003081404       11.82066435536087
O           -2.34148107382727       -4.62439972177680       10.44418765371646
O           -3.94387814830778       -5.05433044230784        4.75634207151275
O           -3.59234720559499       -2.94504583317836       -0.20974665606228
O           -4.33598372339641        3.06952978613840        1.92392885245122
C           -2.25912632188115        3.13303661625968        5.50972679925180
C            0.07117526665948        2.04654323322331        9.47630695917006
C           -0.93873797979922       -2.65024363467062       10.48216917857927
C           -2.39345541492756       -4.71118090494470        6.54359091181856
C           -2.55186683296925       -3.71079723349027        1.83490156428009
C           -3.25229589866680        0.98161095467802        1.34940691942132
O           -3.62670002032448        3.37032252980308        5.28283472396241
O           -0.34506334584532        3.36323559167326        9.77036987960189
O           -1.55904924228518       -2.08622496859429       11.60939263828715
O           -3.35244763290452       -4.82415536209549        7.56445214500659
O           -3.32930911302332       -4.88798377774799        1.89028905896937
O           -4.35322228418374        0.45362323359664        0.65216163193549
C           -1.50467865304665        3.55276357406751        4.24418168341431
C            0.88641765210862        2.02499636334192        8.16815651045146
C            0.50899648232548       -2.14008891635105       10.44688965278163
C           -1.04624566227935       -5.15993607250500        7.12051048954657
C           -1.19852902867262       -3.96110602290285        2.51463384480740
C           -1.98317529483324        0.34913568416466        0.76035666726993
C            0.01920561830733        3.52633758908187        4.45844725714954
C            1.40986690071219        0.59285433833272        7.99290507401894
C            1.36683305317714       -2.89663099714804        9.41070745373690
C            0.03271050506835       -5.19385811977435        6.02434419794707
C           -0.29566417197261       -2.73870653333815        2.33947795921267
C           -0.71129242412289        1.02859002930433        1.29810267497953
O            0.40019629306433        4.16867451827641        5.67865102090278
O            2.20075549023992        0.19631248202920        9.10297537920590
O            1.15909590174267       -4.30730759596847        9.48223205548296
O           -0.41722928142458       -5.99065172453395        4.93387554025886
O           -0.18863994512650       -2.36353183150113        0.98391346717532
O           -0.81090316884696        2.44919081194497        1.22078281184200
C            0.76647064479356        4.28299291902595        3.34685373328891
C            2.32610201980430        0.36555157319196        6.79580648337686
C            2.88061953224216       -2.73719295475815        9.64451470677931
C            1.33986535647916       -5.83111289609018        6.50719383180784
C            1.15200526289955       -3.01443030903507        2.88705677939156
C            0.54840283712948        0.66778036503122        0.49280264190610
O            0.25603564916507        5.57800331696317        3.13991620551653
O            2.33796782585059       -0.92540261014449        6.51169799838650
O            3.24906510201438       -3.01601186588531       10.96822663863556
O            1.16005872872209       -7.15715750484129        6.92639427553415
O            2.98607761008872       -0.91918303456803        1.95173954235161
O            0.37246833470282        0.87737688356573       -0.88400041250598
H            0.18378383050491        4.29580785170447        7.64920740422048
H            2.14529068599588       -0.26132057875106       11.05471820843496
H           -0.14009483200598       -5.81649712884392        9.35253091689674
H           -1.76020851946664       -6.15659737290520        3.47403191311251
H           -1.18039000599608       -1.66229438919951       -0.58940382987277
H           -1.80349040076678        4.08826970215990        1.80289614509557
H           -1.93203891696105        4.96764195534594        6.59336910681114
H            1.74516660944994        2.15869653019056       10.83928231450403
H           -0.60777293080086       -4.55490890018989       11.45455002662560
H           -2.89307057127696       -6.60123097213820        5.62006382712755
H           -1.87803526925022       -4.02075898435775       -0.19603357674445
H           -3.27171650670404        2.83587377885125        0.23485116042605
H           -1.90387331364414        3.61874228916909        8.65769158322342
H           -0.47366766753773        0.71595704229918       11.79269457977091
H           -2.66569542836966       -4.57804055470072        9.52599849888642
H           -3.90222523979788       -5.11204007039959        3.78558711713830
H           -3.90621786111558       -2.08599174954220        0.11258601160499
H           -4.20728179244138        3.02554308917341        2.88572311788489
H           -2.08098187420569        2.05888397081085        5.67373926695411
H           -0.80949021307269        1.40059250237390        9.32888657163145
H           -1.43438680594915       -2.30379762222902        9.55991915643751
H           -2.29856679387046       -3.66545305229996        6.22260321767983
H           -3.05525612515768       -2.91353895194995        2.40261542860270
H           -3.30115492528761        0.68600635230939        2.40954243147832
H           -4.10012574954903        3.24038519750962        6.12002738684834
H           -0.51379685600919        3.40737470965454       10.72558332335255
H           -2.40687276214334       -2.53840299921581       11.74830309782035
H           -4.23416242667989       -4.69770998800874        7.17464456360588
H           -3.99758790048869       -4.82779360279716        1.18652561643353
H           -5.13575656445249        0.98326268368541        0.87268632638634
H           -1.82925422582130        4.56357237816309        3.95791637140872
H            1.72466586736724        2.72937384623196        8.23304891552450
H            0.95827818407642       -2.25513941036704       11.44155586241317
H           -1.15882505855517       -6.17136631499564        7.54095760530595
H           -0.68810416258575       -4.83262967248518        2.08638778993278
H           -2.00839582339279        0.42222044911939       -0.33421851990205
H            0.33219635453251        2.47935252298402        4.48717832685502
H            0.55094963549161       -0.08213191108829        7.88385764627837
H            1.10510544044528       -2.54576539505433        8.40284376194031
H            0.23300811687380       -4.17799534434165        5.66839597268756
H           -0.74073798730749       -1.91896153018352        2.92720602163660
H           -0.57911272053406        0.73745201431492        2.34515124479408
H            0.64761421785503        3.75153592335732        2.40382986028715
H            1.82081073959708        4.33395686939914        3.62307686180803
H            3.38548130320543       -3.41607167820719        8.94534378571929
H            3.18891465085995       -1.71666372694161        9.43638741147932
H            1.71627628342694       -5.28255725028471        7.37128803245284
H            2.05301945960756       -5.76843327582422        5.67995044439004
H            1.36980905131923        1.28138638421896        0.87317679185529
H            0.78881987525999       -0.38467779101352        0.62162823307207
H            0.44745317586307        6.11144899371577        3.92666662511806
H            3.09142340643710       -3.95632011412363       11.14269220093707
H            0.85592283269990       -7.67664541841027        6.16585535519894
H            0.25446904846294        1.84177382827174       -1.02930213357893
C            3.15390799298163       -1.93672817793892        2.89470696985155
H            4.21704131389518       -2.06129891319673        3.04102535166009
H            2.65702363274068       -2.86161345674661        2.55399874301032
O            1.45836779872336       -4.18823006211543        3.20820128148053
C            3.16785966820561       -1.40182539254665        5.44824793069836
H            3.41053410909854       -2.43048077886499        5.68164228740245
H            4.07273767100962       -0.77915490698373        5.36309242190133
O            2.98587530566638        1.20557561522825        6.24434050042371
C            2.39551710812030       -1.37015937781681        4.11536870722728
O            1.22019635916582       -2.07065453288589        4.16724848078699
H            2.03746707734067       -0.71986312013366        1.86206760543738
H            0.36952997972722       -0.39696345664285        4.35873886250238
O            0.87364398994291        0.42579851968022        4.31635691468823
O            2.11216048470526        0.00678901771774        3.77160698093498
