134
Coordinates from ORCA-job job E -256.599929055320
  C          -0.26996458366854      3.63505609876395      6.78302568685978
  C           1.43375412965298     -0.06221070774186     10.08664312703251
  C          -0.37594298779027     -4.87306514561196      9.53639937465876
  C          -1.57894797785102     -5.50991395335428      4.46688783684416
  C          -1.35645942799876     -1.91939348883892      0.64691238230750
  C          -2.05940533151156      3.05861409011150      1.89777185461900
  O          -0.01088047220334      2.25629961683049      6.95766232695877
  O           0.31640180116278     -0.89037273491628      9.99716101594737
  O          -0.99872674573660     -4.44536972609328      8.35754560076810
  O          -1.43344434659471     -4.14034405194655      4.16393574366498
  O          -2.17593300420991     -0.95809674952258      1.23216412660793
  O          -2.07094407429315      2.66557454968527      3.24277665623156
  C          -1.78810116720735      3.87727634366908      6.72664630950342
  C           0.94480903662896      1.33696705487247     10.49506156005685
  C          -1.14347195539615     -4.22740218861861     10.70129827151446
  C          -2.80785198070729     -5.68337775118715      5.37219559598994
  C          -2.16449820974342     -3.22982765358650      0.57697749418194
  C          -3.36903894995007      2.54935509209662      1.27310207652061
  O          -2.46200727135043      3.40578606843604      7.86075893972347
  O           0.24877104703694      1.31825450050083     11.70736811553551
  O          -2.48673395812053     -4.62509200237686     10.72274275282870
  O          -3.97593503999669     -5.17166886950597      4.78847158564690
  O          -3.35047030302392     -3.07353927113794     -0.14666933906492
  O          -4.49504475152690      3.09264180771452      1.90571352494543
  C          -2.34555467942898      3.14581091489465      5.50431708614094
  C           0.06292699962471      1.91678839413888      9.37722714153467
  C          -1.02091305605713     -2.70260853144972     10.56125705269460
  C          -2.54296553641800     -4.92806779607388      6.67690589042051
  C          -2.46090150256363     -3.72196715966952      2.00480016198159
  C          -3.37414738416975      1.01733329096813      1.36316565048808
  O          -3.71041310807292      3.41150543508846      5.30656856559236
  O          -0.33687541657049      3.22743289071494      9.71285184024497
  O          -1.54566211113407     -2.03715667973583     11.68198531499656
  O          -3.55229911045374     -5.13650289112474      7.63168295676679
  O          -3.12158497608979     -4.96666651520968      1.97700346185221
  O          -4.45659529919948      0.46147375789016      0.66042434979815
  C          -1.60765619914392      3.57088215872963      4.23070540414619
  C           0.83206805097944      1.91647735416253      8.04520492088189
  C           0.43718931360081     -2.24975986764656     10.40163953096847
  C          -1.21848604062259     -5.37373246705761      7.30874731412143
  C          -1.15413529431328     -3.84068844032908      2.81069122149001
  C          -2.08966306638161      0.39508155335684      0.79829587512513
  C          -0.07832405824900      3.52057827946257      4.40405817619977
  C           1.34515187873340      0.49465609987221      7.78420145353169
  C           1.21242145161406     -3.11020209675561      9.38463481144128
  C          -0.06580783163994     -5.36686344743544      6.28854597679380
  C          -0.45109251951360     -2.48093588665148      2.74642192624765
  C          -0.82286914461795      1.11790539320547      1.29881179365978
  O           0.33828165588926      4.12794309537385      5.62643795132385
  O           2.13536798779082      0.01290089802827      8.86108660738429
  O           0.97382187752894     -4.50122007994134      9.58679278673327
  O          -0.43695126574476     -6.02793031135632      5.08247423541933
  O          -0.17533398922070     -2.12958861211828      1.39920946741617
  O          -0.96376889495571      2.53323555937385      1.20023572272369
  C           0.64491059594790      4.30728382831410      3.29829661336782
  C           2.31351318669098      0.42576543973791      6.60702990048866
  C           2.73959661921733     -2.95701172566474      9.50431113634625
  C           1.16716972286659     -6.12264177811932      6.80450069419626
  C           0.90136617292898     -2.42550542958924      3.45082411747686
  C           0.42624097057414      0.78827720742716      0.46414030979678
  O           0.16373600582886      5.62062382560343      3.17620414197533
  O           2.16825507934100     -0.71498651383313      5.94855025686292
  O           3.19062499612601     -3.08434925515351     10.82593196078473
  O           0.87292152595301     -7.45947929478112      7.11389311435319
  O           3.36627343310445     -1.64858438999671      1.26740739327532
  O           0.20506858638892      0.94293217978229     -0.91220001337322
  H           0.17198970863053      4.21283202800061      7.60291627571304
  H           2.16446557105271     -0.44391354257888     10.81052356346961
  H          -0.38140836793010     -5.96742664198866      9.62063804213497
  H          -1.70203605874718     -6.09891667806055      3.55054801872581
  H          -1.01693207372041     -1.61574564314383     -0.35065661967651
  H          -1.97805943956591      4.14874400464818      1.79934968525468
  H          -1.95121375711876      4.96019419277511      6.60399206727418
  H           1.81418765649312      1.98700079218840     10.64102173214488
  H          -0.70542296523419     -4.54554032554552     11.65253968916732
  H          -2.92632783050983     -6.75636524761341      5.59165135891388
  H          -1.57280486830584     -3.98612947733658      0.05016576893167
  H          -3.41870159668530      2.85814899498522      0.22445119768177
  H          -1.91116052895379      3.56615854105367      8.64965440736220
  H          -0.37574058208779      0.57367854552814     11.70813230558142
  H          -2.83691001257466     -4.63532030490744      9.81471097707276
  H          -3.93027986423762     -5.28341806383040      3.82253752342218
  H          -3.78546931078247     -2.24757322797812      0.12360075750763
  H          -4.36673194896050      3.06311218042703      2.86900995206639
  H          -2.18295431225423      2.06708498143327      5.65124691534103
  H          -0.82552563143034      1.27865844722874      9.25545327387212
  H          -1.56118811787897     -2.39854295843881      9.65104671987092
  H          -2.46133864860725     -3.85751165537709      6.43514595604625
  H          -3.09745967082307     -2.97898202797210      2.50957119887471
  H          -3.43047751528967      0.73980319039967      2.42782699787391
  H          -4.16917943595851      3.28985566540053      6.15268486325297
  H          -0.44882808813948      3.25935009635640     10.67983229711874
  H          -2.40069103858164     -2.43896997981643     11.90393666514872
  H          -4.41031665794231     -4.98518282902527      7.20516175540301
  H          -3.72688874218290     -4.96145227926726      1.21491609629164
  H          -5.25310360139238      0.97440479728608      0.87115754113104
  H          -1.91011632491923      4.59463961747170      3.96929231614091
  H           1.68440424324279      2.60716498526462      8.09946607542971
  H           0.93905754913491     -2.30109170406773     11.37742216127576
  H          -1.33834856029837     -6.38608872116126      7.71762271536715
  H          -0.50441610508438     -4.61123163370967      2.37634355902689
  H          -2.11759607847127      0.43381119414660     -0.29903680362279
  H           0.25023956700061      2.47283649889408      4.38368713597864
  H           0.49331808306835     -0.17232734035481      7.60272818016627
  H           0.89342207485785     -2.82833720860768      8.37134986232093
  H           0.20318337047623     -4.32565244130118      6.06586238043287
  H          -1.10161722444554     -1.72193629361135      3.20424657390870
  H          -0.64167686022964      0.84026573340024      2.34612432622653
  H           0.48270844812372      3.81875321173774      2.33772624347412
  H           1.71419153826674      4.30300458730665      3.52835812517221
  H           3.19568687496280     -3.71593487354721      8.85871190116583
  H           3.04353398546095     -1.96876515091495      9.15987476327980
  H           1.52362943100552     -5.66054310702615      7.72571929748828
  H           1.94655413555567     -6.05834606045730      6.03699780562089
  H           1.24022369938840      1.43184791980188      0.81410972305185
  H           0.71442986633586     -0.24860692299120      0.62618975690122
  H           0.40123670104417      6.11137103893133      3.97641454604840
  H           3.05919560113320     -3.99959659789270     11.11396699994942
  H           0.60550614422608     -7.90803648381044      6.29821535949411
  H           0.09952510734034      1.88540132336030     -1.10606402458536
  C           3.68565532640656     -1.76800040152827      2.61725041532823
  H           4.70882427615471     -1.40482542848603      2.71897295754255
  H           3.61698193084019     -2.80522034392255      2.96313912137666
  O           1.45110129215247     -3.33712545044752      4.00888856286630
  C           3.17675064471894     -1.10089664076286      5.01026066723686
  H           3.33520987655363     -2.16593351247629      5.18592787199353
  H           4.08928122139713     -0.52867319183845      5.20200860315160
  O           3.15987019135091      1.24906691986865      6.37849154125718
  C           2.77790068095327     -0.89480458614143      3.53295220728750
  O           1.39121318202983     -1.20413878591930      3.29236076142175
  H           2.46900218406807     -1.96795584561640      1.09312786839385
  H           2.99706699839704      1.95073828287713      4.13876155330080
  O           2.27877237089539      1.39033787265367      3.78250798423102
  O           2.97582423445528      0.38875425407288      3.05320064937411
