137
Coordinates from ORCA-job job
  C           0.54258925349501      5.14790175168901     -0.17763135071304
  C          -4.40972481515700      3.37558647334463      0.48013498907549
  C          -5.07080755536704     -1.72595352667718     -0.25440359660646
  C          -0.85997691725477     -4.89249101504825     -0.57639283231932
  C           4.13843851391931     -3.28088388019398     -0.04227892627045
  C           4.69783102922794      1.93448778548674     -0.61367745804450
  O          -0.34041949063694      4.05384037519558     -0.04717680339158
  O          -4.36804121375090      2.32446709808943     -0.43304327554707
  O          -3.69606488572067     -1.89762783987226     -0.51991995251034
  O           0.14215205238764     -3.92650406047683     -0.39810944516189
  O           3.80361457457464     -2.07413287689073     -0.64882554289105
  O           3.31587168138183      2.21861032368135     -0.72616303976478
  C           1.14466859491712      5.12216045169749     -1.59387876897772
  C          -4.06197306172700      4.67290362732023     -0.28156669213522
  C          -5.70832014553370     -0.98340974273896     -1.44109613179091
  C          -1.55857926112022     -4.61328222653852     -1.91789259888094
  C           3.80847563965181     -4.38653928480455     -1.06657496610727
  C           5.13074067514218      1.16292867357781     -1.87538210340132
  O           0.17648513519157      5.24177665537352     -2.60242575560987
  O          -4.90607978789960      4.87104496314949     -1.37823483433847
  O          -5.56771774007093     -1.68294696604755     -2.64515643043769
  O          -0.66655062709423     -4.59746736349719     -2.99931880699839
  O           4.53389784482398     -4.20292817370111     -2.25016161278848
  O           4.86385235828215      1.88075810321532     -3.04847743744365
  C           1.86068649990367      3.77559322042469     -1.75689338749103
  C          -2.58998770810497      4.65023943484404     -0.73967244622728
  C          -5.05900558233461      0.40347909775740     -1.53505595336316
  C          -2.24394675179917     -3.24362980715589     -1.81790662069371
  C           2.29709280486173     -4.34655666295689     -1.35474573292025
  C           4.41783378283557     -0.19715240345591     -1.88003014915933
  O           2.55828595869348      3.67730083646490     -2.97661846860005
  O          -2.22323015538570      5.89729059858896     -1.28395508133960
  O          -5.65790222247632      1.17111242576646     -2.54747503394524
  O          -2.98350768923786     -2.94605368082456     -2.97444748980359
  O           1.89390800441971     -5.43353974758508     -2.15665106829374
  O           4.85707940029963     -1.01405289495938     -2.93999325544660
  C           2.88391995632610      3.57078814055926     -0.63363764952919
  C          -1.64590881065774      4.30910223575199      0.42611891943692
  C          -5.17343636368495      1.17192908573043     -0.21223474715539
  C          -3.19639376775392     -3.21794968227819     -0.62017960878500
  C           1.45526146700454     -4.35907835463447     -0.06968741992405
  C           4.67955058212475     -0.95559133449599     -0.57301975328770
  C           2.29249398365505      3.86010380592804      0.76010288756966
  C          -2.17489791322237      3.00789284328490      1.03774720299516
  C          -4.71225227483271      0.30039630295533      0.97799538797692
  C          -2.44864589913036     -3.62901748746523      0.65920053129993
  C           2.02084051440928     -3.33335749018428      0.91853317055076
  C           4.38835861470576     -0.07711861463571      0.65656189771089
  O           1.56403770210319      5.08783379093754      0.77382824905100
  O          -3.48452141005428      3.18839118580565      1.53434540291295
  O          -5.27265553479898     -1.01338381342344      0.92564061077301
  O          -1.78990517603642     -4.87787508935218      0.47161029836477
  O           3.40131331788840     -3.48963621803497      1.14886057638076
  O           4.98552893758757      1.21855886425282      0.54457455080082
  C           3.40581423892355      3.99614423149597      1.80800224713098
  C          -1.38392113304884      2.46279485255226      2.21228564509832
  C          -5.20264065157805      0.82922447922760      2.33906551387092
  C          -3.40815159665045     -3.82818877761801      1.83853274641324
  C           1.27853850236842     -3.30693334531704      2.24078448241767
  C           4.96136314062625     -0.68603770944683      1.94686863934504
  O           4.30614046653907      5.02414495668737      1.47912843901374
  O          -1.48909038760218      1.11980790486036      2.18009182019038
  O          -6.58039682972513      1.08344234101384      2.33170851905158
  O          -4.38685736227813     -4.78872194723907      1.55459452569795
  O           1.75539478359414     -2.32176919941594      3.02579509073705
  O           6.31925980653013     -1.02640636497630      1.81568970884824
  H           0.02449666188548      6.09703414950493      0.00191257933676
  H          -5.39226413939893      3.45858220836488      0.96157293239186
  H          -5.56295633789590     -2.69372274359366     -0.09482836723142
  H          -0.43653572786249     -5.90491688638693     -0.56535930929066
  H           5.19292414364627     -3.31974386360317      0.25490151512812
  H           5.27316195924452      2.86429820754775     -0.52921770759077
  H           1.87417955523959      5.94302206612542     -1.67606108193072
  H          -4.21130014804677      5.52463342180671      0.39088961607505
  H          -6.78380607443910     -0.87362640595064     -1.26536297084973
  H          -2.32594676855334     -5.38611252932491     -2.07992991028914
  H           4.08559425098040     -5.36488051023390     -0.66339737781779
  H           6.21388030024639      0.99980807885757     -1.84573612120483
  H          -0.64772824962811      5.59800341317864     -2.22029399346671
  H          -4.96841711023856      4.03744931391698     -1.87056391775431
  H          -4.64645393555325     -1.99264988833359     -2.73298137996485
  H           0.19021376351480     -4.98610847376633     -2.73197285821068
  H           4.48186427710824     -3.26306559602905     -2.50050145558653
  H           3.99342606809375      2.31634082949193     -2.97534956438976
  H           1.08668722519703      2.99694370066473     -1.70155157005365
  H          -2.47639190005846      3.86352531187541     -1.50244286568453
  H          -3.98620045388828      0.26428112618743     -1.74947336113535
  H          -1.46744499985716     -2.48073803065908     -1.65299852541378
  H           2.07858072497432     -3.40076234514357     -1.87513877662766
  H           3.33423905226825     -0.02917409374890     -1.97260999301020
  H           1.96500311349234      3.96134945678756     -3.68559895198754
  H          -2.94569135746059      6.18832460311879     -1.86390325267749
  H          -5.80573877770524      0.58037783189714     -3.30284748396990
  H          -2.43883760696103     -3.17834092973956     -3.74194189543206
  H           2.52358059644731     -5.50145983286655     -2.89271130174628
  H           4.92274594743226     -0.45640703840322     -3.72923621115676
  H           3.72700602603967      4.25021194023424     -0.81110829734835
  H          -1.64426372206299      5.10904209386096      1.17665633772268
  H          -6.21672706196753      1.47957232626242     -0.05343160131294
  H          -4.01678598001304     -3.92475454101710     -0.80000003117102
  H           1.43961673099689     -5.35966405802935      0.37696168829005
  H           5.72340366531685     -1.29472890420058     -0.55397028853559
  H           1.61365241725279      3.05398365217967      1.05243561197491
  H          -2.17590952718180      2.23357854920283      0.25500793147242
  H          -3.61574778725152      0.23174465193055      0.97137222406787
  H          -1.71297213874143     -2.85054611600305      0.90841441346082
  H           1.83525744163509     -2.33832338700276      0.47673958385836
  H           3.30444312169292      0.01187034123893      0.76604653849550
  H           3.98795747927660      3.07401500978512      1.84102128508178
  H           2.93973729313721      4.17398459059368      2.78355849489377
  H          -4.94979430102585      0.07090042949104      3.09016655009804
  H          -4.70584958556500      1.76363749299756      2.59460560898238
  H          -3.92961858576361     -2.89152289662079      2.04323021928065
  H          -2.81201747353808     -4.11633137328713      2.71329169794156
  H           4.82961802727846      0.04122039293212      2.75536773885530
  H           4.42396761716965     -1.60442149155561      2.19299269710763
  H           3.80225095786896      5.84774018854765      1.43302531180696
  H          -7.03215787558926      0.25132239785951      2.13050454882167
  H          -3.92949036774794     -5.61727704781530      1.34951196995005
  H           6.80433512508102     -0.21069807003469      1.62633573590257
  C           0.77433707867667     -1.53727033001375      3.70128745713501
  H           1.31279274524759     -0.97639379215568      4.45763397180682
  H           0.00983154841129     -2.16326700284497      4.15989424477253
  O           0.40053760697421     -4.08202109815127      2.57828825061875
  C          -0.88791766496571      0.33390482821223      3.22808033142811
  H          -1.68664845172890     -0.26082404748450      3.66296983016031
  H          -0.45244107293708      0.99318080154633      3.97240578861505
  O          -0.80804771866947      3.12157573563170      3.04859885221401
  C           0.12231101525418     -0.64334258303313      2.62236366411565
  O          -0.19887261621701     -1.26444633256638      1.52662793601029
  H           0.72570859738140      0.16832688558378     -0.45568449985674
  O           0.88708438367639      1.05479129130235     -0.09341774235232
  H           1.13619003266026      0.68857324495148      1.16844589932024
  O           1.37376685200230      0.25480822705828      2.16430459550331
  O           1.73606490849864      1.39854761392724      3.01471349326042
  H           2.63370535376407      1.09834914593640      3.27763643140810
  H           1.76798575678017      1.31882935423933     -0.45628373693469
