23
Coordinates from ORCA-job job.QMRegion
  C          -1.38392113304884      2.46279485255226      2.21228564509832
  C           1.27853850236842     -3.30693334531704      2.24078448241767
  O          -1.48909038760218      1.11980790486036      2.18009182019038
  O           1.75539478359414     -2.32176919941594      3.02579509073705
  C           0.77433707867667     -1.53727033001375      3.70128745713501
  H           1.31279274524759     -0.97639379215568      4.45763397180682
  H           0.00983154841129     -2.16326700284497      4.15989424477253
  O           0.40053760697421     -4.08202109815127      2.57828825061875
  C          -0.88791766496571      0.33390482821223      3.22808033142811
  H          -1.68664845172890     -0.26082404748450      3.66296983016031
  H          -0.45244107293708      0.99318080154633      3.97240578861505
  O          -0.80804771866947      3.12157573563170      3.04859885221401
  C           0.12231101525418     -0.64334258303313      2.62236366411565
  O          -0.19887261621701     -1.26444633256638      1.52662793601029
  H           0.72570859738140      0.16832688558378     -0.45568449985674
  O           0.88708438367639      1.05479129130235     -0.09341774235232
  H           1.13619003266026      0.68857324495148      1.16844589932024
  O           1.37376685200230      0.25480822705828      2.16430459550331
  O           1.73606490849864      1.39854761392724      3.01471349326042
  H           2.63370535376407      1.09834914593640      3.27763643140810
  H           1.76798575678017      1.31882935423933     -0.45628373693469
  H          -1.94923923613510      2.85238120937237      1.37283262860650
  H           1.80814540379244     -3.32578606194574      1.29740374408937
