16
Coordinates from ORCA-job job
  C          -2.05864260313930     -0.68785225609089      0.42968772614021
  H          -2.41870186786769     -0.37186155202869     -1.47238198539733
  H          -2.26084452204412     -1.77113040463521      0.40977856308881
  C          -3.38001657421358      1.41413025006005      0.82858603415972
  O          -1.68045045829102     -0.21182913206041     -0.87025143625308
  H          -1.17611303986352     -0.53104400673841      1.06527491310845
  H          -6.20826769632631      1.95188859595183      2.59300340403019
  H          -4.06489407510077     -1.68839735452085      1.97011157675908
  H          -5.95739341810083     -0.47262126734885      2.96994844444304
  H          -4.55176683914129      3.15821711707930      1.21690482111632
  H          -2.64907387079813      1.93198439785379      0.22457914323243
  C          -3.23525941245623      0.04851370075001      1.03495951438845
  C          -4.17092612082480     -0.62566638426069      1.80726823793051
  C          -5.23442506797099      0.05886596226811      2.36953561876039
  C          -5.37571095754299      1.42017544692008      2.15770908456271
  C          -4.44687548241841      2.09687888310084      1.38484634143009
