147
Coordinates from ORCA-job job_IRC_B E -274.610427542350
  C          -3.36547729374347      2.53829523170219     -1.70868551692049
  O          -3.27959279150073      1.26865339438558     -1.09501553090604
  C          -2.75857355284400      2.47269579412822     -3.12313095197057
  O          -2.71971450522878      3.51609006497153     -0.94374828302305
  C          -4.46884641266339      0.74962479034342     -0.53055147036756
  O          -3.33996191215471      1.47995150135909     -3.92192179645578
  C          -1.26019086658250      2.16318996877953     -3.01690377984750
  C          -1.33197695590989      3.26591212960325     -0.73082172644270
  C          -5.21995244296121     -0.09452725542884     -1.57801220290898
  C          -4.09854862519691     -0.17335627815753      0.64652851078258
  O          -0.61313987094214      2.25314413796860     -4.26021691416074
  C          -0.57328285225464      3.14720543978805     -2.06464889186598
  C          -0.78871936102800      4.43254095172525      0.10876711964047
  C          -6.36668990134914     -0.90000326549228     -0.93869496013430
  O          -5.72144693206094      0.76156345124165     -2.58025299298951
  O          -5.25023130491389     -0.78362225973530      1.18214527354188
  C          -3.36003839551377      0.50481041252255      1.79230080614088
  O           0.74255289961780      2.65285771887308     -1.84508690614900
  O          -0.82619608761020      5.65057199724805     -0.58663252421978
  C          -5.82852975118690     -1.69349804285045      0.26703360707946
  O          -6.97690713675283     -1.71949389486063     -1.89227774554869
  O          -2.11959708637798      0.80281690680267      1.42140922163676
  O          -3.82443290397485      0.71977656420442      2.88235679272520
  C           1.82416572168543      3.57220022660360     -1.86427430045241
  O          -4.91239614268216     -2.62270192544496     -0.22370655206620
  C          -1.11953048520754      0.90110632108964      2.43183941350310
  C           2.74648679259343      3.24583854661813     -3.05151780617159
  O           2.53208009245226      3.54015576549502     -0.66689532697850
  C          -4.71135862430788     -3.85385904829517      0.46579519340251
  C          -0.65395427191806     -0.55225346050998      2.74450519313686
  O           2.10336676402172      3.35927727101850     -4.28924788640973
  C           3.31401851774113      1.83672144921431     -2.84195209375118
  C           3.19425799893786      2.31703759431771     -0.32125324954949
  C          -4.17730305072181     -4.79304632424593     -0.62579538937849
  C          -3.73347556253005     -3.72103289229581      1.65302895723361
  C           0.79524538325126     -0.53171245958967      3.30841497971009
  O          -0.82874569974090     -1.39484864510925      1.63658462391051
  O          -1.50368097055358     -1.34073719399702      3.40416968749791
  O           4.25409082126740      1.50702739945775     -3.83223615914403
  C           4.00991651239807      1.70589917138164     -1.47937993668772
  C           4.08560117530265      2.69786268639676      0.87633162329455
  C          -3.62284972366138     -6.09551809083959     -0.03647204302790
  O          -5.21917737762563     -5.03648449949417     -1.53683247639861
  O          -3.19944593838593     -4.98184128263853      2.05188104768752
  C          -4.41810586026367     -3.19060599931664      2.92342246833935
  O           1.68820331055475     -0.46619707604629      2.20176632426366
  O           4.18387966722661      0.29740282343690     -1.34336893839966
  O           5.17964165660557      3.49349599790083      0.50283253068249
  C          -2.58395101326789     -5.71840009013911      1.03412349892887
  O          -3.08698571415322     -6.91120637060141     -1.03997091590679
  O          -5.48510308948390     -4.01204109306451      3.31651827914911
  C           2.59749263766694     -1.41541647230541      2.06561921758064
  C           5.05544239297826     -0.20323022310366     -0.37993631405862
  O          -1.55645535165377     -4.99515567969739      0.40666342837334
  C           3.28923674595880     -1.28992081925933      0.71294900018356
  O           2.83526125657060     -2.27209918508395      2.88488105265810
  C           5.62624299612485     -1.52666470307639     -0.93261128358910
  O           4.40897717310897     -0.43212146450314      0.86013974933515
  C          -0.22341103653659     -5.45204927808277      0.54607376019354
  C           3.70136872254942     -2.67580645943301      0.20824591302740
  O           6.30693313766671     -1.33586171988483     -2.13882304386596
  C           4.47788521764860     -2.53564255294368     -1.10591496415875
  C           0.42732197922074     -5.28767836872225     -0.83120594511344
  C           0.55253948965159     -4.65004753822681      1.60313586631255
  O           2.52164435010174     -3.43352723340443     -0.01399438131272
  O           4.94903974908269     -3.80839704952885     -1.48537818896108
  C           1.92108798641942     -5.62213300521514     -0.76292328405573
  O          -0.25717106903009     -6.11700540160262     -1.73643392996424
  O           1.92847037259569     -5.01252680507818      1.58354504804627
  C           0.04726351913677     -4.93224971366658      3.02257011748074
  C           2.56453442795548     -4.78594319711000      0.35513474678585
  O           2.49510521719758     -5.36781259111978     -2.01718991198212
  O           0.10609756404588     -6.29527545679875      3.34466047013724
  C          -0.34515984970082     -0.57602741672673     -0.67872524768098
  O           0.74985217690851      0.20823092110782     -0.53869667747381
  C          -0.27054770125614     -1.61337403876257     -1.71416816359093
  C           0.90614872684708     -1.78329813521711     -2.45808940334241
  C          -1.42040386913266     -2.32311054361712     -2.08442264214200
  C           0.92875570096139     -2.64304163664160     -3.53760889170153
  C          -1.38866096608519     -3.17759447095277     -3.16771611373003
  C          -0.21301053362955     -3.34987472670962     -3.88887681853843
  H          -4.41007973925738      2.86507648608028     -1.77009782921411
  H          -2.89041883917054      3.46447453701434     -3.58537592535697
  H          -5.11768658112139      1.55707193266782     -0.16879165095093
  H          -4.26578119172534      1.33234010536741     -3.65182297464528
  H          -1.16345752680883      1.14204259781340     -2.62206393806395
  H          -1.22375648359626      2.33284001594506     -0.16607005218508
  H          -4.49940933198478     -0.79901616777291     -2.02003662633517
  H          -3.41569593037758     -0.94725607421258      0.26596756731648
  H          -1.12714117346012      1.75324641729438     -4.91364457483841
  H          -0.53376027160681      4.13130919830209     -2.54603985932651
  H           0.26076710265655      4.24489819005723      0.34668491042396
  H          -1.36554486068755      4.48950250190937      1.03824081452722
  H          -7.13323811750059     -0.20517803545497     -0.57798732798441
  H          -6.42675452265245      0.28458928623195     -3.05139082989079
  H          -1.75052851005220      5.90515129355358     -0.72029820249819
  H          -6.64314674522566     -2.17808336207439      0.81962105225470
  H          -6.45381346911486     -2.53050723216609     -2.00494324279795
  H           1.44751862180577      4.59892206433205     -1.94773445155549
  H          -0.29731854385829      1.47085343786634      2.00049560315247
  H          -1.51892156647804      1.37311096982314      3.33214660477697
  H           3.56827876027035      3.96979762561716     -3.06753897151393
  H          -5.67344804366235     -4.23325946873187      0.83620098274062
  H           1.24521902689162      2.89199783239938     -4.27546732775048
  H           2.47955415817857      1.11852843846031     -2.86367887277070
  H           2.46035168088092      1.57868373418406      0.01682492166711
  H          -3.34706107581983     -4.27802739660294     -1.13236927699920
  H          -2.90871660731260     -3.04996619315605      1.37688831090371
  H           0.95632469584861      0.33806962332957      3.94846691417867
  H           0.97024737346268     -1.44944942225091      3.87827648836620
  H           3.91376024087687      1.81165492463672     -4.68897866514741
  H           4.99191450428524      2.19660995260437     -1.53020977886610
  H           3.45573508925718      3.21756187079793      1.60665506205011
  H           4.48851726523307      1.79635140344873      1.33818056927971
  H          -4.43169470939524     -6.66477378621648      0.43322082413309
  H          -5.00661306115385     -5.84660499090186     -2.02884038074061
  H          -3.65414252034366     -3.11661509022948      3.70640266426354
  H          -4.82734465174783     -2.19509179537453      2.75495108433581
  H           4.84901610879616      4.35564086080759      0.21143987628009
  H          -2.19277319989410     -6.61568440004195      1.53043509060726
  H          -2.21182464694946     -6.57488023060043     -1.31279262911951
  H          -5.12739582490423     -4.88116581789183      3.55181504592596
  H           5.86656750407928      0.50076193188416     -0.15515876246731
  H           2.57285484390338     -0.84315242634579      0.01444894587741
  H           6.35373188135041     -1.92410653919191     -0.21729597332225
  H          -0.21440794814801     -6.51308512892900      0.82825454059989
  H           4.32962640332982     -3.15734989984530      0.96733552787334
  H           5.77808689365587     -0.75946251911239     -2.71587670989473
  H           3.78934923390209     -2.15595658265707     -1.87354707050619
  H           0.32689843679441     -4.23651991296029     -1.13281587604979
  H           0.43791936583508     -3.57875724048489      1.39036582098219
  H           5.66261692472155     -3.68260197000471     -2.13356387318350
  H           2.03877184354552     -6.68606759668608     -0.50165445970184
  H           0.30556488187365     -6.23960454653323     -2.51714655118053
  H          -0.99784082993789     -4.62599147644091      3.10029804819135
  H           0.64379392202402     -4.33471927306798      3.72214978831333
  H           3.60035879634795     -5.11205992965500      0.51477383951732
  H           3.37765722043761     -4.96903749187160     -1.90703583038302
  H           1.03759241063790     -6.56293560029583      3.36317439732124
  H          -0.44708212823630     -1.15173532968274      0.46653298013317
  H           1.77658231654339     -1.20149462636912     -2.19873890032820
  H          -2.32773787596416     -2.18569168480821     -1.51629381003939
  H           1.83448900300943     -2.76663317669309     -4.10909697720632
  H          -2.27733887611269     -3.71707804116759     -3.45230292195005
  H          -0.18982034378751     -4.02945038775840     -4.72576240930231
  H          -1.30043881562562     -0.03969538170682     -0.66960966274907
  H           0.61146320161121      1.10821689897136     -0.91399480614574
