147
Coordinates from ORCA-job job_IRC_F E -274.623668415380
  C          -3.36466258109202      2.54007062050171     -1.70939957309850
  O          -3.28241303086402      1.27314776967741     -1.09273987441834
  C          -2.75866996256492      2.47357538648534     -3.12353628018272
  O          -2.71597132241320      3.51437569617912     -0.94387634429585
  C          -4.47187377942487      0.75336590515069     -0.53184154256798
  O          -3.34302030353657      1.48358792363199     -3.92475651269816
  C          -1.26049389156099      2.16608099770811     -3.01765503253352
  C          -1.32597173118200      3.26519109120666     -0.73426471895661
  C          -5.22092005153020     -0.09410717252438     -1.57795613891944
  C          -4.09778989442552     -0.17031667969662      0.64279320088093
  O          -0.61659670527383      2.25645724239360     -4.26412009800416
  C          -0.57214852544127      3.15479243530731     -2.07118457929951
  C          -0.78682225550762      4.43101786303748      0.10830324324053
  C          -6.36725466220544     -0.89969239921354     -0.93787583429263
  O          -5.72365280689110      0.76158063294424     -2.57982406163169
  O          -5.24519992441929     -0.78671890458207      1.18166269361978
  C          -3.35888639542685      0.50063228384364      1.79037617053330
  O           0.74699809329456      2.66690611507575     -1.87110071051689
  O          -0.82624771659531      5.65157705691392     -0.58375050440086
  C          -5.82859403696207     -1.69311251190745      0.26719907072885
  O          -6.97896064547064     -1.72068921498188     -1.88950392798167
  O          -2.10460636756272      0.76748701768332      1.42703352426874
  O          -3.80987541152850      0.70950890740482      2.88274527868210
  C           1.82725189941346      3.58134001888445     -1.87169932603856
  O          -4.91325526512494     -2.62330676858028     -0.22369907373581
  C          -1.11756988542644      0.91948813067802      2.44053285235080
  C           2.75205600786243      3.25049456134052     -3.05516075377764
  O           2.53232458306151      3.54336834698198     -0.67190394725668
  C          -4.71512755563789     -3.85529408658907      0.46486420646478
  C          -0.61077273163992     -0.46609162589635      2.84496953549874
  O           2.10661106914936      3.35988445995210     -4.29318658749737
  C           3.31558299172416      1.84044921817668     -2.84215846384975
  C           3.18921844404964      2.31708337967178     -0.32317773346536
  C          -4.17771770015092     -4.79332803492138     -0.62591030472394
  C          -3.73597550375868     -3.72210324544340      1.65024036240046
  C           0.82278520956990     -0.51228041583595      3.36055621455967
  O          -1.00676439320760     -1.53267203673931      2.07161355361709
  O          -1.51308885317702     -1.35326344190819      3.38188184399158
  O           4.25660100887820      1.50978769785760     -3.83231729377418
  C           4.00873364251422      1.70717885135818     -1.47928657102871
  C           4.08062942835768      2.69688812555209      0.87525916655373
  C          -3.62215534435667     -6.09531707692053     -0.03652751776925
  O          -5.22104804709882     -5.03934465566166     -1.53500955572946
  O          -3.19742297122103     -4.98054246392180      2.05090869234638
  C          -4.41766294812804     -3.19111595261318      2.92369563646476
  O           1.68166975349208     -0.46206822329569      2.21822129591542
  O           4.18562940385809      0.29867535536417     -1.34684449844469
  O           5.17646168705227      3.49175949325128      0.50279403157716
  C          -2.58413555981015     -5.71920473731034      1.03430498406578
  O          -3.08561001105167     -6.91268035177655     -1.03881245160245
  O          -5.48560005121769     -4.01023191504914      3.31621583799597
  C           2.59123619743966     -1.41572139500481      2.06794977891939
  C           5.05251968345642     -0.20231754971906     -0.37930958265992
  O          -1.55561888462406     -4.98991599705445      0.41341593885696
  C           3.28157138352971     -1.28656706086880      0.71370708867906
  O           2.81944559861873     -2.27252903582689      2.88126266780614
  C           5.62386049982280     -1.52586325079878     -0.93173096479271
  O           4.40387232928881     -0.43070222791178      0.85866474488331
  C          -0.22366138853776     -5.45162447224226      0.54451585938072
  C           3.69785987800381     -2.67343651327450      0.20985474349799
  O           6.30614436121789     -1.33521687382431     -2.13766525119417
  C           4.47483098184039     -2.53364944009324     -1.10447070509369
  C           0.42720411945852     -5.28693097528226     -0.83245874927427
  C           0.55371294892670     -4.65020142661702      1.60082915705565
  O           2.51972768407645     -3.43348379423238     -0.00820725130743
  O           4.94832166269238     -3.80697460318166     -1.48201905014680
  C           1.92141799582580     -5.62241936021019     -0.76225375724730
  O          -0.25421094249951     -6.12633284539888     -1.73203460820497
  O           1.92901730597236     -5.01346153387357      1.58271573915162
  C           0.04847941278162     -4.93079780567308      3.02217786099445
  C           2.56586095735057     -4.78717489832393      0.35527387183882
  O           2.50077831373500     -5.37682278060517     -2.01631423214759
  O           0.10676131315034     -6.29321027926714      3.34561080378838
  C          -0.34762391845733     -0.61305718622459     -0.64462558775058
  O           0.75813112471548      0.24527421403685     -0.49242718391317
  C          -0.27760768981040     -1.56074870240836     -1.81015861909869
  C           0.89421218498838     -1.75012108960342     -2.52344611603159
  C          -1.41259201957445     -2.29149445635518     -2.14067102124873
  C           0.92995823818052     -2.65194747689196     -3.57310625503718
  C          -1.37922593158714     -3.18481014749568     -3.19391753630522
  C          -0.20794317126345     -3.36129032257415     -3.91451094829838
  H          -4.40920525851459      2.86859025641843     -1.77126755899118
  H          -2.88895412385568      3.46536994732529     -3.58672975543559
  H          -5.12279736874760      1.56041825251896     -0.17235588394261
  H          -4.26609404256560      1.33109432982917     -3.64705874611003
  H          -1.15934219996686      1.14647751657287     -2.62007600170411
  H          -1.21030817504811      2.32606586112227     -0.18200947163098
  H          -4.49762906767484     -0.79721026730927     -2.01858108435438
  H          -3.41304635339907     -0.93721332220406      0.24996957403167
  H          -1.12672969129266      1.74702574758415     -4.91261829114481
  H          -0.54088953548960      4.13934578147394     -2.55299902662527
  H           0.26265801895151      4.24318594096203      0.34477431916516
  H          -1.36623812017298      4.48766756337783      1.03603740883958
  H          -7.13432278429835     -0.20446289853379     -0.57921181987212
  H          -6.42630452638005      0.28317017694039     -3.05327116832229
  H          -1.75129393937518      5.90146749370096     -0.72175136752574
  H          -6.64328622669539     -2.17694466672998      0.82033594485325
  H          -6.45155032388150     -2.52768075389288     -2.00835397343997
  H           1.45402651182436      4.60968716642238     -1.95257784347668
  H          -0.29889136156107      1.48362657264678      1.99237796968538
  H          -1.53320511800430      1.41965740128045      3.32081735990829
  H           3.57570587870147      3.97163808014631     -3.07493122415977
  H          -5.67809295478294     -4.23507419917750      0.83205811670227
  H           1.24763634764621      2.89476673528833     -4.27298923888961
  H           2.48064743474305      1.12255916162896     -2.86479138482005
  H           2.44819447602405      1.58068602098911      0.00550824499241
  H          -3.34863206671894     -4.27594774004127     -1.13340169378613
  H          -2.91348309682269     -3.05646780352291      1.35506358208428
  H           1.02662498284119      0.35327307582957      3.99207180751241
  H           0.99343725750012     -1.44634972428100      3.90670948308565
  H           3.91349044926749      1.81077301031267     -4.68918043326083
  H           4.99139894781354      2.19749234099636     -1.52895769030384
  H           3.45215209751954      3.21879573186538      1.60446304026907
  H           4.48421113912803      1.79517489910840      1.33587550428499
  H          -4.43196375524307     -6.66533281924479      0.43099475143682
  H          -5.00442084996846     -5.84465953471975     -2.03237481584343
  H          -3.65598207117385     -3.12755931360098      3.71012229211854
  H          -4.82778405027722     -2.19548450006250      2.75631774902298
  H           4.84679647497929      4.35342224487864      0.20919262253541
  H          -2.19280088351956     -6.61711335014467      1.52904688200073
  H          -2.21368487686391     -6.57323055598194     -1.31660409433764
  H          -5.13187898179886     -4.88184145643158      3.54813020137906
  H           5.86431174222962      0.50137176428107     -0.15396934267117
  H           2.56041761352530     -0.84234407137906      0.01611181455427
  H           6.35226722302345     -1.92461617349056     -0.21791606195555
  H          -0.21579434042091     -6.51356102797320      0.82306944987766
  H           4.32953171526563     -3.15544712247380      0.96665434483447
  H           5.77760188883647     -0.76000122580138     -2.71553469024597
  H           3.78539814005009     -2.15518177640317     -1.87214486749990
  H           0.32428484173698     -4.23726442008130     -1.14131950830518
  H           0.44337822807575     -3.58060730637111      1.37461237807341
  H           5.65992812124281     -3.68144746102661     -2.13257509612461
  H           2.03543786241572     -6.68708867668868     -0.50124376063538
  H           0.29355341662119     -6.22069327284366     -2.52648646695248
  H          -0.99914000399845     -4.63247165691892      3.09800335909110
  H           0.64898157740189     -4.33661447828992      3.72093526594661
  H           3.60202978400014     -5.11291571714118      0.51333440079300
  H           3.37420347041314     -4.95908048342411     -1.90509107198209
  H           1.03700659712984     -6.56415901661827      3.36071626185656
  H          -0.37847656200278     -1.22315213929248      0.26503283824556
  H           1.77241947547451     -1.18689496149051     -2.24298785237526
  H          -2.31502964188713     -2.15696672198866     -1.55868771255178
  H           1.84634457622840     -2.80086922399506     -4.12173773316773
  H          -2.26564304458773     -3.74282686758013     -3.45267349957521
  H          -0.18518012645832     -4.05198027567722     -4.74187765623350
  H          -1.28044319686920     -0.03865614750472     -0.69268321768742
  H           0.67379064345088      0.99647947427686     -1.10753962154302
