140
 xtb: 6.7.1 (edcfbbe)
C            0.67709461835571        5.14474061207705       -0.24703064252299
C           -4.20994241519140        3.23171347642794        0.38591064892953
C           -4.92868401926489       -1.84070045641897       -0.62387000632561
C           -0.81509148587903       -5.11027789696915       -0.52626702960392
C            4.09336264065320       -3.22364312433149        0.12252252344143
C            4.81102243821288        1.91765001857006       -0.63013388167705
O           -0.18584386763195        4.04231985952977       -0.11194250416857
O           -4.07170373143088        2.18834540223130       -0.52915185796067
O           -3.56441818360244       -2.08880497983108       -0.85451835918218
O            0.12853880797495       -4.07797594113739       -0.42147577344745
O            3.82171360154888       -2.06938568791392       -0.61311322889890
O            3.43820749094657        2.20964938611585       -0.76076762222945
C            1.28989629641027        5.12100735631773       -1.65937127075058
C           -3.91275291634932        4.55285800600089       -0.35068596678637
C           -5.47648409439787       -1.00620286836327       -1.79427829876228
C           -1.49574450608394       -5.00559439468451       -1.90296966495586
C            3.84043750359796       -4.42946326911385       -0.80380414798228
C            5.25900078229016        1.11620854064898       -1.86596478282601
O            0.33277670046783        5.22384600244937       -2.68052897723495
O           -4.75768831488686        4.74375163163995       -1.45039728082415
O           -5.30938458780091       -1.64753159507985       -3.02873433930620
O           -0.61630055661741       -5.18363809404225       -2.98165308752666
O            4.66052929457479       -4.39381491059076       -1.93819960734708
O            5.05634416407818        1.81695632966210       -3.06079628895627
C            2.01746997522537        3.77970824338259       -1.81374801465893
C           -2.43931093124915        4.58559678608666       -0.79266703091935
C           -4.78995889806012        0.36736535011919       -1.78476801326510
C           -2.14617912718406       -3.61643157780505       -1.97835552744244
C            2.35814170763128       -4.43131865128967       -1.20471349303864
C            4.51708832893084       -0.22955052839088       -1.87290901973758
O            2.72470253233901        3.67937627803480       -3.02678852469428
O           -2.11101964619947        5.84648437895476       -1.33770884583198
O           -5.35650316615443        1.22884926593253       -2.73911740855957
O           -2.87509003265610       -3.43205729356960       -3.16942456819641
O            2.02843475159434       -5.57362515633906       -1.96330352371398
O            4.97930587787798       -1.07237361026751       -2.89890230057433
C            3.02612363904585        3.57360183851272       -0.67753999340879
C           -1.49017066911096        4.27766844749219        0.38083339574827
C           -4.91109427901516        1.04588259049322       -0.41292226992356
C           -3.11642317614775       -3.43639623449027       -0.80655799227986
C            1.43708794761842       -4.38320333593329        0.02597673030899
C            4.71660873600417       -0.96680246121070       -0.54262868816352
C            2.43226549912029        3.88505397690155        0.70999334810079
C           -1.97324533309567        2.97916690998012        1.03633935466810
C           -4.50447405628333        0.08943491070372        0.72793446433224
C           -2.44719387207097       -3.76753846261523        0.53991520722331
C            1.89609054220868       -3.24503678572148        0.94706933606819
C            4.43051099270589       -0.05640607585914        0.66484383893114
O            1.70563762473499        5.11234734659543        0.70448165695683
O           -3.31798712178428        3.09645651473771        1.47346558966125
O           -5.14229887276656       -1.18203364993916        0.58946383562484
O           -1.78558457056136       -5.03042897016825        0.48047318361336
O            3.27226015987083       -3.32282740576568        1.26829372569893
O            5.08170848337469        1.20964105894552        0.54469811572961
C            3.53728084497568        4.02910422274439        1.76245616473864
C           -1.17582064027948        2.54004065502005        2.26742490694777
C           -4.95459845030703        0.58007997312581        2.11459067589865
C           -3.47598660444125       -3.87916222931022        1.67105283727176
C            1.10126401230226       -3.15108245051282        2.24934286006400
C            4.94972673217505       -0.66208990213521        1.97805551158774
O            4.44211639852823        5.05779145704679        1.45097602456377
O           -1.50987593781834        1.29145678812020        2.54542059134848
O           -6.32115565065394        0.90182592526057        2.14962540272541
O           -4.43420250053490       -4.87640056477806        1.42351670101167
O            1.60841487507432       -2.19983651712741        3.02218497022097
O            6.27928656623972       -1.10387210050741        1.88587645394057
H            0.14882677913517        6.08924576239469       -0.07347964519416
H           -5.21284297341774        3.25247820011587        0.82967708309979
H           -5.48745688280844       -2.78118952684210       -0.53741891104287
H           -0.34649381068660       -6.09447976884954       -0.40077956027337
H            5.12249867666576       -3.23423187404404        0.50215768882685
H            5.40080185391224        2.83995620366967       -0.54782303362042
H            2.01055615255086        5.94903594127064       -1.73512200583257
H           -4.09994482955123        5.38324031236320        0.33878340739375
H           -6.55464973666526       -0.86602455932190       -1.65838893042330
H           -2.27787867149339       -5.77620342632183       -1.96285988674464
H            4.08088009967904       -5.35318051242502       -0.26781820520913
H            6.33617486507420        0.92613583441549       -1.79462428684285
H           -0.49027557216048        5.61044354930824       -2.32840744038743
H           -4.81806085129441        3.91434900225602       -1.95351554450809
H           -4.44608160890541       -2.10211934389669       -3.06216752207026
H            0.29885255787585       -5.30291616631141       -2.66264005203334
H            4.65571548247743       -3.49455226257877       -2.31087741245138
H            4.21477252156968        2.31257804064448       -3.03191998600309
H            1.24716512529523        2.99982349250754       -1.76274959028943
H           -2.28747994716114        3.80548070375541       -1.55360624926144
H           -3.71995532804112        0.22488912517715       -1.99856185387927
H           -1.34632383815093       -2.86799091923461       -1.90386655404966
H            2.16170194294786       -3.52287149164842       -1.79429987929939
H            3.44130840420579       -0.04328732779195       -2.00396952154122
H            2.13788869863581        3.96650773078298       -3.74357843910238
H           -2.87913988614609        6.15838784196598       -1.84544837257578
H           -5.46855762080123        0.73253616763933       -3.56567306597249
H           -2.32927343407979       -3.74998531725235       -3.90582118117113
H            2.76021262337758       -5.74853408853220       -2.57887258437777
H            5.07392777674473       -0.54233784469951       -3.70653310793007
H            3.88203775151868        4.23845424301187       -0.85242937684304
H           -1.49553691969438        5.09694622822039        1.10942479154487
H           -5.95068556966459        1.36569226010864       -0.25802714430173
H           -3.96598339735854       -4.11690924264385       -0.95354405518077
H            1.45730115892296       -5.34049942984578        0.55973307923944
H            5.75177980953976       -1.33056369422555       -0.48848887220157
H            1.75890735946675        3.08075051982739        1.01920487918159
H           -1.89895615816811        2.17346297521470        0.29524246584301
H           -3.41468150202576       -0.04047805121033        0.73076199741932
H           -1.72209856041863       -2.98735111928107        0.79640404100554
H            1.69464881235646       -2.29973141466514        0.41969978149791
H            3.34767982746293        0.08534675779967        0.75273442101976
H            4.11600790327340        3.10467285288124        1.80272173742849
H            3.06064816088380        4.19693735537682        2.73412389932584
H           -4.72100249049809       -0.21399297407777        2.83308694928170
H           -4.40822833121384        1.48025223627357        2.39192214985966
H           -4.02007532270496       -2.93761707882654        1.76145679328676
H           -2.93136003707655       -4.07720086810692        2.60107668082475
H            4.85293783327656        0.10389628499560        2.75569439122228
H            4.34225971560839       -1.52850664566394        2.24692094773840
H            3.95969032767189        5.89696458056523        1.46789519108203
H           -6.83113624600766        0.08889825759834        2.02147211228653
H           -3.97608498551017       -5.72865851727618        1.38701869641050
H            6.85253204700287       -0.33146609650371        1.77511354044778
C            0.69417877830394       -1.51453899146788        3.87140846293259
H            1.28106535419947       -0.95247697203611        4.59101512497030
H            0.01933952326949       -2.22024122203588        4.36542829038290
O            0.16552777777398       -3.85772893787720        2.54166649442131
C           -0.81947225971023        0.58392260145840        3.57028663860485
H           -1.55805392765292        0.22136184894982        4.28903945907578
H           -0.09463152103721        1.24235617255876        4.05446064773226
O           -0.39980380286651        3.22349810505656        2.88385884588773
C           -0.07763899498893       -0.58640242494241        2.89794517195315
O           -0.57613120282679       -1.14144640646501        1.88292821403040
H           -0.69639315052166       -1.09273677005749        0.09011598752520
O           -0.67975397650335       -0.78406221299654       -0.82925680499242
H            0.24657658386572        0.45793035182657       -0.50997104309113
O            0.81378793349405        1.17004094750147       -0.04618871767508
H            1.01616028129557        0.84192443901881        0.86909538545330
O            1.34979624278615        0.27237043178822        2.18000484127697
O            1.95718558667061        1.31433505627588        2.90806531194752
H            2.64720227176498        0.88026946820834        3.43713267330177
H           -1.61540659214826       -0.74748474605625       -1.09682691925123
H            1.67763690627398        1.26891798225164       -0.51979044127592
