150
Coordinates from ORCA-job job
  C          -0.81378019432568      4.99432207117830      0.55239618941114
  C           4.19483802745167      3.25376060078623      0.62916019165874
  C           4.74903962151699     -1.85727168591612      0.23351855762879
  C           0.53417763873528     -4.91835742747451     -0.41489985916851
  C          -4.24236477113763     -3.08927255735574     -1.61273398109843
  C          -5.01652913189944      1.87693508485262     -0.08524642321028
  O           0.08967142634886      3.94203204072968      0.79454367865716
  O           4.03836785335078      2.03348400572677      1.28281532336071
  O           3.34018531582794     -1.99810755515285      0.21850702979524
  O          -0.35435340873722     -3.86036395618301     -0.65386929616372
  O          -4.13896354316137     -2.10451172585078     -0.63314577357504
  O          -3.69603818969583      2.10176864116015      0.34693450916815
  C          -1.82560470006109      5.03230688294985      1.70801354922935
  C           3.73587988780734      4.36680630802889      1.59348694945003
  C           5.24207287347575     -1.45078709592252      1.63398705818861
  C           1.01567627835886     -4.80848929202276      1.04086226491742
  C          -4.05080435728673     -4.44066559640009     -0.89661786727169
  C          -5.69142034707079      0.89840425500709      0.89012916088498
  O          -1.22416264722450      5.26036575159547      2.95385202667812
  O           4.44116627626951      4.33808842364562      2.79988950832107
  O           5.00650771144259     -2.41325551605330      2.62021706627626
  O          -0.03243441650195     -4.87617683007614      1.97046964398618
  O          -5.03673790912058     -4.65940083721738      0.07097712460177
  O          -5.67826989934736      1.37074708181110      2.20853789471248
  C          -2.58725864450185      3.69864256340074      1.70937614120567
  C           2.22233852190731      4.23843746580803      1.83888211447768
  C           4.58492810311446     -0.11462321917512      1.99063071674807
  C           1.72688071084111     -3.45835250853385      1.19830740457139
  C          -2.65179450978139     -4.44568982225782     -0.26047171029353
  C          -5.01646013230592     -0.47860722143162      0.77831700361533
  O          -3.63296012028426      3.67883129210523      2.64765156181110
  O           1.71928605344445      5.31647085244723      2.58785568162169
  O           5.03216598360205      0.35519317483825      3.23679560485608
  O           2.31104304323889     -3.33069385939304      2.47245090349534
  O          -2.36463964201064     -5.67629549027900      0.36455647255770
  O          -5.71643963934663     -1.45140427351567      1.51544580389155
  C          -3.20212353405565      3.43673084377559      0.32802122694525
  C           1.45669792833900      4.18161895227355      0.50681345474209
  C           4.89078786181994      0.94886558056891      0.92552518086492
  C           2.83686280450842     -3.32603048746281      0.15184238359029
  C          -1.57120368325096     -4.15332487465456     -1.31349460986727
  C          -4.97177343134431     -0.95487526883498     -0.68024379755655
  C          -2.18515470605530      3.62606940307358     -0.81186263347660
  C           2.06019587147070      3.04727529373675     -0.32709457642033
  C           4.65193141596692      0.42231602696004     -0.50722459913224
  C           2.31705967119287     -3.63247795133183     -1.26397322564925
  C          -1.95407185243338     -2.88778038285194     -2.08860566752012
  C          -4.41461376412243      0.13964236549764     -1.60747113296268
  O          -1.47306113018304      4.84996243209771     -0.66881630852701
  O           3.43385158893779      3.31131407673417     -0.56268088979072
  O           5.15420380206492     -0.90288640596507     -0.69591180891581
  O           1.62997880855724     -4.88008295019552     -1.28747592940888
  O          -3.26076481624441     -2.94159054817639     -2.62281651789349
  O          -5.06971412171104      1.38823456099842     -1.39283815774555
  C          -2.87771403445766      3.71153415803040     -2.17897431840879
  C           1.43484236684053      2.83884114702303     -1.70577164830706
  C           5.39615461248742      1.23943303525549     -1.58231929961266
  C           3.46488772832002     -3.73611000666967     -2.27467460195765
  C          -0.97969473318979     -2.57754335121713     -3.22081168559538
  C          -4.64544307982206     -0.16907121919571     -3.09726818467690
  O          -3.72672993370991      4.82493836075163     -2.26718832230344
  O           1.85384850083611      1.67572585225257     -2.17668490483684
  O           6.74162063148935      1.46200205326379     -1.25470146478325
  O           4.41887490447099     -4.69829142482173     -1.90780236463846
  O          -1.31894937189913     -1.42829076475549     -3.82197289244470
  O          -5.99423318746449     -0.43816670126718     -3.37548733093339
  H          -0.28576275421071      5.95353029416801      0.48460703270555
  H           5.23457858237462      3.41743480130340      0.31930187841256
  H           5.23227261976463     -2.78970932076846     -0.08392188370503
  H           0.05500923330419     -5.88908091130155     -0.59193485957907
  H          -5.20364205989417     -3.04998153542906     -2.13949702391480
  H          -5.57577010065623      2.82081124207646     -0.11490642906807
  H          -2.53663444845368      5.84790323585062      1.52146671505291
  H           3.94164312050037      5.33770331114602      1.13048280697734
  H           6.32989561692472     -1.32502600087677      1.58838335180893
  H           1.73582338760678     -5.62059565769068      1.22918643712212
  H          -4.13294542090338     -5.25375879170644     -1.62471420779690
  H          -6.74513955546537      0.79285724202215      0.60591302174559
  H          -0.25815561864960      5.14691282785649      2.89434661739965
  H           4.51326132669898      3.41909866038876      3.10633486059593
  H           4.06467227306149     -2.67691247283102      2.62143872396491
  H          -0.81195630699846     -5.29436914160011      1.56293654679315
  H          -5.16314033922486     -3.84527697624110      0.58882844570960
  H          -4.86088528741958      1.87060346038658      2.37914887714440
  H          -1.86736391772449      2.90305782009916      1.94540892959818
  H           2.03787284617688      3.29532912600248      2.37693104886655
  H           3.49371890785070     -0.26650406124093      2.02158243717385
  H           0.98401676743868     -2.66286578568367      1.04214206346044
  H          -2.61059083032579     -3.63443174062176      0.48280984888608
  H          -3.98007070594261     -0.40733786949280      1.13884204859219
  H          -3.30613909491929      4.05745328432592      3.47941814989068
  H           2.35286781113745      5.52086556096459      3.29568977526684
  H           5.24477772119784     -0.41920091649425      3.78353398194578
  H           1.67219201010390     -3.65852903832730      3.12483737536292
  H          -3.18460300728736     -5.99651391521087      0.77905354113535
  H          -5.87495859929462     -1.09868509851871      2.40544059134533
  H          -4.02993153968742      4.14189994575476      0.18086455815183
  H           1.57321946236438      5.12535881670814     -0.03730802067081
  H           5.93889860790394      1.26668763062747      1.01992014882910
  H           3.63095343400416     -4.04157067799887      0.39945839022638
  H          -1.45262772158883     -5.00278461834002     -1.99676087494252
  H          -5.98154880544947     -1.23607112970307     -1.00739059387998
  H          -1.48182248245675      2.78228985936440     -0.82363875640308
  H           1.95512377419618      2.09874470858251      0.21858653704388
  H           3.57640619927536      0.44032694770570     -0.72357203752936
  H           1.63617930299345     -2.83479531579771     -1.58209295122575
  H          -1.87017798923456     -2.04750753245175     -1.37930562247380
  H          -3.34026580262191      0.24884966416079     -1.40443632614865
  H          -3.50372090093213      2.83141836968598     -2.32676330756043
  H          -2.09744316812308      3.74156776688925     -2.94694045835923
  H           5.30763424867597      0.68443756963881     -2.52260873206813
  H           4.93067645645435      2.21599459321584     -1.70528611251937
  H           3.98521091729108     -2.77750822629958     -2.32100023792743
  H           3.03085288436537     -3.95935972491335     -3.25508984859969
  H          -4.29389340270704      0.69224714917491     -3.67769620350566
  H          -4.08238131359662     -1.05520556344646     -3.39222418426350
  H          -3.18461550434852      5.62341021667440     -2.18675074855669
  H           7.21483862493770      0.61824435967000     -1.29292625267478
  H           3.99909483745407     -5.57066716702600     -1.93998863997857
  H          -6.50818730302870      0.36927807375324     -3.22566692871196
  C          -0.25477429451497     -0.64777958848291     -4.34357425874919
  H          -0.67127973233413      0.02831648976413     -5.09247790052872
  H           0.53939878944201     -1.27689328126475     -4.75320599855236
  O          -0.04773290873307     -3.26098735798569     -3.54979631919669
  C           1.33611036892389      1.18428262259433     -3.40169258162667
  H           2.16751662240876      0.71451078753401     -3.93187937964059
  H           0.89346186839421      2.00152395900194     -3.98098567753779
  O           0.71911592762594      3.61291053305832     -2.28431462181004
  C           0.24632832518125      0.13960373319060     -3.08668109382435
  O           0.68613032156239     -0.90159754965274     -2.26797139330639
  O          -0.86419152142198      0.84677633539749     -2.55619545695840
  O           0.70719305880238     -0.26499602079746     -0.60950414095083
  H          -1.64569826292147      0.31287907374464     -2.77639774939664
  H          -2.13538612824796      0.98519550024857      0.87860561145402
  H           1.53127972688703     -0.74445399149659     -0.37482286517595
  H           0.31119155430234      0.21236033110081      0.67854042774825
  O          -1.67366201766353      0.23696109215324      1.28966065480306
  C          -0.35368079405189      0.56233532839702      1.60011573341533
  C           0.17341426499973     -0.17850208145061      2.78410174504993
  H          -0.16065226813056      1.64702311422200      1.63874253407215
  C           1.29389523110973      0.30211518951418      3.45777757869936
  C          -0.43712244748477     -1.35251766826273      3.21642110486312
  C           1.78113856595084     -0.37008596572437      4.56214987199390
  H           1.77958225136988      1.20300819538575      3.11293174627384
  C           0.05415888812064     -2.02203047292186      4.32172629360182
  H          -1.29722174011087     -1.72298347822058      2.68163388570151
  C           1.16263788506134     -1.53255469507839      4.99636548617769
  H           2.64593933495367      0.01377189283821      5.07898543391330
  H          -0.42904142596088     -2.92877739612081      4.65088717600709
  H           1.54664264337640     -2.05599083232349      5.85751251106133
