147
Coordinates from ORCA-job job E -278.526207878820
  C          -0.74463467736664      4.87019321531382      0.68903933746175
  C           4.28569113245559      3.22827784055592      0.41433384906835
  C           5.06000175572722     -1.95865024840133      0.54562829805114
  C           0.73595920425176     -4.84157683204642     -0.27277444635223
  C          -4.09266634249781     -2.99567392618794     -1.37948984047446
  C          -5.08615911103696      1.96574314324944     -0.16315948112223
  O           0.19348206758405      3.82035667095424      0.61318172445553
  O           4.10276420656383      1.99644445072025      1.03981641714227
  O           3.71033814921890     -2.21275285675329      0.82087290606090
  O          -0.19248582994646     -3.79019824935939     -0.21859062709683
  O          -4.18063397143518     -2.02718085690404     -0.38199932085207
  O          -3.77331985400676      2.11690724995852      0.31030074476800
  C          -1.62214994420308      4.67706061886107      1.93713747014858
  C           3.83956374837989      4.31433959056791      1.41222378740606
  C           5.65566381171631     -1.29696056078587      1.80003489692997
  C           1.31724226396746     -5.03383809904506      1.13530359539465
  C          -3.87622012189206     -4.35359998521950     -0.68055550454192
  C          -5.83206857407109      1.06418547096926      0.83506521990736
  O          -0.88457066221779      4.58893527582253      3.12731309351536
  O           4.55019061928925      4.25212655806670      2.61330239902954
  O           5.52245734496568     -2.11027308905723      2.93176070000903
  O           0.33271369230228     -5.28816869363282      2.10182147087573
  O          -4.89677261043914     -4.64253358803321      0.22950980258448
  O          -5.87563551264540      1.61683601222779      2.12089207107069
  C          -2.45381127284899      3.39885725580906      1.76700107977217
  C           2.32768368404127      4.17059838582670      1.66281499369758
  C           4.94956659853996      0.05030410547917      2.00646606444136
  C           2.09472215734988     -3.76344656906546      1.49700157473492
  C          -2.50771840963336     -4.33784349280941      0.01864097837735
  C          -5.13132764528804     -0.30203394795607      0.84239897764461
  O          -3.39236740682185      3.25090077819704      2.80107891603628
  O           1.84814317039412      5.21697542923492      2.47141462722916
  O           5.53397439353890      0.78312215496707      3.05223020710620
  O           2.74358761761371     -3.88760853509378      2.73659385607774
  O          -2.19869200208138     -5.59117922546300      0.58038776069028
  O          -5.81427522660445     -1.21925807699271      1.65652454324880
  C          -3.22271391228940      3.41379703888463      0.44108275070106
  C           1.54133308438759      4.17041609975122      0.34196647191111
  C           4.99246383633232      0.92360385886095      0.74513905947985
  C           3.15524391373831     -3.45842142237458      0.43425936371158
  C          -1.38795156717408     -3.95039915311390     -0.96102881187582
  C          -5.03422107339590     -0.90103572324459     -0.56702250243192
  C          -2.28494786435222      3.75707819102601     -0.72851823518010
  C           2.16276832384262      3.12193865890848     -0.58696982539045
  C           4.59059833454172      0.13350026805263     -0.51522023282421
  C           2.51912137612970     -3.42777051757222     -0.96518319831347
  C          -1.77611505986469     -2.63420803245774     -1.64305823158764
  C          -4.48923405457311      0.12844099044734     -1.57625959220549
  O          -1.54653338821053      4.94412880611117     -0.45370357739893
  O           3.54125597032149      3.36591058269904     -0.78194795073186
  O           5.25247604786280     -1.12850056361957     -0.56700243931591
  O           1.76664508534763     -4.61983882793703     -1.19074743226991
  O          -3.03244125855898     -2.75805994447614     -2.28807721851202
  O          -5.13180357104501      1.39775510976644     -1.44176569897992
  C          -3.05936745389178      4.02320925312871     -2.02439784942207
  C           1.51523723306551      3.05482716075027     -1.96819550284082
  C           5.03134865361830      0.83364322450298     -1.81059208265115
  C           3.55791054786244     -3.39742002255560     -2.09056627710256
  C          -0.78199573287487     -2.16583113902434     -2.69926677003958
  C          -4.73586690829735     -0.26865352265906     -3.04085288671334
  O          -3.94556079965021      5.10073035039394     -1.90045425010165
  O           2.01070661226202      2.02287245576893     -2.62864516180531
  O           6.41014459098823      1.07762936341941     -1.83072383655068
  O           4.40916898031471     -4.51148718663494     -2.06004311015826
  O          -1.26858081753819     -1.09333007753577     -3.31899653067671
  O          -6.07454517508208     -0.60275115354823     -3.28833779139573
  H          -0.22884843733478      5.83801440226433      0.73754007764301
  H           5.33032468117147      3.37203210667892      0.10794322905609
  H           5.59305241059388     -2.88719318612416      0.29819484810440
  H           0.25117743484977     -5.76664639262373     -0.61538792463135
  H          -4.99690007854598     -3.01514362729210     -2.00212267299428
  H          -5.58434593305805      2.93916611950083     -0.26526412604993
  H          -2.30987217948959      5.53552400039918      1.99920365264850
  H           4.03789088868116      5.29881851111358      0.97492884908501
  H           6.72803896847436     -1.13176528143667      1.65345167344803
  H           2.01750940477935     -5.88300532646760      1.10798787612410
  H          -3.88905786224289     -5.14682761177479     -1.43522591687101
  H          -6.87164855179851      0.94132118407427      0.51350668140129
  H           0.03849200832173      4.86963154706690      2.97940140426686
  H           4.66324540372583      3.32347437557886      2.87720126591009
  H           4.64548728429801     -2.53203329495488      2.92664167291737
  H          -0.53700779405865     -5.37456010587528      1.67191878505897
  H          -5.08766902882616     -3.84912072964580      0.75766388596235
  H          -5.01188338756441      2.01048590728060      2.34382761436266
  H          -1.76924649756227      2.53696244583305      1.74705950170227
  H           2.14255316091385      3.20000511542601      2.15021464288078
  H           3.89146323624116     -0.15811458848035      2.22752126656507
  H           1.39004345854761     -2.91916590065187      1.51134848442003
  H          -2.52583915501875     -3.57156439134872      0.80760257384047
  H          -4.09937274151672     -0.15564612404955      1.20090133915932
  H          -2.93303372787721      3.37354316359386      3.64789187358823
  H           2.51220389516555      5.38984451211478      3.16313318207414
  H           5.74611416164072      0.16642097909720      3.77305245627142
  H           2.13187888335865     -4.33602808361001      3.34309550720714
  H          -3.01450835250496     -5.95254665929325      0.97161344253837
  H          -6.06551478543087     -0.76220446064740      2.47663742155313
  H          -4.02452147305618      4.16325003574900      0.49591618203410
  H           1.58981901196188      5.15540568259356     -0.13818837002216
  H           6.00907869900856      1.31992230431956      0.61030830780556
  H           3.93639198130523     -4.23287208849908      0.46058966399692
  H          -1.25757286686471     -4.72455865413260     -1.72792948837979
  H          -6.02499682315446     -1.24857598069703     -0.89311654364323
  H          -1.59535396510900      2.91879065251347     -0.88526352319876
  H           2.01657835840440      2.12406918674580     -0.14669279584604
  H           3.49953712033665     -0.01024047455156     -0.52097340321104
  H           1.86582233771154     -2.54552810167240     -1.04752429759254
  H          -1.81384619814492     -1.83845047059532     -0.88677120809729
  H          -3.41368799516456      0.23900744381847     -1.39998530062970
  H          -3.65638715918253      3.14250585553558     -2.26845696074687
  H          -2.32668573168055      4.19691365776595     -2.82107315455030
  H           4.72734517606675      0.19335138880116     -2.64705793909210
  H           4.52956868516575      1.79532126488178     -1.90625081929471
  H           4.18387444665238     -2.51121850400122     -1.98486488754796
  H           3.00669244005757     -3.34018714153501     -3.03608527203138
  H          -4.41946220223469      0.57673852252879     -3.66289400183484
  H          -4.12753236323176     -1.13600892369890     -3.29531339555689
  H          -3.42701543549387      5.89924453361769     -1.71775006626981
  H           6.87237294349022      0.22519680447786     -1.81585552522484
  H           3.86684513046973     -5.30512932521800     -2.18719038384578
  H          -6.61649053885357      0.19162912262514     -3.16559550421786
  C          -0.37742341175812     -0.35349599553945     -4.15270196796843
  H          -0.94250344435571     -0.05637050994114     -5.04043055243023
  H           0.48238607406897     -0.97681430743124     -4.41112183643720
  O           0.21480320089464     -2.75329482875427     -3.04064140110894
  C           1.34093065977969      1.57837566634259     -3.80746952146433
  H           2.03466092457359      0.90870319923002     -4.30996396571047
  H           1.07134364412390      2.43990591634652     -4.43196811084208
  O           0.71392698079035      3.84326273809082     -2.40428085590508
  C           0.05619961586910      0.87551994348276     -3.37655716601103
  O           0.72808556790959     -0.77433295636654     -1.37250270932007
  O          -0.61097854495529      1.33153615635862     -2.47062121660835
  O           0.85854000229875      0.28450232031114     -0.42173225320239
  H           0.25417220184224     -2.62606876025746      4.89114166438432
  H          -1.35775696122147      0.57455850930987     -1.04813128037555
  H          -1.76533362011703     -2.83636625890770      3.49317385337774
  H           2.04321551300883     -1.05098174904367      4.24065360515325
  O          -1.45537189987842      0.21093524175366     -0.14696912186289
  C          -0.22948972803618      0.37958812171904      0.48178278376816
  C          -0.11270025054660     -0.50853174702575      1.69730659256806
  H          -0.10787532916336      1.43745440666867      0.80803026051324
  C           1.02104762253623     -0.38533130029443      2.48989463530365
  C          -1.11788812305945     -1.38858693206213      2.06509325067438
  C           1.15678846651396     -1.14881205534614      3.63476169702370
  H           1.78576563002763      0.31370398369306      2.17598854405797
  C          -0.98076820087575     -2.15182310943318      3.21293940667654
  H          -2.00240608505785     -1.45187029979468      1.44883198519764
  C           0.15322075171405     -2.03328328992122      3.99671500847885
