147
Coordinates from ORCA-job job E -278.553890601670
  C          -0.70581270114381      4.78343382995918      0.70961724773891
  C           4.35534730302099      3.25347931324701      0.53077147387048
  C           4.98343015880139     -1.93292070798941      0.53700738125891
  C           0.64453282492402     -4.80313232460362     -0.33449125788793
  C          -4.24994009377256     -3.11253849233620     -1.39053592252947
  C          -5.05476493041624      1.89130856476853     -0.12984754286286
  O           0.25293415433359      3.76069710110036      0.56565441929859
  O           4.16330052512795      2.02785290112400      1.16153311432584
  O           3.60489655000633     -2.12134530901274      0.71882591495233
  O          -0.31708997396740     -3.77997133503170     -0.34885262484757
  O          -4.25800547238258     -2.12099283155439     -0.41309318898459
  O          -3.72560164215290      2.01545117870278      0.30688595208200
  C          -1.54436024058648      4.52108979948680      1.97321705947496
  C           3.86113170780694      4.35468172848043      1.48875624786046
  C           5.54912889341220     -1.35318877801504      1.84367226856942
  C           1.20273957945290     -4.93655583513621      1.09191216206158
  C          -4.00243927076174     -4.45193827254262     -0.66501497306071
  C          -5.79325856980440      0.99423226473042      0.87917193716793
  O          -0.76698087323917      4.37683709409875      3.12997499132593
  O           4.52254953387335      4.32630146240408      2.71848667014358
  O           5.33847713159109     -2.20425726685699      2.93478742445856
  O           0.20115541702504     -5.14307298859638      2.05129285505215
  O          -4.98560031032728     -4.71960044461539      0.29124603535107
  O          -5.79390932023542      1.53158465445623      2.17184261902347
  C          -2.35988166245393      3.23928082349592      1.77224925557025
  C           2.33988898590908      4.22013642859670      1.68846941839270
  C           4.88843456256855      0.01184029553425      2.07718261243373
  C           1.97737091536287     -3.65848255645978      1.43570650615315
  C          -2.60838119767810     -4.41191579015115     -0.01526597108280
  C          -5.12424373891603     -0.38685691611798      0.85291957953923
  O          -3.26393602330982      3.03101181183131      2.82637462874313
  O           1.84222140534192      5.30146649863254      2.44057232733094
  O           5.44190910918221      0.66279725885474      3.19219020139729
  O           2.62755677116149     -3.76454695484091      2.67681883402881
  O          -2.27271019648464     -5.65008458673322      0.56461069472303
  O          -5.80472955985076     -1.29883908777446      1.67478651440087
  C          -3.16917835350693      3.30576230737381      0.47272635869317
  C           1.59617403658257      4.15984988189817      0.34285786092535
  C           5.03864371441227      0.94128270540373      0.86411987257291
  C           3.03937570299773     -3.37165570423701      0.37010661988434
  C          -1.52648275702342     -4.04101848072005     -1.04176770021205
  C          -5.08060726237215     -0.96936710948752     -0.56599326426004
  C          -2.27813991583475      3.70942916253790     -0.71443332020678
  C           2.27160158410839      3.10096466226873     -0.53188956859772
  C           4.69288403260974      0.22653384183569     -0.45870269030338
  C           2.39980294865074     -3.36284759687498     -1.02786878634035
  C          -1.96335063574367     -2.76968004922119     -1.77698969454989
  C          -4.52954180642790      0.05860629532960     -1.57393473711738
  O          -1.53850457131936      4.89010850392145     -0.40949713355589
  O           3.64879361341401      3.36737844123252     -0.69410985549410
  O           5.27573523565858     -1.07371959817468     -0.52941110688993
  O           1.68395530143095     -4.57452278702683     -1.24413738951769
  O          -3.23938781906718     -2.91990167693520     -2.36630045701208
  O          -5.14654407565962      1.33793077367646     -1.41228320315075
  C          -3.11098118650132      4.03344780671410     -1.95954557543250
  C           1.67528518247300      2.97069768167975     -1.93500544223132
  C           5.27468512166787      0.94856968269493     -1.68646340444334
  C           3.44242639279004     -3.28995715199722     -2.14887062611196
  C          -0.97816212688446     -2.32628164207803     -2.85008227969187
  C          -4.81745932355201     -0.31910374525569     -3.03519552110579
  O          -3.99645539186228      5.09796794682382     -1.74599133374832
  O           2.14158646163673      1.85609677433231     -2.47464398703906
  O           6.65771822930692      1.14038320282485     -1.57524169874978
  O           4.32205629855875     -4.38036633005723     -2.12499216610080
  O          -1.38157679887308     -1.18674193034290     -3.39568356927176
  O          -6.17749809695820     -0.57257387607885     -3.26157299108463
  H          -0.20907408808803      5.75964099310723      0.78407681960042
  H           5.40830599427408      3.40653705548761      0.25928422213138
  H           5.48037223174744     -2.87790390393614      0.27942053056145
  H           0.19865504300884     -5.75432778902491     -0.65526936555990
  H          -5.19005388512372     -3.13410483114741     -1.95691551398917
  H          -5.53742385019324      2.87468549559178     -0.20865149448109
  H          -2.24195377544279      5.36660684945054      2.09088509685349
  H           4.07410332492584      5.32869800143845      1.03483054390685
  H           6.63280577568496     -1.22829349554985      1.74762551348492
  H           1.90282624989520     -5.78778149997090      1.10287436268967
  H          -4.04080512592152     -5.26451229849725     -1.39777664797128
  H          -6.84290050779361      0.89850093651877      0.58162365077143
  H           0.08443414795068      4.84349808353653      3.02235217119012
  H           4.60502631153834      3.40686057585421      3.02227062012020
  H           4.43858295352902     -2.57597876365988      2.89603768555795
  H          -0.63274023210088     -5.39677837703019      1.61406849143542
  H          -5.15761919659612     -3.91353121509665      0.80660659937835
  H          -4.91432918226257      1.89707712363251      2.38293679068920
  H          -1.66402032826169      2.39031518531265      1.69307197403219
  H           2.13415457089056      3.27419869608363      2.21345041085605
  H           3.81250315331263     -0.16138312512008      2.22799531432626
  H           1.27151804055714     -2.81601770592057      1.44194113885364
  H          -2.60873039387077     -3.62662873238406      0.75559463622901
  H          -4.07946200797305     -0.26897195280038      1.18405507336016
  H          -2.77849216840401      3.11028593551279      3.66418502112775
  H           2.49479069131513      5.50370926908357      3.13588879983781
  H           5.63031203012147     -0.00928460689461      3.86874234093811
  H           2.00898837458343     -4.17821411842892      3.30024550828224
  H          -3.06908290225248     -5.99990220601088      1.00310060592530
  H          -6.02462390484392     -0.84606369562715      2.50630919802957
  H          -3.96987859028417      4.05057678210574      0.58631830107740
  H           1.62830074172537      5.13049072180789     -0.16707152443235
  H           6.07206331139764      1.31276709610857      0.81206893915902
  H           3.81167174425304     -4.15324125866308      0.40425567574487
  H          -1.38562691163244     -4.85279025292067     -1.76596575946803
  H          -6.08906523621920     -1.28010369642224     -0.87425225582762
  H          -1.59450456969336      2.88751025573273     -0.95845415806779
  H           2.13739663727050      2.11683407575723     -0.05934160578963
  H           3.59923219701978      0.15207683443892     -0.55110657776467
  H           1.72245085113765     -2.50246969923214     -1.10905864551770
  H          -1.98146347348280     -1.94061228686570     -1.05229018998039
  H          -3.44786179865064      0.15026407022653     -1.42363984694365
  H          -3.71005324785444      3.15895050309335     -2.21933611140233
  H          -2.41608309527784      4.24424517836455     -2.78048805941685
  H           5.02850122742144      0.34558030268968     -2.56859233958726
  H           4.81727452934922      1.93030511007302     -1.79837591817101
  H           4.04431957121188     -2.38846688626471     -2.02398184453787
  H           2.89953544378354     -3.23363059490537     -3.09975283411014
  H          -4.45774153624469      0.50604562921483     -3.66126998968138
  H          -4.26712678160912     -1.22081905674433     -3.30179736333133
  H          -3.47301935214595      5.89046327557866     -1.55078255022134
  H           7.08656188867515      0.27080269434272     -1.55855472506958
  H           3.80327483702615     -5.18734727317648     -2.26674582563085
  H          -6.66966040298098      0.24921101828906     -3.11275192650499
  C          -0.40232995120341     -0.40686597373746     -4.06864271307587
  H          -0.92420243357377      0.17453525945291     -4.82563260717851
  H           0.37038955098691     -1.05306878802430     -4.48743549820436
  O           0.01952133153558     -2.92658625391897     -3.16623924866709
  C           1.46461726833837      1.28328238414188     -3.58260836424196
  H           2.16104050205762      0.58096980407084     -4.03382831990651
  H           1.13147715230041      2.05955562434808     -4.27560944057671
  O           0.96672275835453      3.78377297613404     -2.47345768732289
  C           0.21047982603256      0.56600118565751     -3.02495671897378
  O           0.67066862362395     -0.45017428022101     -1.92950919783334
  O          -0.62525850025037      1.35070728246964     -2.39119455183843
  O           0.97742010742681      0.13015531025649     -0.68764778671350
  H           0.53413752668808     -1.99252960217956      4.93585618404285
  H          -1.31312033276211      0.54415375226024     -1.30317585117205
  H          -1.37123534755256     -2.65745075179728      3.51105614435413
  H           2.10829867050402     -0.26114501316436      4.15405999511578
  O          -1.36236024295228      0.03720211440550     -0.41306576945622
  C          -0.18431895824092      0.37429426137188      0.18776345963561
  C           0.02278292374863     -0.33291863121218      1.50064690239504
  H          -0.12160445962584      1.47058376447129      0.34839900113309
  C           1.09261687151290      0.04176972077173      2.30276121254889
  C          -0.86615371813946     -1.30143622222601      1.94261375365215
  C           1.27783618704828     -0.55980568951156      3.53442942140113
  H           1.76651318981121      0.80613731212950      1.94084482181826
  C          -0.67955489016378     -1.90064148118505      3.17766652485743
  H          -1.70043188347566     -1.56214187824571      1.30910467233037
  C           0.39174141343763     -1.53095013585360      3.97234862385446
