147
Coordinates from ORCA-job job E -278.527979695540
  C          -0.72430151320319      4.84187909702358      0.67024587443704
  C           4.32356898480744      3.24781011997804      0.47322475586116
  C           5.03887517430405     -1.93332366496988      0.53652512151921
  C           0.71457146121686     -4.81467563927047     -0.32001170038968
  C          -4.15635434916705     -3.03190678686858     -1.35451251503882
  C          -5.08249005313160      1.94669286272005     -0.15175425857309
  O           0.21842026428360      3.79705413778584      0.58247510535570
  O           4.14829913728501      2.02202437610644      1.11112087549572
  O           3.67350063420285     -2.15659024900044      0.76275200361126
  O          -0.23284801571416     -3.78045806424353     -0.27040612343261
  O          -4.21532293966666     -2.05512270557933     -0.36315448805877
  O          -3.75868092943271      2.09139879592959      0.29407439131434
  C          -1.59497609817684      4.64150966951955      1.92280679392174
  C           3.84625642466122      4.34640604197041      1.44265848973597
  C           5.61860631645847     -1.31896462322885      1.82120912537966
  C           1.29908546703333     -4.99608048490512      1.08894831876984
  C          -3.92069110008264     -4.38452710023337     -0.65089418425775
  C          -5.81841710042436      1.05655799115010      0.86412813467314
  O          -0.84816757786001      4.53409591325235      3.10504257297552
  O           4.53053794006617      4.31581730476724      2.65995992691750
  O           5.44001982101997     -2.15584262602338      2.92945682966004
  O           0.31827588512787     -5.25514724248580      2.05759594978201
  O          -4.91917757283712     -4.66833395661573      0.28484437293882
  O          -5.84181770281111      1.61683260195633      2.14699783071180
  C          -2.43335409874489      3.36861620014534      1.75271007834139
  C           2.32988580363843      4.20270177221560      1.66648818971126
  C           4.94114785106539      0.03988014508647      2.04525665798316
  C           2.06290083863167     -3.71706310866394      1.45004804541990
  C          -2.53619118843792     -4.36431778019441      0.01714593208759
  C          -5.12603778695955     -0.31385851811842      0.86873085239427
  O          -3.36923965614322      3.22427480223812      2.78993411738797
  O           1.83631238034429      5.27055330790522      2.43895911626816
  O           5.52009233140933      0.72813830864537      3.12370915976031
  O           2.71937448331517     -3.83486169255438      2.68637834263134
  O          -2.21157256199675     -5.61627406744836      0.57346395350433
  O          -5.79832420583038     -1.22076756789815      1.70304814017419
  C          -3.20560858343222      3.38700278591647      0.42895018190344
  C           1.56666763914411      4.16085833483904      0.33205499630501
  C           5.03332589323613      0.94575416618688      0.80928742463609
  C           3.11580849785131     -3.40235117736483      0.38316944412129
  C          -1.43932263082711     -3.97639957732899     -0.98739197972724
  C          -5.06284665529496     -0.92301446063745     -0.53819435134030
  C          -2.27143528692142      3.73198823180483     -0.74319708502661
  C           2.21839783358879      3.09610263398608     -0.55563359112596
  C           4.66220197770935      0.19808210610102     -0.48724722212854
  C           2.47189147438568     -3.37040364689903     -1.01227749167255
  C          -1.85136561069378     -2.67303772908263     -1.67844454149049
  C          -4.53184100930500      0.09467163433064     -1.56701364860615
  O          -1.53234538501089      4.91902300673629     -0.46847812741165
  O           3.59500714969863      3.35833360276852     -0.73661630353198
  O           5.28393405649023     -1.08404625816843     -0.54969487702720
  O           1.73946670954517     -4.57289604410712     -1.24070623527584
  O          -3.12041790154307     -2.80329768767509     -2.29350107839681
  O          -5.15660805981226      1.37249212490077     -1.42593875322741
  C          -3.05321844003072      3.99900479815682     -2.03436284167424
  C           1.60127496965156      2.97465676556445     -1.94844698907169
  C           5.18154534149262      0.91269932958271     -1.74625436322988
  C           3.50968886821195     -3.30933385496660     -2.13763456958796
  C          -0.87340563061655     -2.20907978125064     -2.75116544964231
  C          -4.82212689932682     -0.30901899160918     -3.02212678194734
  O          -3.93467119489271      5.08000890867269     -1.90686087997350
  O           2.09366865123148      1.90002812573256     -2.53844137195118
  O           6.56361138880364      1.13281478129102     -1.69138967233869
  O           4.37578036140278     -4.41155767639876     -2.12285864209370
  O          -1.33667455071524     -1.10601450972338     -3.32660379008379
  O          -6.17123669409407     -0.62643456565367     -3.23195726514221
  H          -0.21220824838480      5.81158189738919      0.72101844529049
  H           5.37101006362066      3.40199438556449      0.18139492043766
  H           5.55372565630974     -2.86981269741829      0.28140481643204
  H           0.24789357182695     -5.74896270951506     -0.66193700802009
  H          -5.07746586521300     -3.05591605423285     -1.95163910921379
  H          -5.57490563188053      2.92339792385948     -0.25024937579415
  H          -2.27809829289930      5.50336746690032      1.99502913156516
  H           4.04767446306424      5.32303189075050      0.98915694025373
  H           6.69796960488096     -1.17665203800554      1.70385047128323
  H           2.00887823409053     -5.83776893045331      1.06178607965598
  H          -3.95048081159968     -5.18260844479242     -1.39997829363763
  H          -6.86313368387739      0.93781289604226      0.55777502187150
  H           0.05360155199974      4.88341962682718      2.96949987869300
  H           4.63088262233946      3.39515436567654      2.95399128407464
  H           4.55567211014115     -2.56191656076486      2.89470115739538
  H          -0.54468682311578     -5.39658958506610      1.62747768207832
  H          -5.09752662656740     -3.87164667592380      0.81231982833052
  H          -4.97459753481969      2.01125278184261      2.35612076484105
  H          -1.75320337379581      2.50352986001128      1.73066227076546
  H           2.13739784497219      3.24625382045846      2.17825137296058
  H           3.87358631068830     -0.14743409281718      2.23674965037127
  H           1.34843755693326     -2.88155720375151      1.46952988830081
  H          -2.53910676664628     -3.59686655656930      0.80516148784569
  H          -4.08621109003006     -0.17160905912448      1.20534437862786
  H          -2.90489413715772      3.33497841374460      3.63571210464011
  H           2.49360130876433      5.46680787266105      3.13128256294400
  H           5.70779340657024      0.08451205373521      3.82752858723787
  H           2.11492760963817     -4.28582261382255      3.29810719076299
  H          -3.01574364338583     -5.97652178662650      0.98892799219188
  H          -6.02914343905307     -0.75664230048232      2.52516017049369
  H          -4.00572293219082      4.13798333514605      0.48726073018360
  H           1.61180796176131      5.13310434556807     -0.17384416588149
  H           6.05797672149705      1.33383095352346      0.71735364477463
  H           3.89670133877041     -4.17692302407569      0.40045693213932
  H          -1.31019565933377     -4.76110807553115     -1.74337798944172
  H          -6.06328951269555     -1.26408897403947     -0.84094270832968
  H          -1.58209095731340      2.89538134608880     -0.90752770153471
  H           2.08133676060285      2.11062493446959     -0.08706970759977
  H           3.56841624375634      0.08980688787185     -0.54240475401564
  H           1.80596187665657     -2.49786229623342     -1.08817417345635
  H          -1.87211764452925     -1.86975882923889     -0.92826667113372
  H          -3.45062737655162      0.19479574046389     -1.42144125043067
  H          -3.65480808167703      3.11959638969303     -2.27204273579474
  H          -2.32590336186925      4.16675789381393     -2.83736359741272
  H           4.91249211934081      0.29102296390190     -2.60825106340961
  H           4.70074221599718      1.88370070125562     -1.85249766966103
  H           4.12296902346851     -2.41578426745474     -2.01605389894402
  H           2.95962981583411     -3.24450237789947     -3.08346193834062
  H          -4.51025567016938      0.52753614995307     -3.65814393079145
  H          -4.23302379436591     -1.18652777691728     -3.28667461027076
  H          -3.41206444452846      5.87644117881921     -1.72649844027813
  H           7.01075072234371      0.27240252418650     -1.67871880619176
  H           3.84412226635253     -5.21064832120144     -2.26114980917345
  H          -6.69878649775913      0.17685467337737     -3.10515479943427
  C          -0.43044683001141     -0.35635919515976     -4.13310303736379
  H          -1.01357551425293      0.04609549816370     -4.96527466219423
  H           0.37913644776277     -1.00386164662562     -4.47595587294085
  O           0.11413380757277     -2.80361903865520     -3.10454670373168
  C           1.44664036509288      1.39412110747566     -3.70181677362770
  H           2.12194730586278      0.64921287123323     -4.11549387333208
  H           1.24711409540457      2.21117996625522     -4.40697570694387
  O           0.83923038256821      3.76584011370042     -2.44662097936676
  C           0.10777306256241      0.78923861849515     -3.28749009222183
  O           0.71090479739042     -0.65592058057165     -1.52577499302420
  O          -0.56653379898094      1.33030099409520     -2.41933159107488
  O           0.86365492446002      0.29147928958471     -0.48415481030481
  H           0.31296877787803     -2.52127189740790      4.88061116873093
  H          -1.37613308988764      0.54102398930922     -1.11769732778251
  H          -1.69976166452594     -2.81407887874836      3.48661806451250
  H           2.06361552286697     -0.91908226479391      4.19404319939631
  O          -1.45933920755853      0.15467160443088     -0.22061173864659
  C          -0.24815952085945      0.37512295379759      0.40813059876732
  C          -0.10285655783086     -0.48767413333151      1.63877664231237
  H          -0.15742409483153      1.44060426890004      0.71785578446947
  C           1.02722578151186     -0.31864359272145      2.42828425149366
  C          -1.08654429732055     -1.38369414895686      2.02633852600355
  C           1.18077699034080     -1.05314302307523      3.58975765270248
  H           1.77378158620985      0.39396540889427      2.10176885756180
  C          -0.93177769034718     -2.11728262786102      3.19123910844194
  H          -1.96915646957889     -1.48173936524040      1.41215619001555
  C           0.19869677951257     -1.95315425862287      3.97196500668307
