147
 xtb: 6.7.1 (edcfbbe)
C            2.28155378464356        4.56855704918375        0.38488378862556
C            5.76751144930671        1.07290208786638       -1.58521676752090
C            5.31797718054928       -4.13937523828384       -0.82233750346782
C            0.60226005599556       -5.26645343346883        0.99562341841949
C           -3.36740470376776       -1.83173312576205        1.10380240089924
C           -2.60965338916530        3.23782117940585        1.91126660799255
O            2.73911094324074        3.24141719368856        0.23435211846957
O            5.40942176643490       -0.03683898147521       -0.82171742128226
O            4.40827968654925       -4.03044058194304        0.23298779763790
O            0.26256953847082       -3.89662017810204        1.00763762669108
O           -2.84306178003971       -0.84547408570045        1.93644727350517
O           -1.23036859199688        3.01783034996752        1.79615891196055
C            2.01164647116318        4.81049414229901        1.87960977338952
C            6.23353462346556        2.15920474205524       -0.59929708599302
C            6.63748844149537       -3.52064801914084       -0.32349294860413
C            1.60615803637600       -5.53625254836396        2.12186373829907
C           -3.32546828645538       -3.16151109948178        1.88600448899339
C           -3.05228834150481        2.61126489079354        3.24519314062797
O            3.13996893414434        4.65184641897664        2.69178023652792
O            7.32314395029225        1.74055331414000        0.17020297781967
O            7.12058640093649       -4.17572779177303        0.81323975578882
O            1.12364407864265       -5.15168441199025        3.38123330327032
O           -4.00664132415276       -3.07207402402663        3.10277849770226
O           -2.40794123386371        3.19680995429744        4.34082323173649
C            0.88673192187450        3.85716508800561        2.30621019057750
C            5.03595479125181        2.54198234754146        0.28851871995246
C            6.37390247865130       -2.03628711576194       -0.03557380968669
C            2.88351962610849       -4.74907560725373        1.81995892776708
C           -1.86176105461404       -3.57644936569395        2.11371996758722
C           -2.76300432389496        1.10618386446491        3.16712547588554
O            0.51117120062320        4.06068530533322        3.64339807677213
O            5.36214217235121        3.58156454834738        1.17448929053577
O            7.54438888194369       -1.34762379908589        0.32743521181780
O            3.90289586890173       -5.05194564561239        2.73565512702718
O           -1.78752897647083       -4.83432231531532        2.74086148276403
O           -3.24819579901137        0.43000190158511        4.29676351118091
C           -0.35832837676959        4.07167079507211        1.43635013108447
C            3.86534992712874        2.99586112667919       -0.59449263079136
C            5.78474400304251       -1.33569183459440       -1.26615943745937
C            3.42124313888120       -5.03742367006066        0.41119115054104
C           -1.10244855921955       -3.61471907563604        0.77498930217495
C           -3.39885922248546        0.46437119535786        1.92610125051243
C           -0.01077798015257        4.06155574451695       -0.06792088827455
C            3.56353422170255        1.89543814986089       -1.62700557506012
C            4.58089577919243       -2.10548419995846       -1.83287729160703
C            2.30698994091727       -4.98174808529170       -0.64977254795791
C           -1.26465863413698       -2.23219545239674        0.12901593234290
C           -3.08593785245443        1.27532968928213        0.65347609539912
O            1.12657081424674        4.86644786935502       -0.34715171035964
O            4.71159103650202        1.56326937436393       -2.38494490758179
O            4.88883768309225       -3.48488231493395       -1.99305644822066
O            1.13554798659346       -5.68028157676424       -0.22647648759791
O           -2.63441128932706       -1.96252512499425       -0.10277447274707
O           -3.33602146515432        2.66741526690260        0.85505722447206
C           -1.18079067921767        4.61565958692601       -0.89963053807561
C            2.47730378274666        2.36332316472781       -2.57821615030919
C            4.19567988827450       -1.60384932191179       -3.23154550577176
C            2.68917862973461       -5.66714879808690       -1.97167021595511
C           -0.51085392399102       -2.02985480702621       -1.17299162321479
C           -3.93819065887379        0.88067170017562       -0.56092903931194
O           -1.09930778595322        4.35563014651295       -2.27407715048223
O            2.12276675925681        1.43222635933359       -3.48561254851389
O            5.25179619306064       -1.72381573998520       -4.14260841000918
O            3.15418996973339       -6.97645983884348       -1.78192566227971
O           -0.97823237560248       -0.94769948135368       -1.79200708136792
O           -5.31263925054481        0.87459420362756       -0.27784804128501
H            3.03454500564577        5.26964716358151        0.00703413661757
H            6.55045069716198        0.82731382389965       -2.31086358034480
H            5.46468002755314       -5.18788461403608       -1.11719013605065
H           -0.29509370552879       -5.88187601280938        1.13274013658050
H           -4.39286955309681       -1.59460797784420        0.79438999978655
H           -2.84735433628966        4.30960270566911        1.88538659109174
H            1.66172283520749        5.84441999588587        2.00043472819256
H            6.54627123331751        3.04373828830367       -1.16642755247663
H            7.40590011632470       -3.61947109081513       -1.09664964986102
H            1.83534760912314       -6.61281175804660        2.11927085589986
H           -3.83113149261607       -3.93330547832093        1.29601259192345
H           -4.12638111295875        2.77287205951235        3.38733631986924
H            3.83296783938635        4.14310434840410        2.22853057258918
H            7.25899813210097        0.78675816904183        0.34777513642347
H            6.38119031408895       -4.33752340555357        1.42225512676748
H            0.15026457329217       -5.17616170471794        3.37243578445391
H           -3.76208237853327       -2.24260503689686        3.54652705994817
H           -1.46528844320447        3.32462736348904        4.14369281487244
H            1.21955602261057        2.81934689401277        2.15717713481694
H            4.70713156721807        1.65003813771088        0.84962260935990
H            5.63127138146436       -1.97874744171764        0.77368297076680
H            2.63229293891259       -3.67748305172486        1.85909071313932
H           -1.37207155182656       -2.81817156986972        2.74314668127518
H           -1.67219153109450        0.97506596639421        3.07199346057897
H            1.32529535438626        4.16586360302446        4.17235463070165
H            6.25719986630799        3.42105294144094        1.50760938179729
H            8.07083216230181       -1.92311049380384        0.90724011280444
H            3.50691036395955       -5.07432023018150        3.62131989163252
H           -2.50450540620697       -4.87784404727921        3.39537958156334
H           -3.01011281809384        0.94504716096094        5.08495348472827
H           -0.80969281300597        5.04247239021855        1.70309081325573
H            4.12796882645502        3.90912434617190       -1.13447712603573
H            6.55627346878957       -1.25437853675450       -2.04335744581971
H            3.89936779353338       -6.02735968102389        0.39233449466016
H           -1.53660212299994       -4.36932217930113        0.10444623859647
H           -4.48562735130634        0.39996829959333        2.04996642353696
H            0.19479762144530        3.03021191253782       -0.37621094301792
H            3.15737325438782        0.99414226569781       -1.12871685295686
H            3.72231170618408       -1.97384793619170       -1.15783176287868
H            2.05923128645487       -3.92851816766571       -0.83661102332798
H           -0.84584416450531       -1.46860200692903        0.80431999929974
H           -2.02304770131308        1.12910913178511        0.39996806220077
H           -1.17608295149075        5.71071777708585       -0.80163274948459
H           -2.11572623017386        4.20783491811723       -0.49368371210200
H            3.31738976502933       -2.17309906829056       -3.56364814500567
H            3.92823170476253       -0.54805741677200       -3.18335373386586
H            3.48599289292827       -5.11047003414425       -2.46318260768904
H            1.79868825632750       -5.64907312083140       -2.61028208813544
H           -3.67678212145176        1.57306044231931       -1.37350569898957
H           -3.65399253396244       -0.12378554902820       -0.88706437154033
H           -1.20394821496493        3.39627647960972       -2.42258413257052
H            5.46786904407722       -2.66479627609490       -4.23979674389337
H            2.42547730640192       -7.51105476982976       -1.43214330398997
H           -5.58668483253111        1.78926628100059       -0.12630904872843
C           -0.27903070812977       -0.43581547248613       -2.88858962240265
H           -0.90505103935444       -0.51088354976449       -3.78099753902967
H            0.70716163400211       -0.88033356083170       -2.97166365996799
O            0.36226911454401       -2.73414416611988       -1.61141553145177
C            0.79666357501826        1.56761983855664       -3.89059972439703
H            0.61312038317840        0.92134361492826       -4.74977957004595
H            0.52610921484018        2.61410476491357       -4.08176714386549
O            2.04126191927664        3.48679756467768       -2.58889204125277
C           -0.09342687924522        1.13556162094098       -2.56855016441257
C            2.91866557613578       -2.07754912759735        4.20755125525085
O            0.68289804171997        1.27171717204281       -1.50260483103635
O            1.64481513718670       -0.39024816486108       -0.36131658211332
H            3.26373891370893       -2.62417940205628        5.09332676562943
H           -0.06736291326975        0.84903374336270        0.10215270016357
H            0.85461699487719       -2.14836146695199        4.84327978368142
H            4.85317623191921       -1.86535563839010        3.36049535480839
O            0.12535229005944        0.51370724105790        1.04075360380284
C            1.48319042211502        0.17296682995299        0.82444007426289
C            1.98176683991047       -0.68198058515780        2.01742026896594
H            2.09283262235502        1.10921523745982        0.93045410927052
C            3.33505131195931       -0.94530906762993        2.13229008488990
C            1.09097673630160       -1.11335103377598        2.98281037023507
C            3.80306351496459       -1.64561129047490        3.23325169760464
H            4.01463076222080       -0.60718333576396        1.39009971417713
C            1.56728750698831       -1.81653714532969        4.07981878496969
H            0.04398806206598       -0.86491824937918        2.89504980232464
O           -1.26655405380456        1.68861539617246       -2.56286887015273
