147
Coordinates from ORCA-job job E -278.558057511150
  C          -0.69311403814625      4.76293934754595      0.73974148333316
  C           4.36800952577236      3.25821940627140      0.52029327239896
  C           4.97370166810101     -1.93486026247954      0.55586260791427
  C           0.63636245327341     -4.80528977929049     -0.32119887419705
  C          -4.24986262698877     -3.12190268071244     -1.40803649766024
  C          -5.04182807841319      1.87632441877255     -0.10937569408129
  O           0.27033943691792      3.74913387727882      0.56484829315589
  O           4.16605523311278      2.03483419653568      1.15189667383151
  O           3.59458265658003     -2.12124196843590      0.73477623332262
  O          -0.32331807579240     -3.78072796537139     -0.35900317624724
  O          -4.24977244423539     -2.13178954460293     -0.42908318045969
  O          -3.71081839380218      1.99226604384959      0.32500213125286
  C          -1.51434865240489      4.47171075216282      2.00840210322221
  C           3.87832075883789      4.36133355908479      1.47842635780542
  C           5.53455331744990     -1.34687196815282      1.86115945545227
  C           1.17953553901072     -4.92401874449652      1.11250608496203
  C          -4.00559903881389     -4.46218898396925     -0.68332102488407
  C          -5.78044395820755      0.97233008552621      0.89369972060729
  O          -0.72081817672065      4.30917215421720      3.15127683633070
  O           4.54603059832161      4.33518085872062      2.70470594048316
  O           5.31756595257609     -2.19047441931702      2.95676844589319
  O           0.16723388339957     -5.11306564935432      2.06405497495524
  O          -4.99102488427820     -4.73019078341188      0.27048429878576
  O          -5.77498015541993      1.49855395846994      2.19094724314806
  C          -2.32424897020759      3.18878910503448      1.79310336304749
  C           2.35824659642809      4.22401020750891      1.68632156421147
  C           4.87450329670207      0.02058103815173      2.08213883652874
  C           1.95669255624697     -3.64628485802221      1.45124370225389
  C          -2.61340379895688     -4.42112428489224     -0.03002895124670
  C          -5.11597004235689     -0.41049758092270      0.85344467269139
  O          -3.21207595937097      2.95291695252634      2.85490792305469
  O           1.86207611338122      5.30378134884429      2.44163424308243
  O           5.42195161774451      0.67852066716888      3.19594097485825
  O           2.59667740855256     -3.74412444431450      2.69835745717512
  O          -2.27998814153217     -5.65817039727815      0.55383180608802
  O          -5.79851615518339     -1.32938423979016      1.66582962299597
  C          -3.15264392691372      3.27942383123327      0.50699209981285
  C           1.60988114622790      4.16206120947376      0.34363463952648
  C           5.03433864882939      0.94077277222445      0.86325149934788
  C           3.02865288808913     -3.37285871678932      0.39188655185170
  C          -1.52896886569698     -4.05246221875679     -1.05455154864864
  C          -5.07288941298715     -0.97930518633987     -0.57110657074842
  C          -2.27976113296252      3.70827272300155     -0.68477522752868
  C           2.28574581245594      3.11015195186803     -0.53941687626293
  C           4.68486802979997      0.21736646382904     -0.45370720813347
  C           2.40050002291774     -3.37534409347085     -1.01125807152059
  C          -1.96359391550867     -2.78657757587906     -1.80091455267022
  C          -4.52033752467893      0.05724910580449     -1.56904553460993
  O          -1.53908748930397      4.88490612876987     -0.36784381972633
  O           3.66180220728555      3.37624128185329     -0.70513581878615
  O           5.26952873463400     -1.08249286013844     -0.51530697160125
  O           1.68547781171793     -4.58835944185400     -1.22243175225201
  O          -3.24111794215506     -2.93409369359833     -2.38681023221181
  O          -5.13809459439528      1.33468678954308     -1.39651103829686
  C          -3.13073325672860      4.05303582204737     -1.91199587222151
  C           1.67361752880151      2.99056346615106     -1.93663678918822
  C           5.26089173018679      0.93187020094034     -1.68833393667290
  C           3.45103229121198     -3.31171801979329     -2.12539804856136
  C          -0.97388035838487     -2.35696178004074     -2.87614541623115
  C          -4.80348636224446     -0.30937156205178     -3.03367878697811
  O          -4.01899837504084      5.10784962974982     -1.66472424947814
  O           2.11171934371158      1.86880453350079     -2.48174560089344
  O           6.64474262390189      1.12253795461157     -1.58540419644641
  O           4.32991648561497     -4.40238903529040     -2.08730288389552
  O          -1.36948360671660     -1.22068600979205     -3.43339305019390
  O          -6.16377554878087     -0.55519904898004     -3.26728668918397
  H          -0.20111780437695      5.74044334400887      0.82591883356468
  H           5.42187340852593      3.40474594819688      0.24934073755466
  H           5.47117433332888     -2.88164228777327      0.30617167131753
  H           0.19227083590903     -5.75935665905146     -0.63567084333780
  H          -5.19168068727247     -3.13856881209677     -1.97160027763733
  H          -5.52165043608730      2.86181132178505     -0.17760592779538
  H          -2.21568563964002      5.31052844540511      2.15012257459408
  H           4.08801416178040      5.33474462272900      1.02180748427317
  H           6.61883423050788     -1.22417555097024      1.76943657187966
  H           1.87550070377856     -5.77845459189887      1.13959704764512
  H          -4.04220364155896     -5.27427280446147     -1.41665757961165
  H          -6.83128039446490      0.88319447754113      0.59859020231202
  H           0.11150381076644      4.81091436727786      3.05431404431008
  H           4.62823188010158      3.41635955165586      3.01067134082129
  H           4.41613070263380     -2.55835446965203      2.91775358359981
  H          -0.65633074865035     -5.39405568061794      1.62368061740614
  H          -5.16321394464172     -3.92488167006827      0.78706641648112
  H          -4.89100025426728      1.85142366317264      2.40476674548945
  H          -1.62447650139451      2.34593295763838      1.68614124249105
  H           2.15754381210285      3.27790815501243      2.21272165458789
  H           3.79709736332573     -0.14968624124682      2.22731828339421
  H           1.25427790007424     -2.80072961131817      1.44490487811646
  H          -2.61576635088241     -3.63405217181845      0.73911219961825
  H          -4.07101403751562     -0.29851989629374      1.18611935371420
  H          -2.71592630809220      3.01786612295981      3.68770145088551
  H           2.52127263803747      5.51093231807922      3.12923345196828
  H           5.60378406088934      0.01103812408011      3.87879789545563
  H           1.97231346622285     -4.15047578768896      3.32079112002372
  H          -3.07937657664646     -6.00858794989429      0.98641184433890
  H          -6.01531063628044     -0.88594750595416      2.50318659196065
  H          -3.95206426272817      4.02121655863253      0.64681799456290
  H           1.63246064305330      5.13471611674925     -0.16307953855117
  H           6.07039159654678      1.30433912980015      0.80968600130093
  H           3.79815673883261     -4.15647910872637      0.43983281898510
  H          -1.38162546398336     -4.86866248084220     -1.77247918135213
  H          -6.08129177136032     -1.28673223131661     -0.88255239374053
  H          -1.59860857022625      2.89240114530655     -0.95527722985266
  H           2.15561296876087      2.12286033240748     -0.07192684366102
  H           3.59111553989109      0.13978812113095     -0.54203245499124
  H           1.72436807419095     -2.51549201971943     -1.10384230701090
  H          -1.97669434566885     -1.95085005765060     -1.08349484547479
  H          -3.43919589412210      0.14828399023985     -1.41599734586432
  H          -3.72742334763928      3.18018596165271     -2.18231833810941
  H          -2.44800051871411      4.28393220283304     -2.73757826244599
  H           5.00906299911213      0.32497508692405     -2.56626661344123
  H           4.80450927414237      1.91390818734501     -1.80296612654463
  H           4.05267584759870     -2.40971582075159     -2.00325575559371
  H           2.91480272300849     -3.26182146339448     -3.08040856531624
  H          -4.43639903044179      0.51757397451209     -3.65310684308734
  H          -4.25607810886569     -1.21201361391922     -3.30358644180459
  H          -3.49720993789281      5.90028904193040     -1.46489559984496
  H           7.07234451828339      0.25241640844585     -1.56456564802712
  H           3.81257472127071     -5.21022641847407     -2.22939537073072
  H          -6.65272781615557      0.26758007788855     -3.11341617233129
  C          -0.38143077504951     -0.43731280443523     -4.08843477870647
  H          -0.88752645379780      0.13512935340374     -4.86184123273551
  H           0.40999790155157     -1.07778545181000     -4.47942970258014
  O           0.02521714707455     -2.96271685071486     -3.17845812991980
  C           1.42321033743177      1.31249247532648     -3.59235689922200
  H           2.12333412263505      0.63485530770893     -4.07453854667284
  H           1.06279879845062      2.10018054712331     -4.25717285757941
  O           0.96265987618733      3.81104273857048     -2.46071131974693
  C           0.18677170975156      0.55393928391308     -3.01762293495461
  O           0.69372631330489     -0.44788028036543     -2.01415153191150
  O          -0.70413244962386      1.36230965806248     -2.49730395269038
  O           1.00680468269839      0.06591979913828     -0.73526795226431
  H           0.47780874607092     -1.85444523549356      4.93450111507287
  H          -1.31302407956728      0.56966593998943     -1.37668133762248
  H          -1.39129373789330     -2.57359364832824      3.48739343186234
  H           2.05400813695353     -0.13051577571057      4.14017394348039
  O          -1.33960294368390      0.04238078047378     -0.48795713450781
  C          -0.16145845917992      0.37877546974810      0.11044767989352
  C           0.02444629604646     -0.28795727484647      1.44772255647009
  H          -0.08283696849561      1.47870324459009      0.23281454518918
  C           1.07494381390794      0.11556307109650      2.26106814106057
  C          -0.86480267008153     -1.25357076244570      1.89582234665660
  C           1.23905250657567     -0.45240931469498      3.51164207829736
  H           1.75137950767773      0.87525233701218      1.89481804486656
  C          -0.69918989960363     -1.81914823907919      3.14952759508756
  H          -1.68316949121558     -1.53881031296296      1.25214350728315
  C           0.35206409430222     -1.41948394969355      3.95643020773686
