147
Coordinates from ORCA-job job E -278.543246552050
  C          -0.71135681956827      4.80382071682570      0.67863256173932
  C           4.34778373200463      3.24994587670844      0.53339713807037
  C           4.99165673205289     -1.93204257396618      0.53082199337792
  C           0.65689344102987     -4.80278806067319     -0.35170087165968
  C          -4.24294768247263     -3.10018625167462     -1.37530116529521
  C          -5.06099693692815      1.90216016941979     -0.14108926859887
  O           0.24273673241689      3.77339290678999      0.55976454042101
  O           4.15923801422211      2.02388385000248      1.16513790400217
  O           3.61377872538412     -2.12426781700806      0.71294312712277
  O          -0.30494245217309     -3.78030203349599     -0.34114352578127
  O          -4.26269877339080     -2.11382832385377     -0.39269347851429
  O          -3.72985698168649      2.03396891839327      0.28790497122679
  C          -1.56411280033880      4.56709059616058      1.93773145310064
  C           3.85123554062429      4.35073471961790      1.49048433026119
  C           5.55620897795326     -1.35450266323801      1.83886522153573
  C           1.22686667899028     -4.95394809026260      1.06784061220287
  C          -3.99175334190033     -4.44362867599979     -0.65856620677003
  C          -5.79449363341474      1.01275134359252      0.87791000176235
  O          -0.80133724308018      4.44352619122660      3.10697191403370
  O           4.50713186924706      4.31995925396325      2.72325956790638
  O           5.34885819603472     -2.20906546304603      2.92794679014962
  O           0.23474555964766     -5.18501683504099      2.03152162166712
  O          -4.97344952918571     -4.71905931920440      0.29701261185529
  O          -5.79486502443622      1.56114926863899      2.16590384021155
  C          -2.38300348326450      3.28477866322619      1.75157206880587
  C           2.32921244755740      4.21816359536624      1.68292817675263
  C           4.89158933945599      0.00795011977253      2.07610068285966
  C           1.99396705181130     -3.67393064921297      1.42089514874814
  C          -2.59680112584043     -4.40773090934207     -0.01065530779164
  C          -5.12266938849247     -0.36734483132214      0.86222536620453
  O          -3.29924041088880      3.10057146703958      2.79982917234441
  O           1.82961718084180      5.29987458163809      2.43316262254662
  O           5.44389252117748      0.65757818952923      3.19240294498686
  O           2.64916663225674     -3.78705459153094      2.65864411795905
  O          -2.25857343754576     -5.65033752191579      0.55795235034645
  O          -5.79781349678100     -1.27140097897534      1.69715901534932
  C          -3.17709211165408      3.32770912505464      0.44178782443400
  C           1.58925869429587      4.15984836566931      0.33501156721497
  C           5.03830694427409      0.94105862039705      0.86552596484023
  C           3.04982693041174     -3.37224591804569      0.35331171255649
  C          -1.51659124981828     -4.02655990822346     -1.03532248679646
  C          -5.08727042296243     -0.96391824062989     -0.55106746589408
  C          -2.27049841992641      3.70969286263995     -0.74079585477353
  C           2.26405477070784      3.09546432677468     -0.53390390643020
  C           4.69707614370196      0.22938440134222     -0.46006711512251
  C           2.40540218095312     -3.35144620057214     -1.04231201920614
  C          -1.95484022044769     -2.74462528681205     -1.74991514521620
  C          -4.54521951184840      0.05469627404710     -1.57347487074549
  O          -1.53409924618802      4.89558327345024     -0.44904836805517
  O           3.64255464117236      3.36152795484762     -0.69150210887709
  O           5.28272609856342     -1.06956504192182     -0.53303893276303
  O           1.68850569302789     -4.56142270721300     -1.26681310878028
  O          -3.22938232657370     -2.89344359254672     -2.34477578728153
  O          -5.15637043306690      1.33758818289410     -1.41816793376346
  C          -3.08644698670914      4.00902948949695     -2.00324139074421
  C           1.68063100810011      2.95826374832608     -1.94178182376644
  C           5.28139770704102      0.95545817571113     -1.68425741116291
  C           3.44508761619918     -3.27128070404138     -2.16534732782163
  C          -0.97703933008872     -2.28153577378338     -2.82212016654791
  C          -4.84965122281799     -0.33395199999499     -3.02917493337277
  O          -3.97180497816830      5.07974596784040     -1.82338859330777
  O           2.16770977905677      1.85219057157991     -2.48084804059818
  O           6.66348409537180      1.15084329401147     -1.56774254912728
  O           4.32321845452877     -4.36308617716675     -2.15274148420708
  O          -1.39082401778693     -1.13409818530920     -3.34179334371454
  O          -6.20945425247113     -0.60404037402896     -3.23621203887811
  H          -0.21036961469027      5.77863672363176      0.74195669434074
  H           5.40077904865385      3.40484169995868      0.26268332696547
  H           5.49026818589545     -2.87552368193673      0.27061479434866
  H           0.20859579458574     -5.74972478176661     -0.68188199668100
  H          -5.18036036695601     -3.12431092649655     -1.94613219727758
  H          -5.54613372775521      2.88369389364874     -0.22714803866203
  H          -2.25964668056391      5.41700022965220      2.03297304028312
  H           4.06764434276740      5.32504780174672      1.03881826965919
  H           6.63942647198771     -1.22580976024246      1.74251153384440
  H           1.93398021732860     -5.79912623175023      1.06206485205928
  H          -4.03007838251546     -5.25131912594680     -1.39673848975124
  H          -6.84448880436013      0.91136719990373      0.58319820746643
  H           0.06904033559507      4.87101800490882      2.98795116085016
  H           4.58921007096306      3.39984586866187      3.02496449070798
  H           4.45196789757715     -2.58744219934767      2.88611365513146
  H          -0.60887666490286     -5.40696506859675      1.59576607206383
  H          -5.14518196888554     -3.91672937912807      0.81816200645774
  H          -4.91852341008829      1.93798321547984      2.37070771355079
  H          -1.68951306697181      2.43200654142084      1.69750237979613
  H           2.12008243543608      3.27166147769560      2.20587655170678
  H           3.81624882289342     -0.16884373199198      2.22701115061486
  H           1.28315761800718     -2.83563569145521      1.43689088495176
  H          -2.59638491952677     -3.62926371926270      0.76707883806434
  H          -4.07623337939549     -0.24485407470183      1.18638837356880
  H          -2.82273076748532      3.19730012564605      3.64082740904931
  H           2.47714270887433      5.49938851560169      3.13391206131897
  H           5.63455845148890     -0.01563454989541      3.86723761027630
  H           2.03766070099891     -4.21738986827516      3.27792529557581
  H          -3.05300624203918     -6.00430927808686      0.99662857887123
  H          -6.01356016352578     -0.81011404875327      2.52503294331611
  H          -3.97946378393409      4.07353070525080      0.53277253393737
  H           1.62964476794347      5.12905593168078     -0.17699163262690
  H           6.07046594097723      1.31659607809069      0.81547705097453
  H           3.82497584276512     -4.15160641767686      0.37626000249160
  H          -1.38012392024488     -4.82809487136350     -1.77163847108426
  H          -6.09747277025040     -1.27937325688156     -0.84880675993996
  H          -1.58174132271915      2.88416783034309     -0.95550585626649
  H           2.12528314671663      2.11335922561414     -0.05905232271171
  H           3.60375914571730      0.15375503090061     -0.55585692999631
  H           1.72870631824884     -2.48949740113989     -1.11702458221504
  H          -1.97832082791802     -1.92851934962788     -1.01207845609800
  H          -3.46172253686566      0.14362987083620     -1.43446835130533
  H          -3.68618110296413      3.13150903574337     -2.25169577736769
  H          -2.38072803456966      4.20223066194217     -2.81950136529870
  H           5.03981564192479      0.35305291401463     -2.56791790320026
  H           4.82131698291690      1.93589677388819     -1.79571586602727
  H           4.04801463346676     -2.37133953199285     -2.03493467886535
  H           2.89940206770124     -3.20650013936910     -3.11403220504726
  H          -4.50912663003208      0.49263802372376     -3.66387682004155
  H          -4.29265860884539     -1.23066846689329     -3.29861042006144
  H          -3.44936221617902      5.87433204589287     -1.63436501195718
  H           7.09495741848535      0.28254935257167     -1.55337322932155
  H           3.80223428263708     -5.16798693041473     -2.29833493784854
  H          -6.70903784019241      0.21409591831490     -3.09236421910839
  C          -0.43663070392944     -0.36003532191467     -4.05886034960555
  H          -0.98849035491601      0.19476919220400     -4.81730049669261
  H           0.32562212691425     -1.01200087278259     -4.48834962566514
  O           0.00822305920187     -2.88263221175806     -3.17177516508667
  C           1.50274462065542      1.27680351012710     -3.59503434598908
  H           2.18272341639974      0.53235723970274     -4.00124716448495
  H           1.23409245080240      2.04817998482112     -4.32349736377036
  O           0.97205341472444      3.76641951864583     -2.48853859336765
  C           0.20222055126261      0.63853191365092     -3.07818562962324
  O           0.69162533474000     -0.48671960644147     -1.81225735637365
  O          -0.54127526618784      1.35766826120326     -2.32411633268462
  O           0.95318067988341      0.18698733131236     -0.61964960322150
  H           0.54510585651072     -2.11716740988303      4.94234876241145
  H          -1.34312863661284      0.50885862336257     -1.22736927768929
  H          -1.38527706231014     -2.72898866654192      3.52859411257062
  H           2.12642227499913     -0.38260575820100      4.18045504009709
  O          -1.38536753045748      0.03571942110981     -0.34557722169751
  C          -0.20347134299638      0.36984072356889      0.25973366424818
  C           0.00446520022618     -0.37138098129423      1.55469612371211
  H          -0.15375391663733      1.46137340478322      0.45566518553922
  C           1.08795716190738     -0.02580902389014      2.35173745836788
  C          -0.88828942042965     -1.34109757136561      1.98543691179847
  C           1.28420758542809     -0.65808780241796      3.56596804112026
  H           1.76379699514708      0.74065308508683      1.99686140040825
  C          -0.69070464339246     -1.97125866609812      3.20335100132206
  H          -1.73361723581063     -1.57920947136611      1.35786551943639
  C           0.39440300850298     -1.63100742133609      3.99230743620664
