147
Coordinates from ORCA-job job_IRC_B E -278.500394747260
  C           2.28385696451928      4.56901148482499      0.38464314672586
  C           5.78118686826278      1.07456318701913     -1.57936603571725
  C           5.31726570723131     -4.13875765451413     -0.82205288793586
  C           0.60189761035044     -5.26824769955282      0.99709361480312
  C          -3.36899527379211     -1.83253870161365      1.10381244727998
  C          -2.61198509784881      3.23789002026392      1.90923661087860
  O           2.74723726273910      3.24328810954853      0.23319555528307
  O           5.40983977474585     -0.03573589634473     -0.82169576025824
  O           4.40663165825413     -4.02914620828550      0.23226891598484
  O           0.26128772591893     -3.89844816199029      1.01042122133263
  O          -2.84544767159178     -0.84405868237360      1.93490072415083
  O          -1.23343382610614      3.01531978007669      1.78795898970297
  C           2.01033162778327      4.80907359254459      1.87908212445789
  C           6.24480999402992      2.15904119924312     -0.59065278948592
  C           6.63713925794042     -3.52064232138847     -0.32332059084315
  C           1.60629424888244     -5.53757060636798      2.12295104717435
  C          -3.32666361504729     -3.16166473255437      1.88747920262397
  C          -3.05183660432409      2.61223259662675      3.24458297289742
  O           3.13782051190109      4.65067812567526      2.69302878987435
  O           7.32985281554323      1.73795388772835      0.18096322699182
  O           7.12072237992649     -4.17605888369386      0.81290509574290
  O           1.12363523836661     -5.15210978523174      3.38199435666942
  O          -4.00857777465443     -3.07117666103878      3.10369113052269
  O          -2.40512601844521      3.19657559757217      4.33935076090331
  C           0.88483588289978      3.85530284762990      2.30452089297152
  C           5.04612800757523      2.54686150402769      0.29449878326023
  C           6.37467698450480     -2.03615063276696     -0.03462128184541
  C           2.88295303671856     -4.74922255773658      1.82043855735884
  C          -1.86347572189455     -3.57795404540345      2.11687460180840
  C          -2.76533335038468      1.10662337840098      3.16609748388475
  O           0.50700566764931      4.06051917611801      3.64117750152337
  O           5.37118199970948      3.58524519876299      1.18009169291130
  O           7.54550872561006     -1.34797338730197      0.32785142539016
  O           3.90265341172549     -5.04951049684453      2.73636171004973
  O          -1.78915681639380     -4.83544928653127      2.74406558112742
  O          -3.24901186208179      0.43134941545970      4.29730204358286
  C          -0.35843240247229      4.06800757120620      1.43113246359565
  C           3.88009927171044      3.00436875520820     -0.59125483026174
  C           5.78564373552820     -1.33501935859120     -1.26498774319269
  C           3.42098562880689     -5.03760800835529      0.41191619858631
  C          -1.10429275388894     -3.61785109925394      0.77920802952042
  C          -3.40541227697743      0.46455861447174      1.92707881678491
  C          -0.00677424074387      4.05675457280242     -0.07233322932936
  C           3.58710402000333      1.90624918205844     -1.62719801231194
  C           4.58162081501589     -2.10460696730625     -1.83216922814293
  C           2.30648807551580     -4.98323741032377     -0.64872937847056
  C          -1.26651811913282     -2.23713170697027      0.13301466316861
  C          -3.10200312465324      1.27683955461940      0.65297804313430
  O           1.12900614029110      4.86472571425615     -0.34848102806778
  O           4.73101287835727      1.57056671433288     -2.38350689199236
  O           4.88873837640217     -3.48375844600695     -1.99318903310984
  O           1.13512802103382     -5.68146395429214     -0.22549564126569
  O          -2.63592836811268     -1.96529987128191     -0.10150642406036
  O          -3.34496924616452      2.66902714454730      0.85653575659271
  C          -1.17692845960269      4.61005358335214     -0.90519909889473
  C           2.50293468843679      2.37326066915657     -2.57973809655726
  C           4.19561832012100     -1.60126849490465     -3.23032037177829
  C           2.68886393961602     -5.66832076209796     -1.97060051343023
  C          -0.51644434198932     -2.04233522202923     -1.17281265302115
  C          -3.95785617621892      0.88258992735425     -0.55849734411893
  O          -1.09725000031311      4.34671214718577     -2.27775250553083
  O           2.15106051936961      1.44327258075342     -3.48324012512020
  O           5.25174089126560     -1.72117930592204     -4.14102440368875
  O           3.15408648558069     -6.97735673999500     -1.78068607044715
  O          -0.98613408639209     -0.97126125390532     -1.79139442390107
  O          -5.32940942070771      0.87334594955148     -0.27263342041785
  H           3.03377415650758      5.27666140205909      0.00830517332832
  H           6.57352561113781      0.82618192316840     -2.29650352674465
  H           5.46307333753510     -5.18653244269760     -1.11771671188180
  H          -0.29496304505807     -5.88563050600918      1.13494930857691
  H          -4.39398015388393     -1.59780666727968      0.79141739587575
  H          -2.84656180216309      4.31054320290818      1.88335529939108
  H           1.65787765609908      5.84232697618194      1.99875221933284
  H           6.56770550732844      3.04181671635647     -1.15387326988832
  H           7.40454608786476     -3.61972265671070     -1.09714413078547
  H           1.83662887500679     -6.61531387711176      2.12144101042835
  H          -3.83205490198118     -3.93339091196681      1.29703499518903
  H          -4.12466044652129      2.77707456985148      3.38935625313304
  H           3.82990698415692      4.14177071592727      2.23102828048528
  H           7.26617188353348      0.78114966459236      0.36085504527421
  H           6.38185499319429     -4.33742560046259      1.42302613503615
  H           0.15117983746992     -5.17592734812329      3.37388511567780
  H          -3.76409096430534     -2.24062531574119      3.54621218200343
  H          -1.46005593576175      3.32302509850266      4.13809149992622
  H           1.21981945678082      2.81718550130020      2.16103704498733
  H           4.71526955780244      1.66023562192484      0.85789394308532
  H           5.63363857860873     -1.97887238671709      0.77601942242895
  H           2.62896131663951     -3.67943546651102      1.85922473490320
  H          -1.37483690990104     -2.82059777469622      2.74808619111147
  H          -1.67637103205804      0.97297432566591      3.06582817760294
  H           1.31657929063270      4.16554166353576      4.17042163400334
  H           6.26869017281860      3.42321229533559      1.52243538145095
  H           8.07445411987413     -1.92546324786180      0.90398373961146
  H           3.50890900857397     -5.06120783452452      3.62296788602431
  H          -2.50865630568584     -4.87925373939492      3.39954622576303
  H          -3.00366635668746      0.94626862590569      5.08424430409779
  H          -0.80925212669788      5.03704358231204      1.68908184505463
  H           4.14834966181387      3.92336968320935     -1.12658637568225
  H           6.55656453382331     -1.25451437844802     -2.04225837665348
  H           3.90080920972174     -6.02714999154852      0.39325661988973
  H          -1.53795797815244     -4.37197105148809      0.10921297079657
  H          -4.49447074474167      0.39584070353084      2.05907424505510
  H           0.20522678458405      3.02214692192502     -0.38474294944130
  H           3.19473991703633      1.01025200680631     -1.12460203605520
  H           3.72273985187500     -1.97608034409953     -1.15628930963047
  H           2.05707327741343     -3.93198076458851     -0.83639756655682
  H          -0.84896371514410     -1.47456069812876      0.81073102850287
  H          -2.05348791318601      1.12825415913478      0.38215942986321
  H          -1.17077908914759      5.69927368747609     -0.81284656513382
  H          -2.10909066272599      4.19621651048297     -0.49978433978818
  H           3.31598983220388     -2.16701838749813     -3.56283770047176
  H           3.93027091382612     -0.54339658097013     -3.18279702334147
  H           3.48495902747438     -5.11189907038576     -2.46223560857999
  H           1.79795570903911     -5.65074796717891     -2.60888969996852
  H          -3.70925450170407      1.57874962278197     -1.36819736102375
  H          -3.67896522194794     -0.11883524953686     -0.88709562644886
  H          -1.16836248282150      3.36854260059810     -2.40984017684242
  H           5.46518640749919     -2.66264454363265     -4.24049628019697
  H           2.42692942184878     -7.51295432537545     -1.43023675159712
  H          -5.61621965310026      1.78569530294627     -0.11607889536085
  C          -0.27363562982571     -0.45760264845495     -2.89020157907886
  H          -0.90446495361173     -0.51534826519181     -3.77555980883298
  H           0.69565226127968     -0.94927344252890     -2.99163062814509
  O           0.36532573034230     -2.74589809100383     -1.60145884320351
  C           0.80657915774719      1.56089663172110     -3.85195863237931
  H           0.62638305771698      0.92428788748233     -4.71304541885168
  H           0.52406952236638      2.60093854230252     -4.03694793222480
  O           2.04474936853046      3.48678381792392     -2.56947041351620
  C          -0.05179867472799      1.06624690237300     -2.56780163501301
  C           2.94116984332078     -2.05791629760494      4.16157405994141
  O           0.74602099464052      1.18281506802144     -1.46430193047104
  O           1.50292917333096     -0.28838790235964     -0.42947477021233
  H           3.32252151995397     -2.58112037698318      5.02399977319746
  H          -0.21125437216379      0.94326138556069      0.27272924130689
  H           0.90256119149983     -2.14066186067691      4.81088998245311
  H           4.86433198786939     -1.81066921227133      3.25857852016430
  O           0.09632168106801      0.55061380415451      1.10663914682132
  C           1.42672069171537      0.21658210567669      0.81434917382381
  C           1.96001104549213     -0.69212544968304      1.95261357796797
  H           2.04352075152694      1.14270582572661      0.87949181923257
  C           3.31889015937106     -0.94029281132074      2.06593429689048
  C           1.09246384198747     -1.12588222000597      2.94367926477556
  C           3.80597892081638     -1.62402127887194      3.17075357798274
  H           3.98423946154580     -0.58898348880617      1.29062153729525
  C           1.58600191183476     -1.81082518506928      4.04451017807823
  H           0.04094503156692     -0.89703797940339      2.87021585462915
  O          -1.20425483075616      1.68282512717097     -2.46586587819489
