16
Coordinates from ORCA-job job.QMRegion
  C          -0.89645500604577      1.89000615206743      1.74680470073064
  C           1.02780373685862     -3.05255631487953      2.17255950121328
  O          -1.34635178925136      1.75509148705511      2.99556395054216
  O           1.15961021883624     -1.88140208249343      2.80998166284475
  C           0.26127497010886     -1.58912450335455      3.90285766255620
  H           0.88951598116403     -1.18363696298227      4.68922404710706
  H          -0.25570570590976     -2.48705044817074      4.23160082255164
  O           0.34924840901391     -3.98334818409431      2.55358777221211
  C          -0.58617522855174      0.84541176598610      3.79519962836909
  H          -0.99939904616610      0.95260657278873      4.79784223568304
  H           0.46887642779152      1.11663465419944      3.80502509435580
  O           0.16237772092036      1.42572362705916      1.35186217851817
  C          -0.72420064229640     -0.57561974826865      3.33162747555647
  O          -1.53646263887657     -0.91508322368634      2.48476685153012
  H          -1.59492092915280      2.41705998205202      1.12167716145144
  H           1.61719950290088     -3.02968421563525      1.26214434929111
