  136
        -21.19654098
 C         -0.1415879413        4.8981099689       -0.2624893756
 C         -4.7809063417        2.5101766609        0.4105405446
 C         -4.5560724637       -2.5540689971       -0.5080086502
 C          0.1894704279       -4.8066554210       -0.5091425340
 C          4.8543227294       -2.5045393649        0.3018713326
 C          4.6103612292        2.6681562527       -0.3758322959
 O         -0.8411666720        3.6772373456       -0.1625697734
 O         -4.6095777485        1.5223459416       -0.5648222211
 O         -3.1659205883       -2.4175134904       -0.7228186018
 O          0.9683046991       -3.6511779638       -0.3044225532
 O          4.5444661377       -1.4243589829       -0.5318681932
 O          3.2248161557        2.6200461935       -0.6321291283
 C          0.5138338683        4.9487548462       -1.6515669205
 C         -4.6037703847        3.8693838597       -0.2975136413
 C         -5.2941182512       -1.9313750073       -1.7017399333
 C         -0.4605081054       -4.6919086064       -1.8979177056
 C          4.7152332106       -3.7717066977       -0.5701906075
 C          5.3269752157        2.0366558543       -1.5789267633
 O         -0.4328178094        4.8184762580       -2.6824262901
 O         -5.4933697390        4.0172079279       -1.3701014853
 O         -4.9331302232       -2.5399373500       -2.9135602262
 O          0.4906919543       -4.5372089967       -2.9209693254
 O          5.5786471717       -3.7388014005       -1.6726076878
 O          5.0139786982        2.6989887374       -2.7755767929
 C          1.5000526201        3.7811305316       -1.7361874004
 C         -3.1493764803        3.9968353274       -0.7880706205
 C         -4.9880600563       -0.4299766969       -1.7350827244
 C         -1.3707502333       -3.4592253494       -1.8726544781
 C          3.2532460952       -3.8837255177       -1.0379122814
 C          4.9226433642        0.5602110599       -1.6507539506
 O          2.2443400082        3.7899370507       -2.9316739873
 O         -2.9179092263        5.2696430366       -1.3458512139
 O         -5.7723504164        0.2208862584       -2.7060569256
 O         -2.0675238090       -3.2813084531       -3.0823720494
 O          3.0296461120       -5.0732910499       -1.7588603209
 O          5.6297849031       -0.1103464321       -2.6655171249
 C          2.4957841440        3.8371340427       -0.5739872718
 C         -2.1535365289        3.7473365914        0.3577327408
 C         -5.2386720689        0.2570507390       -0.3830768283
 C         -2.3938846896       -3.6067444944       -0.7440225034
 C          2.2952871578       -3.8357698786        0.1577364844
 C          5.1780523955       -0.1677238199       -0.3231754381
 C          1.7920267724        3.9929875233        0.7839732799
 C         -2.5093878260        2.3859763163        0.9710271700
 C         -4.6761700354       -0.5532536326        0.8052332755
 C         -1.6825654300       -3.8486854695        0.5970781997
 C          2.6306153636       -2.6110888991        1.0123669247
 C          4.6061081330        0.6184944358        0.8742575020
 O          0.8197905093        5.0347925291        0.7502690030
 O         -3.8352540304        2.3922459251        1.4529192179
 O         -4.9570322896       -1.9489341886        0.6873378418
 O         -0.7865659669       -4.9510128086        0.4902576233
 O          3.9831086025       -2.5924718157        1.4130054536
 O          4.9465922784        2.0048670441        0.8115640817
 C          2.7846411291        4.3811966453        1.8834627177
 C         -1.6104650689        1.8776017455        2.0753545023
 C         -5.3251178605       -0.1735862725        2.1457816068
 C         -2.6707893254       -4.2120588564        1.7076655958
 C          1.7553542747       -2.5154352460        2.2453488743
 C          5.1929637700        0.1589698520        2.2154079372
 O          3.4764735921        5.5591683117        1.5691660759
 O         -2.2646576902        0.9744817451        2.8241062357
 O         -6.7238424559       -0.1381741193        2.0645564153
 O         -3.4364736039       -5.3367395499        1.3751412228
 O          1.8884565413       -1.2907936902        2.7860146358
 O          6.5946436186        0.1584399823        2.2000422875
 H         -0.8189662134        5.7505210854       -0.1311299148
 H         -5.7651663313        2.4421550665        0.8878413855
 H         -4.8304469229       -3.6106059220       -0.3987250373
 H          0.8036207371       -5.7126029640       -0.4451239332
 H          5.8632556553       -2.4209985209        0.7207534165
 H          4.9454112850        3.7027838797       -0.2304469594
 H          1.0587932804        5.8983567675       -1.7552291089
 H         -4.8202797001        4.6754557636        0.4084325501
 H         -6.3714586836       -2.0812985734       -1.5825262037
 H         -1.0651398112       -5.5914006768       -2.0847133458
 H          4.9829430144       -4.6519893355        0.0201994753
 H          6.4107418687        2.1128987784       -1.4492618044
 H         -1.2986208589        5.1351290464       -2.3565639483
 H         -5.4884227811        3.1958942384       -1.8884961851
 H         -3.9623928117       -2.6495758664       -2.9434655734
 H          1.3649922534       -4.8378218572       -2.6000942796
 H          5.5055788363       -2.8671002061       -2.0954426408
 H          4.0572311237        2.8974821838       -2.7940471093
 H          0.9157039395        2.8499892500       -1.6643507359
 H         -2.9710925416        3.2241834970       -1.5547659044
 H         -3.9215138359       -0.2978667508       -1.9770554552
 H         -0.7317298053       -2.5846297265       -1.6706341496
 H          3.0300067181       -3.0150658229       -1.6795149588
 H          3.8396993632        0.5046221534       -1.8539550797
 H          1.6342409201        3.9385988094       -3.6668873605
 H         -3.6833317114        5.4895146037       -1.8976084069
 H         -5.7793556289       -0.3366770669       -3.4976880974
 H         -1.4544251049       -3.4600151228       -3.8091983304
 H          3.7807233400       -5.2021869036       -2.3570026960
 H          5.6645721140        0.4798812580       -3.4327678056
 H          3.1684232297        4.6893739952       -0.7366325063
 H         -2.2319359025        4.5380447455        1.1143949179
 H         -6.3191536394        0.4008641995       -0.2461409078
 H         -3.0373344006       -4.4673048006       -0.9675381297
 H          2.3767647665       -4.7504867536        0.7575546034
 H          6.2580140030       -0.3135571669       -0.1876362764
 H          1.3051345683        3.0451071926        1.0437103125
 H         -2.4013658146        1.6356497183        0.1637035829
 H         -3.5902194939       -0.4029602430        0.8637505656
 H         -1.1262642621       -2.9425341682        0.8762270862
 H          2.4061074878       -1.7113286581        0.4103776578
 H          3.5143206412        0.5020148640        0.8869765499
 H          3.5299514788        3.5932624096        2.0017470784
 H          2.2255668159        4.4953499226        2.8211930369
 H         -4.9994391895       -0.9201988572        2.8823356359
 H         -4.9898298829        0.8101560426        2.4707357548
 H         -3.3673887679       -3.3867977736        1.8645347163
 H         -2.0961189511       -4.3855619412        2.6271299299
 H          4.8143375177        0.8391826073        2.9900516655
 H          4.8686490330       -0.8549643869        2.4467631451
 H          2.8205820997        6.2620527858        1.4507196516
 H         -7.0327670754       -1.0270455871        1.8357587939
 H         -2.8274059917       -6.0756397989        1.2292909865
 H          6.8881381452        1.0628422964        2.0148759872
 C          0.8772172554       -0.9022620757        3.7103258875
 H          1.2851876793       -0.0180844535        4.1987610888
 H          0.6903270020       -1.6897331047        4.4444778345
 O          1.0412693405       -3.3931224805        2.6778826965
 C         -1.4185566587        0.2692994400        3.7307643060
 H         -2.0988987172       -0.3845741648        4.2749399513
 H         -0.9369984528        0.9635917469        4.4192886426
 O         -0.4441418862        2.1687444918        2.2424849894
 C         -0.3994577955       -0.5606105054        2.9874229119
 O         -0.6117724019       -0.9472127050        1.8596271693
 O          1.3145816826        0.5775283045        0.6711377693
 H          1.4361569224       -0.1329036125        1.3315119755
 H          0.6589400416        1.1470380314        1.1134382347
 O         -1.4816494096       -0.1099812642       -0.7143907312
 H         -1.0773169936       -0.3057800410        0.1510256969
 H         -2.0778027166       -0.8718431834       -0.8373213709
