150
Coordinates from ORCA-job job
  C          -4.95628558639609      1.67594090444183     -1.70148906271475
  C          -1.55700696890965      4.76328287320643     -4.35607178914052
  C           3.37821146230767      4.54180892775537     -2.63611404793120
  C           4.56094687876407      0.27672139495254      0.21815330907014
  C           1.28520136926113     -3.47978436569004      1.97228212682320
  C          -3.69513489231114     -2.30874658385815      1.49256840640437
  O          -3.67486102947052      2.22370630792212     -1.86798327306393
  O          -0.64339343000854      4.95779056257680     -3.32413191039584
  O           3.06736379171928      3.65899553058542     -1.58174415452400
  O           3.23241927952119     -0.13179806749761      0.43549309898115
  O           0.25252187176937     -2.69084946287559      2.47310054599782
  O          -3.33952270002421     -1.05580162433034      0.94363363682145
  C          -5.34867546604532      1.86270334871891     -0.22641360072320
  C          -2.90833392335574      5.31282918146040     -3.85480837068093
  C           2.78936323223077      5.92138302393468     -2.29991303739465
  C           4.81716443152957      1.58898334456224      0.97407701838252
  C           2.58596525703419     -3.07980040447966      2.69541198237807
  C          -3.39780271807022     -2.29884071297257      2.99855180455380
  O          -5.41264043407201      3.20782290802131      0.15996369657244
  O          -2.82353986597173      6.66306615561589     -3.50013243892279
  O           3.25260582168561      6.40155447530578     -1.06737218915622
  O           4.60490407760878      1.47793784963552      2.35581951313399
  O           2.46493208295376     -3.17257058612894      4.08623723601082
  O          -4.10328003114586     -1.29790957960667      3.68070186036890
  C          -4.30988701863571      1.09939131971738      0.60947602959468
  C          -3.36304347164110      4.45983022816213     -2.65934766184947
  C           1.25391702614174      5.85447759839004     -2.33323440077454
  C           3.87457076472075      2.65247503777043      0.39917515878239
  C           3.00814951687163     -1.65846457509354      2.28348607244788
  C          -1.88536468021765     -2.14385479111464      3.19551626560333
  O          -4.56606493993157      1.17520978820497      1.99047833948274
  O          -4.63290894509346      4.84628422619400     -2.19030972927067
  O           0.69483546610355      7.14467668608739     -2.25833577172378
  O           4.10197629752163      3.92149261833484      0.95943558806331
  O           4.29019632520234     -1.35624077800498      2.79312235454167
  O          -1.53382780014950     -2.26722233170556      4.55126997991121
  C          -4.32913048542155     -0.37282902749834      0.18614925365579
  C          -3.41622542783832      2.97328096167860     -3.04261493676109
  C           0.72605111990458      5.20550439055747     -3.62204919993939
  C           4.08052683293695      2.77317351119174     -1.11617518289977
  C           3.03734288859779     -1.49547658045011      0.75307631830733
  C          -1.08305384068875     -3.18544734261903      2.40089848709765
  C          -4.07880682821550     -0.49456064428766     -1.32631296504665
  C          -2.04636249666521      2.58309315022947     -3.60739788478267
  C           1.49722287169458      3.92478270736388     -3.99449735240493
  C           4.00594583257793      1.39940161841257     -1.80497094578297
  C           1.68134035262821     -1.97209977099808      0.21100807417548
  C          -1.59886422054175     -3.35173464669113      0.95522754751494
  O          -4.99894453672174      0.32067558046836     -2.04609675823017
  O          -1.69975582338742      3.40218808820214     -4.71233108788515
  O           2.91017409214272      4.09951464353777     -3.87322563263530
  O           4.83598136435941      0.44551955742912     -1.14187916416456
  O           1.45481486259943     -3.31731597018454      0.58027607054124
  O          -3.02609755384726     -3.36364191185115      0.87966116666408
  C          -4.29750511650251     -1.92547971389348     -1.83270502124798
  C          -1.95978217932154      1.13591253487646     -4.07402770351783
  C           1.29861111183942      3.52483954308829     -5.46696308683981
  C           4.52853396499755      1.44237114203881     -3.24740429559687
  C           1.50487367678302     -1.86932330986284     -1.29024782715960
  C          -1.20461088156379     -4.70331347498957      0.32507167455383
  O          -5.60357255860441     -2.37735191194409     -1.59311804518694
  O          -0.71050262220490      0.84425587009177     -4.40598663040309
  O           1.59157904608930      4.57721688152417     -6.34806404205828
  O           5.85881658916915      1.88741262387290     -3.31340694076725
  O           0.62756180923830     -2.76238715453050     -1.73414216092780
  O          -1.45872086906061     -5.78835339208887      1.17704023944035
  H          -5.68580556696453      2.16536078318457     -2.35857739907725
  H          -1.24301673143584      5.26721962733047     -5.27937699769227
  H           4.46704234913821      4.61607010123878     -2.75719928297994
  H           5.26530904182425     -0.49299942871058      0.55860275807725
  H           1.07847742690172     -4.54842285681960      2.11678997754298
  H          -4.75926457388539     -2.51231430093892      1.31844846451733
  H          -6.34020788846789      1.41926678141750     -0.06364611136512
  H          -3.64851851286964      5.24214214817068     -4.65837994065712
  H           3.12322474918684      6.63841276740144     -3.05851249726477
  H           5.85990882765300      1.89104262006784      0.78348485730469
  H           3.37366819431098     -3.78207942898496      2.40005563983193
  H          -3.72164072999777     -3.25362411422342      3.42748289947522
  H          -5.00810017133357      3.77534641597657     -0.52016448041801
  H          -2.00444750927321      6.80800565014951     -2.99691649284754
  H           3.30047261930086      5.67367734266350     -0.42464155099753
  H           4.61021474957948      0.53772522628487      2.61365274171780
  H           1.60074832448232     -2.81875308284774      4.35072750031940
  H          -4.13373188284538     -0.48016770815543      3.15115037272340
  H          -3.32257957769968      1.52794696769772      0.38586652324032
  H          -2.61782942120038      4.56720071430427     -1.85559934026845
  H           0.89849714146954      5.24495687936361     -1.48977418993032
  H           2.84537928030585      2.32560493053430      0.61098478792496
  H           2.27667749458683     -0.93680145816470      2.67582033177443
  H          -1.59160325275846     -1.15280613919200      2.82292871474122
  H          -4.92392501064908      2.05763407001581      2.18132986173913
  H          -4.68694185398257      5.81596669282567     -2.22983216321812
  H           1.12421638580066      7.62065384838163     -1.52996846626054
  H           4.24111115200269      3.80170147820506      1.91116305337111
  H           4.35451330196832     -1.74159192368343      3.68331557053773
  H          -2.21742143547928     -1.82888295094877      5.08315958374250
  H          -5.31917261964189     -0.78903664025204      0.41357554795942
  H          -4.19586300702164      2.79539827431772     -3.79213414601758
  H           0.80020261696503      5.92714885088516     -4.44756053748004
  H           5.06750429055573      3.21801292709249     -1.30073639844626
  H           3.83915032365160     -2.10928028930104      0.32285765690373
  H          -1.13852652686431     -4.15503410237897      2.91618147908457
  H          -3.04947825350436     -0.18370769515677     -1.54895880910386
  H           1.16198401333075      3.10366008299343     -3.34871104176710
  H           2.96701183574310      1.04804312962259     -1.79833008252060
  H           0.90311063689888     -1.31352988109238      0.63856375336606
  H          -1.20729564774689     -2.53175966152519      0.33903238227267
  H          -3.62899068881938     -2.60443033422267     -1.30080102506041
  H          -4.06353147941291     -1.93791194630175     -2.90289175492938
  H           1.94265593749517      2.66036071487512     -5.66377410714808
  H           0.26163933034053      3.24089641884599     -5.64064091461568
  H           3.93608381021103      2.14302562447483     -3.83541401808451
  H           4.42870920000214      0.43577892320390     -3.66764607055616
  H          -1.77329673658497     -4.79659829745552     -0.60631631149144
  H          -0.14162895381688     -4.71651705854268      0.09248189017544
  H          -6.21286946539977     -1.82581479226692     -2.10585319005062
  H           2.53528777673573      4.78335155552053     -6.27716627506535
  H           6.41439230482353      1.25033895673906     -2.84104835586328
  H          -2.41642739301395     -5.89446042258548      1.26902299864448
  C           0.23799954242981     -2.59345466442623     -3.09234333536600
  H          -0.51124736832345     -3.36760413916346     -3.28679310765425
  H           1.09514126216553     -2.71328140238220     -3.76426400058382
  O           2.03532587787604     -1.06175294441340     -2.01420656807574
  C          -0.39212373868810     -0.52366361502348     -4.60019329543182
  H           0.59374114857053     -0.54646613068896     -5.07065045054624
  H          -1.13613077238307     -1.01899308712463     -5.24193480345619
  O          -2.88048541482384      0.36119196737842     -4.15686671275709
  C          -0.37563391459851     -1.20351046158822     -3.23574446390938
  O           0.18939420734545      1.85523207169139     -1.38556102758928
  O           0.51775045685988      3.06741690714668     -0.63392363008286
  H          -0.01092809269465      1.23857389881389     -0.64682015091467
  O          -0.67528962666565      0.26957811989093      0.89624218432128
  H          -1.54422162743300     -0.12072459080257      0.69998891641767
  C          -0.94806404898291      1.36338752422476      1.78977445677589
  O          -0.83743642242584     -0.63844485880779     -2.26192235109095
  H          -1.21401227052944      2.25035313146588      1.19887384494481
  H           1.46837425716084      3.17988950958602     -0.85803039436961
  H          -1.80080331212803      1.10478970730811      2.42900919614335
  C           0.23817588931406      1.68295435850740      2.65990301374152
  C           0.85661606876306      2.92270695229353      2.56760537322716
  C           0.69042850899576      0.76940898646219      3.60449721693226
  C           1.89844421976805      3.25207598959495      3.41713412684471
  H           0.51587433176081      3.63077460877908      1.82627491519346
  C           1.73943259437707      1.09704792230821      4.44626552724204
  H           0.21590958298326     -0.19782117338685      3.68419408887355
  C           2.34180049545397      2.34056049760744      4.35901842570573
  H           2.35482100606308      4.22721072252892      3.34566841645086
  H           2.07512382204181      0.38392800085967      5.18314224173380
  H           3.15255145489780      2.59750317758248      5.02206242253382
  H          -1.29935236821546      2.69054564287176     -2.80765202443650
