11
Coordinates from ORCA-job job.QMRegion
  C           2.51594327729929     -1.53085893258454      4.40972294393336
  O           1.38586902012906     -1.95135023508591      4.77090328752563
  H           3.49170783037110      2.29512948804987      4.81862582154964
  H           0.63673197390468     -0.36820192525311      4.63566078122910
  H           4.28754545571437      2.28714722709598      3.44334151291322
  O           3.39771931698041      2.26648910869054      3.84066945977274
  H           2.89810286516014      1.33802796922874      3.65698641089948
  O           2.07784974487748      0.15489425687764      3.53919869509453
  O           0.83613904148796      0.50049924392320      4.20152819935132
  H           2.93852484225503     -1.96485789992155      3.48482779185228
  H           3.20342295825557     -1.15444727455091      5.18892214486535
