137
Coordinates from ORCA-job job
  C          -0.23673712374318      3.76684298077504      6.87870600861530
  C           1.40989068850007      0.14902278814397     10.32729098592305
  C          -0.14265854742129     -4.69450229885509      9.24642703914286
  C          -1.61114556566343     -5.58150857302656      4.26858482605788
  C          -1.47908905019810     -2.04407729422148      0.37767401271144
  C          -1.86685202388392      2.96183220367273      1.94308012456165
  O           0.07856589573140      2.40886751110079      7.11912579978601
  O           0.35100455599615     -0.72351399203791     10.08334724527141
  O          -0.71639763355492     -4.23534304964817      8.04785063233883
  O          -1.42695142654761     -4.27260387113948      3.79580796649255
  O          -2.02276400686766     -1.06074541637860      1.20385319565094
  O          -1.84311298922576      2.59427945088621      3.29603444174888
  C          -1.76129928234317      3.93513100044295      6.74854071727598
  C           0.80798668207252      1.50993018144551     10.72104815835228
  C          -0.99529130684591     -4.16242992181273     10.41089138470915
  C          -2.78465793212469     -5.57794032640492      5.26368871730482
  C          -2.48233040929724     -3.21437991593753      0.35441486410033
  C          -3.20235406207987      2.45553101454430      1.36660836838442
  O          -2.46429704214996      3.46963870712580      7.86916736469726
  O          -0.00745832628404      1.42194921636878     11.85382400586827
  O          -2.31814203279811     -4.61951251593337     10.34701703716965
  O          -3.96655280254022     -5.06865872115599      4.70382832947753
  O          -3.72369333961209     -2.83158585336302     -0.16594947461345
  O          -4.29996164955684      3.00627536795630      2.04318931060085
  C          -2.23329499227771      3.14316656167451      5.52716274295679
  C           0.01536333720050      2.08660331001084      9.53423113724044
  C          -0.93635607665278     -2.62923786868352     10.37956802282145
  C          -2.39172375466189     -4.70906752743211      6.46446907360955
  C          -2.63274020067211     -3.74331854115642      1.78899589605297
  C          -3.21123770768739      0.92341267919767      1.45758178018497
  O          -3.60047249985262      3.34293641948890      5.26488601076277
  O          -0.44898014987829      3.38153965563096      9.84887195542118
  O          -1.57280334185667     -2.06585120943791     11.49824650683659
  O          -3.35146562452677     -4.75695734193845      7.49057901021380
  O          -3.46062244239642     -4.88412221873606      1.83824678278165
  O          -4.33226811943266      0.36676587739933      0.81546692534330
  C          -1.45842006414088      3.55251584607774      4.27098756638126
  C           0.87648824477727      2.13601098263602      8.25843934291766
  C           0.50824798829076     -2.11089908716876     10.35795518367911
  C          -1.05916008544573     -5.18293495552750      7.05309585777481
  C          -1.26786630450669     -4.09968971988031      2.39805406640292
  C          -1.95940791285199      0.30834432270078      0.82033889164078
  C           0.05939245765941      3.55115320848082      4.52274816810352
  C           1.48821067246561      0.74369739907968      8.05649520934786
  C           1.36762776340946     -2.84941037463567      9.31091635673965
  C           0.01597714941478     -5.28021063610500      5.95800385964094
  C          -0.28830769339492     -2.93958304644278      2.18896500260261
  C          -0.67951318387619      1.00001518728816      1.31851983359560
  O           0.39438892420761      4.24208686200623      5.72977861223507
  O           2.22865188495817      0.32510533705934      9.18918559631403
  O           1.17943738119521     -4.26326053895505      9.38021786753919
  O          -0.45563233549062     -6.08142021028127      4.87851979043099
  O          -0.22875049237053     -2.50623642751386      0.84658056382513
  O          -0.79345875287382      2.42044697850249      1.22536499680168
  C           0.82268647470546      4.26725935018982      3.39895280354578
  C           2.46279986709642      0.64387241068392      6.88806718320507
  C           2.87885505642381     -2.66508049270887      9.53544560805046
  C           1.29578968699946     -5.95504211969460      6.46472318548637
  C           1.12962946354491     -3.27125142150022      2.65042368056292
  C           0.55099263576940      0.62486365611704      0.48222291900005
  O           0.33753913260741      5.56720641161781      3.16497235587625
  O           2.68039489103665     -0.62367076401643      6.61663113418513
  O           3.26352500222704     -2.97470689462248     10.84783120659297
  O           1.05737235464188     -7.25045280923634      6.94801606827699
  O           1.97314740109575     -2.31557534314984      2.28637314345789
  O           0.35692312437063      0.86677037411559     -0.88738608811949
  H           0.13989754192878      4.39459336005095      7.69522581802010
  H           2.07803320943134     -0.22940616365567     11.11098965887214
  H          -0.09467216767146     -5.79050789244854      9.26948831622921
  H          -1.81992933521010     -6.27066942152906      3.44031455044542
  H          -1.28435147440377     -1.66778269148335     -0.63399884836318
  H          -1.78125738436332      4.04972191645614      1.82376920885849
  H          -1.96944445584633      5.00489193902201      6.58416958872913
  H           1.62495428284326      2.19401662159512     10.97508611752290
  H          -0.58574698271989     -4.52588107743991     11.35906304435312
  H          -2.94849056832824     -6.61168099169713      5.60758670794878
  H          -2.09678875816416     -4.00750599400012     -0.29421840841220
  H          -3.29249526418735      2.76262200718887      0.32000364930598
  H          -1.94277770462726      3.65581517336817      8.67281517094097
  H          -0.58907535131908      0.64866988906598     11.77040745764963
  H          -2.64722769935442     -4.55865518937834      9.43066591912765
  H          -3.93447366570965     -5.13928603196134      3.73192488420684
  H          -3.98116676355955     -1.96951122988801      0.20556747358460
  H          -4.12941353273606      2.98808476427978      3.00142784355261
  H          -2.03299239960805      2.07699585539677      5.71438037173222
  H          -0.84056007164410      1.42495619541996      9.32958790987153
  H          -1.42335590169472     -2.28794009811112      9.45182394756621
  H          -2.26020140408069     -3.67588134646596      6.10949209313811
  H          -3.06790987083983     -2.94252629656491      2.40676664280175
  H          -3.20765794591281      0.64321947049988      2.52311604435116
  H          -4.08806299434803      3.22115191629322      6.09437290229776
  H          -0.66630660323803      3.39338460961945     10.79740477817542
  H          -2.41373247626008     -2.53095470222280     11.63551469266722
  H          -4.22592547888165     -4.60235011637760      7.09914623617273
  H          -4.17915164342212     -4.75691233141627      1.19454865096321
  H          -5.11162018671139      0.89484324892626      1.05257339971984
  H          -1.78403958891995      4.55437016523194      3.95870205494057
  H           1.66906771647613      2.88804731555609      8.36234723195798
  H           0.95718468285289     -2.24095104193269     11.35235712580159
  H          -1.20056892019559     -6.17309933801099      7.50647375368984
  H          -0.87047606351094     -5.01279431573512      1.93854369498177
  H          -2.02365813445957      0.39387057454882     -0.27232969830323
  H           0.38725785497838      2.50952767220061      4.59504447030285
  H           0.66899438922490      0.03642848566291      7.86390659041848
  H           1.09370370877855     -2.49373226853611      8.30789751175576
  H           0.25382376658375     -4.27132226067799      5.59517198881260
  H          -0.62346961115952     -2.11026889448213      2.83256496258939
  H          -0.51138851170081      0.71806619735460      2.36463014627260
  H           0.69525702103431      3.70967360541462      2.47061377134802
  H           1.88145588017053      4.29351279032223      3.66902775559374
  H           3.39448176606104     -3.30832020434587      8.81336434273038
  H           3.16220650400760     -1.62871527977615      9.35772629735731
  H           1.70233244698369     -5.37891809930700      7.29774274227604
  H           2.01511797478848     -5.96570161578877      5.63842081172066
  H           1.40119470486226      1.19672430939204      0.86616892089508
  H           0.76220346955628     -0.43924974777692      0.59589127187322
  H           0.53532274461881      6.10520531323089      3.94482793141069
  H           3.11724709772863     -3.92014035654333     10.99774604664885
  H           0.73758951072945     -7.79352030534767      6.21232472901680
  H           0.25842179185709      1.82254003821825     -1.01326202314160
  C           3.10628935694959     -2.13715511345678      3.11764521883000
  H           3.77990788926870     -1.46002213322135      2.59416327895309
  H           3.58408710192047     -3.09697239647735      3.35133484025038
  O           1.45184682041506     -4.28739607617326      3.22037975899541
  C           3.47487614223736     -1.00582012833626      5.49659102571843
  H           4.10726541382294     -1.83623266970807      5.82812746756068
  H           4.08745824958131     -0.17255673650921      5.14226955441052
  O           2.99071896555911      1.57981989763758      6.33978139454264
  C           2.51594327729929     -1.53085893258454      4.40972294393336
  O           1.38586902012906     -1.95135023508591      4.77090328752563
  H           3.49170783037110      2.29512948804987      4.81862582154964
  H           0.63673197390468     -0.36820192525311      4.63566078122910
  H           4.28754545571437      2.28714722709598      3.44334151291322
  O           3.39771931698041      2.26648910869054      3.84066945977274
  H           2.89810286516014      1.33802796922874      3.65698641089948
  O           2.07784974487748      0.15489425687764      3.53919869509453
  O           0.83613904148796      0.50049924392320      4.20152819935132
