137
 xtb: 6.7.1 (edcfbbe)
C           -0.18299833185261        3.72474409808573        6.86476996511189
C            1.46821798659005        0.12227553711455       10.30893702843498
C           -0.26679040223437       -4.68132625932536        9.26467506130306
C           -1.61761842502135       -5.56249713925808        4.25538210725709
C           -1.40304980775350       -2.03023927233408        0.37827565614346
C           -1.96734756275923        2.94270664100050        1.97523771674996
O            0.18889340553475        2.37951445683232        7.09115053697753
O            0.39170077620077       -0.71727736027715       10.03187145046971
O           -0.83192517753931       -4.22912484319634        8.06120504704782
O           -1.38504193353259       -4.25603185433692        3.79507982277386
O           -2.00097546435278       -1.07169944944818        1.19887274708839
O           -1.90078804778305        2.55773973941940        3.32275864258373
C           -1.71692373289823        3.85312778411654        6.78728885487394
C            0.89309956890319        1.49274678168121       10.70387008190762
C           -1.09627725193595       -4.09234276504430       10.41852362199592
C           -2.82391873365870       -5.54092648441540        5.20983168242406
C           -2.36782999314397       -3.23123967334886        0.32027391014911
C           -3.29636753702436        2.39814272055747        1.41834837157751
O           -2.37321169771597        3.36817013183498        7.92620470832691
O            0.06369125909572        1.41802569979776       11.82765930933554
O           -2.43669539797278       -4.49713823348661       10.35995115228263
O           -3.97471873398909       -5.00439320232470        4.61225987375561
O           -3.60286772911697       -2.88692890616419       -0.24129902791099
O           -4.39864562101203        2.90112057875280        2.12396737038278
C           -2.21338143851896        3.05567652420242        5.57971732648928
C            0.12153678075464        2.08536187752037        9.51142891294826
C           -0.97589806249887       -2.56320129445100       10.35934490025818
C           -2.45797004910397       -4.68295395773100        6.42640565546236
C           -2.55142768395691       -3.76382951865337        1.74949685291568
C           -3.25366071540739        0.86518502159009        1.48366884242416
O           -3.59562418524729        3.21237851416407        5.37824046423962
O           -0.32353019941179        3.38652793213241        9.83303930947349
O           -1.58434499030550       -1.95294906840951       11.46980717159523
O           -3.45412191632800       -4.71734341378022        7.41808726561112
O           -3.35402062538526       -4.92441885287362        1.77019791919427
O           -4.36401929414741        0.28316810450226        0.84540128909851
C           -1.50533237767344        3.50779641823966        4.29980639599163
C            0.98722192262100        2.12456197512740        8.23685241824612
C            0.48898318044565       -2.10613924192676       10.32597952026183
C           -1.15477481055231       -5.17972736328037        7.06113280165783
C           -1.19696943590840       -4.08515583926585        2.40009541506289
C           -1.99158679088634        0.29907841214288        0.82113654134070
C            0.02084832046954        3.55082519324932        4.49077619732611
C            1.60787224552764        0.73256918712987        8.04557996336015
C            1.30966647332667       -2.89188283464143        9.28375351525474
C           -0.04439881956046       -5.30477479171445        6.00418477360340
C           -0.23779027425300       -2.90078682463540        2.21904772492599
C           -0.72871453613655        1.03067038517326        1.30719536933163
O            0.38915320791627        4.22838282267826        5.69437857408534
O            2.31398479014211        0.29477564335470        9.19050287297951
O            1.07198892949211       -4.29615094407084        9.38433668690811
O           -0.49481347774294       -6.08875175840159        4.90312112749201
O           -0.15324347963606       -2.45457520317173        0.88187832271356
O           -0.89261472020878        2.44801092476813        1.22653837685743
C            0.70944981109539        4.31429116892178        3.35139087082969
C            2.59931024339443        0.63565618293740        6.89161210000847
C            2.82782450785899       -2.74894874736904        9.48637240184819
C            1.19919285997596       -6.01650181290679        6.55047781303168
C            1.16640388089465       -3.21431321002705        2.72779318397975
C            0.50642028308078        0.70040353002453        0.45742570276784
O            0.18225310378842        5.60686692901583        3.18065267317292
O            2.96209044127780       -0.62470553356582        6.73591796537088
O            3.21860362339745       -3.05422926663318       10.79920169770611
O            0.90585747914265       -7.30426569971482        7.02667185358256
O            2.01388904031828       -2.24675437325600        2.40727634379374
O            0.28650129345086        0.92565463779388       -0.91239830036795
H            0.20371768407537        4.36439048232194        7.66792009608016
H            2.11120160461359       -0.28277578968439       11.09990472553710
H           -0.25840784142810       -5.77758822990022        9.31320718029148
H           -1.81178310742956       -6.24337728488792        3.41732699356795
H           -1.19354771082362       -1.64011882011959       -0.62423343617591
H           -1.92318037873847        4.03419471703936        1.87010877347209
H           -1.95355839457736        4.91885279717701        6.63348632996980
H            1.72109298434582        2.15963079032432       10.96696575471896
H           -0.70244210856884       -4.45423843848661       11.37378014376328
H           -3.01723401679715       -6.57298794255922        5.54337804027679
H           -1.93732344908607       -4.01109328660110       -0.31575830399114
H           -3.41703671404045        2.71905184053977        0.37882226452148
H           -1.85243078489079        3.60517879782520        8.71705022045319
H           -0.53090530299527        0.65499857109505       11.73618646688204
H           -2.75749973527871       -4.44516467859945        9.44105023875703
H           -3.93627178656327       -5.13254040154757        3.64663963121594
H           -3.90926696718663       -2.04587420303758        0.14042374493464
H           -4.21051741919138        2.86925413613467        3.07811453689677
H           -1.96966083434580        1.99561711307377        5.74683106486057
H           -0.74447225064895        1.43910804219093        9.30032715525801
H           -1.45124112198527       -2.21814277937952        9.42733814499868
H           -2.29842835539800       -3.65091601083860        6.07991441125087
H           -3.02744732329009       -2.97493702616871        2.35182582336190
H           -3.22784172399728        0.56913142479086        2.54428523655236
H           -4.04172077767039        3.06872770850562        6.22756580199180
H           -0.53650904474494        3.39499203373432       10.78289236947167
H           -2.44518965591241       -2.37658133505047       11.61633713343080
H           -4.30951434864913       -4.54934996380565        6.99225717338879
H           -4.04144457178079       -4.81894121144073        1.09017767334572
H           -5.15907739611823        0.77123750502272        1.11272441452639
H           -1.87067900848378        4.50567273024582        4.02032944839571
H            1.77264584692468        2.88506692808007        8.33435590706330
H            0.93668327873871       -2.24363533591117       11.31946194765405
H           -1.33085259109418       -6.16283998456335        7.51726209314409
H           -0.76525661492513       -4.98986091117436        1.95569003467733
H           -2.07589060161338        0.38986478871740       -0.26906258669563
H            0.38893896186886        2.51978796439648        4.52359362937596
H            0.78874656840368        0.03277930087194        7.82358404964517
H            1.03480833511339       -2.54569916331547        8.27776641738233
H            0.23192192587117       -4.30138403970142        5.65398367823200
H           -0.61275816563038       -2.08299757867278        2.85633274303434
H           -0.53944499147059        0.75060174976820        2.34973528267447
H            0.55083623931051        3.78053901224289        2.41436693186190
H            1.78119896508633        4.35391251153336        3.56386990267178
H            3.31762804756337       -3.41504486971260        8.76743110550512
H            3.13789683844005       -1.72309881049882        9.29211352146792
H            1.59873433913956       -5.45378963170892        7.39550664063434
H            1.94239436394063       -6.05189191211347        5.74646336749525
H            1.33706827731086        1.30932050472874        0.82712787552380
H            0.75885621446452       -0.35458274858264        0.57064263193159
H            0.39604952686120        6.12645336204507        3.96828763999773
H            3.04228452773091       -3.99249890296863       10.96164500829875
H            0.59439075882655       -7.83814725678294        6.28094749095056
H            0.15174785627543        1.87518145906209       -1.04638250489828
C            3.16377159102273       -2.11440605241151        3.23890231009712
H            3.84735863768091       -1.44968711735784        2.71514172046968
H            3.61307929437226       -3.09344545798143        3.43690980181929
O            1.46554791766899       -4.20281261987367        3.35063709395098
C            3.68070925640011       -1.02376579460407        5.56483254041892
H            4.31960099288924       -1.85205330030252        5.86530059786844
H            4.27359046291892       -0.19623717741617        5.16509374639483
O            3.00364369217890        1.56093329920598        6.23879401017359
C            2.66178163042604       -1.58837322453349        4.58544910525848
O            1.51596756059257       -1.78373073672298        4.92162573187104
H            3.49930530371206        2.58083239312970        4.64109752943160
H            0.67684079864109       -0.33418738899477        4.50957872193522
H            4.24958107703352        2.40614257767215        3.28550595543927
O            3.39875919991849        2.51907043504504        3.68345290498256
H            2.65588689411644        1.12879515381784        3.67671592077705
O            2.22813186094957        0.29798878187720        3.61781307304843
O            0.90876668850734        0.51675318940248        4.05613417191361
