133
Coordinates from ORCA-job job E -252.597427687600
  C          -0.34541620143488      4.19373499787035      5.45902952973157
  C           0.96067152646853      1.29448445585904      9.64019203678770
  C          -0.77211633511739     -3.63828565495668      9.56973912720853
  C          -1.60396595165389     -5.50204424327095      4.72873331827360
  C          -0.88933203105979     -2.84290013842286      0.24701445249628
  C          -1.31507834168680      2.35646960019294      0.64591539938047
  O          -0.12603917744285      2.92091628242344      6.01962623250426
  O          -0.08568492269485      0.39356512285773      9.44157419070614
  O          -1.27361488045483     -3.47586669194290      8.26967164014388
  O          -1.31033339811143     -4.28689099638769      4.08207569516901
  O          -1.60148100841117     -1.72595730914444      0.68379674522194
  O          -1.50697672315455      2.26757429408880      2.03367491697768
  C          -1.83423847280973      4.33164964465783      5.09993794572293
  C           0.33459086272269      2.69743009539923      9.75108111224904
  C          -1.65738422676693     -2.79461261335803     10.50352705665794
  C          -2.91564068274010     -5.34019438040814      5.51514919355768
  C          -1.83381866107778     -4.05469568601307      0.36112052384716
  C          -2.57188834651292      1.78095828040357     -0.02963983021232
  O          -2.67813200844588      4.12638449709318      6.20102113922096
  O          -0.56880604184979      2.78817826589525     10.81516412854920
  O          -2.99909222675794     -3.19531400234753     10.44721821960951
  O          -3.98394058450926     -4.93443646126163      4.70140154665362
  O          -2.98530443725545     -3.90047241774800     -0.41774533558813
  O          -3.72622049485113      2.49043763362934      0.32701392794118
  C          -2.16887497335283      3.28336886422964      4.03405012178435
  C          -0.36167283588113      3.03481603962943      8.42216917932335
  C          -1.50550805719551     -1.31975989829003     10.10547558826050
  C          -2.69794028921136     -4.28087582761126      6.60016139909761
  C          -2.20169930401020     -4.25449106880019      1.84115595847717
  C          -2.68787121409904      0.30095951529695      0.35937239965930
  O          -3.47919784476016      3.42544285227278      3.54792922501367
  O          -0.86965308782836      4.35093066075061      8.44080609106339
  O          -2.15785410525370     -0.46808745404943     11.01345741189036
  O          -3.80153056415870     -4.16910851887701      7.46326085265672
  O          -2.98938032692816     -5.41124037612635      2.01606904320245
  O          -3.73232004581522     -0.33820726851210     -0.32996965933926
  C          -1.21874112261778      3.40005138430315      2.83738157080056
  C           0.60253997792354      2.87689006041044      7.23303822351829
  C          -0.03322811939449     -0.89149252006428     10.04744367990639
  C          -1.47686086852618     -4.62294125647893      7.46123179864551
  C          -0.94056784517626     -4.36482087553224      2.71736667899841
  C          -1.39506342490032     -0.46748479939566      0.05501200359945
  C           0.25216305032566      3.43784985227441      3.28914559940800
  C           1.26408142577247      1.49415660098568      7.32226551815264
  C           0.81982420328727     -1.89633425829743      9.24978884613369
  C          -0.24930293712802     -4.93948744358550      6.59063231449699
  C          -0.02748924441422     -3.17012451843126      2.40472088732323
  C          -0.15422679163741      0.27329486632560      0.59020201622881
  O           0.44567902368497      4.39921370703137      4.32465043969304
  O           1.88433681312895      1.27881593932381      8.57144513927854
  O           0.56502040947057     -3.23613392621469      9.66940746045452
  O          -0.57095801795339     -5.89694341989308      5.58405179974287
  O           0.26503901353985     -3.07507902138755      1.02762443958865
  O          -0.17599514350145      1.65468054431066      0.23195736329468
  C           1.19412711785421      3.86147954026870      2.15196968996653
  C           2.28850142027172      1.22398610386520      6.22940553649125
  C           2.32965925330788     -1.69659345914171      9.46317004665599
  C           0.89854005566890     -5.55531894260866      7.40116716414304
  C           1.28487077319558     -3.16277601099213      3.17390915713462
  C           1.15798192765773     -0.26438072463372     -0.00597816424894
  O           0.80436502822060      5.07411191361988      1.56110430146073
  O           3.02684883605482      0.17108710690758      6.53496420451803
  O           2.67452410873998     -1.67641907453205     10.82300229539113
  O           0.51065029158930     -6.72918528868199      8.06613642723158
  O           2.15844102588908     -2.34283978118152      2.60694036200690
  O           1.13049863793288     -0.29290863646525     -1.40757114557789
  H          -0.05211001115469      4.98346124361696      6.16126801314003
  H           1.54732466176797      1.05038501885414     10.53405364537728
  H          -0.78320755693389     -4.69299149240814      9.87286379248914
  H          -1.70188421867534     -6.31639784858336      4.00012875804790
  H          -0.52423459872031     -2.71984858697158     -0.77986757845112
  H          -1.14929106183582      3.39484096675499      0.33216815604079
  H          -1.99378791596187      5.33761582179370      4.67937023514633
  H           1.12697918391628      3.42762774717051      9.94562816681993
  H          -1.33281510710078     -2.93031727028209     11.54003069548586
  H          -3.14900195319736     -6.30400243960712      5.99543897882456
  H          -1.31793033657694     -4.94602196412081     -0.01096146953211
  H          -2.47646588774443      1.86878230926699     -1.11653545079248
  H          -2.22950247640875      4.41968228287329      7.01529347386046
  H          -1.13488492606872      1.99776021211626     10.82417693270223
  H          -3.25272550008320     -3.35549243292812      9.52058267801083
  H          -3.84284418031217     -5.25540892772668      3.79166965345486
  H          -3.32815272229002     -2.99710149344276     -0.31103544407069
  H          -3.72540075152995      2.65206259391168      1.28612852318937
  H          -2.03292002462202      2.28825516314951      4.48387264622063
  H          -1.18743232933426      2.32230789605557      8.27192630312542
  H          -1.92675604511530     -1.19243611388379      9.09547357822657
  H          -2.50389267989114     -3.31943449614827      6.10097231057616
  H          -2.76263990821964     -3.37089120698540      2.18282204275578
  H          -2.85879636629384      0.24356449283895      1.44620523007288
  H          -4.07841973815701      3.48937635010037      4.30797830243938
  H          -1.18293017525732      4.53192822911131      9.34414927935591
  H          -3.02961144021211     -0.84587733818179     11.21153303518881
  H          -4.60262616534215     -4.09222469338429      6.92185172274373
  H          -3.58435526291431     -5.48097546432566      1.24931211905969
  H          -4.50981309848889      0.24259548205429     -0.31355490503564
  H          -1.45239527170305      4.32033032078810      2.28508412744440
  H           1.36600193836636      3.66460951899440      7.25386788447051
  H           0.36298489085023     -0.80640903014539     11.06803061912487
  H          -1.71364508357585     -5.49124007830985      8.09090214583577
  H          -0.41478806999911     -5.30543773395898      2.51227433457586
  H          -1.29776739708959     -0.60403249345159     -1.03027411801071
  H           0.53409452719073      2.44390742722192      3.66075674859315
  H           0.46933111455689      0.74521114344318      7.16355051558510
  H           0.57913599034753     -1.79534514726889      8.18216226718161
  H           0.09489835495331     -4.01318741762087      6.11427082065388
  H          -0.55922379422854     -2.26276022498221      2.73916284990837
  H          -0.13394414207074      0.17879337867074      1.68518865511220
  H           1.17377833681964      3.11064565009811      1.36101652910839
  H           2.20568971213091      3.93721516743049      2.56410281941585
  H           2.84649375856505     -2.50902342278911      8.94006887762587
  H           2.64414442718684     -0.74259719230562      9.03964170769197
  H           1.22065825550466     -4.85193041675135      8.17009702064642
  H           1.72760285850555     -5.74646243592827      6.71103221970027
  H           1.97230737814732      0.37509736127302      0.35437856734568
  H           1.33252065816599     -1.28610284231140      0.33116838402931
  H           0.90920351266629      5.78131101684085      2.21392021675332
  H           2.50186797044927     -2.55238251497406     11.19828334326371
  H           0.27965731498969     -7.39338013143319      7.40036970197388
  H           1.08386519873838      0.61714481994605     -1.73563295183480
  C           3.26289061462731     -1.95522014898377      3.42227238530443
  H           3.94664600822956     -1.39936397875863      2.77974698023225
  H           3.76052285756965     -2.83356644800057      3.84657138126314
  O           1.50304295429691     -3.78549872386094      4.18405411339696
  C           3.74153672210610     -0.45221382573842      5.46824874116812
  H           4.39540272055288     -1.18963085200610      5.93175971049845
  H           4.32723550582211      0.27395299971739      4.89033497046128
  O           2.39904170596951      1.86668486426813      5.21303770133890
  C           2.72479493385304     -1.08652487307061      4.54176149728906
  O           1.53886790186060     -0.89179376878380      4.67716918442128
  O           3.97962700984530      1.40061545026070      2.81609981924991
  H           3.63865263603944      2.01639041226110      3.47647288560736
  H           3.23252911835388      1.19650937239997      2.24690674076487
