133
 xtb: 6.7.1 (edcfbbe)
C           -0.35031977022169        4.19606175462099        5.45893045809874
C            0.96268427391860        1.29387512710546        9.63566244923498
C           -0.77136228358390       -3.63878838289863        9.56884224632109
C           -1.60805209243615       -5.50410433773634        4.72951125895248
C           -0.88978355247379       -2.84365124688047        0.24878086627183
C           -1.31817674291090        2.35725573185528        0.64690362766313
O           -0.13183342583134        2.92308214591821        6.01811182784834
O           -0.08382389274678        0.39279906093805        9.43795387483537
O           -1.27555121809121       -3.47714218383113        8.26964517030998
O           -1.31476952365926       -4.28961500708550        4.08251941530256
O           -1.59971523134047       -1.72594839329042        0.68720394188842
O           -1.51527916994238        2.27072497684590        2.03433717802662
C           -1.83922383896853        4.33451546102952        5.10068668651801
C            0.33630780220318        2.69654777751304        9.74861964884225
C           -1.65484068977892       -2.79447198764418       10.50375821201820
C           -2.91931670011029       -5.34130466722247        5.51634612125094
C           -1.83635938680081       -4.05400921414353        0.36163624691956
C           -2.57257875821307        1.77949981114235       -0.03125536754236
O           -2.68317075158712        4.12928872007399        6.20241412841296
O           -0.56442362486338        2.78599198487500       10.81451900449276
O           -2.99639108117390       -3.19473759591673       10.45018024444586
O           -3.98815336608463       -4.93511408924208        4.70302142832102
O           -2.98764647093681       -3.89682604758576       -0.41743654617137
O           -3.72916338485463        2.48727052906943        0.32119060880270
C           -2.17463905800122        3.28677736147309        4.03446703461970
C           -0.36265795207188        3.03432653242293        8.42127808789552
C           -1.50323599061503       -1.31984646187250       10.10487558685805
C           -2.70060581194292       -4.28197609589063        6.60116813681864
C           -2.20501745401883       -4.25429375725678        1.84144986845138
C           -2.68751555517866        0.29970424171250        0.35876946627575
O           -3.48584216146621        3.43058663499466        3.54880091954954
O           -0.87136516145707        4.35018105397682        8.44142948875286
O           -2.15323398996843       -0.46755066848071       11.01359012737225
O           -3.80410399359343       -4.16972345947354        7.46494131840103
O           -2.99526430233135       -5.40969851630735        2.01563109196343
O           -3.72931981747625       -0.34198109031617       -0.33248910233833
C           -1.22487820359470        3.40293604300185        2.83741075450355
C            0.59949348017850        2.87731904559921        7.23051868031937
C           -0.03095258740838       -0.89203204767343       10.04424838360710
C           -1.47927245119054       -4.62433257853316        7.46179026081672
C           -0.94432605879962       -4.36746259585490        2.71778514158385
C           -1.39284633882009       -0.46733499428839        0.05836468365714
C            0.24613952010934        3.44097934028385        3.28843732230399
C            1.26171042382701        1.49471735986397        7.31736261361252
C            0.82030273893295       -1.89726080436089        9.24520196259216
C           -0.25231816274226       -4.94175418077902        6.59068198266994
C           -0.02857205237628       -3.17466253360538        2.40605141884323
C           -0.15496803241241        0.27547923265085        0.59796076531639
O            0.43910357868144        4.40285120700585        4.32399348568099
O            1.88429686094006        1.27902582066650        8.56452988806847
O            0.56620940649907       -3.23692648275813        9.66538983605210
O           -0.57555913488493       -5.89969475144212        5.58461803042668
O            0.26404054827354       -3.07916122935370        1.02934457030503
O           -0.17750716250248        1.65616906385962        0.23809400225222
C            1.18810587263496        3.86541290679372        2.15169757545577
C            2.28466139064537        1.22804819286754        6.22191730894279
C            2.33053480552574       -1.69745290453603        9.45540162280793
C            0.89582037222082       -5.55789477685039        7.40055007046345
C            1.28374227598572       -3.17236649912089        3.17505853946848
C            1.16144191461652       -0.26109743451745        0.00945855982885
O            0.79450070575472        5.07512519854165        1.55611406024060
O            3.02770841578604        0.17633153510219        6.52469224362357
O            2.67873945391711       -1.67718921292673       10.81322226160221
O            0.50735934955544       -6.73145076750653        8.06654279330659
O            2.16030655395918       -2.35607091569671        2.60965629039683
O            1.14251328958631       -0.28861031322373       -1.39025445612154
H           -0.05335038600391        4.98398082527360        6.16136352297237
H            1.54834152129760        1.05008018416869       10.53243858275081
H           -0.78287695819409       -4.69307664152865        9.87277437809777
H           -1.70328945243996       -6.31701698141268        4.00042886853067
H           -0.52425532382604       -2.71990748296944       -0.77928618568873
H           -1.15017798196723        3.39498124472586        0.33215116672592
H           -1.99526572039902        5.33852084004207        4.67976136393876
H            1.12753916032545        3.42743511207731        9.94459750025649
H           -1.33157649002531       -2.93016698423553       11.53996458432948
H           -3.15022465134493       -6.30423538527223        5.99586215909517
H           -1.31906587490966       -4.94598280894502       -0.01093781543993
H           -2.47588366958253        1.86812270210684       -1.11694648994350
H           -2.23037444897404        4.41985533763336        7.01564985482944
H           -1.13367336860443        1.99717888970978       10.82417257967675
H           -3.25249968429418       -3.35530969030464        9.52146792446286
H           -3.84385543869880       -5.25525083864542        3.79199464874815
H           -3.32816860199354       -2.99593164583119       -0.31106733221709
H           -3.72678845615753        2.65155183237093        1.28461975521680
H           -2.03472367390216        2.28919829300557        4.48391572866480
H           -1.18767459894493        2.32209247822937        8.27203177823234
H           -1.92653820885317       -1.19252266671622        9.09548717203758
H           -2.50460083503211       -3.31977854234491        6.10121527829785
H           -2.76319707784260       -3.37061420439236        2.18305054446299
H           -2.85938096587727        0.24342823402562        1.44594677024560
H           -4.08003438255470        3.49050721857509        4.30823563616095
H           -1.18311659659550        4.53153445477956        9.34441157973171
H           -3.02836048264053       -0.84563002606049       11.21204194812582
H           -4.60333026028831       -4.09227219278490        6.92239046620357
H           -3.58600881504307       -5.48010416666317        1.24930243159028
H           -4.50915944164636        0.24156778686438       -0.31513161143055
H           -1.45425404718567        4.32109772135908        2.28499674323219
H            1.36512863539667        3.66476715169617        7.25302666520005
H            0.36420843328199       -0.80658612793246       11.06690223895129
H           -1.71436898701050       -5.49151576789386        8.09122007312904
H           -0.41644632809847       -5.30648949477853        2.51233200126278
H           -1.29593626189430       -0.60393485481988       -1.02918319232489
H            0.53272480413465        2.44494219054608        3.66057179410545
H            0.46878809967127        0.74524299904361        7.16234519733038
H            0.57868216762624       -1.79570561779939        8.18096157102296
H            0.09406803594763       -4.01391223609874        6.11417615653781
H           -0.55884629230901       -2.26379892438027        2.73991907881370
H           -0.13583965027824        0.17994679454036        1.68755096843894
H            1.17413563979570        3.11111292317758        1.36153685676410
H            2.20335490080805        3.94002138962231        2.56502730133988
H            2.84648566451625       -2.50925172948329        8.93750906084235
H            2.64412128732748       -0.74285477712766        9.03712968415045
H            1.22022780881503       -4.85260759747043        8.16971140344195
H            1.72657502678392       -5.74745617041100        6.71064352220394
H            1.97281217835844        0.37597570464417        0.36017767021642
H            1.33282792725751       -1.28531635223975        0.33558036580678
H            0.90490593804053        5.78209285458339        2.21240450404347
H            2.50310267782628       -2.55254482115988       11.19596296837214
H            0.27857232149581       -7.39401622793405        7.40064185584332
H            1.08898262003372        0.61833099602679       -1.73124127589038
C            3.26358067513379       -1.96961119724694        3.42733077160885
H            3.94936299288872       -1.40670666398277        2.78122118368206
H            3.75802666931720       -2.83819942278782        3.85039010909867
O            1.49997500905799       -3.79953953726673        4.18386829116961
C            3.73960516709760       -0.44016540369140        5.45354523115428
H            4.40163657956030       -1.18138588841129        5.92525086944905
H            4.31880361618273        0.28060044774804        4.88141671310418
O            2.39238703870901        1.86953358262352        5.20504974372424
C            2.72374027355908       -1.09385151092636        4.54133378827015
O            1.53629015423040       -0.90766446222529        4.67781093232715
O            4.07749118039470        1.43216104529879        2.83399262628374
H            3.72189437098917        2.08640975631293        3.45236140342329
H            3.21188388910913        1.17052599459492        2.32268321293716
