8
Coordinates from ORCA-job job E -16.301708287820
  C          -2.07298494002135     -0.66541141575683      0.51992893007552
  O          -2.58119503994190     -0.49478996750467     -1.73035287020218
  H          -2.29081186991333     -1.73509202695066      0.37795519656637
  O          -3.13240375873212      0.00055667365904      1.11165502027493
  O          -1.66260374252571     -0.11156907969775     -0.69828570489567
  H          -1.19986096488073     -0.52928028900727      1.16309532315167
  H          -3.93120679976562     -0.09112866608010      0.56793494651098
  H          -2.19949113201924     -0.07570201336175     -2.52369432308163
