137
Coordinates from ORCA-job job
  C           0.05396211651431      4.22289928926277      5.50766298740089
  C           0.95462920000687      1.42944784491914      9.95975463055621
  C           0.37886632074343     -3.63219521746068      9.28782390862356
  C          -2.08237154705113     -4.98534423619564      4.75411808380922
  C          -1.59295162707751     -2.34431870182568      0.15230675373729
  C          -0.96001972101775      2.93693727042276      0.48836263329930
  O           0.01747628754715      2.93362039585761      6.12515786331250
  O           0.04582838059306      0.37097303849932      9.92419445999356
  O          -0.19872252376845     -3.29288296745460      8.02650191500487
  O          -1.65523911313358     -3.90385785626922      3.95371052418739
  O          -1.60107094535329     -1.08955231903553      0.76679049161573
  O          -1.32404809193585      2.89348330231035      1.84641383747270
  C          -1.36852323302638      4.62653829851998      5.10000222730178
  C           0.20705874869227      2.78451013044891      9.93777611463487
  C          -0.56156299254633     -3.24343313816710     10.44480809843961
  C          -3.00710634656879     -4.40515760325334      5.83222059958035
  C          -2.90785157243581     -3.09013882510359      0.49548857695445
  C          -2.18526656720076      2.43748055296381     -0.29068991190222
  O          -2.29740872749923      4.45895194105761      6.13705469744282
  O          -0.75206370026854      2.88053648834705     10.94801613638743
  O          -1.77959660568807     -3.93126132427407     10.41258969597529
  O          -4.02177278570450     -3.61571522787251      5.26742982485929
  O          -4.03759518380883     -2.41717904037284      0.02812404803827
  O          -3.31665994489835      3.22573482892911     -0.04294615805481
  C          -1.79278506233756      3.73619381676779      3.93469019261761
  C          -0.43653001871792      3.10075739559608      8.56220977948021
  C          -0.80534944679447     -1.73101746050234     10.38384154641332
  C          -2.15919559261916     -3.52376537143761      6.75727994647070
  C          -3.00443382915057     -3.31469527278833      2.02252749450322
  C          -2.43556225701709      0.98998915296027      0.14424636465219
  O          -3.07522830704236      4.06822099872886      3.46980426363764
  O          -0.88677497533763      4.43200903904563      8.54736367962075
  O          -1.56570286166778     -1.29438676714631     11.47834046448151
  O          -2.90580243769931     -3.03182930197033      7.83699653260899
  O          -4.13334715633887     -4.06544501988300      2.38109650718052
  O          -3.45765416390658      0.39904210975106     -0.61754556347345
  C          -0.82448709324698      3.86506281365049      2.75197622287429
  C           0.57892068260356      2.88138409547397      7.43060087846664
  C           0.49228680399561     -0.91753844454818     10.35920862289605
  C          -0.94751867225714     -4.28008780672653      7.32977911393739
  C          -1.74878668683745     -4.02817540921053      2.53855689565332
  C          -1.19354258543065      0.08316313561540      0.04413408604203
  C           0.63914773342841      3.63301496331674      3.18806906958328
  C           1.09743092059624      1.46317859286572      7.64143541277045
  C           1.55774563380776     -1.54603188862076      9.42836092639640
  C          -0.15455046425318     -4.92412431019287      6.18001905747235
  C          -0.56011520645654     -3.23703165569016      2.00684765246228
  C           0.02436034369558      0.79108252452418      0.68337087174508
  O           0.92583185303664      4.28888610368814      4.43113923139199
  O           1.81896005398738      1.37439956940245      8.84677443318342
  O           1.58869848481399     -2.97851788545275      9.45869119609783
  O          -1.01939875179918     -5.68037798530971      5.33773117756926
  O          -0.50095028393333     -3.11563352711125      0.61414861244693
  O           0.13805273364508      2.12545078459485      0.20788731927200
  C           1.62451390649665      4.26207243249276      2.16416439859115
  C           2.03311147333092      1.00350454779952      6.56013401058649
  C           2.99405003849807     -1.15604211903191      9.84558642834106
  C           0.91493452119349     -5.91130728221569      6.66496321332593
  C           0.77327051475662     -3.67357608495775      2.55793543019189
  C           1.40953267159768      0.17240445456675      0.40862910969590
  O           2.85993263413531      3.64670745651956      2.05511146237435
  O           2.01902088856392     -0.36968867726557      6.57013218078582
  O           3.22043621510705     -1.39275541887212     11.20667148852846
  O           0.36709059649324     -6.91413645351050      7.46883020169613
  O           1.64413535945268     -2.69353275926664      2.31409073641962
  O           2.44662675032068      0.93187626745492      0.93486763217250
  H           0.45700933631165      4.94803067780424      6.22572117726996
  H           1.60253867244901      1.36067477468042     10.84323729589064
  H           0.59978447585868     -4.70662435875405      9.33112651400342
  H          -2.60675165203014     -5.73048632036983      4.14286527975831
  H          -1.46835168837619     -2.26435625562126     -0.93354071067414
  H          -0.69024125454662      3.95048436573810      0.16659104213906
  H          -1.35246539943879      5.67550391123650      4.76263444762835
  H           0.94933217709603      3.56641421847968     10.14103305069858
  H          -0.07650105653157     -3.51152589274354     11.38936633853908
  H          -3.44265580063246     -5.22774537526214      6.42012763338907
  H          -2.89294073807726     -4.06718362166325     -0.00205503678722
  H          -1.99036425177478      2.48121003073122     -1.36642303167897
  H          -1.86520673739049      4.67799615486288      6.98677420271492
  H          -1.28793382693108      2.07446084174354     10.95392056749181
  H          -2.17903680229779     -3.80601037929151      9.53812191639138
  H          -4.22086445211272     -3.93267925432616      4.36586810312555
  H          -3.91710887342068     -1.45811929256886      0.13087262089489
  H          -3.36427916601074      3.39705176223579      0.91035121851481
  H          -1.77307871836250      2.68454232909740      4.27889874737220
  H          -1.28511308079617      2.41748604680067      8.39271900955793
  H          -1.33841703808178     -1.52484381401553      9.43854498895106
  H          -1.76071256412667     -2.68601978169552      6.15574397060523
  H          -3.04030668028036     -2.32705332848664      2.51540324178675
  H          -2.72056753866342      1.01217745047358      1.21116656234196
  H          -3.63388217001303      4.22419342448690      4.24491303149761
  H          -1.30417744717089      4.61493994826038      9.40544925899428
  H          -2.25574425446369     -1.95657951957253     11.64165538517624
  H          -3.76993811554161     -2.74103788168687      7.50897890909178
  H          -4.88683877703697     -3.73931549615106      1.85854837943716
  H          -4.14855271242529      1.06654011645165     -0.75436329608666
  H          -0.93442078411922      4.86842572590817      2.31732559170988
  H           1.41088350147468      3.59287526354041      7.50427926268578
  H           0.89733928902194     -0.84507844251960     11.37851823142635
  H          -1.28398171079687     -5.06979365954564      8.01236702973506
  H          -1.71631327524625     -5.07936277026578      2.23496710185044
  H          -1.00173133136130     -0.15917298305990     -1.00640627508151
  H           0.79035396632467      2.54892301856414      3.29819922188598
  H           0.24068036560822      0.77124104828322      7.65061952632721
  H           1.34949978780693     -1.22840204380012      8.40305872284182
  H           0.31760563085031     -4.12510818749935      5.60173380486008
  H          -0.68163697128008     -2.22371614721982      2.44319612366927
  H          -0.16302684067752      0.81481846365796      1.76386969007921
  H           1.82139936496585      5.27823824129983      2.51538716513176
  H           1.14261490807397      4.29998810371143      1.18685801950785
  H           3.68557850208482     -1.73851238242968      9.22780128963920
  H           3.16999095538617     -0.09535572427205      9.67583005210106
  H           1.65320345922102     -5.38241131226234      7.26953049552956
  H           1.40289690358727     -6.33212487131975      5.77673804208378
  H           1.41739989271805     -0.86439110376262      0.75894394197824
  H           1.56933996999265      0.19170613535640     -0.67367353162251
  H           2.82779280501770      2.78788397495882      1.57184840060476
  H           3.14880456111009     -2.34398605967659     11.36754221592122
  H          -0.30958715842424     -7.37286945820272      6.94858176956474
  H           2.63219793231521      0.85658233221757      1.90263057935703
  C           2.52167711036934     -2.34903272351988      3.38059543429740
  H           3.25624451567464     -1.74406909303031      2.90235786924078
  H           2.93283633358731     -3.24491688769710      3.84498207403788
  O           1.02359987569414     -4.66872987832003      3.20584202190043
  C           2.72690967508964     -1.01916570278461      5.49870633114346
  H           3.23215812632551     -1.86307907938294      5.95866943214392
  H           3.37445754612426     -0.31215528523638      5.03568913244254
  O           2.69820412213832      1.68448603092500      5.85778002395912
  C           1.78218242738007     -1.58707426974115      4.47847530526792
  O           0.64796683392438     -2.04792775490747      4.95481637651325
  H           3.92340869571380      2.09944166480917      4.24583066743743
  H          -0.09979357095976     -0.84429213700869      4.58648585648911
  H           3.89320216214315      2.83606105545276      2.99383535573918
  O           4.49492938526109      2.24735586799284      3.50187121407826
  H           4.17469403381521      1.45196270462205      3.02597192536982
  O           1.18815448546304     -0.09871656293104      3.54822037729253
  O          -0.07730039793188      0.03408687679687      4.00706306224567
