23
Coordinates from ORCA-job job.QMRegion
  C           2.03311147333092      1.00350454779952      6.56013401058649
  C           0.77327051475662     -3.67357608495775      2.55793543019189
  O           2.01902088856392     -0.36968867726557      6.57013218078582
  O           1.64413535945268     -2.69353275926664      2.31409073641962
  C           2.52167711036934     -2.34903272351988      3.38059543429740
  H           3.25624451567464     -1.74406909303031      2.90235786924078
  H           2.93283633358731     -3.24491688769710      3.84498207403788
  O           1.02359987569414     -4.66872987832003      3.20584202190043
  C           2.72690967508964     -1.01916570278461      5.49870633114346
  H           3.23215812632551     -1.86307907938294      5.95866943214392
  H           3.37445754612426     -0.31215528523638      5.03568913244254
  O           2.69820412213832      1.68448603092500      5.85778002395912
  C           1.78218242738007     -1.58707426974115      4.47847530526792
  O           0.64796683392438     -2.04792775490747      4.95481637651325
  H           3.92340869571380      2.09944166480917      4.24583066743743
  H          -0.09979357095976     -0.84429213700869      4.58648585648911
  H           3.89320216214315      2.83606105545276      2.99383535573918
  O           4.49492938526109      2.24735586799284      3.50187121407826
  H           4.17469403381521      1.45196270462205      3.02597192536982
  O           1.18815448546304     -0.09871656293104      3.54822037729253
  O          -0.07730039793188      0.03408687679687      4.00706306224567
  H           1.36186530468254      1.33326927431434      7.33584685536966
  H          -0.18123000680225     -3.36107694926847      2.16344075179602
