139
Coordinates from ORCA-job job E -262.770402142100
  C           0.57521426383803      4.88858194397689     -0.36073258970038
  C          -4.37955872765460      3.29649776803678      0.43211147774768
  C          -4.97482095245516     -1.77031932122969     -0.55362029073853
  C          -0.69855137837016     -4.83170860323056     -0.67254097618726
  C           4.29651729165554     -3.33925516159388      0.06917513337133
  C           4.84043826539964      1.81011766232063     -0.50328811439786
  O          -0.33654209514890      3.83523926916752     -0.16601028806481
  O          -4.31364754848429      2.26331860882451     -0.49937428739025
  O          -3.59526132841109     -1.89842343367156     -0.80635731561925
  O           0.26611500633489     -3.83493028821455     -0.47040719395995
  O           4.15183384616213     -2.21177874363008     -0.73515271761582
  O           3.44904806250732      1.97706956044819     -0.68800038052094
  C           1.18658325184341      4.73983591408958     -1.76546831861366
  C          -4.01993700924597      4.59537728680567     -0.31705655773179
  C          -5.61377884862573     -0.98339485850067     -1.71032997897651
  C          -1.35013510403298     -4.60079723585214     -2.04777093564545
  C           3.93534794234207     -4.55806348607525     -0.80237025469275
  C           5.43316417833880      1.11307166722848     -1.73989148488610
  O           0.22123522516123      4.77181151341801     -2.78337772477509
  O          -4.88985006259574      4.84530879620775     -1.38445200740114
  O          -5.43256313748342     -1.61451200532161     -2.94839483140812
  O          -0.41719478956234     -4.59476097632215     -3.09551169350051
  O           4.77336905162591     -4.67091928126332     -1.91762785179440
  O           5.22997288784117      1.84631771074310     -2.91624067242568
  C           1.89914866993181      3.38222963189032     -1.81075533934071
  C          -2.56803664851462      4.50132439033227     -0.81512940615746
  C          -5.02792041743691      0.43421857533842     -1.71844267741627
  C          -2.05535375367761     -3.23983824057699     -2.00678167598364
  C           2.46742235302422     -4.42792882867624     -1.23704332087230
  C           4.83328186407515     -0.29534502813016     -1.84768018577840
  O           2.57838062328378      3.16675661757480     -3.02288082336029
  O          -2.16383563669631      5.70720288624746     -1.42825558840523
  O          -5.68909600876216      1.25466048071889     -2.64932744790057
  O          -2.76877758044486     -2.97164242378436     -3.18878620391825
  O           2.04259551795569     -5.56159556304208     -1.96380899599156
  O           5.44677910317993     -1.03638470375955     -2.87415283491341
  C           2.92628337560194      3.29874071655968     -0.67636035551548
  C          -1.61328417036725      4.16750428383057      0.34260348422282
  C          -5.13515643087918      1.11207299369484     -0.34475256664516
  C          -3.04521234277941     -3.20661881827248     -0.83888505903313
  C           1.54657751425317     -4.24252165872524     -0.02108727909373
  C           5.00223106208518     -1.08588461642706     -0.54231538012059
  C           2.28500917209529      3.63568522474871      0.68281355148862
  C          -2.15057299529164      2.92018140795769      1.05074142197521
  C          -4.68257577181868      0.18187568378692      0.79962443188781
  C          -2.34387107652886     -3.57663009436999      0.47976901873318
  C           2.09136452652673     -3.11361898136664      0.85865912891458
  C           4.61149092595985     -0.25712947574827      0.69717490010433
  O           1.58385815457175      4.87609219776238      0.60897985545352
  O          -3.47977416693075      3.11059000012831      1.50477015781205
  O          -5.22523422127039     -1.13376460320216      0.66197774760452
  O          -1.66998729697385     -4.82658399012319      0.33544128051154
  O           3.45354481804861     -3.30195766124347      1.20347774511966
  O           5.11511623622811      1.08150612907932      0.65220980502317
  C           3.34474756508354      3.79533954444842      1.78100380078237
  C          -1.31165929274210      2.49314816259284      2.25277857084038
  C          -5.18160638461250      0.64417954943287      2.17929229837519
  C          -3.34555990308158     -3.75780200506036      1.62518978142756
  C           1.30281547252946     -2.96000058854252      2.16009427422804
  C           5.18714858817595     -0.84041379729148      2.00104326631100
  O           4.27692872774669      4.80237359530497      1.47641391258200
  O          -1.72385262855324      1.30994315325027      2.66663720352926
  O          -6.56633474898041      0.87515397654582      2.19728999601987
  O          -4.29027102715452     -4.76146180417136      1.35297422917556
  O           1.75133334902698     -1.90595398424253      2.82964694019527
  O           6.56213324416215     -1.11361098764976      1.90751081087299
  H           0.08333260074151      5.86281296414212     -0.25897159617542
  H          -5.37312859269467      3.36993695203357      0.89258082980680
  H          -5.44551635496706     -2.75717386377012     -0.46016431562607
  H          -0.24802363365387     -5.83146963085541     -0.63029578319915
  H           5.31461587662682     -3.43138240181398      0.46819516792042
  H           5.32628608231909      2.78157328703881     -0.35157796204586
  H           1.91897886770375      5.54864095405464     -1.91474638434844
  H          -4.11574685802182      5.44020302020535      0.37314272431670
  H          -6.69530875236208     -0.92564268932428     -1.54721873315911
  H          -2.09714283175521     -5.39267702702611     -2.21561511365149
  H           4.06614661617909     -5.47167749966260     -0.21364866121559
  H           6.51814174449140      1.03162479344396     -1.61302551409198
  H          -0.56561788023470      5.25684108825274     -2.47666181762405
  H          -5.02979995686203      4.01951820878171     -1.87713530024944
  H          -4.51701323984059     -1.94403303916231     -3.02820441941802
  H           0.39784680346165     -5.05560847702460     -2.82018281593088
  H           4.87174161573439     -3.79535425239083     -2.32862202169564
  H           4.30937867897513      2.16947059166973     -2.96119304859543
  H           1.12582832623812      2.61367045115071     -1.66793510846611
  H          -2.50420280572867      3.67814821264893     -1.54291277549906
  H          -3.95801148198270      0.36901118499145     -1.96864522158010
  H          -1.28486422293985     -2.47301938180388     -1.84475151312489
  H           2.37045353581479     -3.52981164189282     -1.86517207740032
  H           3.75452099394496     -0.20761272260768     -2.04545411788147
  H           1.97909388208777      3.39104546872072     -3.75092606017887
  H          -2.92942953516807      6.06261412766159     -1.91112509803188
  H          -5.78727064350737      0.75604011689747     -3.47629354840575
  H          -2.19048419084463     -3.17307186296547     -3.94132227034229
  H           2.78057380255492     -5.84362521026899     -2.53055956576922
  H           5.52349702193815     -0.46637435605837     -3.65564602597389
  H           3.72643790117117      4.02088447984538     -0.87975105203559
  H          -1.54607481830484      5.00714640190853      1.04504889021833
  H          -6.17542532295815      1.42077109540278     -0.17021208779669
  H          -3.83986904765022     -3.93911896220149     -1.03256383230565
  H           1.47823694063764     -5.17323551737192      0.55487489003481
  H           6.04501817737466     -1.41877600327524     -0.45214056780126
  H           1.58038460691076      2.84679334825546      0.97095279074953
  H          -2.11439776949771      2.08467575365311      0.33407168138767
  H          -3.58740775909752      0.12922407797966      0.81219111186546
  H          -1.62456989467478     -2.79624113658614      0.75618588494903
  H           1.97241440002725     -2.17487269570000      0.29786295535407
  H           3.51902669921955     -0.23951519187618      0.75968526422431
  H           3.91449901098308      2.86897594725380      1.87364217593036
  H           2.82832249135849      4.00700906724417      2.72317014134354
  H          -4.90501256589243     -0.13175175495085      2.90203803274241
  H          -4.69732422292424      1.57778784566807      2.46149535681934
  H          -3.90303993129311     -2.83071081400973      1.76772019202035
  H          -2.77913988262272     -3.98422233141697      2.53509991085687
  H           4.99316577993899     -0.11937023800347      2.80263515482955
  H           4.69145885643083     -1.78183288169701      2.23858173935552
  H           3.81040011373585      5.64990823536799      1.45216844538734
  H          -7.01836866309081      0.03140228702009      2.05183872893714
  H          -3.81785120518548     -5.60330630487963      1.27390041822781
  H           7.03690455961140     -0.27431069379642      1.82273496403393
  C           0.84517977581457     -1.27967223869488      3.73487459125737
  H           1.43017450995646     -0.71100851049525      4.45301089791981
  H           0.21765163910902     -2.02355267515974      4.22976824605349
  O           0.43920027665866     -3.71056566066695      2.54098674886459
  C          -0.93023180062548      0.59280830907496      3.60955426548355
  H          -1.62122379963118      0.03353787797653      4.23818679982635
  H          -0.31921821151676      1.28433827383740      4.19154657295832
  O          -0.40880725594707      3.13018993208530      2.73494056115989
  C          -0.04953840686366     -0.40182277532611      2.80726191589405
  O          -0.58757474042072     -1.03516038593591      1.84928659544540
  H          -1.12794616170339     -0.29572035962076      0.45129178770115
  O          -1.28672916667684      0.09353215841012     -0.44421176690262
  H           0.45157587183185      0.12274172529440     -0.59274957499069
  O           1.37683508214813      0.07085105125484     -0.24505323826324
  H           1.19449215273680      0.33668499444147      1.01316761995990
  O           1.06156812985581      0.63163019214426      2.15613210782375
  H           1.92304785761529      0.46063383912830      2.56871895249164
  H           1.90102915824393      0.81357694653215     -0.59660988483058
  H          -1.90185696887036     -0.51856102476175     -0.86379340756096
