150
Coordinates from ORCA-job job
  C          -0.62040220892933      4.68610858938922      0.86413023694363
  C           4.47722400795077      3.23378886107495      0.60801152644428
  C           5.12055318458565     -1.80529828000059     -0.25974768452721
  C           0.71807741903441     -4.76831084092753     -0.23549112008470
  C          -4.21802791282243     -3.20619855642791     -1.23168230066748
  C          -4.94413793780376      1.83985608941516     -0.25314436068321
  O           0.33880110329054      3.65771479576848      0.80071234222784
  O           4.38741347631563      1.94140780026719      1.12201743858787
  O           3.70541896107463     -1.94305884742246     -0.18081534592014
  O          -0.18342109046788     -3.70576814144257     -0.42296631622501
  O          -4.28092838088084     -2.17773193372461     -0.29428154709606
  O          -3.63604043934641      1.92876834579484      0.27771947402806
  C          -1.54850252666250      4.45524153064055      2.07118801576586
  C           3.95740450576275      4.20736997853174      1.68529380151670
  C           5.74348491161681     -1.50129502573798      1.11641055057916
  C           1.39014482976138     -4.58149824786384      1.13343031538351
  C          -3.86730529605109     -4.50176238285723     -0.47068534563729
  C          -5.81980017815424      1.03799177059094      0.72231947704377
  O          -0.85453596683326      4.31493040294828      3.28301983566797
  O           4.65582769237507      4.07998260633336      2.89025571396577
  O           5.63101983249294     -2.54587995916317      2.03806056314801
  O           0.46092257166308     -4.51456966546988      2.18199676866394
  O          -4.80298387485342     -4.79300790810192      0.52721464910911
  O          -5.92106082448423      1.64142794571250      1.98220332366502
  C          -2.37997786625204      3.18763900604050      1.83935476373487
  C           2.45029081232100      3.98700625338830      1.90438370672486
  C           5.11194128462239     -0.20836082264010      1.64388586912780
  C           2.17824075799481     -3.26632676960109      1.10775037328043
  C          -2.45119365551340     -4.38457489935729      0.12470882226301
  C          -5.25069974412134     -0.38267342573310      0.82878669924105
  O          -3.38564259790934      3.03343843139025      2.81370143881458
  O           1.91707412582219      4.95942443210202      2.77333863872791
  O           5.68463386654114      0.17864501868207      2.86711957659856
  O           2.89957662760041     -3.07898890187812      2.29969895978121
  O          -2.05991246674118     -5.58013011708119      0.75906505850792
  O          -6.07716744986696     -1.20360818851973      1.61662256460465
  C          -3.06695797333059      3.21965048665264      0.47068124212076
  C           1.68456215385546      4.04789604591078      0.57271835374551
  C           5.29980377045916      0.94868431632505      0.65264836827925
  C           3.15964207360328     -3.25487917994500     -0.07177435714554
  C          -1.44532413957044     -4.03021157815213     -0.98113530326363
  C          -5.10954129506250     -1.04477209283488     -0.55093397727240
  C          -2.06914479843664      3.57928148333961     -0.64345278051468
  C           2.35801719945823      3.07394048389980     -0.40029128135318
  C           5.03483942424655      0.54805998362062     -0.81410285720923
  C           2.43533166599810     -3.62150528651721     -1.38281525620243
  C          -1.95987107937198     -2.77427821756908     -1.69003884016364
  C          -4.51200322991332     -0.10419555928160     -1.61995146577645
  O          -1.37392299468540      4.77830401293504     -0.30901643965888
  O           3.72616028123136      3.39681368550411     -0.57853990636348
  O           5.44444690561870     -0.78767321677788     -1.14616690400236
  O           1.69126929887147     -4.82676832373366     -1.24155539929700
  O          -3.25096522144286     -2.97300502035928     -2.23710702957069
  O          -4.96293158604763      1.25008185626614     -1.51375061915905
  C          -2.77769953960834      3.84175595126475     -1.97768921948569
  C           1.71972426882095      3.02822515108171     -1.78864524927800
  C           5.81494806262496      1.43017491870385     -1.80838007644519
  C           3.43076567805144     -3.83452573282136     -2.53034815120872
  C          -1.03046331476082     -2.32748198038548     -2.81256802736425
  C          -4.92543658848938     -0.51296166006341     -3.04691277952310
  O          -3.71471417993675      4.88388545962472     -1.88414665092047
  O           2.24659696559033      2.01135090210240     -2.45896444047131
  O           7.17628344062404      1.54118571289904     -1.48547137139824
  O           4.40218625465052     -4.80041475684619     -2.22531230071093
  O          -1.29917393072130     -1.06898330535140     -3.13489081074659
  O          -6.31646061636239     -0.63947292748190     -3.18372040595166
  H          -0.12841745313430      5.66221432664409      0.96254125364210
  H           5.50969113996166      3.48532069694585      0.33230286122734
  H           5.55996430736979     -2.71754320175287     -0.68469081217997
  H           0.19944590385320     -5.73338132498664     -0.27908637647272
  H          -5.16792776216151     -3.31897891334484     -1.77098238608709
  H          -5.36116806928900      2.84330561806493     -0.40442389384698
  H          -2.22899856683187      5.31993350166123      2.13239457619387
  H           4.11871632997479      5.23240615452264      1.33436517916856
  H           6.81832800798989     -1.34871260758376      0.96717042381730
  H           2.08857632480693     -5.41886856110850      1.29211979430509
  H          -3.88829935533530     -5.33846039724732     -1.17760302004800
  H          -6.83863119461168      0.98934941989761      0.32216159989167
  H           0.06358490398794      4.63058570016289      3.18783226911040
  H           4.77622226003006      3.13735378407031      3.09055846705044
  H           4.68687546637426     -2.75019913895289      2.19728454764927
  H          -0.30942209569100     -5.06716649629026      1.97170965083216
  H          -5.04334526195568     -3.97203018785660      0.98695302234973
  H          -5.05295305843131      1.97587200913362      2.27488075395992
  H          -1.69563281290825      2.33141456105677      1.88037103546854
  H           2.30238691473188      2.98251964581641      2.33061067856822
  H           4.02955648069149     -0.37410006141540      1.77009084618734
  H           1.45752749595275     -2.44612782553915      0.97400173310170
  H          -2.44383237603741     -3.56356058379945      0.85723186403176
  H          -4.25001506460776     -0.32283593846155      1.28248107011840
  H          -3.00901712713887      3.26368553698381      3.67640284772160
  H           2.55375300227715      5.10162145646118      3.49452556583570
  H           5.82307165372664     -0.61915438318335      3.40369547308302
  H           2.32282614629052     -3.30913513039315      3.04537502015554
  H          -2.84485106711405     -5.95324825104553      1.19595855082712
  H          -6.42364576596730     -0.66933126113784      2.34927198881724
  H          -3.86084316490932      3.97656589694185      0.49290947724695
  H           1.72387952208645      5.06142981836080      0.15730798150461
  H           6.32782212872165      1.32827158288421      0.74521536475436
  H           3.95828273824357     -3.98162111055851      0.11548007024668
  H          -1.34718449021617     -4.85545369864731     -1.69676095734525
  H          -6.10088298756925     -1.38488194159531     -0.88339315462843
  H          -1.34534679582444      2.76900101311657     -0.77918699001715
  H           2.26633654484860      2.05378104314892      0.00448309079301
  H           3.96597577635624      0.66882072065077     -1.01538590513556
  H           1.74724551408090     -2.81436632059078     -1.65837611038027
  H          -1.99069630013226     -1.95441887022489     -0.95637401018463
  H          -3.41967608557269     -0.13618116323030     -1.54425026580179
  H          -3.33070276422837      2.94859938481407     -2.27384011915628
  H          -2.00927169597095      4.06179019854544     -2.72606168288379
  H           5.68185057696882      0.99308146064601     -2.80336573673740
  H           5.40122101097963      2.43819008951184     -1.80823361384691
  H           3.96489091964040     -2.90040033763447     -2.71549026541298
  H           2.86105153064672     -4.10659427985972     -3.42482518911064
  H          -4.53220090654123      0.24534961752615     -3.73232409841583
  H          -4.49029426586460     -1.47900397414431     -3.29983636871705
  H          -3.23479892986776      5.70350828063337     -1.69618433227827
  H           7.59746292495020      0.68106188790089     -1.62473125924510
  H           3.96824580779369     -5.66366832355999     -2.16243994202275
  H          -6.71499057488902      0.23772674136435     -3.08854793288794
  C          -0.35086422810625     -0.34573153734139     -3.90693527348768
  H          -0.90671734981304      0.35005332239813     -4.53850955502703
  H           0.27215221868649     -1.02489136901418     -4.49648627613774
  O          -0.17290317173721     -2.99886727472914     -3.32325288484954
  C           1.51085886405170      1.42756075768689     -3.51936297112046
  H           2.22710289201926      0.90915654927258     -4.15837690381600
  H           0.94657332118467      2.18804983020503     -4.06901810101898
  O           0.89049882820282      3.78884569955954     -2.21138276967013
  C           0.51192891831694      0.43376258525153     -2.88065813670802
  O           1.16936432444292     -0.66524944781337     -2.21261776182099
  O          -0.27714288639534      1.18037291906701     -2.01405492803152
  O           1.89202211725859     -0.11950611478218     -1.04939683963431
  H          -0.90165738218893      0.58345427699266     -1.54261908056736
  H          -2.34512228229749      0.64069347894486      0.23248127326173
  H           2.54182998653435     -0.84710657216179     -0.89294502503959
  H           0.12458468579093     -0.71740527784022      0.66131847638029
  O          -1.67511295086303     -0.03440016803738      0.01370886647310
  C          -0.58039689181194      0.07052069394993      0.95644408899392
  C          -1.00008344549293     -0.13152211002058      2.39146783502731
  H          -0.06369241693746      1.03742866552370      0.83313222358302
  C          -0.40462898667942      0.61324417687363      3.40130235177367
  C          -1.95948785771849     -1.07935928932349      2.71796597442282
  C          -0.76160508213398      0.40712444718954      4.72191023878296
  H           0.33621796174752      1.35750454372633      3.14689451402749
  C          -2.31838233492457     -1.28342222145193      4.03857152597942
  H          -2.42222934559964     -1.65148708670822      1.92651203148740
  C          -1.71846559831239     -0.54184594699344      5.04224077302578
  H          -0.29550641636303      0.99274000888595      5.49900991895136
  H          -3.06418317399861     -2.02301563781600      4.28411943569558
  H          -1.99773416649313     -0.70138832094568      6.07206179725172
