150
 xtb: 6.7.1 (edcfbbe)
C           -0.81615775400182        4.91608542478756        0.79652153435533
C            4.16929282295102        3.22990223343154        0.44704809586742
C            4.76129064469645       -1.87475007498083        0.28781121690263
C            0.54206391968700       -4.93983008608329       -0.33469360109715
C           -4.18623801909211       -3.08629031451924       -1.68887169956047
C           -4.99955328289867        1.90852624369167       -0.16638053412485
O            0.05395462946336        3.80855897055690        0.74110035318956
O            4.05866581477209        2.05971537516895        1.19356741671372
O            3.35185074630451       -2.01278412553421        0.26404816672828
O           -0.34326095412598       -3.88646473445673       -0.60599609345575
O           -4.05701163237551       -2.05828479804982       -0.75928093034492
O           -3.75456476542317        2.14446183359607        0.44555390916321
C           -1.70309732761214        4.80823242440384        2.04702977787234
C            3.72928629662660        4.41017981515909        1.33638203004071
C            5.24311444736549       -1.41828698231038        1.67583111610560
C            1.01066578382748       -4.79942303994101        1.12252200195503
C           -4.04567572582554       -4.40228345471385       -0.89782380540882
C           -5.76905508628003        0.88955826116819        0.69267196878556
O           -0.94729108613120        4.67844931408218        3.22221770642143
O            4.48681776854234        4.50013143202278        2.50752262878820
O            4.98990283313245       -2.34138218561461        2.69605243166076
O           -0.04560802801305       -4.85371621011836        2.04467668544126
O           -5.05171171811569       -4.53906556923067        0.06476631364188
O           -5.90422013835380        1.32455934282348        2.01751084088510
C           -2.60938477362373        3.57675725222580        1.92785453112395
C            2.23027705312510        4.28870321774555        1.66653840422466
C            4.59496144208033       -0.06391962561981        1.97814247944365
C            1.72388006767142       -3.44737022350255        1.25889835108964
C           -2.65669733842640       -4.40679041303878       -0.23921971513050
C           -5.06467202221686       -0.47223916828155        0.61229294922531
O           -3.62375170220806        3.56565193210697        2.90132951520128
O            1.76724868772969        5.43409032762297        2.34406869737282
O            5.05118507732524        0.45105907959900        3.20400203019948
O            2.30224454182853       -3.29920879978862        2.53351765052109
O           -2.40330255452139       -5.61211418838087        0.44759293077316
O           -5.81972785432741       -1.48027119952733        1.24383215512518
C           -3.30425914576217        3.49088243083200        0.56175649377785
C            1.39523966553303        4.09417125942852        0.38799629711618
C            4.90427273310084        0.95722358481791        0.87300171329724
C            2.84411354326556       -3.33968425333736        0.22067840977724
C           -1.54999797742725       -4.19018597871192       -1.28235837683045
C           -4.86868766104254       -0.89813606706218       -0.84809224898447
C           -2.38510935802530        3.85267093120043       -0.61678798038964
C            2.00298210762829        2.91458994499881       -0.38165672318659
C            4.65860104222111        0.37294848612069       -0.53578702592920
C            2.33461497377648       -3.67339898763982       -1.19252029211307
C           -1.89648619455966       -2.96749710022427       -2.13891157056385
C           -4.20894988656981        0.21717541928369       -1.67639247380255
O           -1.60456698246314        5.01348502669921       -0.35180731391760
O            3.35099756261733        3.18753845239647       -0.70859588940336
O            5.17328478410509       -0.95365456986518       -0.67157772660330
O            1.64695438011742       -4.92022131314547       -1.19594113297914
O           -3.19196987133458       -3.03119067583162       -2.69307966283557
O           -4.87572467469322        1.46675019770123       -1.48659630971463
C           -3.18835293725038        4.17485062654610       -1.88519609680449
C            1.28922909535344        2.54316903925532       -1.66769182656553
C            5.37836482445487        1.15114142126022       -1.65641347417833
C            3.48668992727084       -3.79673154300762       -2.19658916252128
C           -0.89555060727379       -2.71638339307027       -3.25625438390617
C           -4.29856443975301       -0.05628973274363       -3.18581609282927
O           -4.11062021451650        5.21286107923039       -1.67779471892074
O            1.93071275121141        1.56511528121617       -2.27961248319224
O            6.71171723462237        1.45104526325854       -1.33843743226291
O            4.43012357827131       -4.76206682963778       -1.81185168045510
O           -1.23038169868542       -1.62560566805084       -3.94779106402985
O           -5.62444847252080       -0.23525715527606       -3.61258702356204
H           -0.24444656240493        5.85143560776611        0.83607194937000
H            5.19155761735591        3.38513981534377        0.08020131209198
H            5.24488207508380       -2.81835232855285        0.00784947984407
H            0.06417385686238       -5.91470394803447       -0.49333411563363
H           -5.14197752349658       -3.04207625393397       -2.22572795178991
H           -5.56914497340626        2.84385878067085       -0.23384969577640
H           -2.33162545266721        5.70937572628521        2.09351840242675
H            3.89641194531354        5.34135818399122        0.78357038220925
H            6.33216269471879       -1.30218814950591        1.63682699442515
H            1.72878846547284       -5.60697529155604        1.33659631267407
H           -4.13941695381953       -5.25299298820194       -1.58056616710660
H           -6.78485924775592        0.78553612693635        0.29812185699329
H           -0.08205797702391        5.11360284323590        3.11109611097214
H            4.57827259661280        3.61611318550503        2.89873811892390
H            4.04955647468166       -2.60763130693964        2.68845181845176
H           -0.84193158492618       -5.21620928174684        1.61651563430437
H           -5.18496858400806       -3.68617888746583        0.51434167495498
H           -5.07272783433032        1.73346706554048        2.31585620828154
H           -1.96506359837747        2.69307718154059        2.05657734621901
H            2.08150594654451        3.40024651582869        2.30025655459258
H            3.50223228437316       -0.20660967440198        2.02054778873064
H            0.98282939971399       -2.65202309467199        1.08575095654203
H           -2.61126366741460       -3.56144931395815        0.46485915493397
H           -4.06950752252981       -0.39962904818678        1.07770719326755
H           -3.21307129107982        3.68165438648154        3.77518295698184
H            2.45973970221167        5.70917240110145        2.97036834553789
H            5.24597029588238       -0.30377818014332        3.78284969889763
H            1.65104744020420       -3.59145467796703        3.18960667868687
H           -3.23357291168818       -5.89696316522988        0.86553204326218
H           -6.10407603127902       -1.14681674078804        2.11063962778799
H           -4.16196127974526        4.17240501431153        0.57877660345374
H            1.44155062944361        4.99549229376285       -0.23497466686813
H            5.95366054448273        1.27360313634241        0.95337102085311
H            3.63164551452859       -4.05273521700699        0.49038611551922
H           -1.43204243459095       -5.08055164193604       -1.91153192995107
H           -5.84275519221429       -1.15327035065253       -1.28746846475557
H           -1.71895881814844        3.00227393787102       -0.81042243534975
H            1.94987217890378        2.02125899230667        0.26210960192591
H            3.58006514847338        0.36911361615835       -0.73622236418547
H            1.64976061259758       -2.88787511013397       -1.52904544542246
H           -1.81793141527781       -2.08498741831242       -1.47994118172895
H           -3.15373276872952        0.30029027702535       -1.38495963474644
H           -3.76529770098536        3.29807128363152       -2.18232445900740
H           -2.47703791095453        4.43304161164699       -2.67418691461575
H            5.32040342235209        0.53301033943076       -2.55856577982042
H            4.87386102694489        2.09836157803952       -1.84473100989757
H            4.01798179546593       -2.84437736740891       -2.25118599907563
H            3.05412132559089       -4.03029282168050       -3.17641689683990
H           -3.82696320561850        0.78284915000044       -3.70736628866558
H           -3.75924638875176       -0.97102267981834       -3.42861635286201
H           -3.62100835616950        6.02685505298581       -1.49013545099268
H            7.22397860235414        0.63047383513905       -1.34069805360453
H            4.00050572008189       -5.62909183997077       -1.83155222923237
H           -6.10298079992291        0.59714015175008       -3.47647654799195
C           -0.15748096712015       -0.82944877077616       -4.40744650096385
H           -0.55574976070592       -0.17415505362540       -5.18760944318313
H            0.67701507769880       -1.43891073402045       -4.76069003734069
O            0.08513913134799       -3.37718201033128       -3.48068172277038
C            1.37992941063958        1.02655982308673       -3.47815903332539
H            2.20643828011106        0.50799197210774       -3.96747432740813
H            0.98925427637968        1.82808671806603       -4.11967130286850
O            0.26628555427066        3.04179826878346       -2.07737023027847
C            0.23787605760016        0.04146976301283       -3.16326713319992
O            0.63698998752059       -0.96253753696722       -2.21426656132172
O           -0.92728180764120        0.68588459918089       -2.73610900799858
O            0.67298410380050       -0.33771165557252       -0.81450411995157
H           -0.72729704382676        1.63706671951098       -2.63109887169244
H           -2.20863544734352        0.96763396939596        0.89806229175629
H            1.52164781220868       -0.76637835057318       -0.51048761801498
H            0.22957046735508        0.39875799312818        0.77224342618560
O           -1.76050466169623        0.21481477041256        1.33211620117743
C           -0.40210047070775        0.61258793848988        1.58986580083911
C            0.18488830570074       -0.16278682617423        2.73782128220408
H           -0.30919847715059        1.69046342075982        1.73933968420476
C            1.28079302278947        0.36972771898307        3.40112106259876
C           -0.40602225856902       -1.32462478126422        3.20098065335582
C            1.77835840087417       -0.25249342574768        4.52994770363326
H            1.72273074110299        1.29245177415487        3.05351990792869
C            0.09123449517613       -1.94677881087734        4.33456629382931
H           -1.27628402297233       -1.70850974109373        2.69112312907745
C            1.17912880078800       -1.40919097471181        5.00072850878934
H            2.62619249391092        0.16845355576722        5.04700672963788
H           -0.38291932778504       -2.84962997727478        4.69347483670134
H            1.56388375914186       -1.89752818301886        5.88393891091086
