14
Coordinates from ORCA-job job.QMRegion
  C           0.51192891831694      0.43376258525153     -2.88065813670802
  O           1.16936432444292     -0.66524944781337     -2.21261776182099
  O          -0.27714288639534      1.18037291906701     -2.01405492803152
  O           1.89202211725859     -0.11950611478218     -1.04939683963431
  H          -0.90165738218893      0.58345427699266     -1.54261908056736
  H          -2.34512228229749      0.64069347894486      0.23248127326173
  H           2.54182998653435     -0.84710657216179     -0.89294502503959
  H           0.12458468579093     -0.71740527784022      0.66131847638029
  O          -1.67511295086303     -0.03440016803738      0.01370886647310
  C          -0.58039689181194      0.07052069394993      0.95644408899392
  H          -0.06369241693746      1.03742866552370      0.83313222358302
  H          -0.09908370812081     -0.11825936011598     -3.60744681299310
  H           1.22026893806908      1.13846367074629     -3.33356296447421
  H          -0.88523044019954     -0.07623031420204      1.99875382393085
