147
Coordinates from ORCA-job job E -278.549177385630
  C          -0.71017602229044      4.79263024645279      0.69454423919173
  C           4.35060997086292      3.25128360980676      0.53517063224496
  C           4.98759068368400     -1.93198444255224      0.52937895706975
  C           0.64856372630867     -4.80157486693329     -0.34271788051658
  C          -4.25016925913829     -3.10830110661059     -1.38229938906965
  C          -5.05894135991377      1.89710302730479     -0.13998809913160
  O           0.24628152786721      3.76592102261685      0.56521783797239
  O           4.16227217152367      2.02492248158459      1.16589141977715
  O           3.60927747256120     -2.12122604103583      0.71207013121919
  O          -0.31391744188002     -3.77926589875439     -0.34510208270673
  O          -4.26320723686682     -2.11771005466559     -0.40397253641410
  O          -3.72981925337564      2.02464980442303      0.29581662543459
  C          -1.55712321328718      4.54356164624813      1.95516920611676
  C           3.85434667566707      4.35180739507756      1.49284784835724
  C           5.55479773248529     -1.35589391609014      1.83691246208842
  C           1.21357107007798     -4.94264757381077      1.08012068681397
  C          -4.00013479033704     -4.44840876842577     -0.65892107085598
  C          -5.79726542538242      1.00466135177830      0.87310524075265
  O          -0.78806321138522      4.40944542127443      3.11890595807706
  O           4.51272287815767      4.32248126415687      2.72424335654661
  O           5.34669171146776     -2.21036220242420      2.92589288106924
  O           0.21721040016175     -5.15973069065496      2.04267722470688
  O          -4.98198368813652     -4.71855014694756      0.29799053943181
  O          -5.79985499948240      1.54819751062619      2.16316385787399
  C          -2.37417598842386      3.26157292994615      1.76072403440504
  C           2.33263723702218      4.21811778806208      1.68855041572858
  C           4.89349372242261      0.00794652540511      2.07554414298935
  C           1.98561235161006     -3.66382365565165      1.42713838337030
  C          -2.60525393048657     -4.40899320965215     -0.01083787198374
  C          -5.12728227303829     -0.37615843752888      0.85408162524871
  O          -3.28536640364246      3.06530061982645      2.81110748909191
  O           1.83368225720206      5.29983372982934      2.43923275412670
  O           5.44885961812760      0.65598476928638      3.19131919372592
  O           2.63942432907589     -3.77326525594472      2.66601184590533
  O          -2.26763406869250     -5.64841486766267      0.56504033769860
  O          -5.80692018675083     -1.28354908229359      1.68171428651346
  C          -3.17453156134510      3.31640275716252      0.45519011659527
  C           1.59120357092867      4.15845453546398      0.34154129002447
  C           5.04027092407730      0.94131604163753      0.86510731365494
  C           3.04369070285093     -3.37045324602151      0.35947129067598
  C          -1.52478617402878     -4.03435762691340     -1.03757592296272
  C          -5.08534648789870     -0.96630971273772     -0.56168938694372
  C          -2.27470259966203      3.70865707890870     -0.72917845338611
  C           2.26656522209987      3.09642875994955     -0.52941021770976
  C           4.69639171854245      0.23043278864187     -0.46030079414664
  C           2.39984422871734     -3.35585838247841     -1.03649603312203
  C          -1.96351125626957     -2.75907871858731     -1.76446916767997
  C          -4.53574261134840      0.05621237603461     -1.57603926337103
  O          -1.53648168018017      4.89172794400595     -0.42996640153182
  O           3.64430648235948      3.36331056095781     -0.68962378836457
  O           5.27894302479180     -1.06977409693884     -0.53475498169199
  O           1.68344791743152     -4.56674485418654     -1.25596166858985
  O          -3.23872108740841     -2.91044297996384     -2.35597536256380
  O          -5.15021546808767      1.33740888519748     -1.41967188487308
  C          -3.09840576553348      4.02141049169167     -1.98323118255801
  C           1.67785025696875      2.96134685910006     -1.93530745299460
  C           5.28051575925844      0.95603623852452     -1.68492334966869
  C           3.43958165488667     -3.27884251275565     -2.15985945818453
  C          -0.98186793267390     -2.30603658222164     -2.83676571925999
  C          -4.82870330380519     -0.32772217093296     -3.03495226325020
  O          -3.98361240047962      5.08938560235670     -1.78660771287960
  O           2.15690477459773      1.85059240078296     -2.47286905229649
  O           6.66314025707755      1.14858199611819     -1.57010637055636
  O           4.31878153407497     -4.36969377923239     -2.14267356716017
  O          -1.38974218575648     -1.16259175490985     -3.37076669862074
  O          -6.18875478421242     -0.58627111234337     -3.25504280993908
  H          -0.21131683063858      5.76818872038237      0.76360072837999
  H           5.40330088274031      3.40674796038509      0.26374310651669
  H           5.48429690323035     -2.87623224518944      0.26854579641553
  H           0.20187290932051     -5.75117667542593     -0.66717887929700
  H          -5.18929859684775     -3.13205185875677     -1.95027545371359
  H          -5.54225689281421      2.87973940674150     -0.22398419053213
  H          -2.25365270173906      5.39146448556868      2.06091320782195
  H           4.06879251030962      5.32607720241946      1.04012746713524
  H           6.63820972825145     -1.22975071608033      1.73944715845467
  H           1.91655576321050     -5.79142371192125      1.08305172506283
  H          -4.03866491554826     -5.25983939604677     -1.39296624004400
  H          -6.84658088935155      0.90637987919066      0.57509284279595
  H           0.07336541353565      4.85620532448397      3.00594599089281
  H           4.59534988410379      3.40275321082109      3.02701542708910
  H           4.44782977031061     -2.58448937377570      2.88649033944969
  H          -0.62213683339590     -5.39731522730806      1.60691377850570
  H          -5.15415017463946     -3.91339932789980      0.81467877805687
  H          -4.92202693298403      1.91899643476398      2.37246167750157
  H          -1.67950303481401      2.41059229717095      1.69450107030062
  H           2.12495553749045      3.27208818697756      2.21273096980433
  H           3.81809420199745     -0.16668190609208      2.22806680331049
  H           1.27769801531047     -2.82316442026017      1.43857284995641
  H          -2.60515568009897     -3.62587670816604      0.76222024730006
  H          -4.08219953854902     -0.25614233408906      1.18350210029441
  H          -2.80507120820046      3.15320249997979      3.65099714580514
  H           2.48320527994949      5.50055613497217      3.13781370752100
  H           5.63876420205205     -0.01789060675000      3.86566920490131
  H           2.02376706068357     -4.19228389293328      3.28880351701486
  H          -3.06247511621356     -5.99964330995399      1.00514652178356
  H          -6.02670519140722     -0.82574122558157      2.51049169566024
  H          -3.97585316965259      4.06223177637639      0.55648126333083
  H           1.62780159032609      5.12812114005068     -0.16989288578884
  H           6.07270179562941      1.31581477201489      0.81406149728206
  H           3.81706310820892     -4.15125681427334      0.38738561270658
  H          -1.38643926014597     -4.84230161949832     -1.76649837457992
  H          -6.09432847142847     -1.27850781782951     -0.86685338401771
  H          -1.58893757811850      2.88459195681460     -0.95930365123525
  H           2.13061957460472      2.11370465222702     -0.05476917823419
  H           3.60283045397548      0.15691576817905     -0.55460462309969
  H           1.72240526933650     -2.49494730994039     -1.11306232070004
  H          -1.98493372101439     -1.93525976239666     -1.03429729324573
  H          -3.45342935705640      0.14666363836272     -1.42889182730479
  H          -3.69780553022631      3.14561759344716     -2.23809831189039
  H          -2.39751434316415      4.22331184865121     -2.80140947525358
  H           5.03679023190985      0.35486348542553     -2.56891880070942
  H           4.82242545384882      1.93757173404869     -1.79540274329796
  H           4.04202412625800     -2.37802542122844     -2.03281768144865
  H           2.89420106975166     -3.21850693391452     -3.10906246421215
  H          -4.47467983431870      0.49662939628851     -3.66526591221651
  H          -4.27661523940629     -1.22861898024370     -3.30061404349923
  H          -3.46043586607545      5.88264576106457     -1.59391407069338
  H           7.09272912271236      0.27933886148517     -1.55561766940520
  H           3.79892905254803     -5.17584109234103     -2.28530161491565
  H          -6.68295657064409      0.23486464826622     -3.10951400157240
  C          -0.41895442730742     -0.38444232784088     -4.05853012495496
  H          -0.95250617343104      0.19635952657266     -4.80864572767326
  H           0.34433758545852     -1.03331300496510     -4.49062730102575
  O           0.01239559684387     -2.90462715839623     -3.16580867700188
  C           1.48540658632700      1.27257719801852     -3.58099726473825
  H           2.17633357901473      0.55312602728421     -4.01317880261696
  H           1.17454479017319      2.04432662035558     -4.29012817234183
  O           0.97118611034709      3.77179261195682     -2.48045690367617
  C           0.21553082890739      0.58584864575045     -3.03569254629790
  O           0.66870348407392     -0.45862326597745     -1.88055595537792
  O          -0.58048100924067      1.34892832421004     -2.34073883550894
  O           0.96428763221488      0.15459127974624     -0.65771470781937
  H           0.55609918324094     -2.05217564054423      4.94069438726990
  H          -1.32199956633126      0.52760473448062     -1.26213709409450
  H          -1.36432922958183     -2.69401599044454      3.52595222737246
  H           2.12950597960165     -0.31753625483067      4.16442597648834
  O          -1.37353787485071      0.03419427690221     -0.37470528935051
  C          -0.19340266905040      0.37086948436244      0.22574367603565
  C           0.02025218669768     -0.35249161984258      1.52893545483126
  H          -0.13682259441268      1.46515607113798      0.40204164905631
  C           1.09823050732749      0.00971851570594      2.32593998006353
  C          -0.86844682622043     -1.32243383487829      1.96800855097040
  C           1.29235790357726     -0.60617370870785      3.54905509021098
  H           1.77115900364060      0.77594631404904      1.96578376400547
  C          -0.67292678287668     -1.93605825204056      3.19461018096907
  H          -1.70925475038484     -1.57312620701068      1.33918019972391
  C           0.40667799938012     -1.57912216609477      3.98383139582277
