147
Coordinates from ORCA-job job E -278.536382832240
  C          -0.82323569007329      4.99854535846465      0.72471863980350
  C           4.14961094115713      3.13068991219200      0.38753079623884
  C           5.05344303146983     -2.06677398019439      0.32620573636223
  C           0.66602179192974     -4.96642345323830      0.09768828936594
  C          -3.90385638588507     -2.95279208126083     -1.57879029836180
  C          -4.96256081448273      1.97732971084682     -0.50635689284779
  O           0.09747372131010      3.93249418967761      0.70265764898028
  O           3.90627082614312      1.82885653241220      0.82841490249047
  O           3.75790269822443     -2.36698492059286      0.76324060210331
  O          -0.21143660467685     -3.86330588145690      0.17448045398021
  O          -4.27045736743387     -2.09031321824840     -0.54732202482117
  O          -3.69577956569147      2.15310897289958      0.08554697611069
  C          -1.78009628604218      4.78387366833887      1.90988432620434
  C           3.75428240185023      4.08192460519374      1.53199639922072
  C           5.74412515687028     -1.33920167426963      1.49568496892724
  C           1.35842291008053     -5.09460990600766      1.46439396419370
  C          -3.76612306545507     -4.36788794042279     -0.98770752641727
  C          -5.83554444942758      1.13005302593784      0.43341783489608
  O          -1.13072837124383      4.77564262679947      3.15076656379033
  O           4.46488957995144      3.81735107895953      2.70606955294326
  O           5.80375164148806     -2.13736303533054      2.64326972932338
  O           0.44252427099530     -5.24112477441975      2.51222583748921
  O          -4.91940051661006     -4.76240327620034     -0.30122918625766
  O          -5.97400554740115      1.71118156306335      1.69925508122926
  C          -2.54118311237076      3.46747332177504      1.67819805566567
  C           2.23776606272550      3.95664027791757      1.76025099251829
  C           4.95149874922126     -0.05299056757851      1.76229580660382
  C           2.23685154936814     -3.85755309500000      1.67381246413596
  C          -2.53231454953591     -4.45069814527214     -0.07262183748819
  C          -5.23973438810148     -0.28202283620742      0.53062479505582
  O          -3.53284105784289      3.26155507340060      2.65105120729817
  O           1.78292109111358      4.85377332273347      2.73991769275761
  O           5.54665963768613      0.74272576242891      2.75691357082217
  O           2.99513098066967     -3.95522081451388      2.85244747986335
  O          -2.28673082513555     -5.78157066112989      0.30203766593464
  O          -6.09793301149730     -1.13185521428170      1.24850516153240
  C          -3.22794430492038      3.47824703680108      0.30771399606785
  C           1.46429224986466      4.22665010959301      0.45821678667368
  C           4.82744492461418      0.79699475496062      0.49247304430625
  C           3.19979088949194     -3.64341545503811      0.50287139441695
  C          -1.28113011831147     -3.87882993347046     -0.75934213969304
  C          -5.01112877518575     -0.90876348248126     -0.85344672834211
  C          -2.26027189994555      3.91063936476373     -0.80614379382366
  C           2.02673773768715      3.30581607007009     -0.63365745006696
  C           4.34120996247369     -0.03764705683669     -0.70688701401791
  C           2.44840961897854     -3.69947887704094     -0.83625594506919
  C          -1.63028599125726     -2.47648885595065     -1.25819215695070
  C          -4.30479762280028      0.06689796421296     -1.81717809443580
  O          -1.56104061583465      5.10047994639573     -0.45842170876328
  O           3.42586041852732      3.46058256770391     -0.77847463273391
  O           5.06720740818126     -1.25877016408043     -0.82160295197821
  O           1.62393425917087     -4.86246853215756     -0.91497143092155
  O          -2.68739738725142     -2.57678461155611     -2.19384890227690
  O          -4.87795306802864      1.37534518706228     -1.76437344346065
  C          -2.99758449566598      4.21030496370833     -2.11696614967352
  C           1.42842189592245      3.51272468072294     -2.02556827671312
  C           4.58429717721283      0.69004263127647     -2.03741127397622
  C           3.38661629959224     -3.78059322466818     -2.04448701645112
  C          -0.46793212715899     -1.75128711574498     -1.98899320966112
  C          -4.44119734704923     -0.32738436939737     -3.30022475507282
  O          -3.97393589836868      5.20350133839389     -1.96591992077249
  O           1.97976030213085      2.62766383792571     -2.86381846633735
  O           5.94404184917806      0.95542306759896     -2.24177089628233
  O           4.20287357970093     -4.91995505621255     -2.01184086272791
  O          -1.12046167826533     -0.63424344068488     -2.59375280577543
  O          -5.74398311794528     -0.69752388190934     -3.65497647969166
  H          -0.30236815758707      5.95933157238234      0.82308518134376
  H           5.20110832207049      3.26802005408697      0.10444254417893
  H           5.60129537489265     -2.97540202217023      0.04341694521288
  H           0.09973259612198     -5.87838920212599     -0.13524714788401
  H          -4.65021064880799     -2.94734998703951     -2.38459353982036
  H          -5.43488351506755      2.95062402947600     -0.69291537299002
  H          -2.50480114772843      5.60841502403658      1.92367304233380
  H           3.98910952403873      5.11124919946812      1.23916658672831
  H           6.77653326424974     -1.09786699451479      1.22427964997935
  H           1.98176662927528     -5.99525534159914      1.46092690923065
  H          -3.62849053713683     -5.07218006087524     -1.81532463960389
  H          -6.84517427278024      1.06162536849495      0.01366831622495
  H          -0.17644291638328      4.61524307410595      3.03734579586583
  H           4.61595617912194      2.85979620421862      2.79695970134677
  H           4.94987418115745     -2.58689896243944      2.76968301365881
  H          -0.30091298996133     -4.64457596369892      2.34328735061266
  H          -5.22349153576865     -4.02402768456406      0.25286158282483
  H          -5.11405681231234      2.04399538114567      2.01585899042926
  H          -1.81598165905233      2.64051593975499      1.69801884427413
  H           2.01577601458356      2.92176923625778      2.06625855421059
  H           3.93682001194608     -0.34800563767137      2.06605009391522
  H           1.58213507002639     -2.97343752072426      1.70797149143335
  H          -2.71819797454918     -3.83225423848303      0.82146535207728
  H          -4.25751570513482     -0.22255690001095      1.02518096428174
  H          -3.15208916722523      3.46264014530669      3.52210809957696
  H           2.44190240347963      4.88081937573104      3.45593403561259
  H           5.93157914809592      0.15372002495972      3.42736027258513
  H           2.45235085839650     -4.40923317292946      3.51843540013724
  H          -3.13229873802105     -6.18324722328891      0.56969745012439
  H          -6.39515371158536     -0.65673012108935      2.04301302315281
  H          -4.07760007897675      4.17247190431028      0.34490970132493
  H           1.58113630675188      5.27305469910054      0.15294977837026
  H           5.80458400671905      1.23618781194905      0.24990721321496
  H           3.98878934736187     -4.40885047929055      0.51530581610649
  H          -0.99687400069027     -4.47571798851819     -1.63470022391596
  H          -5.97741209373890     -1.20299210074580     -1.28951480393185
  H          -1.54419189402595      3.09965875700973     -0.97809000867436
  H           1.78445102728496      2.26276524084081     -0.36546087053044
  H           3.26779881679788     -0.24884732120765     -0.58640683530226
  H           1.82204034606918     -2.80430392112909     -0.93306085634339
  H          -1.93708068666980     -1.84177923501871     -0.41903710725654
  H          -3.23544075919868      0.10694799426229     -1.57471562801384
  H          -3.50794595569502      3.30530526480093     -2.45309352682375
  H          -2.24559432264290      4.49842932927960     -2.86007622865578
  H           4.17539314355153      0.06525245068665     -2.84119498238285
  H           4.06763436563520      1.65027566777475     -2.03886568077441
  H           4.04700851486017     -2.91263653734210     -2.04940269078286
  H           2.75465324098628     -3.75391849180283     -2.93991920276902
  H          -4.10262263635281      0.53492796066303     -3.88643128604609
  H          -3.78237352415714     -1.16836384376207     -3.51339429617655
  H          -3.52867983225741      6.03581852794526     -1.74481069295783
  H           6.41727932570999      0.10994715086956     -2.28343979349961
  H           3.63134797210844     -5.70168322918501     -2.05105747285423
  H          -6.31126606695730      0.08780425606281     -3.61146200425865
  C          -0.39629523131132     -0.00627096025700     -3.63590207091880
  H          -1.05618556727827      0.08709750605754     -4.50413939917401
  H           0.45344354009610     -0.66064071834033     -3.88658049575041
  O           0.29588332062919     -2.42372230751522     -2.74031911663543
  C           1.15184084335948      2.11671359514995     -3.90248695542524
  H           1.78013574592796      1.48807231559595     -4.52788239585454
  H           0.68681660379996      2.92781352430493     -4.47466482938403
  O           0.65281593799113      4.37663047942474     -2.34441122605238
  C           0.06701127752772      1.33862674708431     -3.14913515062126
  O           0.44455719399167     -1.22473618810544     -0.86570750690014
  O          -0.32922079628845      1.79286949692685     -2.10006544872120
  O           0.25594803202102      0.09665402169911     -0.36177804214409
  H           1.30215154358013     -2.39700785049583      5.16501799525458
  H          -2.23662291294288      0.79319353624848      0.20251837636316
  H          -0.84956487417468     -3.03448486944163      4.14019400927913
  H           2.66147109002705     -0.60599983456912      4.15624222094854
  O          -1.83946308744930      0.07432514967580      0.72453352759536
  C          -0.47140952104736      0.25060811910727      0.85901599354426
  C           0.04331164455206     -0.56219185269600      2.02214857028426
  H          -0.22559410555521      1.31841427804470      1.01830864999413
  C           1.26436736765544     -0.21898808154026      2.58900631578145
  C          -0.71020644358242     -1.58695767861291      2.57582805229055
  C           1.71875105653678     -0.88430647569482      3.71351469932871
  H           1.84330411504032      0.57288051530343      2.13310705585480
  C          -0.25332111821550     -2.24825729615921      3.70458879058532
  H          -1.65474361199329     -1.84256183160481      2.12037850397637
  C           0.95494574818897     -1.89218479472015      4.27851692293777
