147
Coordinates from ORCA-job job E -278.531784492460
  C          -0.71663626124366      4.82842975504796      0.66115201200291
  C           4.33925112335581      3.25328326342893      0.51151018743185
  C           5.02143339254484     -1.92573777679053      0.52915567063486
  C           0.69288386137968     -4.80300460861762     -0.34135177938294
  C          -4.20026112510941     -3.06380256133007     -1.34811476206551
  C          -5.07494765863146      1.92959585260765     -0.15077220776634
  O           0.23054861560048      3.78854707701990      0.56652417714224
  O           4.16183385559076      2.02678724719871      1.14669975965218
  O           3.64888431772320     -2.13165979907925      0.73172473117839
  O          -0.26485328761865     -3.77792517390781     -0.30079451380095
  O          -4.24053685257795     -2.08050275896675     -0.36251033792935
  O          -3.74603561319037      2.07050533377546      0.28210022239700
  C          -1.58372458464742      4.61987032717033      1.91532602387337
  C           3.84665329899662      4.35236442102821      1.47258235311877
  C           5.59537848379791     -1.33556843973529      1.82742646273111
  C           1.27684202264781     -4.97444290318243      1.06962002262565
  C          -3.95369189964971     -4.41131221792467     -0.63782375523981
  C          -5.80781205397269      1.04518601014046      0.87244805424427
  O          -0.83388914188646      4.50798522827425      3.09475469196819
  O           4.51217676717113      4.32388910583685      2.70031177885993
  O           5.40034265088172     -2.18464636822958      2.92342634845457
  O           0.29554212562625     -5.22882139854997      2.03878031288433
  O          -4.94027689096497     -4.69018655921038      0.31188108946473
  O          -5.82012432063462      1.60673930776619      2.15478113250009
  C          -2.41730512144940      3.34453918528846      1.74306294013662
  C           2.32668612191366      4.21320297054295      1.67524989601334
  C           4.92978736839476      0.02683331885033      2.06346746425693
  C           2.03814116703551     -3.69308123692727      1.42873346603811
  C          -2.56121432208835     -4.38483864153721      0.01459150743940
  C          -5.12421626899328     -0.32949896396805      0.87394056737221
  O          -3.34884287067031      3.19274574886825      2.78314569600912
  O           1.82721284783146      5.28910010616902      2.43337345420739
  O           5.50303483918815      0.69189988496497      3.15962096634406
  O           2.69906588429066     -3.80982880928798      2.66288532531680
  O          -2.22731919547127     -5.63361381058004      0.57250396074875
  O          -5.79467988983677     -1.23005809778205      1.71649902179627
  C          -3.19370026527772      3.36612651915273      0.42196594894617
  C           1.57934692454456      4.16074714076296      0.33159925327106
  C           5.04614152840124      0.94989120036762      0.84204102276722
  C           3.08768675850652     -3.37748681240869      0.35893950174814
  C          -1.47638293733277     -3.99817259225776     -1.00320478768649
  C          -5.07907298914611     -0.94137789779464     -0.53251152817224
  C          -2.26586024563531      3.71962979238169     -0.75286828731933
  C           2.24663860826026      3.09333193096623     -0.54042876235071
  C           4.69185915156649      0.22491664946701     -0.47257022981166
  C           2.43874841066360     -3.34648225769417     -1.03425141041626
  C          -1.90434484455853     -2.70458639461163     -1.70233149761632
  C          -4.54824458514468      0.07082122770193     -1.56706429780613
  O          -1.52846714766113      4.90746837383902     -0.47508684109930
  O           3.62404494356338      3.36064183616733     -0.70698846441812
  O           5.29211934650934     -1.06716955648396     -0.54310824606508
  O           1.71614133615411     -4.55367773944687     -1.26279323430705
  O          -3.17769299425888     -2.84461847986436     -2.30448827177542
  O          -5.16276163660672      1.35345859021235     -1.42309284325947
  C          -3.05684120499100      3.99246171394619     -2.03714698741002
  C           1.65248366139938      2.95428263433900     -1.94275169179581
  C           5.25038648678570      0.94783569727630     -1.71037773856276
  C           3.47427195778190     -3.26959336354490     -2.16100584156577
  C          -0.93087367504915     -2.23861585576313     -2.77785878902071
  C          -4.85525317737283     -0.33297237156696     -3.01863938580479
  O          -3.93829612258447      5.07224269948822     -1.89878327922997
  O           2.14685742506918      1.86195241294573     -2.49915100253989
  O           6.63302076068814      1.15198444823602     -1.61863769419869
  O           4.34825913227926     -4.36518015849588     -2.15443695445216
  O          -1.36983557401408     -1.10915985610347     -3.31636977039739
  O          -6.21054402217078     -0.63115729824217     -3.21642499805440
  H          -0.20868271483178      5.80021648741425      0.71409385004402
  H           5.38946292942086      3.41175857408252      0.23196721006609
  H           5.52620533826530     -2.86610826582655      0.26881234817218
  H           0.23682793333681     -5.74338908047417     -0.68030054126923
  H          -5.13067279156722     -3.09061014239712     -1.93038590950383
  H          -5.56390428401866      2.90826180851781     -0.24715980953318
  H          -2.26982987067108      5.47917410189451      1.99174043757012
  H           4.05583859438284      5.32784799754253      1.02000715226117
  H           6.67710549475224     -1.20287153039604      1.72034722048408
  H           1.98882262931848     -5.81471601332708      1.04636798919029
  H          -3.99127114087665     -5.21442611122990     -1.38111618705455
  H          -6.85523340341546      0.93207650263806      0.57294521037926
  H           0.05628919632351      4.88947843528200      2.96690851550429
  H           4.60467415327717      3.40389091730137      2.99887236189148
  H           4.51046251313953     -2.57857538145028      2.88134569331636
  H          -0.56106148090125     -5.40455564017609      1.60800444145098
  H          -5.11272338482561     -3.89035734645153      0.83653135055992
  H          -4.95015232324436      1.99843980925771      2.35833193404522
  H          -1.73360535357686      2.48253743819052      1.71605881307922
  H           2.12448956910342      3.26211562153953      2.19302290825114
  H           3.85845294338596     -0.15201426877599      2.23974028426004
  H           1.32188022948630     -2.85950158352985      1.45149170883692
  H          -2.55876013371061     -3.61396582064203      0.79939142825173
  H          -4.08025589446990     -0.19386385690394      1.20045386171384
  H          -2.88157452337821      3.30143692222771      3.62769190332489
  H           2.47673875286318      5.48773757308364      3.13242487931620
  H           5.69068652418675      0.03233850410858      3.84853060480511
  H           2.09544337751840     -4.25510748254855      3.27946324399652
  H          -3.02426356297614     -5.99156365820094      1.00340751130467
  H          -6.01636738264579     -0.76198260643337      2.53891577250073
  H          -3.99481066767117      4.11564272691121      0.48660064416442
  H           1.62506848152943      5.12998838184549     -0.17991370572587
  H           6.07392853133489      1.33436723139129      0.77245104944691
  H           3.86679539936544     -4.15356380247316      0.37253554538543
  H          -1.34581891287282     -4.79017560335384     -1.75103211133321
  H          -6.08518940588822     -1.27325145398378     -0.82647215004645
  H          -1.57562958604584      2.88662235289382     -0.92986234700680
  H           2.10871498805543      2.11186358569344     -0.06422903582656
  H           3.59802330817649      0.13624177384344     -0.55249343851421
  H           1.76596232492149     -2.47982620915895     -1.10558839871447
  H          -1.92527661817292     -1.89643720839358     -0.95682635281161
  H          -3.46497042542479      0.16388986713892     -1.43185293502714
  H          -3.65897529706586      3.11340033193719     -2.27468924551916
  H          -2.33538428147046      4.16337073777201     -2.84477652613256
  H           4.99690374160475      0.33883920177890     -2.58601708134524
  H           4.78263585771527      1.92493770797336     -1.81833885063592
  H           4.08099477647457     -2.37219746061879     -2.03274915395920
  H           2.92360908947775     -3.20159325649926     -3.10638670813498
  H          -4.53586068536544      0.49668724988286     -3.66003020443909
  H          -4.28167177044035     -1.21998570938276     -3.28547671802112
  H          -3.41487953256550      5.86796500148898     -1.71755844033640
  H           7.07022427393461      0.28650664610631     -1.60755520752023
  H           3.82275375646105     -5.16732961284967     -2.29872329719958
  H          -6.72522835530305      0.17968150526866     -3.08511714820841
  C          -0.44552028399992     -0.34929600342761     -4.08968553477613
  H          -1.02368261198043      0.12691004780817     -4.88439044920839
  H           0.33432458719603     -1.00442699152631     -4.48222035825682
  O           0.05127616679051     -2.83789138790421     -3.13802531240722
  C           1.49669624812105      1.31354873649016     -3.63876378239269
  H           2.16566184769071      0.54761556109593     -4.02306557751157
  H           1.29372938497079      2.10021465623812     -4.37540404580142
  O           0.91906535244249      3.75150477025535     -2.47340421268714
  C           0.15628403599554      0.72856658799671     -3.19138766144194
  O           0.70881664462682     -0.56861443755024     -1.64146735958232
  O          -0.52609405905602      1.34426560319621     -2.35465168108106
  O           0.88422182799128      0.27968780754323     -0.53807619253634
  H           0.40176786182467     -2.40202287660192      4.88442375465756
  H          -1.37745650419525      0.52225380892689     -1.16618239678202
  H          -1.59852846791010     -2.79252507369122      3.49480457851742
  H           2.10001636077791     -0.76044655436375      4.16366119788486
  O          -1.44500903157567      0.10041161453057     -0.27731293659236
  C          -0.24880505137370      0.37125647051307      0.34800947766675
  C          -0.07372812130244     -0.45729822877762      1.59699655781119
  H          -0.18438532759503      1.44569324953893      0.62842730050789
  C           1.04952411740492     -0.23425124742528      2.38283060604195
  C          -1.02923954797936     -1.37528549797719      2.00396914372841
  C           1.22395634570110     -0.93761536509142      3.56054885826194
  H           1.77311200192653      0.49529042044435      2.04296501286616
  C          -0.85337518353872     -2.07741785738637      3.18522211417178
  H          -1.90677477963601     -1.51497410041517      1.39083731372862
  C           0.27051086656394     -1.85951685331251      3.96253038320342
