147
Coordinates from ORCA-job job E -278.537255351840
  C          -0.71307005237879      4.81451252451454      0.66817462997635
  C           4.34528134089307      3.25173176343759      0.52764624051195
  C           5.00457484985411     -1.92801977076554      0.52777427815792
  C           0.67176897227437     -4.80058128163060     -0.34838447924990
  C          -4.22746285060641     -3.08629385552091     -1.36122029722457
  C          -5.06693007996581      1.91349955391178     -0.14715681902757
  O           0.23790444915766      3.77981803924361      0.55927831145493
  O           4.16188977960338      2.02509086161202      1.16027566696799
  O           3.62850354665096     -2.12419875236906      0.71799781496233
  O          -0.28929547407995     -3.77792269793338     -0.32421915568117
  O          -4.25560559118776     -2.10091286003656     -0.37756202263472
  O          -3.73563698304314      2.04937797790504      0.28039930298360
  C          -1.57258840679798      4.59008104317525      1.92496986977650
  C           3.84819001302297      4.35149384374232      1.48549782348527
  C           5.57412412405079     -1.34761001270944      1.83232899796645
  C           1.24874430882248     -4.96002866001066      1.06718764584747
  C          -3.97687325172313     -4.43119952042767     -0.64715864033375
  C          -5.79929222927080      1.02784187255682      0.87560673927485
  O          -0.81611663590220      4.47085021442826      3.09902889591680
  O           4.50574660399792      4.32234514292753      2.71746996910315
  O           5.37228897171279     -2.20136781703290      2.92326433651729
  O           0.26197781346954     -5.20237490078665      2.03368857052142
  O          -4.95966064318872     -4.70830686940411      0.30690544881318
  O          -5.80418465252278      1.58351218333282      2.16046829228614
  C          -2.39854052929421      3.31117562668354      1.74495446091080
  C           2.32669386482276      4.21601041503273      1.67943375412513
  C           4.91022375497050      0.01491495392917      2.07139036681998
  C           2.01264088147628     -3.67886979392320      1.42251648452624
  C          -2.58236579410051     -4.39868206859981      0.00139682967609
  C          -5.12285449560385     -0.35019928328995      0.86845420531861
  O          -3.32208079306252      3.14223299914937      2.78947926921202
  O           1.82623398177568      5.29543228315464      2.43223364324626
  O           5.47267090471120      0.66894151434237      3.17988526038159
  O           2.67185187926196     -3.79347508111826      2.65790075166329
  O          -2.24462804558876     -5.64377965503059      0.56498070043057
  O          -5.79508499875240     -1.25116717775327      1.70911056123275
  C          -3.18396902181713      3.34424622779272      0.42962176268766
  C           1.58577320591828      4.16004441073288      0.33208217095248
  C           5.04399492261958      0.94563218179413      0.85749646135574
  C           3.06470370111266     -3.37081296587270      0.35298751222086
  C          -1.50123999261108     -4.01430860547101     -1.02114933867588
  C          -5.08600288457288     -0.95545925418190     -0.54111527065139
  C          -2.26729078184331      3.71404130886038     -0.74906260629051
  C           2.25924789685200      3.09404285996848     -0.53643975329895
  C           4.69852777810880      0.23061924643208     -0.46514667628480
  C           2.41729874972900     -3.34534695589593     -1.04108664178402
  C          -1.93672706826704     -2.72757216146992     -1.72838053266004
  C          -4.55033676947414      0.05873067125940     -1.57128514102675
  O          -1.53116826401816      4.90116672638217     -0.46322209963615
  O           3.63749496337092      3.36119741096681     -0.69547354016250
  O           5.28847549428834     -1.06624192096423     -0.53845072032982
  O           1.69884366611544     -4.55465114048762     -1.26706976730500
  O          -3.21085661368624     -2.87385124759324     -2.32596339198410
  O          -5.16127484965452      1.34238738489440     -1.42132409315128
  C          -3.07176487313235      4.00087725926478     -2.02179690232735
  C           1.67496451715661      2.95413529263311     -1.94347386663783
  C           5.27520406239641      0.95644316974452     -1.69306176966279
  C           3.45445584736988     -3.26525112220047     -2.16630899685894
  C          -0.96180081643459     -2.26127634434908     -2.80217452283366
  C          -4.85972946488787     -0.33797720807935     -3.02408158560599
  O          -3.95562670513477      5.07576748766311     -1.86133027101202
  O           2.16750287529908      1.85370328927821     -2.48747421808718
  O           6.65762368425467      1.15364519984428     -1.58412862713083
  O           4.33153598794827     -4.35807008089113     -2.15742598422242
  O          -1.38428833874448     -1.11778867165351     -3.32296575429889
  O          -6.21802071632216     -0.62111583899266     -3.22332177806797
  H          -0.20893314395216      5.78794561958735      0.72728283968363
  H           5.39738421572022      3.40911588512674      0.25470496578329
  H           5.50438035527100     -2.87062000300943      0.26637636666924
  H           0.22091881159287     -5.74516674698677     -0.68212476247491
  H          -5.16240186328024     -3.11230515389484     -1.93608178178173
  H          -5.55340876483084      2.89390707563959     -0.23813176386299
  H          -2.26362321365085      5.44452642195361      2.01177664446128
  H           4.06203538313745      5.32629612596943      1.03360690294051
  H           6.65674493840804     -1.21773240691841      1.73089768237570
  H           1.95882520668240     -5.80241202728134      1.05343257778691
  H          -4.01522940942339     -5.23711026168792     -1.38731322532203
  H          -6.84841484571675      0.92121516655646      0.57958411813650
  H           0.06307503372523      4.87898964087713      2.97672766434521
  H           4.59248591507170      3.40241702900653      3.01813263723165
  H           4.47822413875144     -2.58612321101900      2.88138470444352
  H          -0.58763193481774     -5.40415889765607      1.60002704716250
  H          -5.13137917076026     -3.90704840534760      0.82965171905455
  H          -4.93068784647651      1.96748353276147      2.36406339724382
  H          -1.70962433311509      2.45397475780399      1.70385439869415
  H           2.11943475490084      3.26754557837356      2.19978696361689
  H           3.83648799188804     -0.16220960828719      2.23342508237148
  H           1.29906558554921     -2.84298974531368      1.44244202239103
  H          -2.58084065493361     -3.62360213690661      0.78229070648356
  H          -4.07688663219687     -0.22207825866156      1.19183675506087
  H          -2.84983216512066      3.24443974534099      3.63216305536801
  H           2.47378473370696      5.49463457855814      3.13303034043403
  H           5.66167446561891      0.00029848574357      3.85966388948049
  H           2.06463441666818     -4.23016152743189      3.27700660279861
  H          -3.03909097711001     -5.99944392041918      1.00223961119821
  H          -6.01250671139173     -0.78539175438161      2.53399732117222
  H          -3.98618165555386      4.09139081783665      0.50847405403291
  H           1.62931492796865      5.12910966193288     -0.17994561860923
  H           6.07416903990504      1.32571111825158      0.80044462149722
  H           3.84119076754659     -4.14917696622232      0.37090892974937
  H          -1.36708699212113     -4.81162766961296     -1.76250753246908
  H          -6.09515162621082     -1.27802642356334     -0.83489950716294
  H          -1.57707330308695      2.88556641870968     -0.94635707949744
  H           2.11996211011201      2.11260564174208     -0.06054448450032
  H           3.60499406211407      0.15129969679333     -0.55632140646463
  H           1.74166287363855     -2.48185467438365     -1.11399419554694
  H          -1.96002133833682     -1.91555414453332     -0.98665404013268
  H          -3.46650796146748      0.14847795167632     -1.43654870366382
  H          -3.67251754962518      3.12247156873658     -2.26496211364360
  H          -2.35881177434798      4.18373448941842     -2.83425837338807
  H           5.02941813624599      0.35280109765434     -2.57463847725527
  H           4.81325562804142      1.93616272513116     -1.80257559656891
  H           4.05840033698267     -2.36600537957318     -2.03664135690770
  H           2.90599567126722     -3.19883824046948     -3.11319687039802
  H          -4.53051696374085      0.48960484092499     -3.66330141144780
  H          -4.29582972305260     -1.23052658908125     -3.29299702627665
  H          -3.43292402204785      5.87096401562019     -1.67571963037857
  H           7.09041547030577      0.28598607125242     -1.57180869555414
  H           3.80908851093236     -5.16203142821072     -2.30291081660053
  H          -6.72418050357996      0.19406996711038     -3.08596733007975
  C          -0.44424116889060     -0.35015782337880     -4.06708141606029
  H          -1.01018829371822      0.17206597093788     -4.83985215108465
  H           0.32248160929716     -1.00532850645977     -4.48411654771459
  O           0.01972584268667     -2.86278382368592     -3.16081067035980
  C           1.50935817982771      1.28638691228448     -3.61129482416503
  H           2.18216344673329      0.52673098425557     -4.00105740556986
  H           1.27578577414679      2.06175268202463     -4.34926799064931
  O           0.95799439290381      3.75770263021594     -2.48657756494741
  C           0.18632883790459      0.68150158717669     -3.12612631299323
  O           0.70404941148860     -0.51807325155425     -1.73543932586782
  O          -0.52010987885546      1.35445690348861     -2.32629515436489
  O           0.92271556602819      0.23568445260221     -0.58169954608346
  H           0.48608435959342     -2.24801162303994      4.91641379659620
  H          -1.36115415994487      0.50923288818071     -1.20080531286321
  H          -1.47825336013650     -2.76276349334996      3.51339414444649
  H           2.11823399138349     -0.55162995593870      4.17335153998608
  O          -1.41282610138821      0.05899405013905     -0.31720797112883
  C          -0.22667421262837      0.36981449201610      0.29907208003858
  C          -0.03179559092866     -0.41146440421419      1.57373391683193
  H          -0.17507563742982      1.45436986289134      0.53479753912953
  C           1.07121421023335     -0.11973523568828      2.36570564477146
  C          -0.95217250821620     -1.35933673987231      1.99388238810046
  C           1.25994123138139     -0.78440434761352      3.56354871426823
  H           1.76757475204546      0.63157613168332      2.01727891733516
  C          -0.76173387597867     -2.02265136420134      3.19521706461098
  H          -1.81364044489012     -1.55360689683069      1.37312549153465
  C           0.34236850014931     -1.73620259145063      3.97890536937808
