147
Coordinates from ORCA-job job E -278.556849634540
  C          -0.69963835060130      4.77415050030308      0.72433237097539
  C           4.36122034899251      3.25570922932133      0.52517145958772
  C           4.97777012514613     -1.93403104678046      0.54659186387642
  C           0.64002413390880     -4.80492488240625     -0.32805784900611
  C          -4.24991409399645     -3.11729315894275     -1.39955180910081
  C          -5.04791092289639      1.88379451759002     -0.11870527874267
  O           0.26143270496675      3.75577355448071      0.56477168144234
  O           4.16377482377020      2.03149087217814      1.15678591214721
  O           3.59895100782152     -2.12189750293882      0.72658974381961
  O          -0.32050001616904     -3.78091408717697     -0.35428739554293
  O          -4.25344607007727     -2.12672983485872     -0.42106903274731
  O          -3.71808162443474      2.00446234291749      0.31733567131733
  C          -1.52909743634601      4.49770753227288      1.99094763045625
  C           3.86967472527595      4.35832890708322      1.48291594248038
  C           5.54058301984812     -1.35002156644089      1.85270390032509
  C           1.19061105711500     -4.93128391319159      1.10207754488971
  C          -4.00434613269657     -4.45737127460598     -0.67476683059071
  C          -5.78622474107540      0.98285854112066      0.88718810899140
  O          -0.74299975326494      4.34405528188002      3.14036151452190
  O           4.53418291716388      4.33105571988175      2.71096912393507
  O           5.32725851672384     -2.19751439405538      2.94603561348314
  O           0.18338125587900     -5.12799829495671      2.05751841999819
  O          -4.98870681726962     -4.72521866253865      0.28020512616677
  O          -5.78370741075679      1.51439253288064      2.18227868107383
  C          -2.34213889693339      3.21544604965108      1.78346283531566
  C           2.34895121330499      4.22312104957500      1.68671408110918
  C           4.87931980250214      0.01583356232385      2.07982692606188
  C           1.96724033800884     -3.65394334135457      1.44368003078397
  C          -2.61121947197158     -4.41735871495276     -0.02319429975920
  C          -5.11930924320329     -0.39904943428249      0.85362368376166
  O          -3.23814360914958      2.99401624646996      2.84165289630055
  O           1.85252881271431      5.30425627364119      2.43993652697478
  O           5.42841806472023      0.67015245649354      3.19500026430658
  O           2.61300473956414     -3.75698472912302      2.68738194736553
  O          -2.27696983015693     -5.65534965683391      0.55806747753650
  O          -5.80086364039970     -1.31476853278997      1.67041380156821
  C          -3.16114478742470      3.29347149377559      0.49060077237697
  C           1.60284732539187      4.16171353139541      0.34259636027954
  C           5.03524840889709      0.94083893878107      0.86408316764805
  C           3.03377526768111     -3.37316204286686      0.38088720181499
  C          -1.52800440848954     -4.04731450875425     -1.04853175988270
  C          -5.07575167448123     -0.97428333052457     -0.56829035571216
  C          -2.27959388321653      3.70956894015670     -0.69933692020577
  C           2.27817861876564      3.10592102303904     -0.53607360495879
  C           4.68796004393560      0.22195905996396     -0.45597595425299
  C           2.39967928020913     -3.36985379843787     -1.01959178865648
  C          -1.96353239289372     -2.77864698412230     -1.78942008688017
  C          -4.52326430265049      0.05823912765969     -1.57053132543224
  O          -1.53931332277345      4.88827867371367     -0.38882844570759
  O           3.65494442447312      3.37150591275858     -0.70004552965578
  O           5.27172275785156     -1.07812239344259     -0.52214469090851
  O           1.68443478803523     -4.58225259840305     -1.23343335519064
  O          -3.24035850236933     -2.92716332269445     -2.37692900912112
  O          -5.14133556557812      1.33634089427147     -1.40360111702378
  C          -3.12209665451936      4.04407389550002     -1.93515278740908
  C           1.67398813233725      2.98086132518287     -1.93629480738243
  C           5.26716281999907      0.94037867125038     -1.68697199796810
  C           3.44619808956119     -3.30114015699660     -2.13721826489946
  C          -0.97579441260497     -2.34265995857608     -2.86353808535394
  C          -4.80733858119036     -0.31374273995916     -3.03379816775793
  O          -4.00839623830610      5.10431117074497     -1.70432992851765
  O           2.12669878930262      1.86270231056512     -2.47870573954898
  O           6.65050703105177      1.13206559810929     -1.57933987289759
  O           4.32565183023777     -4.39155297086869     -2.10648085090212
  O          -1.37515783945205     -1.20514742689846     -3.41601256960921
  O          -6.16726776656814     -0.56353059582914     -3.26512238335916
  H          -0.20526567287642      5.75106633465243      0.80426975957328
  H           5.41470155141087      3.40505975327349      0.25395405631101
  H           5.47534905429525     -2.87972956513313      0.29295811180779
  H           0.19496686029891     -5.75749275811037     -0.64579743336600
  H          -5.19097112052313     -3.13596756101239     -1.96439406811409
  H          -5.52965669941485      2.86800009443145     -0.19226790270085
  H          -2.22831693876881      5.34014438903485      2.12085065363199
  H           4.08143710136601      5.33184249678119      1.02740714680964
  H           6.62450014244254     -1.22553249286941      1.75891520267875
  H           1.88805072076963     -5.78466336120989      1.12103659652842
  H          -4.04201705410030     -5.26950255006710     -1.40803074276849
  H          -6.83648615772318      0.89029930401538      0.59096515365570
  H           0.09824661718232      4.82979890376448      3.03796736698939
  H           4.61624101400598      3.41193132009493      3.01595959232603
  H           4.42707372997378     -2.56844569630484      2.90688022731716
  H          -0.64447455200259     -5.39851132259255      1.61880608262724
  H          -5.16058379934054     -3.91962594884979      0.79640313745606
  H          -4.90213826941287      1.87435946564909      2.39441642651692
  H          -1.64444979979219      2.36926863589766      1.69072608759554
  H           2.14527790981909      3.27743614919082      2.21283420111476
  H           3.80257734487932     -0.15636471506294      2.22674678613757
  H           1.26331682746437     -2.80972552464057      1.44465251022806
  H          -2.61250208224489     -3.63157349635293      0.74721630853685
  H          -4.07446088145195     -0.28415245071924      1.18564289243111
  H          -2.74717492506942      3.06543971019889      3.67696158185751
  H           2.50824019356639      5.50847497908470      3.13172486676615
  H           5.61457678196294     -0.00006996566731      3.87401676349832
  H           1.99198644498578     -4.16759994993616      3.31037042549156
  H          -3.07496256290198     -6.00536746569333      0.99348754872558
  H          -6.01896573048670     -0.86700449296100      2.50512037405827
  H          -3.96144973938442      4.03666622259410      0.61718768967289
  H           1.63023314632545      5.13325023980535     -0.16596341841927
  H           6.07014812908419      1.30802299965612      0.81177004933341
  H           3.80506434305097     -4.15541964352976      0.42152648232209
  H          -1.38386779774328     -4.86124707223044     -1.76968387259476
  H          -6.08420163670175     -1.28284886044055     -0.87861033737701
  H          -1.59733156425631      2.89057111893127     -0.95691737571398
  H           2.14551765541381      2.12034991487739     -0.06586477159119
  H           3.59426793269217      0.14602242294304     -0.54655795230308
  H           1.72273695546929     -2.50984732420244     -1.10621104993243
  H          -1.97874710382802     -1.94599702957275     -1.06858918605014
  H          -3.44203523834858      0.14996778654819     -1.41781112514111
  H          -3.72053810262926      3.17060849044195     -2.19965531553311
  H          -2.43369543103742      4.26446201346780     -2.75896799228001
  H           5.01872314963887      0.33527953044109     -2.56706387668047
  H           4.80998907999228      1.92211721356539     -1.80047909273047
  H           4.04781505815810     -2.39931912632918     -2.01347865862547
  H           2.90663868626433     -3.24792150856542     -3.09017161068989
  H          -4.44344601519689      0.51245740598920     -3.65608517493489
  H          -4.25811469451456     -1.21584042319356     -3.30165428185844
  H          -3.48522567284997      5.89641126831175     -1.50678282436237
  H           7.07893752180103      0.26232422617153     -1.56018438976599
  H           3.80766121349406     -5.19901757088576     -2.24834790349591
  H          -6.65806988082889      0.25860963949881     -3.11375736993647
  C          -0.39075526119198     -0.42356070035684     -4.07897563238558
  H          -0.90422713386114      0.15411074634414     -4.84402701000486
  H           0.39129249522787     -1.06698520411842     -4.48412780313095
  O           0.02316887739471     -2.94539541913102     -3.17157471360853
  C           1.44386677822965      1.29708558871880     -3.58739861071445
  H           2.14283654018544      0.60776429632953     -4.05445757844195
  H           1.09564298200172      2.07854703160872     -4.26646195934254
  O           0.96417640966774      3.79744117485841     -2.46770776912534
  C           0.19965729917692      0.55766705275701     -3.02060900881701
  O           0.68065940852016     -0.44791848616143     -1.97309597879790
  O          -0.66622282596518      1.35603464032704     -2.44467441788797
  O           0.99237057696865      0.10125713285258     -0.71345102060325
  H           0.50706359397985     -1.92195714640703      4.93598227516362
  H          -1.31062954997641      0.55806452452391     -1.34138908932098
  H          -1.37831662366837     -2.61720504221693      3.49879051167480
  H           2.08057892309213     -0.19261780413362      4.14807840773107
  O          -1.35057083241421      0.04009174248895     -0.45103602948187
  C          -0.17314799932601      0.37719264997405      0.14913897778282
  C           0.02428379094263     -0.31057508477071      1.47375979446805
  H          -0.10308819533649      1.47543206542681      0.29166574710550
  C           1.08367698456296      0.08001644153307      2.28203745237508
  C          -0.86366413002183     -1.27878653172864      1.91854022573082
  C           1.25862265021780     -0.50427616293413      3.52352368408857
  H           1.75801904725355      0.84291448797826      1.91822394242193
  C          -0.68735289784757     -1.86066670914396      3.16331128979124
  H          -1.68939934739318     -1.55288021616292      1.27945785055601
  C           0.37304757596280     -1.47436010196353      3.96473171973277
