136
 xtb: 6.7.1 (edcfbbe)
C           -0.46667363596378        4.13118197614187        5.46167244688882
C            0.91997878638309        1.29373024167367        9.65623083198050
C           -0.63935425011707       -3.68359684502892        9.64057801527679
C           -1.62632599071012       -5.39150373517327        4.77156987443380
C           -0.93163531657822       -2.82338476193201        0.23815437353052
C           -1.09903557045603        2.36941949629014        0.54870695424577
O           -0.26832819562398        2.85308933955942        6.02004771457073
O           -0.09267647707904        0.34589225068517        9.51286746875565
O           -1.20112279490935       -3.47997953717543        8.37211280305092
O           -1.36822261404624       -4.16491916956010        4.13170806438756
O           -1.62732740805877       -1.66494743694185        0.58148524570328
O           -1.29047318736176        2.24516556296237        1.93361366423364
C           -1.92500680666815        4.23947979207802        4.99079091230650
C            0.22710722108683        2.66695209451216        9.74527259659273
C           -1.49759224580011       -2.89105488272372       10.64147122130172
C           -2.91157432947362       -5.25538050048717        5.60414336917848
C           -1.90300711128161       -4.00610483585090        0.41189558076654
C           -2.37939673388173        1.88279869181521       -0.15035626951448
O           -2.84494648174901        3.99092804963060        6.02074145544757
O           -0.65569290044616        2.74049883879783       10.82804319047341
O           -2.82798446061313       -3.33165725986702       10.64767298512330
O           -4.00751417123280       -4.83459730687746        4.83573133263871
O           -3.04921413466202       -3.86312532752109       -0.37657120374892
O           -3.49177853717926        2.65592969707783        0.20880485434819
C           -2.13932526180570        3.20677814014585        3.88095733306045
C           -0.51123836833738        2.92449082159993        8.42166879087797
C           -1.41044226291912       -1.40706039301114       10.26180884719785
C           -2.66308612486818       -4.22742817690387        6.71182285266057
C           -2.27068860447147       -4.13295510645641        1.89823368930839
C           -2.58497263836175        0.40804746946907        0.21520693680004
O           -3.40800015710449        3.31957219369147        3.28419951512432
O           -1.11301286474222        4.19985018568912        8.41308322996410
O           -2.03763288952155       -0.58715899564756       11.21588963823747
O           -3.74150036809424       -4.14512631819101        7.60946204529636
O           -3.08169898143085       -5.26511917522041        2.12150935088711
O           -3.65424353172386       -0.16025921656421       -0.49742653029915
C           -1.10069394139405        3.37706395376276        2.76472346057610
C            0.45826413049559        2.80837868539098        7.23467258413534
C            0.04149862571508       -0.92886860734005       10.12772421069901
C           -1.41589200791991       -4.59435660193345        7.52369793984933
C           -1.00366502382886       -4.23803409818589        2.76568658364256
C           -1.33752944128213       -0.43837326707637       -0.08085423360488
C            0.32992477990250        3.44344433957012        3.32922565552466
C            1.17691176717372        1.45378838087781        7.32336315447341
C            0.89987893445260       -1.90159636178216        9.29640621022292
C           -0.21451153989010       -4.86351421917000        6.60287785745432
C           -0.08352139311057       -3.05625205862990        2.42398191918052
C           -0.04426655644329        0.22933768529190        0.42767267501761
O            0.40689506624440        4.38222904608632        4.39950652697647
O            1.82084303583861        1.28346144366734        8.56961403496301
O            0.69248586831920       -3.25465783824451        9.69896998773088
O           -0.56065892215378       -5.79605773552958        5.58066939338544
O            0.21141466951227       -3.01960055264403        1.04186026918506
O            0.00517207695602        1.62706110817074        0.12572448032516
C            1.39827723122338        3.90528655544085        2.31209698764673
C            2.21313173857713        1.26403827419580        6.22597970040415
C            2.40784462754646       -1.66195644156621        9.47831990919723
C            0.97000223038308       -5.48834984216165        7.35069430750094
C            1.23561664269932       -3.05889172694756        3.18940908408513
C            1.22175352178295       -0.34894747994519       -0.22578517127510
O            2.15271764087883        2.87013155565299        1.75859863609874
O            2.97732987078560        0.21584664886200        6.45384940344149
O            2.78445639543569       -1.66457668671398       10.83002360314678
O            0.62336788171138       -6.69209709663070        7.98530124424807
O            2.13955435057470       -2.31359395327203        2.57945131786099
O            2.37900655911599        0.23489480201125        0.29075609874151
H           -0.25129703409509        4.91433862933663        6.19862432984799
H            1.53714465941151        1.10161876069767       10.54219436814699
H           -0.61612951036293       -4.74888776800657        9.90263307475148
H           -1.74438358085872       -6.19545088014428        4.03407881773878
H           -0.55837384950026       -2.78211293362283       -0.79246931901389
H           -0.88914793721743        3.40749842870228        0.26263757672391
H           -2.07721000769079        5.25072467513132        4.58042013578432
H            0.98317289211787        3.44345658212238        9.90053253605289
H           -1.11368935616201       -3.03809153354617       11.65563599295862
H           -3.12556978260616       -6.23259745077316        6.06585912872475
H           -1.40676349288418       -4.92511691485693        0.08256774169292
H           -2.26600603063980        1.98402037036697       -1.23458461927506
H           -2.44819553883521        4.23020838288000        6.87669341833341
H           -1.16944308363098        1.91671627256928       10.88120821278046
H           -3.13179768134412       -3.45921766670213        9.73146164632161
H           -3.88116525758002       -5.11104881847328        3.90896177669352
H           -3.37790151578764       -2.95158228647071       -0.30268621057217
H           -3.51636266776243        2.76923371979539        1.17653485389029
H           -2.00952737642041        2.20630728071796        4.32025704833966
H           -1.28405410909352        2.15071389500983        8.29618124422600
H           -1.88850960518952       -1.27918050197716        9.27750893019427
H           -2.48372299230030       -3.25085823008608        6.23676864226642
H           -2.80947872292190       -3.22490157837024        2.20894239298872
H           -2.77331434206026        0.34740786789079        1.29882928203624
H           -4.07206669293768        3.35035395937309        3.98995846380664
H           -1.43054069908260        4.37925720011173        9.31502278030199
H           -2.88575875664340       -0.99418692097927       11.45482005941622
H           -4.55742312961225       -4.05787647932261        7.09221739927865
H           -3.68900800657689       -5.34608548620596        1.36566061818848
H           -4.40274725765451        0.45633483824740       -0.46913600766372
H           -1.33179008995131        4.29888497779374        2.21465907508228
H            1.19804163297170        3.61724554072064        7.26487435591500
H            0.48296671017141       -0.81712248951196       11.12709796748459
H           -1.62561670546049       -5.49038028090434        8.12332959495610
H           -0.47812320106126       -5.17873817512491        2.56053931568510
H           -1.27300793076250       -0.60883876346847       -1.16404606474256
H            0.58395130778419        2.44464684139358        3.71350207054983
H            0.42525402436874        0.65914973597475        7.17241409431357
H            0.63481329814729       -1.78999741127802        8.23550234361106
H            0.10188449019241       -3.91854770837121        6.14334969266228
H           -0.60031487702737       -2.12995587692022        2.72926467321119
H           -0.00148555761777        0.09819408741445        1.52028987996287
H            2.09626488024185        4.52867234090939        2.87614562263264
H            0.93145962230723        4.51957953441636        1.53611603745781
H            2.93636090662556       -2.44369996053580        8.92160096486256
H            2.68255930871245       -0.68918590236761        9.07038521184584
H            1.30968085990700       -4.80742878422595        8.13184460301767
H            1.77670038186196       -5.64039366795000        6.62537016598992
H            1.24921506784033       -1.43147182789092       -0.08068187851807
H            1.21212597496840       -0.10526576229289       -1.28820855256986
H            1.63215798024078        2.36173149894151        1.11172867320849
H            2.64166933758135       -2.55367901549855       11.18687859983375
H            0.37290620111492       -7.33256345640687        7.30327190200924
H            2.37635040608219        0.09875669609774        1.26553258898433
C            3.24841220887510       -1.90911725587991        3.37947402335814
H            4.03918707769843       -1.60015918027375        2.69358462773353
H            3.56554537185537       -2.72289849615922        4.02741106917650
O            1.42988714090478       -3.66426827200151        4.21556332337474
C            3.73923171999115       -0.26649783767882        5.34391872814685
H            4.31181893282110       -1.10226365717284        5.71970222765106
H            4.40173278218335        0.52342340317217        4.95781669128698
O            2.31923371622578        1.99186029916983        5.26638904489266
C            2.71109513561895       -0.82304437173009        4.33454298487417
O            1.52197462115109       -0.74835626757538        4.56876178866736
H            4.36472922920884        2.25774060921647        1.54216315658323
H            2.56435992827400        1.36697241776519        3.47425628792426
H            4.43802284555273        0.94325494381710        0.75685699794088
O            4.77406905117065        1.37991188323117        1.54316037852250
H            3.69644572030774        0.77261242983952        2.58609663428991
O            2.83412325787024        0.61193785502758        2.98985910669850
