136
* (null), Energy   -1000.0000000
C    -0.466001    4.131328    5.461229    0.003196    0.001312   -0.001630
C     0.919810    1.293581    9.655531   -0.000388   -0.000726   -0.001528
C    -0.639321   -3.683432    9.640293   -0.000080    0.000564   -0.001074
C    -1.625973   -5.391123    4.771450    0.000926    0.001640   -0.000558
C    -0.931874   -2.823110    0.238880   -0.000440    0.000622    0.003736
C    -1.098726    2.369367    0.548544    0.001306    0.000468   -0.000358
O    -0.269329    2.852782    6.020821   -0.001428   -0.001156    0.001488
O    -0.093344    0.346166    9.513949   -0.002136    0.000818    0.003832
O    -1.202113   -3.480123    8.372307   -0.003870   -0.000348    0.000834
O    -1.369440   -4.164631    4.131413   -0.005244    0.000890   -0.000480
O    -1.628244   -1.665351    0.580815   -0.001940   -0.000914   -0.003234
O    -1.291368    2.245073    1.933823   -0.001604   -0.000100   -0.000326
C    -1.924758    4.239323    4.990788    0.001960    0.000058   -0.000510
C     0.226975    2.666832    9.745084   -0.000420   -0.000644   -0.000930
C    -1.497677   -2.891111   10.641394   -0.000490   -0.000014   -0.000326
C    -2.911457   -5.255228    5.604009    0.000068    0.000618   -0.000322
C    -1.902915   -4.006085    0.411946    0.000460   -0.000002    0.000830
C    -2.379222    1.882928   -0.150526    0.002144    0.000584   -0.001232
O    -2.845046    3.991394    6.020706    0.000304    0.001668   -0.000696
O    -0.655660    2.740480   10.827779   -0.000002    0.000062   -0.000894
O    -2.827827   -3.331632   10.647640    0.000158    0.000332   -0.000068
O    -4.007533   -4.834978    4.835742   -0.000522   -0.001392    0.000178
O    -3.048937   -3.863124   -0.376555    0.000954    0.000160    0.000218
O    -3.491618    2.656013    0.208731    0.001524   -0.000100   -0.000422
C    -2.138745    3.206818    3.880947    0.004042    0.000394   -0.001164
C    -0.510882    2.924340    8.421475    0.001242   -0.001258   -0.000894
C    -1.410408   -1.407115   10.261822   -0.000046   -0.000216   -0.000190
C    -2.662878   -4.227492    6.711758    0.000574    0.000026   -0.000266
C    -2.269992   -4.133040    1.898260    0.003106   -0.000014    0.000544
C    -2.584314    0.408088    0.215072    0.006902    0.000266   -0.001274
O    -3.407559    3.319682    3.284412    0.002764    0.000434   -0.000354
O    -1.112715    4.199414    8.412969    0.001414   -0.001534   -0.000742
O    -2.037470   -0.587396   11.215655    0.000452   -0.000596   -0.000746
O    -3.741188   -4.145227    7.609153    0.000682   -0.000130   -0.000920
O    -3.081270   -5.264817    2.121615    0.001500    0.001020    0.000812
O    -3.653649   -0.160147   -0.497413    0.004842    0.000346   -0.000030
C    -1.100038    3.376385    2.764887    0.004384   -0.001214   -0.001800
C     0.458341    2.806752    7.234136   -0.000606   -0.006622   -0.001996
C     0.041553   -0.929048   10.127381   -0.000016   -0.000724   -0.001474
C    -1.415604   -4.594205    7.523450    0.000878    0.000778   -0.001000
C    -1.002662   -4.236766    2.765934    0.004568    0.006246    0.002030
C    -1.336385   -0.438251   -0.080629    0.011312    0.000804   -0.000166
C     0.331179    3.441808    3.328916    0.007188   -0.006786   -0.002180
C     1.175602    1.451050    7.322676   -0.005242   -0.010366   -0.000626
C     0.900151   -1.901678    9.296304    0.000768   -0.000452   -0.000702
C    -0.214209   -4.863418    6.602778    0.000974    0.000536   -0.000472
C    -0.083362   -3.054027    2.424869    0.000290    0.011410    0.006464
C    -0.042933    0.229082    0.428401    0.012860    0.001584    0.005918
O     0.406472    4.381862    4.399007    0.000168   -0.001118   -0.000880
O     1.821116    1.284104    8.568488    0.000620    0.001792   -0.001492
O     0.692687   -3.254255    9.699303    0.000416    0.001230    0.001578
O    -0.560890   -5.796294    5.581308   -0.001362   -0.001272    0.002462
O     0.211890   -3.019731    1.043065    0.001738   -0.000368    0.005202
O     0.005292    1.626865    0.126370    0.003108    0.001582    0.003672
C     1.400134    3.902556    2.312213    0.019614   -0.012910    0.002632
C     2.210557    1.256670    6.221610   -0.005390   -0.020720   -0.006260
C     2.407782   -1.661923    9.478834   -0.000564   -0.000100    0.001502
C     0.969842   -5.488612    7.350766   -0.001184   -0.000736    0.000366
C     1.237179   -3.050687    3.194010    0.007476    0.032608    0.021112
C     1.226044   -0.346656   -0.221797    0.035556    0.021472    0.032006
O     2.158727    2.871206    1.755636    0.023038   -0.014102   -0.003334
O     2.978173    0.211512    6.446283   -0.000798   -0.013126   -0.024684
O     2.784386   -1.664606   10.829908   -0.000418   -0.000414   -0.000410
O     0.623402   -6.691966    7.985161   -0.000406    0.000204   -0.000366
O     2.143021   -2.315885    2.579869    0.009584   -0.017524   -0.008680
O     2.382098    0.236536    0.303565    0.042650   -0.002438    0.105746
H    -0.251012    4.914239    6.198664    0.004194   -0.000774    0.000408
H     1.537247    1.101379   10.541867    0.000750   -0.002850   -0.002422
H    -0.615912   -4.748900    9.902390    0.002258   -0.000078   -0.002568
H    -1.743988   -6.195395    4.033984    0.004330    0.000702   -0.000784
H    -0.558146   -2.782019   -0.792215    0.003592   -0.001234    0.003958
H    -0.889106    3.407558    0.262780    0.000542    0.001108    0.000460
H    -2.077368    5.250674    4.580493   -0.001088    0.000504    0.000762
H     0.983189    3.443303    9.900459    0.000896   -0.002310   -0.000792
H    -1.113676   -3.038145   11.655571    0.000018   -0.000350   -0.000636
H    -3.125477   -6.232572    6.065800    0.000596    0.000608   -0.000246
H    -1.406611   -4.925078    0.082687    0.001846    0.000218    0.002572
H    -2.266285    1.984041   -1.234676   -0.002284   -0.000168   -0.001822
H    -2.448027    4.229762    6.876716    0.002864   -0.006900   -0.000452
H    -1.169421    1.916694   10.881373    0.001358   -0.000490    0.002130
H    -3.131812   -3.459362    9.731497   -0.000420   -0.001034    0.000538
H    -3.880922   -5.110876    3.908858    0.003946    0.005582   -0.001482
H    -3.378010   -2.951659   -0.302610   -0.001468   -0.000730    0.003048
H    -3.516457    2.769186    1.176438   -0.000558   -0.003828   -0.000252
H    -2.009031    2.206264    4.320294    0.007186   -0.000296   -0.000854
H    -1.283789    2.150469    8.295973    0.003024   -0.003548   -0.001362
H    -1.888201   -1.279224    9.277326    0.003496   -0.000778   -0.002018
H    -2.483178   -3.250914    6.236764    0.006308   -0.000400    0.000070
H    -2.809027   -3.224862    2.209211    0.005554    0.000364    0.003938
H    -2.772842    0.347280    1.298893    0.011004   -0.003368    0.000006
H    -4.072011    3.350546    3.989957    0.003086    0.000180   -0.000700
H    -1.430427    4.379163    9.315109    0.001802   -0.000998   -0.000078
H    -2.885690   -0.994422   11.454948    0.000532   -0.001888    0.000724
H    -4.557427   -4.058153    7.092121    0.000010   -0.001820   -0.001346
H    -3.688753   -5.346069    1.365450    0.002150    0.002002   -0.001192
H    -4.402551    0.456444   -0.469266    0.006090    0.002432    0.000216
H    -1.331687    4.298711    2.214646    0.002352   -0.001242   -0.002122
H     1.198573    3.616306    7.264381    0.005724   -0.012908   -0.004088
H     0.483167   -0.817120   11.126933    0.002640   -0.001056   -0.001986
H    -1.625374   -5.490359    8.123352    0.002700    0.000454    0.000086
H    -0.477166   -5.178088    2.560920    0.014204    0.010154    0.005566
H    -1.272770   -0.609070   -1.164002    0.011348   -0.002980   -0.000340
H     0.584485    2.444112    3.713498   -0.006580   -0.008648    0.010710
H     0.425066    0.658212    7.172455   -0.000320   -0.014536    0.000304
H     0.635693   -1.789703    8.235219    0.011306    0.001392   -0.003638
H     0.102388   -3.918514    6.143417    0.007234   -0.000252    0.000048
H    -0.600245   -2.129378    2.729544    0.001422    0.011098    0.004690
H    -0.001296    0.097446    1.520621    0.002180   -0.009358    0.007014
H     2.095622    4.528325    2.877021    0.008752   -0.011344    0.009800
H     0.931155    4.518501    1.536253    0.018972   -0.017846    0.001728
H     2.936284   -2.443342    8.921195   -0.000598    0.003768   -0.005674
H     2.682285   -0.689386    9.069903   -0.002210   -0.003348   -0.006110
H     1.309685   -4.807199    8.131545   -0.000430    0.002672   -0.003314
H     1.776651   -5.639995    6.625282   -0.000862    0.005272   -0.000706
H     1.249638   -1.430905   -0.080027    0.011750    0.011264    0.005222
H     1.214194   -0.103687   -1.286934    0.074850    0.063016    0.033260
H     1.631962    2.359224    1.114551   -0.008502   -0.043072    0.048534
H     2.641691   -2.553770   11.186870   -0.001534   -0.001148   -0.000506
H     0.372949   -7.332612    7.303219   -0.003120    0.000748   -0.000794
H     2.376410    0.101610    1.270560    0.054672   -0.088172    0.132774
C     3.251307   -1.900774    3.375139    0.026176    0.017048   -0.049366
H     4.042460   -1.610149    2.690332    0.097934   -0.253202   -0.119884
H     3.557459   -2.712812    4.038480   -0.148410    0.103618    0.177594
O     1.429205   -3.668329    4.216144   -0.001038   -0.014006    0.001544
C     3.742446   -0.256598    5.331090    0.032556    0.071264   -0.053158
H     4.303320   -1.107206    5.711126   -0.170316   -0.121212   -0.129664
H     4.408078    0.526859    4.965118    0.192434    0.092842    0.225096
O     2.321160    1.996903    5.270832    0.004340    0.030026    0.024184
C     2.721707   -0.716691    4.237809    0.058374    0.474974   -0.427384
O     1.511538   -0.737679    4.562581   -0.022988    0.029652   -0.036652
H     4.363853    2.261644    1.549483   -0.181188    0.063534   -0.030792
H     2.564399    1.344827    3.474232   -0.273860   -0.361482    0.173550
H     4.430276    0.934440    0.762200   -0.040934    0.063010   -0.165288
O     4.690909    1.350201    1.598941   -0.071440    0.051552   -0.086190
H     3.790854    0.828615    2.480724    1.159600    0.589918   -0.848770
O     2.865519    0.521257    3.046277   -0.218270   -0.491094    0.412218
136
* Frequency(6) -441.1400
C    -0.465638    4.131477    5.461044    0.003196    0.001312   -0.001630
C     0.919766    1.293498    9.655357   -0.000388   -0.000726   -0.001528
C    -0.639330   -3.683368    9.640171   -0.000080    0.000564   -0.001074
C    -1.625868   -5.390937    4.771387    0.000926    0.001640   -0.000558
C    -0.931924   -2.823039    0.239305   -0.000440    0.000622    0.003736
C    -1.098578    2.369420    0.548503    0.001306    0.000468   -0.000358
O    -0.269491    2.852651    6.020990   -0.001428   -0.001156    0.001488
O    -0.093587    0.346259    9.514384   -0.002136    0.000818    0.003832
O    -1.202553   -3.480163    8.372402   -0.003870   -0.000348    0.000834
O    -1.370036   -4.164530    4.131358   -0.005244    0.000890   -0.000480
O    -1.628464   -1.665455    0.580447   -0.001940   -0.000914   -0.003234
O    -1.291550    2.245062    1.933786   -0.001604   -0.000100   -0.000326
C    -1.924535    4.239330    4.990730    0.001960    0.000058   -0.000510
C     0.226927    2.666759    9.744978   -0.000420   -0.000644   -0.000930
C    -1.497733   -2.891113   10.641357   -0.000490   -0.000014   -0.000326
C    -2.911449   -5.255158    5.603972    0.000068    0.000618   -0.000322
C    -1.902863   -4.006085    0.412040    0.000460   -0.000002    0.000830
C    -2.378978    1.882994   -0.150666    0.002144    0.000584   -0.001232
O    -2.845011    3.991584    6.020627    0.000304    0.001668   -0.000696
O    -0.655660    2.740487   10.827677   -0.000002    0.000062   -0.000894
O    -2.827809   -3.331594   10.647632    0.000158    0.000332   -0.000068
O    -4.007592   -4.835136    4.835762   -0.000522   -0.001392    0.000178
O    -3.048829   -3.863106   -0.376530    0.000954    0.000160    0.000218
O    -3.491445    2.656002    0.208683    0.001524   -0.000100   -0.000422
C    -2.138286    3.206863    3.880815    0.004042    0.000394   -0.001164
C    -0.510741    2.924197    8.421373    0.001242   -0.001258   -0.000894
C    -1.410413   -1.407140   10.261800   -0.000046   -0.000216   -0.000190
C    -2.662813   -4.227489    6.711728    0.000574    0.000026   -0.000266
C    -2.269639   -4.133042    1.898322    0.003106   -0.000014    0.000544
C    -2.583530    0.408118    0.214927    0.006902    0.000266   -0.001274
O    -3.407245    3.319731    3.284372    0.002764    0.000434   -0.000354
O    -1.112554    4.199240    8.412885    0.001414   -0.001534   -0.000742
O    -2.037419   -0.587464   11.215570    0.000452   -0.000596   -0.000746
O    -3.741110   -4.145242    7.609048    0.000682   -0.000130   -0.000920
O    -3.081100   -5.264701    2.121707    0.001500    0.001020    0.000812
O    -3.653099   -0.160108   -0.497416    0.004842    0.000346   -0.000030
C    -1.099540    3.376247    2.764682    0.004384   -0.001214   -0.001800
C     0.458272    2.805999    7.233909   -0.000606   -0.006622   -0.001996
C     0.041551   -0.929130   10.127213   -0.000016   -0.000724   -0.001474
C    -1.415504   -4.594117    7.523336    0.000878    0.000778   -0.001000
C    -1.002143   -4.236056    2.766165    0.004568    0.006246    0.002030
C    -1.335099   -0.438160   -0.080648    0.011312    0.000804   -0.000166
C     0.331996    3.441037    3.328668    0.007188   -0.006786   -0.002180
C     1.175006    1.449872    7.322605   -0.005242   -0.010366   -0.000626
C     0.900238   -1.901729    9.296224    0.000768   -0.000452   -0.000702
C    -0.214098   -4.863357    6.602724    0.000974    0.000536   -0.000472
C    -0.083329   -3.052730    2.425604    0.000290    0.011410    0.006464
C    -0.041472    0.229262    0.429074    0.012860    0.001584    0.005918
O     0.406491    4.381735    4.398907    0.000168   -0.001118   -0.000880
O     1.821186    1.284308    8.568318    0.000620    0.001792   -0.001492
O     0.692734   -3.254115    9.699482    0.000416    0.001230    0.001578
O    -0.561045   -5.796439    5.581588   -0.001362   -0.001272    0.002462
O     0.212088   -3.019773    1.043656    0.001738   -0.000368    0.005202
O     0.005645    1.627045    0.126787    0.003108    0.001582    0.003672
C     1.402363    3.901089    2.312512    0.019614   -0.012910    0.002632
C     2.209944    1.254315    6.220899   -0.005390   -0.020720   -0.006260
C     2.407718   -1.661934    9.479005   -0.000564   -0.000100    0.001502
C     0.969707   -5.488696    7.350808   -0.001184   -0.000736    0.000366
C     1.238029   -3.046981    3.196409    0.007476    0.032608    0.021112
C     1.230085   -0.344216   -0.218160    0.035556    0.021472    0.032006
O     2.161345    2.869603    1.755257    0.023038   -0.014102   -0.003334
O     2.978082    0.210020    6.443478   -0.000798   -0.013126   -0.024684
O     2.784338   -1.664653   10.829861   -0.000418   -0.000414   -0.000410
O     0.623356   -6.691943    7.985119   -0.000406    0.000204   -0.000366
O     2.144110   -2.317877    2.578883    0.009584   -0.017524   -0.008680
O     2.386945    0.236259    0.315582    0.042650   -0.002438    0.105746
H    -0.250535    4.914151    6.198710    0.004194   -0.000774    0.000408
H     1.537332    1.101055   10.541592    0.000750   -0.002850   -0.002422
H    -0.615655   -4.748909    9.902098    0.002258   -0.000078   -0.002568
H    -1.743496   -6.195315    4.033895    0.004330    0.000702   -0.000784
H    -0.557738   -2.782159   -0.791765    0.003592   -0.001234    0.003958
H    -0.889044    3.407684    0.262832    0.000542    0.001108    0.000460
H    -2.077492    5.250731    4.580580   -0.001088    0.000504    0.000762
H     0.983291    3.443040    9.900369    0.000896   -0.002310   -0.000792
H    -1.113674   -3.038185   11.655499    0.000018   -0.000350   -0.000636
H    -3.125409   -6.232503    6.065772    0.000596    0.000608   -0.000246
H    -1.406401   -4.925053    0.082979    0.001846    0.000218    0.002572
H    -2.266545    1.984022   -1.234883   -0.002284   -0.000168   -0.001822
H    -2.447702    4.228978    6.876665    0.002864   -0.006900   -0.000452
H    -1.169267    1.916638   10.881615    0.001358   -0.000490    0.002130
H    -3.131860   -3.459480    9.731558   -0.000420   -0.001034    0.000538
H    -3.880474   -5.110242    3.908690    0.003946    0.005582   -0.001482
H    -3.378177   -2.951742   -0.302264   -0.001468   -0.000730    0.003048
H    -3.516520    2.768751    1.176409   -0.000558   -0.003828   -0.000252
H    -2.008214    2.206230    4.320197    0.007186   -0.000296   -0.000854
H    -1.283445    2.150066    8.295818    0.003024   -0.003548   -0.001362
H    -1.887804   -1.279312    9.277097    0.003496   -0.000778   -0.002018
H    -2.482461   -3.250959    6.236772    0.006308   -0.000400    0.000070
H    -2.808396   -3.224821    2.209659    0.005554    0.000364    0.003938
H    -2.771591    0.346897    1.298894    0.011004   -0.003368    0.000006
H    -4.071660    3.350566    3.989877    0.003086    0.000180   -0.000700
H    -1.430222    4.379050    9.315100    0.001802   -0.000998   -0.000078
H    -2.885630   -0.994637   11.455030    0.000532   -0.001888    0.000724
H    -4.557426   -4.058360    7.091968    0.000010   -0.001820   -0.001346
H    -3.688509   -5.345841    1.365315    0.002150    0.002002   -0.001192
H    -4.401859    0.456720   -0.469241    0.006090    0.002432    0.000216
H    -1.331420    4.298570    2.214405    0.002352   -0.001242   -0.002122
H     1.199224    3.614839    7.263916    0.005724   -0.012908   -0.004088
H     0.483467   -0.817240   11.126707    0.002640   -0.001056   -0.001986
H    -1.625067   -5.490307    8.123362    0.002700    0.000454    0.000086
H    -0.475552   -5.176934    2.561553    0.014204    0.010154    0.005566
H    -1.271480   -0.609409   -1.164041    0.011348   -0.002980   -0.000340
H     0.583737    2.443129    3.714715   -0.006580   -0.008648    0.010710
H     0.425030    0.656560    7.172490   -0.000320   -0.014536    0.000304
H     0.636978   -1.789545    8.234806    0.011306    0.001392   -0.003638
H     0.103210   -3.918543    6.143422    0.007234   -0.000252    0.000048
H    -0.600083   -2.128117    2.730077    0.001422    0.011098    0.004690
H    -0.001048    0.096383    1.521418    0.002180   -0.009358    0.007014
H     2.096617    4.527036    2.878135    0.008752   -0.011344    0.009800
H     0.933311    4.516473    1.536449    0.018972   -0.017846    0.001728
H     2.936216   -2.442914    8.920550   -0.000598    0.003768   -0.005674
H     2.682034   -0.689766    9.069209   -0.002210   -0.003348   -0.006110
H     1.309636   -4.806895    8.131168   -0.000430    0.002672   -0.003314
H     1.776553   -5.639396    6.625202   -0.000862    0.005272   -0.000706
H     1.250973   -1.429625   -0.079434    0.011750    0.011264    0.005222
H     1.222700   -0.096526   -1.283154    0.074850    0.063016    0.033260
H     1.630996    2.354329    1.120067   -0.008502   -0.043072    0.048534
H     2.641517   -2.553900   11.186812   -0.001534   -0.001148   -0.000506
H     0.372594   -7.332527    7.303129   -0.003120    0.000748   -0.000794
H     2.382623    0.091590    1.285649    0.054672   -0.088172    0.132774
C     3.254282   -1.898837    3.369529    0.026176    0.017048   -0.049366
H     4.053590   -1.638924    2.676708    0.097934   -0.253202   -0.119884
H     3.540593   -2.701036    4.058663   -0.148410    0.103618    0.177594
O     1.429087   -3.669921    4.216319   -0.001038   -0.014006    0.001544
C     3.746146   -0.248499    5.325049    0.032556    0.071264   -0.053158
H     4.283964   -1.120981    5.696390   -0.170316   -0.121212   -0.129664
H     4.429947    0.537410    4.990699    0.192434    0.092842    0.225096
O     2.321653    2.000315    5.273580    0.004340    0.030026    0.024184
C     2.728341   -0.662713    4.189239    0.058374    0.474974   -0.427384
O     1.508926   -0.734309    4.558416   -0.022988    0.029652   -0.036652
H     4.343262    2.268864    1.545984   -0.181188    0.063534   -0.030792
H     2.533276    1.303746    3.493955   -0.273860   -0.361482    0.173550
H     4.425624    0.941601    0.743416   -0.040934    0.063010   -0.165288
O     4.682790    1.356060    1.589146   -0.071440    0.051552   -0.086190
H     3.922637    0.895656    2.384266    1.159600    0.589918   -0.848770
O     2.840714    0.465447    3.093123   -0.218270   -0.491094    0.412218
136
* Frequency(6) -441.1400
C    -0.465314    4.131610    5.460879    0.003196    0.001312   -0.001630
C     0.919727    1.293425    9.655203   -0.000388   -0.000726   -0.001528
C    -0.639338   -3.683311    9.640062   -0.000080    0.000564   -0.001074
C    -1.625774   -5.390770    4.771330    0.000926    0.001640   -0.000558
C    -0.931969   -2.822976    0.239683   -0.000440    0.000622    0.003736
C    -1.098445    2.369468    0.548467    0.001306    0.000468   -0.000358
O    -0.269636    2.852533    6.021141   -0.001428   -0.001156    0.001488
O    -0.093803    0.346342    9.514773   -0.002136    0.000818    0.003832
O    -1.202945   -3.480198    8.372486   -0.003870   -0.000348    0.000834
O    -1.370567   -4.164440    4.131310   -0.005244    0.000890   -0.000480
O    -1.628661   -1.665547    0.580120   -0.001940   -0.000914   -0.003234
O    -1.291713    2.245052    1.933753   -0.001604   -0.000100   -0.000326
C    -1.924337    4.239335    4.990678    0.001960    0.000058   -0.000510
C     0.226885    2.666694    9.744884   -0.000420   -0.000644   -0.000930
C    -1.497782   -2.891114   10.641324   -0.000490   -0.000014   -0.000326
C    -2.911442   -5.255095    5.603940    0.000068    0.000618   -0.000322
C    -1.902816   -4.006085    0.412124    0.000460   -0.000002    0.000830
C    -2.378761    1.883054   -0.150791    0.002144    0.000584   -0.001232
O    -2.844981    3.991753    6.020556    0.000304    0.001668   -0.000696
O    -0.655660    2.740493   10.827587   -0.000002    0.000062   -0.000894
O    -2.827793   -3.331561   10.647625    0.000158    0.000332   -0.000068
O    -4.007645   -4.835277    4.835780   -0.000522   -0.001392    0.000178
O    -3.048732   -3.863090   -0.376508    0.000954    0.000160    0.000218
O    -3.491290    2.655992    0.208640    0.001524   -0.000100   -0.000422
C    -2.137876    3.206903    3.880697    0.004042    0.000394   -0.001164
C    -0.510615    2.924070    8.421283    0.001242   -0.001258   -0.000894
C    -1.410418   -1.407161   10.261781   -0.000046   -0.000216   -0.000190
C    -2.662755   -4.227486    6.711701    0.000574    0.000026   -0.000266
C    -2.269324   -4.133043    1.898377    0.003106   -0.000014    0.000544
C    -2.582830    0.408145    0.214798    0.006902    0.000266   -0.001274
O    -3.406965    3.319775    3.284336    0.002764    0.000434   -0.000354
O    -1.112411    4.199084    8.412809    0.001414   -0.001534   -0.000742
O    -2.037373   -0.587524   11.215495    0.000452   -0.000596   -0.000746
O    -3.741041   -4.145255    7.608955    0.000682   -0.000130   -0.000920
O    -3.080948   -5.264598    2.121790    0.001500    0.001020    0.000812
O    -3.652608   -0.160073   -0.497419    0.004842    0.000346   -0.000030
C    -1.099096    3.376124    2.764500    0.004384   -0.001214   -0.001800
C     0.458211    2.805328    7.233707   -0.000606   -0.006622   -0.001996
C     0.041550   -0.929204   10.127064   -0.000016   -0.000724   -0.001474
C    -1.415415   -4.594038    7.523235    0.000878    0.000778   -0.001000
C    -1.001680   -4.235423    2.766370    0.004568    0.006246    0.002030
C    -1.333953   -0.438078   -0.080665    0.011312    0.000804   -0.000166
C     0.332724    3.440349    3.328447    0.007188   -0.006786   -0.002180
C     1.174475    1.448822    7.322541   -0.005242   -0.010366   -0.000626
C     0.900316   -1.901775    9.296153    0.000768   -0.000452   -0.000702
C    -0.214000   -4.863303    6.602677    0.000974    0.000536   -0.000472
C    -0.083300   -3.051574    2.426259    0.000290    0.011410    0.006464
C    -0.040168    0.229423    0.429673    0.012860    0.001584    0.005918
O     0.406508    4.381622    4.398818    0.000168   -0.001118   -0.000880
O     1.821249    1.284489    8.568167    0.000620    0.001792   -0.001492
O     0.692776   -3.253991    9.699642    0.000416    0.001230    0.001578
O    -0.561183   -5.796567    5.581837   -0.001362   -0.001272    0.002462
O     0.212264   -3.019810    1.044183    0.001738   -0.000368    0.005202
O     0.005960    1.627205    0.127159    0.003108    0.001582    0.003672
C     1.404351    3.899781    2.312779    0.019614   -0.012910    0.002632
C     2.209398    1.252216    6.220264   -0.005390   -0.020720   -0.006260
C     2.407661   -1.661944    9.479157   -0.000564   -0.000100    0.001502
C     0.969587   -5.488770    7.350845   -0.001184   -0.000736    0.000366
C     1.238786   -3.043677    3.198549    0.007476    0.032608    0.021112
C     1.233688   -0.342040   -0.214917    0.035556    0.021472    0.032006
O     2.163680    2.868174    1.754919    0.023038   -0.014102   -0.003334
O     2.978001    0.208690    6.440977   -0.000798   -0.013126   -0.024684
O     2.784296   -1.664695   10.829820   -0.000418   -0.000414   -0.000410
O     0.623315   -6.691922    7.985082   -0.000406    0.000204   -0.000366
O     2.145081   -2.319652    2.578003    0.009584   -0.017524   -0.008680
O     2.391267    0.236012    0.326298    0.042650   -0.002438    0.105746
H    -0.250110    4.914073    6.198752    0.004194   -0.000774    0.000408
H     1.537408    1.100766   10.541346    0.000750   -0.002850   -0.002422
H    -0.615427   -4.748917    9.901838    0.002258   -0.000078   -0.002568
H    -1.743057   -6.195244    4.033815    0.004330    0.000702   -0.000784
H    -0.557374   -2.782284   -0.791364    0.003592   -0.001234    0.003958
H    -0.888989    3.407796    0.262879    0.000542    0.001108    0.000460
H    -2.077602    5.250782    4.580657   -0.001088    0.000504    0.000762
H     0.983382    3.442806    9.900289    0.000896   -0.002310   -0.000792
H    -1.113672   -3.038220   11.655434    0.000018   -0.000350   -0.000636
H    -3.125349   -6.232441    6.065747    0.000596    0.000608   -0.000246
H    -1.406214   -4.925031    0.083240    0.001846    0.000218    0.002572
H    -2.266776    1.984005   -1.235068   -0.002284   -0.000168   -0.001822
H    -2.447411    4.228279    6.876619    0.002864   -0.006900   -0.000452
H    -1.169129    1.916589   10.881831    0.001358   -0.000490    0.002130
H    -3.131902   -3.459584    9.731613   -0.000420   -0.001034    0.000538
H    -3.880074   -5.109676    3.908539    0.003946    0.005582   -0.001482
H    -3.378326   -2.951816   -0.301955   -0.001468   -0.000730    0.003048
H    -3.516577    2.768363    1.176384   -0.000558   -0.003828   -0.000252
H    -2.007486    2.206200    4.320110    0.007186   -0.000296   -0.000854
H    -1.283139    2.149706    8.295680    0.003024   -0.003548   -0.001362
H    -1.887449   -1.279391    9.276892    0.003496   -0.000778   -0.002018
H    -2.481822   -3.251000    6.236779    0.006308   -0.000400    0.000070
H    -2.807833   -3.224784    2.210058    0.005554    0.000364    0.003938
H    -2.770476    0.346556    1.298894    0.011004   -0.003368    0.000006
H    -4.071348    3.350585    3.989807    0.003086    0.000180   -0.000700
H    -1.430040    4.378948    9.315092    0.001802   -0.000998   -0.000078
H    -2.885576   -0.994828   11.455104    0.000532   -0.001888    0.000724
H    -4.557425   -4.058544    7.091832    0.000010   -0.001820   -0.001346
H    -3.688291   -5.345639    1.365194    0.002150    0.002002   -0.001192
H    -4.401242    0.456967   -0.469220    0.006090    0.002432    0.000216
H    -1.331181    4.298444    2.214190    0.002352   -0.001242   -0.002122
H     1.199804    3.613531    7.263502    0.005724   -0.012908   -0.004088
H     0.483735   -0.817347   11.126506    0.002640   -0.001056   -0.001986
H    -1.624794   -5.490261    8.123370    0.002700    0.000454    0.000086
H    -0.474113   -5.175905    2.562117    0.014204    0.010154    0.005566
H    -1.270330   -0.609711   -1.164075    0.011348   -0.002980   -0.000340
H     0.583070    2.442253    3.715800   -0.006580   -0.008648    0.010710
H     0.424997    0.655087    7.172520   -0.000320   -0.014536    0.000304
H     0.638124   -1.789404    8.234437    0.011306    0.001392   -0.003638
H     0.103943   -3.918568    6.143427    0.007234   -0.000252    0.000048
H    -0.599939   -2.126992    2.730552    0.001422    0.011098    0.004690
H    -0.000827    0.095434    1.522129    0.002180   -0.009358    0.007014
H     2.097503    4.525886    2.879128    0.008752   -0.011344    0.009800
H     0.935233    4.514665    1.536624    0.018972   -0.017846    0.001728
H     2.936155   -2.442532    8.919975   -0.000598    0.003768   -0.005674
H     2.681810   -0.690106    9.068590   -0.002210   -0.003348   -0.006110
H     1.309593   -4.806625    8.130833   -0.000430    0.002672   -0.003314
H     1.776466   -5.638862    6.625130   -0.000862    0.005272   -0.000706
H     1.252164   -1.428484   -0.078904    0.011750    0.011264    0.005222
H     1.230285   -0.090140   -1.279784    0.074850    0.063016    0.033260
H     1.630134    2.349965    1.124985   -0.008502   -0.043072    0.048534
H     2.641361   -2.554017   11.186761   -0.001534   -0.001148   -0.000506
H     0.372278   -7.332451    7.303048   -0.003120    0.000748   -0.000794
H     2.388163    0.082655    1.299103    0.054672   -0.088172    0.132774
C     3.256934   -1.897109    3.364527    0.026176    0.017048   -0.049366
H     4.063513   -1.664581    2.664560    0.097934   -0.253202   -0.119884
H     3.525555   -2.690537    4.076658   -0.148410    0.103618    0.177594
O     1.428982   -3.671340    4.216476   -0.001038   -0.014006    0.001544
C     3.749445   -0.241278    5.319662    0.032556    0.071264   -0.053158
H     4.266706   -1.133263    5.683252   -0.170316   -0.121212   -0.129664
H     4.449446    0.546818    5.013508    0.192434    0.092842    0.225096
O     2.322093    2.003358    5.276031    0.004340    0.030026    0.024184
C     2.734256   -0.614584    4.145932    0.058374    0.474974   -0.427384
O     1.506596   -0.731305    4.554702   -0.022988    0.029652   -0.036652
H     4.324902    2.275302    1.542864   -0.181188    0.063534   -0.030792
H     2.505526    1.267118    3.511541   -0.273860   -0.361482    0.173550
H     4.421476    0.947986    0.726667   -0.040934    0.063010   -0.165288
O     4.675551    1.361283    1.580412   -0.071440    0.051552   -0.086190
H     4.040138    0.955432    2.298260    1.159600    0.589918   -0.848770
O     2.818597    0.415684    3.134893   -0.218270   -0.491094    0.412218
136
* Frequency(6) -441.1400
C    -0.465065    4.131712    5.460751    0.003196    0.001312   -0.001630
C     0.919696    1.293368    9.655083   -0.000388   -0.000726   -0.001528
C    -0.639344   -3.683267    9.639978   -0.000080    0.000564   -0.001074
C    -1.625702   -5.390642    4.771287    0.000926    0.001640   -0.000558
C    -0.932003   -2.822928    0.239975   -0.000440    0.000622    0.003736
C    -1.098343    2.369504    0.548439    0.001306    0.000468   -0.000358
O    -0.269747    2.852443    6.021257   -0.001428   -0.001156    0.001488
O    -0.093970    0.346406    9.515072   -0.002136    0.000818    0.003832
O    -1.203247   -3.480225    8.372551   -0.003870   -0.000348    0.000834
O    -1.370977   -4.164370    4.131272   -0.005244    0.000890   -0.000480
O    -1.628812   -1.665619    0.579867   -0.001940   -0.000914   -0.003234
O    -1.291838    2.245044    1.933727   -0.001604   -0.000100   -0.000326
C    -1.924184    4.239340    4.990639    0.001960    0.000058   -0.000510
C     0.226852    2.666643    9.744812   -0.000420   -0.000644   -0.000930
C    -1.497821   -2.891115   10.641298   -0.000490   -0.000014   -0.000326
C    -2.911437   -5.255047    5.603915    0.000068    0.000618   -0.000322
C    -1.902780   -4.006086    0.412189    0.000460   -0.000002    0.000830
C    -2.378594    1.883099   -0.150887    0.002144    0.000584   -0.001232
O    -2.844957    3.991883    6.020502    0.000304    0.001668   -0.000696
O    -0.655661    2.740498   10.827517   -0.000002    0.000062   -0.000894
O    -2.827781   -3.331535   10.647620    0.000158    0.000332   -0.000068
O    -4.007686   -4.835386    4.835794   -0.000522   -0.001392    0.000178
O    -3.048657   -3.863077   -0.376491    0.000954    0.000160    0.000218
O    -3.491171    2.655984    0.208607    0.001524   -0.000100   -0.000422
C    -2.137561    3.206933    3.880606    0.004042    0.000394   -0.001164
C    -0.510518    2.923971    8.421213    0.001242   -0.001258   -0.000894
C    -1.410421   -1.407178   10.261766   -0.000046   -0.000216   -0.000190
C    -2.662710   -4.227484    6.711680    0.000574    0.000026   -0.000266
C    -2.269082   -4.133044    1.898419    0.003106   -0.000014    0.000544
C    -2.582292    0.408166    0.214699    0.006902    0.000266   -0.001274
O    -3.406749    3.319809    3.284308    0.002764    0.000434   -0.000354
O    -1.112301    4.198965    8.412752    0.001414   -0.001534   -0.000742
O    -2.037338   -0.587571   11.215436    0.000452   -0.000596   -0.000746
O    -3.740988   -4.145265    7.608883    0.000682   -0.000130   -0.000920
O    -3.080830   -5.264518    2.121853    0.001500    0.001020    0.000812
O    -3.652230   -0.160046   -0.497422    0.004842    0.000346   -0.000030
C    -1.098753    3.376029    2.764360    0.004384   -0.001214   -0.001800
C     0.458163    2.804812    7.233551   -0.000606   -0.006622   -0.001996
C     0.041548   -0.929260   10.126949   -0.000016   -0.000724   -0.001474
C    -1.415347   -4.593977    7.523157    0.000878    0.000778   -0.001000
C    -1.001324   -4.234936    2.766529    0.004568    0.006246    0.002030
C    -1.333070   -0.438015   -0.080678    0.011312    0.000804   -0.000166
C     0.333285    3.439820    3.328277    0.007188   -0.006786   -0.002180
C     1.174066    1.448013    7.322493   -0.005242   -0.010366   -0.000626
C     0.900376   -1.901810    9.296098    0.000768   -0.000452   -0.000702
C    -0.213924   -4.863261    6.602640    0.000974    0.000536   -0.000472
C    -0.083277   -3.050684    2.426763    0.000290    0.011410    0.006464
C    -0.039165    0.229546    0.430135    0.012860    0.001584    0.005918
O     0.406521    4.381534    4.398749    0.000168   -0.001118   -0.000880
O     1.821298    1.284629    8.568051    0.000620    0.001792   -0.001492
O     0.692809   -3.253895    9.699765    0.000416    0.001230    0.001578
O    -0.561289   -5.796667    5.582029   -0.001362   -0.001272    0.002462
O     0.212399   -3.019839    1.044589    0.001738   -0.000368    0.005202
O     0.006203    1.627329    0.127446    0.003108    0.001582    0.003672
C     1.405881    3.898773    2.312984    0.019614   -0.012910    0.002632
C     2.208978    1.250599    6.219776   -0.005390   -0.020720   -0.006260
C     2.407617   -1.661952    9.479274   -0.000564   -0.000100    0.001502
C     0.969495   -5.488828    7.350873   -0.001184   -0.000736    0.000366
C     1.239370   -3.041133    3.200196    0.007476    0.032608    0.021112
C     1.236462   -0.340365   -0.212419    0.035556    0.021472    0.032006
O     2.165477    2.867074    1.754659    0.023038   -0.014102   -0.003334
O     2.977939    0.207666    6.439050   -0.000798   -0.013126   -0.024684
O     2.784264   -1.664727   10.829788   -0.000418   -0.000414   -0.000410
O     0.623283   -6.691906    7.985054   -0.000406    0.000204   -0.000366
O     2.145829   -2.321020    2.577326    0.009584   -0.017524   -0.008680
O     2.394595    0.235822    0.334549    0.042650   -0.002438    0.105746
H    -0.249783    4.914012    6.198784    0.004194   -0.000774    0.000408
H     1.537467    1.100544   10.541157    0.000750   -0.002850   -0.002422
H    -0.615250   -4.748923    9.901638    0.002258   -0.000078   -0.002568
H    -1.742719   -6.195189    4.033754    0.004330    0.000702   -0.000784
H    -0.557094   -2.782381   -0.791055    0.003592   -0.001234    0.003958
H    -0.888947    3.407883    0.262915    0.000542    0.001108    0.000460
H    -2.077687    5.250822    4.580716   -0.001088    0.000504    0.000762
H     0.983452    3.442626    9.900227    0.000896   -0.002310   -0.000792
H    -1.113671   -3.038248   11.655385    0.000018   -0.000350   -0.000636
H    -3.125302   -6.232394    6.065728    0.000596    0.000608   -0.000246
H    -1.406070   -4.925014    0.083441    0.001846    0.000218    0.002572
H    -2.266954    1.983992   -1.235210   -0.002284   -0.000168   -0.001822
H    -2.447188    4.227740    6.876584    0.002864   -0.006900   -0.000452
H    -1.169023    1.916550   10.881997    0.001358   -0.000490    0.002130
H    -3.131935   -3.459665    9.731655   -0.000420   -0.001034    0.000538
H    -3.879766   -5.109240    3.908424    0.003946    0.005582   -0.001482
H    -3.378440   -2.951873   -0.301717   -0.001468   -0.000730    0.003048
H    -3.516620    2.768064    1.176364   -0.000558   -0.003828   -0.000252
H    -2.006925    2.206177    4.320044    0.007186   -0.000296   -0.000854
H    -1.282903    2.149429    8.295574    0.003024   -0.003548   -0.001362
H    -1.887177   -1.279452    9.276735    0.003496   -0.000778   -0.002018
H    -2.481330   -3.251031    6.236785    0.006308   -0.000400    0.000070
H    -2.807400   -3.224755    2.210365    0.005554    0.000364    0.003938
H    -2.769618    0.346293    1.298895    0.011004   -0.003368    0.000006
H    -4.071107    3.350599    3.989752    0.003086    0.000180   -0.000700
H    -1.429899    4.378871    9.315086    0.001802   -0.000998   -0.000078
H    -2.885534   -0.994975   11.455160    0.000532   -0.001888    0.000724
H    -4.557424   -4.058686    7.091727    0.000010   -0.001820   -0.001346
H    -3.688123   -5.345482    1.365101    0.002150    0.002002   -0.001192
H    -4.400767    0.457157   -0.469203    0.006090    0.002432    0.000216
H    -1.330998    4.298347    2.214024    0.002352   -0.001242   -0.002122
H     1.200250    3.612524    7.263183    0.005724   -0.012908   -0.004088
H     0.483941   -0.817429   11.126351    0.002640   -0.001056   -0.001986
H    -1.624583   -5.490226    8.123377    0.002700    0.000454    0.000086
H    -0.473004   -5.175113    2.562551    0.014204    0.010154    0.005566
H    -1.269445   -0.609943   -1.164102    0.011348   -0.002980   -0.000340
H     0.582557    2.441578    3.716636   -0.006580   -0.008648    0.010710
H     0.424972    0.653953    7.172544   -0.000320   -0.014536    0.000304
H     0.639006   -1.789295    8.234153    0.011306    0.001392   -0.003638
H     0.104508   -3.918588    6.143431    0.007234   -0.000252    0.000048
H    -0.599828   -2.126126    2.730918    0.001422    0.011098    0.004690
H    -0.000657    0.094704    1.522676    0.002180   -0.009358    0.007014
H     2.098186    4.525001    2.879892    0.008752   -0.011344    0.009800
H     0.936714    4.513272    1.536759    0.018972   -0.017846    0.001728
H     2.936109   -2.442238    8.919532   -0.000598    0.003768   -0.005674
H     2.681637   -0.690367    9.068113   -0.002210   -0.003348   -0.006110
H     1.309559   -4.806416    8.130574   -0.000430    0.002672   -0.003314
H     1.776398   -5.638450    6.625075   -0.000862    0.005272   -0.000706
H     1.253081   -1.427605   -0.078497    0.011750    0.011264    0.005222
H     1.236126   -0.085223   -1.277189    0.074850    0.063016    0.033260
H     1.629471    2.346604    1.128772   -0.008502   -0.043072    0.048534
H     2.641242   -2.554106   11.186722   -0.001534   -0.001148   -0.000506
H     0.372035   -7.332393    7.302986   -0.003120    0.000748   -0.000794
H     2.392429    0.075775    1.309464    0.054672   -0.088172    0.132774
C     3.258977   -1.895779    3.360674    0.026176    0.017048   -0.049366
H     4.071155   -1.684339    2.655205    0.097934   -0.253202   -0.119884
H     3.513974   -2.682451    4.090517   -0.148410    0.103618    0.177594
O     1.428901   -3.672433    4.216596   -0.001038   -0.014006    0.001544
C     3.751985   -0.235717    5.315514    0.032556    0.071264   -0.053158
H     4.253416   -1.142722    5.673133   -0.170316   -0.121212   -0.129664
H     4.464463    0.554062    5.031073    0.192434    0.092842    0.225096
O     2.322432    2.005701    5.277918    0.004340    0.030026    0.024184
C     2.738811   -0.577520    4.112582    0.058374    0.474974   -0.427384
O     1.504802   -0.728991    4.551842   -0.022988    0.029652   -0.036652
H     4.310763    2.280260    1.540461   -0.181188    0.063534   -0.030792
H     2.484156    1.238910    3.525084   -0.273860   -0.361482    0.173550
H     4.418282    0.952902    0.713769   -0.040934    0.063010   -0.165288
O     4.669976    1.365306    1.573687   -0.071440    0.051552   -0.086190
H     4.130626    1.001466    2.232027    1.159600    0.589918   -0.848770
O     2.801564    0.377362    3.167060   -0.218270   -0.491094    0.412218
136
* Frequency(6) -441.1400
C    -0.464917    4.131773    5.460676    0.003196    0.001312   -0.001630
C     0.919678    1.293335    9.655013   -0.000388   -0.000726   -0.001528
C    -0.639348   -3.683241    9.639929   -0.000080    0.000564   -0.001074
C    -1.625659   -5.390567    4.771261    0.000926    0.001640   -0.000558
C    -0.932023   -2.822899    0.240148   -0.000440    0.000622    0.003736
C    -1.098283    2.369526    0.548423    0.001306    0.000468   -0.000358
O    -0.269814    2.852390    6.021326   -0.001428   -0.001156    0.001488
O    -0.094069    0.346444    9.515249   -0.002136    0.000818    0.003832
O    -1.203426   -3.480241    8.372590   -0.003870   -0.000348    0.000834
O    -1.371219   -4.164329    4.131250   -0.005244    0.000890   -0.000480
O    -1.628902   -1.665661    0.579718   -0.001940   -0.000914   -0.003234
O    -1.291912    2.245039    1.933712   -0.001604   -0.000100   -0.000326
C    -1.924093    4.239343    4.990615    0.001960    0.000058   -0.000510
C     0.226832    2.666613    9.744768   -0.000420   -0.000644   -0.000930
C    -1.497843   -2.891116   10.641283   -0.000490   -0.000014   -0.000326
C    -2.911434   -5.255018    5.603900    0.000068    0.000618   -0.000322
C    -1.902759   -4.006086    0.412228    0.000460   -0.000002    0.000830
C    -2.378495    1.883126   -0.150944    0.002144    0.000584   -0.001232
O    -2.844943    3.991960    6.020470    0.000304    0.001668   -0.000696
O    -0.655661    2.740501   10.827476   -0.000002    0.000062   -0.000894
O    -2.827773   -3.331519   10.647617    0.000158    0.000332   -0.000068
O    -4.007710   -4.835450    4.835802   -0.000522   -0.001392    0.000178
O    -3.048613   -3.863070   -0.376481    0.000954    0.000160    0.000218
O    -3.491101    2.655979    0.208588    0.001524   -0.000100   -0.000422
C    -2.137374    3.206952    3.880552    0.004042    0.000394   -0.001164
C    -0.510461    2.923913    8.421172    0.001242   -0.001258   -0.000894
C    -1.410424   -1.407188   10.261758   -0.000046   -0.000216   -0.000190
C    -2.662683   -4.227483    6.711668    0.000574    0.000026   -0.000266
C    -2.268938   -4.133045    1.898445    0.003106   -0.000014    0.000544
C    -2.581972    0.408178    0.214640    0.006902    0.000266   -0.001274
O    -3.406621    3.319829    3.284292    0.002764    0.000434   -0.000354
O    -1.112235    4.198894    8.412717    0.001414   -0.001534   -0.000742
O    -2.037317   -0.587598   11.215402    0.000452   -0.000596   -0.000746
O    -3.740957   -4.145271    7.608841    0.000682   -0.000130   -0.000920
O    -3.080761   -5.264471    2.121891    0.001500    0.001020    0.000812
O    -3.652006   -0.160030   -0.497423    0.004842    0.000346   -0.000030
C    -1.098551    3.375973    2.764276    0.004384   -0.001214   -0.001800
C     0.458135    2.804505    7.233459   -0.000606   -0.006622   -0.001996
C     0.041548   -0.929294   10.126881   -0.000016   -0.000724   -0.001474
C    -1.415306   -4.593941    7.523111    0.000878    0.000778   -0.001000
C    -1.001112   -4.234647    2.766623    0.004568    0.006246    0.002030
C    -1.332547   -0.437978   -0.080685    0.011312    0.000804   -0.000166
C     0.333618    3.439506    3.328176    0.007188   -0.006786   -0.002180
C     1.173823    1.447533    7.322464   -0.005242   -0.010366   -0.000626
C     0.900412   -1.901831    9.296066    0.000768   -0.000452   -0.000702
C    -0.213879   -4.863236    6.602618    0.000974    0.000536   -0.000472
C    -0.083264   -3.050156    2.427062    0.000290    0.011410    0.006464
C    -0.038570    0.229619    0.430409    0.012860    0.001584    0.005918
O     0.406529    4.381483    4.398708    0.000168   -0.001118   -0.000880
O     1.821326    1.284712    8.567982    0.000620    0.001792   -0.001492
O     0.692828   -3.253838    9.699838    0.000416    0.001230    0.001578
O    -0.561352   -5.796726    5.582143   -0.001362   -0.001272    0.002462
O     0.212480   -3.019856    1.044830    0.001738   -0.000368    0.005202
O     0.006347    1.627402    0.127616    0.003108    0.001582    0.003672
C     1.406789    3.898176    2.313106    0.019614   -0.012910    0.002632
C     2.208728    1.249640    6.219486   -0.005390   -0.020720   -0.006260
C     2.407591   -1.661957    9.479344   -0.000564   -0.000100    0.001502
C     0.969440   -5.488862    7.350890   -0.001184   -0.000736    0.000366
C     1.239716   -3.039623    3.201173    0.007476    0.032608    0.021112
C     1.238108   -0.339371   -0.210938    0.035556    0.021472    0.032006
O     2.166544    2.866421    1.754505    0.023038   -0.014102   -0.003334
O     2.977902    0.207058    6.437908   -0.000798   -0.013126   -0.024684
O     2.784244   -1.664746   10.829769   -0.000418   -0.000414   -0.000410
O     0.623264   -6.691897    7.985037   -0.000406    0.000204   -0.000366
O     2.146273   -2.321831    2.576924    0.009584   -0.017524   -0.008680
O     2.396569    0.235709    0.339444    0.042650   -0.002438    0.105746
H    -0.249589    4.913976    6.198802    0.004194   -0.000774    0.000408
H     1.537501    1.100412   10.541045    0.000750   -0.002850   -0.002422
H    -0.615146   -4.748926    9.901519    0.002258   -0.000078   -0.002568
H    -1.742519   -6.195157    4.033718    0.004330    0.000702   -0.000784
H    -0.556927   -2.782438   -0.790872    0.003592   -0.001234    0.003958
H    -0.888922    3.407934    0.262936    0.000542    0.001108    0.000460
H    -2.077737    5.250845    4.580752   -0.001088    0.000504    0.000762
H     0.983493    3.442519    9.900190    0.000896   -0.002310   -0.000792
H    -1.113670   -3.038264   11.655355    0.000018   -0.000350   -0.000636
H    -3.125275   -6.232366    6.065717    0.000596    0.000608   -0.000246
H    -1.405985   -4.925004    0.083560    0.001846    0.000218    0.002572
H    -2.267060    1.983984   -1.235294   -0.002284   -0.000168   -0.001822
H    -2.447055    4.227421    6.876563    0.002864   -0.006900   -0.000452
H    -1.168960    1.916528   10.882096    0.001358   -0.000490    0.002130
H    -3.131955   -3.459713    9.731680   -0.000420   -0.001034    0.000538
H    -3.879583   -5.108982    3.908355    0.003946    0.005582   -0.001482
H    -3.378508   -2.951907   -0.301576   -0.001468   -0.000730    0.003048
H    -3.516646    2.767887    1.176352   -0.000558   -0.003828   -0.000252
H    -2.006593    2.206164    4.320004    0.007186   -0.000296   -0.000854
H    -1.282763    2.149265    8.295511    0.003024   -0.003548   -0.001362
H    -1.887015   -1.279488    9.276641    0.003496   -0.000778   -0.002018
H    -2.481038   -3.251050    6.236788    0.006308   -0.000400    0.000070
H    -2.807143   -3.224738    2.210547    0.005554    0.000364    0.003938
H    -2.769108    0.346137    1.298895    0.011004   -0.003368    0.000006
H    -4.070964    3.350607    3.989719    0.003086    0.000180   -0.000700
H    -1.429816    4.378824    9.315083    0.001802   -0.000998   -0.000078
H    -2.885509   -0.995063   11.455194    0.000532   -0.001888    0.000724
H    -4.557424   -4.058771    7.091664    0.000010   -0.001820   -0.001346
H    -3.688024   -5.345390    1.365046    0.002150    0.002002   -0.001192
H    -4.400485    0.457269   -0.469193    0.006090    0.002432    0.000216
H    -1.330889    4.298290    2.213926    0.002352   -0.001242   -0.002122
H     1.200515    3.611926    7.262994    0.005724   -0.012908   -0.004088
H     0.484063   -0.817478   11.126259    0.002640   -0.001056   -0.001986
H    -1.624458   -5.490205    8.123381    0.002700    0.000454    0.000086
H    -0.472347   -5.174643    2.562808    0.014204    0.010154    0.005566
H    -1.268920   -0.610081   -1.164117    0.011348   -0.002980   -0.000340
H     0.582252    2.441178    3.717132   -0.006580   -0.008648    0.010710
H     0.424957    0.653280    7.172558   -0.000320   -0.014536    0.000304
H     0.639529   -1.789231    8.233985    0.011306    0.001392   -0.003638
H     0.104842   -3.918600    6.143433    0.007234   -0.000252    0.000048
H    -0.599763   -2.125613    2.731135    0.001422    0.011098    0.004690
H    -0.000556    0.094271    1.523001    0.002180   -0.009358    0.007014
H     2.098591    4.524476    2.880346    0.008752   -0.011344    0.009800
H     0.937592    4.512446    1.536839    0.018972   -0.017846    0.001728
H     2.936081   -2.442064    8.919270   -0.000598    0.003768   -0.005674
H     2.681535   -0.690522    9.067830   -0.002210   -0.003348   -0.006110
H     1.309539   -4.806292    8.130421   -0.000430    0.002672   -0.003314
H     1.776359   -5.638206    6.625042   -0.000862    0.005272   -0.000706
H     1.253625   -1.427083   -0.078255    0.011750    0.011264    0.005222
H     1.239590   -0.082306   -1.275649    0.074850    0.063016    0.033260
H     1.629077    2.344610    1.131018   -0.008502   -0.043072    0.048534
H     2.641171   -2.554160   11.186698   -0.001534   -0.001148   -0.000506
H     0.371890   -7.332358    7.302950   -0.003120    0.000748   -0.000794
H     2.394960    0.071694    1.315609    0.054672   -0.088172    0.132774
C     3.260188   -1.894990    3.358390    0.026176    0.017048   -0.049366
H     4.075688   -1.696058    2.649657    0.097934   -0.253202   -0.119884
H     3.507105   -2.677655    4.098736   -0.148410    0.103618    0.177594
O     1.428853   -3.673081    4.216668   -0.001038   -0.014006    0.001544
C     3.753492   -0.232419    5.313054    0.032556    0.071264   -0.053158
H     4.245533   -1.148332    5.667132   -0.170316   -0.121212   -0.129664
H     4.473369    0.558359    5.041491    0.192434    0.092842    0.225096
O     2.322633    2.007091    5.279037    0.004340    0.030026    0.024184
C     2.741513   -0.555537    4.092802    0.058374    0.474974   -0.427384
O     1.503738   -0.727618    4.550145   -0.022988    0.029652   -0.036652
H     4.302378    2.283200    1.539036   -0.181188    0.063534   -0.030792
H     2.471481    1.222180    3.533116   -0.273860   -0.361482    0.173550
H     4.416387    0.955819    0.706119   -0.040934    0.063010   -0.165288
O     4.666670    1.367692    1.569698   -0.071440    0.051552   -0.086190
H     4.184295    1.028768    2.192745    1.159600    0.589918   -0.848770
O     2.791462    0.354634    3.186138   -0.218270   -0.491094    0.412218
136
* Frequency(6) -441.1400
C    -0.464886    4.131786    5.460660    0.003196    0.001312   -0.001630
C     0.919675    1.293328    9.654998   -0.000388   -0.000726   -0.001528
C    -0.639349   -3.683235    9.639918   -0.000080    0.000564   -0.001074
C    -1.625650   -5.390551    4.771255    0.000926    0.001640   -0.000558
C    -0.932027   -2.822893    0.240183   -0.000440    0.000622    0.003736
C    -1.098270    2.369530    0.548419    0.001306    0.000468   -0.000358
O    -0.269827    2.852379    6.021340   -0.001428   -0.001156    0.001488
O    -0.094089    0.346451    9.515286   -0.002136    0.000818    0.003832
O    -1.203463   -3.480244    8.372598   -0.003870   -0.000348    0.000834
O    -1.371269   -4.164321    4.131246   -0.005244    0.000890   -0.000480
O    -1.628921   -1.665670    0.579687   -0.001940   -0.000914   -0.003234
O    -1.291927    2.245038    1.933709   -0.001604   -0.000100   -0.000326
C    -1.924074    4.239343    4.990610    0.001960    0.000058   -0.000510
C     0.226829    2.666607    9.744760   -0.000420   -0.000644   -0.000930
C    -1.497848   -2.891116   10.641280   -0.000490   -0.000014   -0.000326
C    -2.911433   -5.255012    5.603897    0.000068    0.000618   -0.000322
C    -1.902755   -4.006086    0.412236    0.000460   -0.000002    0.000830
C    -2.378474    1.883132   -0.150956    0.002144    0.000584   -0.001232
O    -2.844940    3.991976    6.020463    0.000304    0.001668   -0.000696
O    -0.655661    2.740502   10.827467   -0.000002    0.000062   -0.000894
O    -2.827772   -3.331516   10.647616    0.000158    0.000332   -0.000068
O    -4.007715   -4.835464    4.835804   -0.000522   -0.001392    0.000178
O    -3.048604   -3.863068   -0.376479    0.000954    0.000160    0.000218
O    -3.491086    2.655978    0.208584    0.001524   -0.000100   -0.000422
C    -2.137335    3.206955    3.880541    0.004042    0.000394   -0.001164
C    -0.510449    2.923901    8.421163    0.001242   -0.001258   -0.000894
C    -1.410424   -1.407190   10.261756   -0.000046   -0.000216   -0.000190
C    -2.662678   -4.227483    6.711665    0.000574    0.000026   -0.000266
C    -2.268909   -4.133045    1.898450    0.003106   -0.000014    0.000544
C    -2.581907    0.408181    0.214628    0.006902    0.000266   -0.001274
O    -3.406595    3.319833    3.284289    0.002764    0.000434   -0.000354
O    -1.112222    4.198879    8.412710    0.001414   -0.001534   -0.000742
O    -2.037312   -0.587604   11.215395    0.000452   -0.000596   -0.000746
O    -3.740950   -4.145272    7.608832    0.000682   -0.000130   -0.000920
O    -3.080747   -5.264461    2.121898    0.001500    0.001020    0.000812
O    -3.651960   -0.160026   -0.497423    0.004842    0.000346   -0.000030
C    -1.098509    3.375962    2.764259    0.004384   -0.001214   -0.001800
C     0.458130    2.804442    7.233440   -0.000606   -0.006622   -0.001996
C     0.041547   -0.929301   10.126867   -0.000016   -0.000724   -0.001474
C    -1.415298   -4.593934    7.523101    0.000878    0.000778   -0.001000
C    -1.001069   -4.234587    2.766642    0.004568    0.006246    0.002030
C    -1.332439   -0.437971   -0.080687    0.011312    0.000804   -0.000166
C     0.333686    3.439441    3.328156    0.007188   -0.006786   -0.002180
C     1.173774    1.447434    7.322458   -0.005242   -0.010366   -0.000626
C     0.900419   -1.901836    9.296059    0.000768   -0.000452   -0.000702
C    -0.213869   -4.863231    6.602613    0.000974    0.000536   -0.000472
C    -0.083261   -3.050047    2.427124    0.000290    0.011410    0.006464
C    -0.038447    0.229635    0.430465    0.012860    0.001584    0.005918
O     0.406531    4.381472    4.398700    0.000168   -0.001118   -0.000880
O     1.821332    1.284729    8.567968    0.000620    0.001792   -0.001492
O     0.692832   -3.253826    9.699853    0.000416    0.001230    0.001578
O    -0.561365   -5.796738    5.582167   -0.001362   -0.001272    0.002462
O     0.212496   -3.019859    1.044879    0.001738   -0.000368    0.005202
O     0.006376    1.627417    0.127651    0.003108    0.001582    0.003672
C     1.406975    3.898053    2.313131    0.019614   -0.012910    0.002632
C     2.208677    1.249443    6.219426   -0.005390   -0.020720   -0.006260
C     2.407585   -1.661958    9.479358   -0.000564   -0.000100    0.001502
C     0.969429   -5.488869    7.350894   -0.001184   -0.000736    0.000366
C     1.239787   -3.039313    3.201374    0.007476    0.032608    0.021112
C     1.238446   -0.339166   -0.210633    0.035556    0.021472    0.032006
O     2.166763    2.866287    1.754473    0.023038   -0.014102   -0.003334
O     2.977895    0.206934    6.437673   -0.000798   -0.013126   -0.024684
O     2.784240   -1.664750   10.829765   -0.000418   -0.000414   -0.000410
O     0.623260   -6.691895    7.985033   -0.000406    0.000204   -0.000366
O     2.146364   -2.321997    2.576841    0.009584   -0.017524   -0.008680
O     2.396975    0.235686    0.340450    0.042650   -0.002438    0.105746
H    -0.249549    4.913969    6.198806    0.004194   -0.000774    0.000408
H     1.537509    1.100385   10.541022    0.000750   -0.002850   -0.002422
H    -0.615124   -4.748927    9.901494    0.002258   -0.000078   -0.002568
H    -1.742478   -6.195150    4.033711    0.004330    0.000702   -0.000784
H    -0.556893   -2.782449   -0.790834    0.003592   -0.001234    0.003958
H    -0.888917    3.407944    0.262940    0.000542    0.001108    0.000460
H    -2.077747    5.250850    4.580759   -0.001088    0.000504    0.000762
H     0.983502    3.442497    9.900183    0.000896   -0.002310   -0.000792
H    -1.113670   -3.038267   11.655349    0.000018   -0.000350   -0.000636
H    -3.125269   -6.232360    6.065714    0.000596    0.000608   -0.000246
H    -1.405967   -4.925002    0.083584    0.001846    0.000218    0.002572
H    -2.267082    1.983982   -1.235312   -0.002284   -0.000168   -0.001822
H    -2.447028    4.227355    6.876558    0.002864   -0.006900   -0.000452
H    -1.168947    1.916523   10.882116    0.001358   -0.000490    0.002130
H    -3.131958   -3.459723    9.731685   -0.000420   -0.001034    0.000538
H    -3.879546   -5.108929    3.908341    0.003946    0.005582   -0.001482
H    -3.378522   -2.951914   -0.301547   -0.001468   -0.000730    0.003048
H    -3.516652    2.767851    1.176350   -0.000558   -0.003828   -0.000252
H    -2.006524    2.206161    4.319996    0.007186   -0.000296   -0.000854
H    -1.282734    2.149231    8.295498    0.003024   -0.003548   -0.001362
H    -1.886982   -1.279495    9.276622    0.003496   -0.000778   -0.002018
H    -2.480978   -3.251054    6.236788    0.006308   -0.000400    0.000070
H    -2.807090   -3.224735    2.210585    0.005554    0.000364    0.003938
H    -2.769004    0.346105    1.298895    0.011004   -0.003368    0.000006
H    -4.070935    3.350609    3.989713    0.003086    0.000180   -0.000700
H    -1.429798    4.378815    9.315082    0.001802   -0.000998   -0.000078
H    -2.885504   -0.995081   11.455201    0.000532   -0.001888    0.000724
H    -4.557424   -4.058788    7.091652    0.000010   -0.001820   -0.001346
H    -3.688003   -5.345371    1.365034    0.002150    0.002002   -0.001192
H    -4.400427    0.457292   -0.469191    0.006090    0.002432    0.000216
H    -1.330867    4.298278    2.213906    0.002352   -0.001242   -0.002122
H     1.200570    3.611804    7.262955    0.005724   -0.012908   -0.004088
H     0.484088   -0.817488   11.126240    0.002640   -0.001056   -0.001986
H    -1.624432   -5.490201    8.123382    0.002700    0.000454    0.000086
H    -0.472212   -5.174546    2.562861    0.014204    0.010154    0.005566
H    -1.268812   -0.610109   -1.164121    0.011348   -0.002980   -0.000340
H     0.582190    2.441096    3.717234   -0.006580   -0.008648    0.010710
H     0.424954    0.653142    7.172561   -0.000320   -0.014536    0.000304
H     0.639637   -1.789217    8.233950    0.011306    0.001392   -0.003638
H     0.104911   -3.918602    6.143434    0.007234   -0.000252    0.000048
H    -0.599749   -2.125507    2.731180    0.001422    0.011098    0.004690
H    -0.000536    0.094182    1.523068    0.002180   -0.009358    0.007014
H     2.098675    4.524368    2.880439    0.008752   -0.011344    0.009800
H     0.937773    4.512276    1.536856    0.018972   -0.017846    0.001728
H     2.936075   -2.442028    8.919216   -0.000598    0.003768   -0.005674
H     2.681514   -0.690554    9.067772   -0.002210   -0.003348   -0.006110
H     1.309535   -4.806267    8.130389   -0.000430    0.002672   -0.003314
H     1.776350   -5.638156    6.625036   -0.000862    0.005272   -0.000706
H     1.253736   -1.426976   -0.078206    0.011750    0.011264    0.005222
H     1.240302   -0.081707   -1.275333    0.074850    0.063016    0.033260
H     1.628996    2.344200    1.131480   -0.008502   -0.043072    0.048534
H     2.641156   -2.554170   11.186694   -0.001534   -0.001148   -0.000506
H     0.371861   -7.332351    7.302942   -0.003120    0.000748   -0.000794
H     2.395480    0.070855    1.316872    0.054672   -0.088172    0.132774
C     3.260437   -1.894828    3.357920    0.026176    0.017048   -0.049366
H     4.076620   -1.698467    2.648516    0.097934   -0.253202   -0.119884
H     3.505693   -2.676670    4.100426   -0.148410    0.103618    0.177594
O     1.428843   -3.673214    4.216683   -0.001038   -0.014006    0.001544
C     3.753802   -0.231741    5.312548    0.032556    0.071264   -0.053158
H     4.243913   -1.149485    5.665899   -0.170316   -0.121212   -0.129664
H     4.475200    0.559243    5.043633    0.192434    0.092842    0.225096
O     2.322674    2.007376    5.279267    0.004340    0.030026    0.024184
C     2.742068   -0.551018    4.088736    0.058374    0.474974   -0.427384
O     1.503520   -0.727336    4.549797   -0.022988    0.029652   -0.036652
H     4.300654    2.283805    1.538743   -0.181188    0.063534   -0.030792
H     2.468875    1.218740    3.534767   -0.273860   -0.361482    0.173550
H     4.415998    0.956418    0.704547   -0.040934    0.063010   -0.165288
O     4.665990    1.368183    1.568878   -0.071440    0.051552   -0.086190
H     4.195328    1.034381    2.184669    1.159600    0.589918   -0.848770
O     2.789385    0.349961    3.190061   -0.218270   -0.491094    0.412218
136
* Frequency(6) -441.1400
C    -0.464977    4.131749    5.460707    0.003196    0.001312   -0.001630
C     0.919686    1.293348    9.655041   -0.000388   -0.000726   -0.001528
C    -0.639347   -3.683251    9.639949   -0.000080    0.000564   -0.001074
C    -1.625676   -5.390597    4.771271    0.000926    0.001640   -0.000558
C    -0.932015   -2.822911    0.240077   -0.000440    0.000622    0.003736
C    -1.098307    2.369517    0.548429    0.001306    0.000468   -0.000358
O    -0.269787    2.852411    6.021298   -0.001428   -0.001156    0.001488
O    -0.094029    0.346428    9.515177   -0.002136    0.000818    0.003832
O    -1.203353   -3.480235    8.372574   -0.003870   -0.000348    0.000834
O    -1.371121   -4.164346    4.131259   -0.005244    0.000890   -0.000480
O    -1.628866   -1.665644    0.579778   -0.001940   -0.000914   -0.003234
O    -1.291882    2.245041    1.933719   -0.001604   -0.000100   -0.000326
C    -1.924130    4.239342    4.990625    0.001960    0.000058   -0.000510
C     0.226840    2.666626    9.744786   -0.000420   -0.000644   -0.000930
C    -1.497834   -2.891115   10.641290   -0.000490   -0.000014   -0.000326
C    -2.911435   -5.255030    5.603906    0.000068    0.000618   -0.000322
C    -1.902768   -4.006086    0.412212    0.000460   -0.000002    0.000830
C    -2.378535    1.883115   -0.150921    0.002144    0.000584   -0.001232
O    -2.844949    3.991929    6.020483    0.000304    0.001668   -0.000696
O    -0.655661    2.740500   10.827492   -0.000002    0.000062   -0.000894
O    -2.827776   -3.331526   10.647618    0.000158    0.000332   -0.000068
O    -4.007700   -4.835424    4.835799   -0.000522   -0.001392    0.000178
O    -3.048631   -3.863073   -0.376485    0.000954    0.000160    0.000218
O    -3.491130    2.655981    0.208596    0.001524   -0.000100   -0.000422
C    -2.137449    3.206944    3.880574    0.004042    0.000394   -0.001164
C    -0.510484    2.923937    8.421188    0.001242   -0.001258   -0.000894
C    -1.410423   -1.407184   10.261761   -0.000046   -0.000216   -0.000190
C    -2.662694   -4.227484    6.711673    0.000574    0.000026   -0.000266
C    -2.268996   -4.133044    1.898434    0.003106   -0.000014    0.000544
C    -2.582102    0.408173    0.214664    0.006902    0.000266   -0.001274
O    -3.406673    3.319821    3.284299    0.002764    0.000434   -0.000354
O    -1.112262    4.198922    8.412731    0.001414   -0.001534   -0.000742
O    -2.037325   -0.587587   11.215416    0.000452   -0.000596   -0.000746
O    -3.740969   -4.145269    7.608858    0.000682   -0.000130   -0.000920
O    -3.080789   -5.264490    2.121875    0.001500    0.001020    0.000812
O    -3.652097   -0.160036   -0.497423    0.004842    0.000346   -0.000030
C    -1.098633    3.375996    2.764310    0.004384   -0.001214   -0.001800
C     0.458147    2.804630    7.233496   -0.000606   -0.006622   -0.001996
C     0.041548   -0.929280   10.126909   -0.000016   -0.000724   -0.001474
C    -1.415323   -4.593956    7.523129    0.000878    0.000778   -0.001000
C    -1.001198   -4.234764    2.766585    0.004568    0.006246    0.002030
C    -1.332759   -0.437993   -0.080682    0.011312    0.000804   -0.000166
C     0.333483    3.439633    3.328217    0.007188   -0.006786   -0.002180
C     1.173922    1.447727    7.322475   -0.005242   -0.010366   -0.000626
C     0.900397   -1.901823    9.296079    0.000768   -0.000452   -0.000702
C    -0.213897   -4.863246    6.602627    0.000974    0.000536   -0.000472
C    -0.083269   -3.050370    2.426941    0.000290    0.011410    0.006464
C    -0.038811    0.229590    0.430298    0.012860    0.001584    0.005918
O     0.406526    4.381504    4.398725    0.000168   -0.001118   -0.000880
O     1.821315    1.284678    8.568010    0.000620    0.001792   -0.001492
O     0.692820   -3.253861    9.699809    0.000416    0.001230    0.001578
O    -0.561327   -5.796702    5.582097   -0.001362   -0.001272    0.002462
O     0.212447   -3.019849    1.044732    0.001738   -0.000368    0.005202
O     0.006288    1.627372    0.127547    0.003108    0.001582    0.003672
C     1.406421    3.898418    2.313057    0.019614   -0.012910    0.002632
C     2.208829    1.250029    6.219604   -0.005390   -0.020720   -0.006260
C     2.407601   -1.661955    9.479315   -0.000564   -0.000100    0.001502
C     0.969463   -5.488848    7.350883   -0.001184   -0.000736    0.000366
C     1.239575   -3.040235    3.200777    0.007476    0.032608    0.021112
C     1.237440   -0.339774   -0.211538    0.035556    0.021472    0.032006
O     2.166111    2.866686    1.754567    0.023038   -0.014102   -0.003334
O     2.977917    0.207305    6.438371   -0.000798   -0.013126   -0.024684
O     2.784252   -1.664739   10.829777   -0.000418   -0.000414   -0.000410
O     0.623272   -6.691901    7.985044   -0.000406    0.000204   -0.000366
O     2.146093   -2.321502    2.577087    0.009584   -0.017524   -0.008680
O     2.395768    0.235755    0.337459    0.042650   -0.002438    0.105746
H    -0.249668    4.913991    6.198795    0.004194   -0.000774    0.000408
H     1.537487    1.100466   10.541091    0.000750   -0.002850   -0.002422
H    -0.615188   -4.748925    9.901567    0.002258   -0.000078   -0.002568
H    -1.742600   -6.195170    4.033733    0.004330    0.000702   -0.000784
H    -0.556995   -2.782415   -0.790946    0.003592   -0.001234    0.003958
H    -0.888932    3.407913    0.262927    0.000542    0.001108    0.000460
H    -2.077717    5.250836    4.580737   -0.001088    0.000504    0.000762
H     0.983476    3.442563    9.900205    0.000896   -0.002310   -0.000792
H    -1.113670   -3.038257   11.655367    0.000018   -0.000350   -0.000636
H    -3.125286   -6.232377    6.065721    0.000596    0.000608   -0.000246
H    -1.406019   -4.925008    0.083511    0.001846    0.000218    0.002572
H    -2.267017    1.983987   -1.235260   -0.002284   -0.000168   -0.001822
H    -2.447109    4.227550    6.876571    0.002864   -0.006900   -0.000452
H    -1.168986    1.916537   10.882056    0.001358   -0.000490    0.002130
H    -3.131947   -3.459693    9.731669   -0.000420   -0.001034    0.000538
H    -3.879657   -5.109087    3.908383    0.003946    0.005582   -0.001482
H    -3.378481   -2.951893   -0.301633   -0.001468   -0.000730    0.003048
H    -3.516636    2.767959    1.176357   -0.000558   -0.003828   -0.000252
H    -2.006728    2.206169    4.320020    0.007186   -0.000296   -0.000854
H    -1.282820    2.149332    8.295536    0.003024   -0.003548   -0.001362
H    -1.887080   -1.279473    9.276679    0.003496   -0.000778   -0.002018
H    -2.481156   -3.251042    6.236786    0.006308   -0.000400    0.000070
H    -2.807247   -3.224745    2.210473    0.005554    0.000364    0.003938
H    -2.769315    0.346200    1.298895    0.011004   -0.003368    0.000006
H    -4.071022    3.350604    3.989733    0.003086    0.000180   -0.000700
H    -1.429849    4.378843    9.315084    0.001802   -0.000998   -0.000078
H    -2.885519   -0.995027   11.455180    0.000532   -0.001888    0.000724
H    -4.557424   -4.058736    7.091690    0.000010   -0.001820   -0.001346
H    -3.688064   -5.345427    1.365068    0.002150    0.002002   -0.001192
H    -4.400599    0.457224   -0.469197    0.006090    0.002432    0.000216
H    -1.330933    4.298313    2.213966    0.002352   -0.001242   -0.002122
H     1.200408    3.612169    7.263071    0.005724   -0.012908   -0.004088
H     0.484013   -0.817458   11.126296    0.002640   -0.001056   -0.001986
H    -1.624509   -5.490213    8.123380    0.002700    0.000454    0.000086
H    -0.472613   -5.174833    2.562704    0.014204    0.010154    0.005566
H    -1.269133   -0.610025   -1.164111    0.011348   -0.002980   -0.000340
H     0.582376    2.441340    3.716931   -0.006580   -0.008648    0.010710
H     0.424963    0.653553    7.172552   -0.000320   -0.014536    0.000304
H     0.639317   -1.789257    8.234053    0.011306    0.001392   -0.003638
H     0.104707   -3.918595    6.143432    0.007234   -0.000252    0.000048
H    -0.599789   -2.125821    2.731047    0.001422    0.011098    0.004690
H    -0.000597    0.094447    1.522869    0.002180   -0.009358    0.007014
H     2.098427    4.524689    2.880162    0.008752   -0.011344    0.009800
H     0.937236    4.512781    1.536807    0.018972   -0.017846    0.001728
H     2.936092   -2.442134    8.919376   -0.000598    0.003768   -0.005674
H     2.681577   -0.690459    9.067945   -0.002210   -0.003348   -0.006110
H     1.309547   -4.806343    8.130483   -0.000430    0.002672   -0.003314
H     1.776375   -5.638305    6.625056   -0.000862    0.005272   -0.000706
H     1.253404   -1.427295   -0.078353    0.011750    0.011264    0.005222
H     1.238185   -0.083489   -1.276273    0.074850    0.063016    0.033260
H     1.629237    2.345419    1.130107   -0.008502   -0.043072    0.048534
H     2.641199   -2.554138   11.186708   -0.001534   -0.001148   -0.000506
H     0.371949   -7.332372    7.302965   -0.003120    0.000748   -0.000794
H     2.393934    0.073349    1.313117    0.054672   -0.088172    0.132774
C     3.259697   -1.895310    3.359316    0.026176    0.017048   -0.049366
H     4.073850   -1.691305    2.651907    0.097934   -0.253202   -0.119884
H     3.509891   -2.679600    4.095403   -0.148410    0.103618    0.177594
O     1.428872   -3.672818    4.216639   -0.001038   -0.014006    0.001544
C     3.752881   -0.233756    5.314052    0.032556    0.071264   -0.053158
H     4.248730   -1.146057    5.669566   -0.170316   -0.121212   -0.129664
H     4.469757    0.556617    5.037266    0.192434    0.092842    0.225096
O     2.322551    2.006527    5.278583    0.004340    0.030026    0.024184
C     2.740417   -0.564452    4.100824    0.058374    0.474974   -0.427384
O     1.504170   -0.728175    4.550833   -0.022988    0.029652   -0.036652
H     4.305779    2.282008    1.539614   -0.181188    0.063534   -0.030792
H     2.476621    1.228965    3.529858   -0.273860   -0.361482    0.173550
H     4.417156    0.954636    0.709222   -0.040934    0.063010   -0.165288
O     4.668011    1.366724    1.571315   -0.071440    0.051552   -0.086190
H     4.162530    1.017696    2.208676    1.159600    0.589918   -0.848770
O     2.795559    0.363851    3.178401   -0.218270   -0.491094    0.412218
136
* Frequency(6) -441.1400
C    -0.465178    4.131666    5.460809    0.003196    0.001312   -0.001630
C     0.919710    1.293394    9.655138   -0.000388   -0.000726   -0.001528
C    -0.639342   -3.683287    9.640016   -0.000080    0.000564   -0.001074
C    -1.625735   -5.390701    4.771306    0.000926    0.001640   -0.000558
C    -0.931987   -2.822950    0.239842   -0.000440    0.000622    0.003736
C    -1.098390    2.369488    0.548452    0.001306    0.000468   -0.000358
O    -0.269697    2.852484    6.021204   -0.001428   -0.001156    0.001488
O    -0.093894    0.346377    9.514936   -0.002136    0.000818    0.003832
O    -1.203110   -3.480213    8.372522   -0.003870   -0.000348    0.000834
O    -1.370790   -4.164402    4.131289   -0.005244    0.000890   -0.000480
O    -1.628744   -1.665586    0.579982   -0.001940   -0.000914   -0.003234
O    -1.291781    2.245047    1.933739   -0.001604   -0.000100   -0.000326
C    -1.924253    4.239338    4.990657    0.001960    0.000058   -0.000510
C     0.226867    2.666666    9.744845   -0.000420   -0.000644   -0.000930
C    -1.497803   -2.891115   10.641310   -0.000490   -0.000014   -0.000326
C    -2.911439   -5.255069    5.603926    0.000068    0.000618   -0.000322
C    -1.902797   -4.006086    0.412160    0.000460   -0.000002    0.000830
C    -2.378670    1.883078   -0.150843    0.002144    0.000584   -0.001232
O    -2.844968    3.991824    6.020527    0.000304    0.001668   -0.000696
O    -0.655661    2.740496   10.827549   -0.000002    0.000062   -0.000894
O    -2.827786   -3.331547   10.647622    0.000158    0.000332   -0.000068
O    -4.007667   -4.835336    4.835788   -0.000522   -0.001392    0.000178
O    -3.048691   -3.863083   -0.376499    0.000954    0.000160    0.000218
O    -3.491226    2.655987    0.208622    0.001524   -0.000100   -0.000422
C    -2.137704    3.206919    3.880647    0.004042    0.000394   -0.001164
C    -0.510562    2.924016    8.421245    0.001242   -0.001258   -0.000894
C    -1.410420   -1.407171   10.261773   -0.000046   -0.000216   -0.000190
C    -2.662730   -4.227485    6.711690    0.000574    0.000026   -0.000266
C    -2.269192   -4.133044    1.898400    0.003106   -0.000014    0.000544
C    -2.582537    0.408156    0.214744    0.006902    0.000266   -0.001274
O    -3.406847    3.319794    3.284321    0.002764    0.000434   -0.000354
O    -1.112351    4.199019    8.412778    0.001414   -0.001534   -0.000742
O    -2.037354   -0.587549   11.215463    0.000452   -0.000596   -0.000746
O    -3.741012   -4.145260    7.608916    0.000682   -0.000130   -0.000920
O    -3.080884   -5.264554    2.121824    0.001500    0.001020    0.000812
O    -3.652402   -0.160058   -0.497421    0.004842    0.000346   -0.000030
C    -1.098909    3.376072    2.764423    0.004384   -0.001214   -0.001800
C     0.458185    2.805047    7.233622   -0.000606   -0.006622   -0.001996
C     0.041549   -0.929234   10.127001   -0.000016   -0.000724   -0.001474
C    -1.415378   -4.594005    7.523192    0.000878    0.000778   -0.001000
C    -1.001486   -4.235158    2.766457    0.004568    0.006246    0.002030
C    -1.333472   -0.438044   -0.080672    0.011312    0.000804   -0.000166
C     0.333030    3.440061    3.328355    0.007188   -0.006786   -0.002180
C     1.174252    1.448381    7.322515   -0.005242   -0.010366   -0.000626
C     0.900349   -1.901794    9.296123    0.000768   -0.000452   -0.000702
C    -0.213958   -4.863280    6.602656    0.000974    0.000536   -0.000472
C    -0.083287   -3.051089    2.426534    0.000290    0.011410    0.006464
C    -0.039622    0.229490    0.429925    0.012860    0.001584    0.005918
O     0.406515    4.381574    4.398780    0.000168   -0.001118   -0.000880
O     1.821276    1.284565    8.568104    0.000620    0.001792   -0.001492
O     0.692794   -3.253938    9.699709    0.000416    0.001230    0.001578
O    -0.561241   -5.796622    5.581942   -0.001362   -0.001272    0.002462
O     0.212338   -3.019826    1.044405    0.001738   -0.000368    0.005202
O     0.006092    1.627272    0.127316    0.003108    0.001582    0.003672
C     1.405185    3.899232    2.312891    0.019614   -0.012910    0.002632
C     2.209169    1.251335    6.219998   -0.005390   -0.020720   -0.006260
C     2.407637   -1.661949    9.479221   -0.000564   -0.000100    0.001502
C     0.969537   -5.488802    7.350860   -0.001184   -0.000736    0.000366
C     1.239104   -3.042290    3.199446    0.007476    0.032608    0.021112
C     1.235200   -0.341127   -0.213555    0.035556    0.021472    0.032006
O     2.164659    2.867575    1.754777    0.023038   -0.014102   -0.003334
O     2.977968    0.208132    6.439927   -0.000798   -0.013126   -0.024684
O     2.784278   -1.664713   10.829802   -0.000418   -0.000414   -0.000410
O     0.623297   -6.691913    7.985067   -0.000406    0.000204   -0.000366
O     2.145489   -2.320397    2.577634    0.009584   -0.017524   -0.008680
O     2.393081    0.235908    0.330795    0.042650   -0.002438    0.105746
H    -0.249932    4.914040    6.198769    0.004194   -0.000774    0.000408
H     1.537440    1.100645   10.541243    0.000750   -0.002850   -0.002422
H    -0.615331   -4.748920    9.901729    0.002258   -0.000078   -0.002568
H    -1.742873   -6.195214    4.033782    0.004330    0.000702   -0.000784
H    -0.557221   -2.782337   -0.791196    0.003592   -0.001234    0.003958
H    -0.888966    3.407843    0.262898    0.000542    0.001108    0.000460
H    -2.077648    5.250804    4.580689   -0.001088    0.000504    0.000762
H     0.983420    3.442708    9.900255    0.000896   -0.002310   -0.000792
H    -1.113671   -3.038235   11.655407    0.000018   -0.000350   -0.000636
H    -3.125324   -6.232415    6.065737    0.000596    0.000608   -0.000246
H    -1.406136   -4.925022    0.083349    0.001846    0.000218    0.002572
H    -2.266873    1.983998   -1.235145   -0.002284   -0.000168   -0.001822
H    -2.447290    4.227985    6.876600    0.002864   -0.006900   -0.000452
H    -1.169071    1.916568   10.881921    0.001358   -0.000490    0.002130
H    -3.131920   -3.459628    9.731636   -0.000420   -0.001034    0.000538
H    -3.879906   -5.109439    3.908476    0.003946    0.005582   -0.001482
H    -3.378388   -2.951847   -0.301825   -0.001468   -0.000730    0.003048
H    -3.516601    2.768200    1.176373   -0.000558   -0.003828   -0.000252
H    -2.007181    2.206188    4.320074    0.007186   -0.000296   -0.000854
H    -1.283010    2.149555    8.295622    0.003024   -0.003548   -0.001362
H    -1.887301   -1.279424    9.276806    0.003496   -0.000778   -0.002018
H    -2.481554   -3.251017    6.236782    0.006308   -0.000400    0.000070
H    -2.807597   -3.224768    2.210225    0.005554    0.000364    0.003938
H    -2.770008    0.346413    1.298895    0.011004   -0.003368    0.000006
H    -4.071216    3.350592    3.989777    0.003086    0.000180   -0.000700
H    -1.429963    4.378906    9.315089    0.001802   -0.000998   -0.000078
H    -2.885553   -0.994908   11.455134    0.000532   -0.001888    0.000724
H    -4.557424   -4.058622    7.091774    0.000010   -0.001820   -0.001346
H    -3.688199   -5.345553    1.365143    0.002150    0.002002   -0.001192
H    -4.400983    0.457070   -0.469210    0.006090    0.002432    0.000216
H    -1.331081    4.298391    2.214100    0.002352   -0.001242   -0.002122
H     1.200047    3.612982    7.263328    0.005724   -0.012908   -0.004088
H     0.483847   -0.817392   11.126422    0.002640   -0.001056   -0.001986
H    -1.624679   -5.490242    8.123374    0.002700    0.000454    0.000086
H    -0.473508   -5.175473    2.562353    0.014204    0.010154    0.005566
H    -1.269848   -0.609837   -1.164090    0.011348   -0.002980   -0.000340
H     0.582791    2.441885    3.716256   -0.006580   -0.008648    0.010710
H     0.424984    0.654469    7.172533   -0.000320   -0.014536    0.000304
H     0.638604   -1.789345    8.234282    0.011306    0.001392   -0.003638
H     0.104251   -3.918579    6.143429    0.007234   -0.000252    0.000048
H    -0.599879   -2.126520    2.730752    0.001422    0.011098    0.004690
H    -0.000735    0.095036    1.522427    0.002180   -0.009358    0.007014
H     2.097876    4.525404    2.879545    0.008752   -0.011344    0.009800
H     0.936040    4.513906    1.536698    0.018972   -0.017846    0.001728
H     2.936130   -2.442372    8.919734   -0.000598    0.003768   -0.005674
H     2.681716   -0.690248    9.068330   -0.002210   -0.003348   -0.006110
H     1.309574   -4.806511    8.130692   -0.000430    0.002672   -0.003314
H     1.776429   -5.638637    6.625100   -0.000862    0.005272   -0.000706
H     1.252664   -1.428004   -0.078682    0.011750    0.011264    0.005222
H     1.233468   -0.087460   -1.278369    0.074850    0.063016    0.033260
H     1.629773    2.348133    1.127049   -0.008502   -0.043072    0.048534
H     2.641296   -2.554066   11.186740   -0.001534   -0.001148   -0.000506
H     0.372146   -7.332419    7.303015   -0.003120    0.000748   -0.000794
H     2.390488    0.078905    1.304750    0.054672   -0.088172    0.132774
C     3.258047   -1.896384    3.362427    0.026176    0.017048   -0.049366
H     4.067678   -1.675349    2.659461    0.097934   -0.253202   -0.119884
H     3.519243   -2.686130    4.084211   -0.148410    0.103618    0.177594
O     1.428938   -3.671936    4.216542   -0.001038   -0.014006    0.001544
C     3.750829   -0.238247    5.317402    0.032556    0.071264   -0.053158
H     4.259463   -1.138418    5.677737   -0.170316   -0.121212   -0.129664
H     4.457630    0.550766    5.023081    0.192434    0.092842    0.225096
O     2.322278    2.004635    5.277059    0.004340    0.030026    0.024184
C     2.736739   -0.594384    4.127756    0.058374    0.474974   -0.427384
O     1.505619   -0.730044    4.553143   -0.022988    0.029652   -0.036652
H     4.317196    2.278004    1.541554   -0.181188    0.063534   -0.030792
H     2.493879    1.251744    3.518922   -0.273860   -0.361482    0.173550
H     4.419735    0.950665    0.719638   -0.040934    0.063010   -0.165288
O     4.672513    1.363476    1.576747   -0.071440    0.051552   -0.086190
H     4.089455    0.980521    2.262163    1.159600    0.589918   -0.848770
O     2.809314    0.394799    3.152425   -0.218270   -0.491094    0.412218
136
* Frequency(6) -441.1400
C    -0.465469    4.131547    5.460957    0.003196    0.001312   -0.001630
C     0.919745    1.293460    9.655276   -0.000388   -0.000726   -0.001528
C    -0.639334   -3.683338    9.640114   -0.000080    0.000564   -0.001074
C    -1.625819   -5.390850    4.771357    0.000926    0.001640   -0.000558
C    -0.931947   -2.823006    0.239502   -0.000440    0.000622    0.003736
C    -1.098508    2.369445    0.548484    0.001306    0.000468   -0.000358
O    -0.269567    2.852589    6.021069   -0.001428   -0.001156    0.001488
O    -0.093700    0.346302    9.514587   -0.002136    0.000818    0.003832
O    -1.202758   -3.480181    8.372446   -0.003870   -0.000348    0.000834
O    -1.370314   -4.164483    4.131333   -0.005244    0.000890   -0.000480
O    -1.628567   -1.665503    0.580276   -0.001940   -0.000914   -0.003234
O    -1.291635    2.245056    1.933769   -0.001604   -0.000100   -0.000326
C    -1.924432    4.239333    4.990703    0.001960    0.000058   -0.000510
C     0.226905    2.666725    9.744929   -0.000420   -0.000644   -0.000930
C    -1.497759   -2.891113   10.641340   -0.000490   -0.000014   -0.000326
C    -2.911446   -5.255125    5.603955    0.000068    0.000618   -0.000322
C    -1.902838   -4.006085    0.412084    0.000460   -0.000002    0.000830
C    -2.378865    1.883025   -0.150731    0.002144    0.000584   -0.001232
O    -2.844995    3.991672    6.020590    0.000304    0.001668   -0.000696
O    -0.655660    2.740490   10.827630   -0.000002    0.000062   -0.000894
O    -2.827801   -3.331577   10.647629    0.000158    0.000332   -0.000068
O    -4.007620   -4.835210    4.835772   -0.000522   -0.001392    0.000178
O    -3.048778   -3.863097   -0.376519    0.000954    0.000160    0.000218
O    -3.491364    2.655996    0.208661    0.001524   -0.000100   -0.000422
C    -2.138072    3.206884    3.880753    0.004042    0.000394   -0.001164
C    -0.510675    2.924130    8.421326    0.001242   -0.001258   -0.000894
C    -1.410416   -1.407151   10.261790   -0.000046   -0.000216   -0.000190
C    -2.662782   -4.227488    6.711714    0.000574    0.000026   -0.000266
C    -2.269475   -4.133042    1.898351    0.003106   -0.000014    0.000544
C    -2.583164    0.408132    0.214860    0.006902    0.000266   -0.001274
O    -3.407099    3.319754    3.284353    0.002764    0.000434   -0.000354
O    -1.112479    4.199158    8.412845    0.001414   -0.001534   -0.000742
O    -2.037395   -0.587495   11.215531    0.000452   -0.000596   -0.000746
O    -3.741074   -4.145249    7.609000    0.000682   -0.000130   -0.000920
O    -3.081020   -5.264647    2.121750    0.001500    0.001020    0.000812
O    -3.652842   -0.160089   -0.497418    0.004842    0.000346   -0.000030
C    -1.099308    3.376183    2.764587    0.004384   -0.001214   -0.001800
C     0.458240    2.805649    7.233804   -0.000606   -0.006622   -0.001996
C     0.041550   -0.929169   10.127135   -0.000016   -0.000724   -0.001474
C    -1.415458   -4.594075    7.523283    0.000878    0.000778   -0.001000
C    -1.001901   -4.235726    2.766272    0.004568    0.006246    0.002030
C    -1.334501   -0.438117   -0.080657    0.011312    0.000804   -0.000166
C     0.332376    3.440678    3.328553    0.007188   -0.006786   -0.002180
C     1.174729    1.449323    7.322572   -0.005242   -0.010366   -0.000626
C     0.900279   -1.901753    9.296187    0.000768   -0.000452   -0.000702
C    -0.214047   -4.863329    6.602699    0.000974    0.000536   -0.000472
C    -0.083314   -3.052126    2.425946    0.000290    0.011410    0.006464
C    -0.040791    0.229346    0.429387    0.012860    0.001584    0.005918
O     0.406500    4.381676    4.398860    0.000168   -0.001118   -0.000880
O     1.821219    1.284403    8.568239    0.000620    0.001792   -0.001492
O     0.692756   -3.254050    9.699566    0.000416    0.001230    0.001578
O    -0.561117   -5.796506    5.581718   -0.001362   -0.001272    0.002462
O     0.212180   -3.019792    1.043932    0.001738   -0.000368    0.005202
O     0.005810    1.627129    0.126982    0.003108    0.001582    0.003672
C     1.403401    3.900405    2.312651    0.019614   -0.012910    0.002632
C     2.209659    1.253218    6.220567   -0.005390   -0.020720   -0.006260
C     2.407688   -1.661940    9.479084   -0.000564   -0.000100    0.001502
C     0.969645   -5.488735    7.350827   -0.001184   -0.000736    0.000366
C     1.238424   -3.045255    3.197527    0.007476    0.032608    0.021112
C     1.231967   -0.343079   -0.216465    0.035556    0.021472    0.032006
O     2.162565    2.868857    1.755081    0.023038   -0.014102   -0.003334
O     2.978040    0.209325    6.442171   -0.000798   -0.013126   -0.024684
O     2.784316   -1.664675   10.829840   -0.000418   -0.000414   -0.000410
O     0.623334   -6.691932    7.985100   -0.000406    0.000204   -0.000366
O     2.144618   -2.318804    2.578423    0.009584   -0.017524   -0.008680
O     2.389203    0.236130    0.321180    0.042650   -0.002438    0.105746
H    -0.250313    4.914110    6.198732    0.004194   -0.000774    0.000408
H     1.537372    1.100904   10.541464    0.000750   -0.002850   -0.002422
H    -0.615536   -4.748913    9.901962    0.002258   -0.000078   -0.002568
H    -1.743267   -6.195278    4.033853    0.004330    0.000702   -0.000784
H    -0.557548   -2.782225   -0.791556    0.003592   -0.001234    0.003958
H    -0.889016    3.407743    0.262857    0.000542    0.001108    0.000460
H    -2.077549    5.250758    4.580620   -0.001088    0.000504    0.000762
H     0.983338    3.442918    9.900327    0.000896   -0.002310   -0.000792
H    -1.113673   -3.038203   11.655465    0.000018   -0.000350   -0.000636
H    -3.125378   -6.232471    6.065759    0.000596    0.000608   -0.000246
H    -1.406303   -4.925042    0.083115    0.001846    0.000218    0.002572
H    -2.266665    1.984013   -1.234980   -0.002284   -0.000168   -0.001822
H    -2.447550    4.228613    6.876641    0.002864   -0.006900   -0.000452
H    -1.169195    1.916612   10.881728    0.001358   -0.000490    0.002130
H    -3.131882   -3.459534    9.731587   -0.000420   -0.001034    0.000538
H    -3.880265   -5.109946    3.908611    0.003946    0.005582   -0.001482
H    -3.378255   -2.951781   -0.302102   -0.001468   -0.000730    0.003048
H    -3.516550    2.768548    1.176396   -0.000558   -0.003828   -0.000252
H    -2.007834    2.206215    4.320152    0.007186   -0.000296   -0.000854
H    -1.283285    2.149878    8.295746    0.003024   -0.003548   -0.001362
H    -1.887619   -1.279354    9.276990    0.003496   -0.000778   -0.002018
H    -2.482127   -3.250981    6.236776    0.006308   -0.000400    0.000070
H    -2.808102   -3.224801    2.209867    0.005554    0.000364    0.003938
H    -2.771009    0.346719    1.298894    0.011004   -0.003368    0.000006
H    -4.071497    3.350576    3.989840    0.003086    0.000180   -0.000700
H    -1.430127    4.378997    9.315096    0.001802   -0.000998   -0.000078
H    -2.885601   -0.994737   11.455069    0.000532   -0.001888    0.000724
H    -4.557425   -4.058456    7.091897    0.000010   -0.001820   -0.001346
H    -3.688395   -5.345736    1.365251    0.002150    0.002002   -0.001192
H    -4.401537    0.456849   -0.469230    0.006090    0.002432    0.000216
H    -1.331295    4.298504    2.214293    0.002352   -0.001242   -0.002122
H     1.199527    3.614156    7.263700    0.005724   -0.012908   -0.004088
H     0.483607   -0.817296   11.126602    0.002640   -0.001056   -0.001986
H    -1.624924   -5.490283    8.123366    0.002700    0.000454    0.000086
H    -0.474800   -5.176397    2.561847    0.014204    0.010154    0.005566
H    -1.270880   -0.609566   -1.164059    0.011348   -0.002980   -0.000340
H     0.583389    2.442671    3.715282   -0.006580   -0.008648    0.010710
H     0.425013    0.655791    7.172506   -0.000320   -0.014536    0.000304
H     0.637576   -1.789471    8.234613    0.011306    0.001392   -0.003638
H     0.103593   -3.918556    6.143425    0.007234   -0.000252    0.000048
H    -0.600008   -2.127529    2.730325    0.001422    0.011098    0.004690
H    -0.000933    0.095887    1.521789    0.002180   -0.009358    0.007014
H     2.097080    4.526435    2.878653    0.008752   -0.011344    0.009800
H     0.934315    4.515528    1.536541    0.018972   -0.017846    0.001728
H     2.936184   -2.442714    8.920250   -0.000598    0.003768   -0.005674
H     2.681917   -0.689944    9.068885   -0.002210   -0.003348   -0.006110
H     1.309613   -4.806754    8.130993   -0.000430    0.002672   -0.003314
H     1.776507   -5.639117    6.625164   -0.000862    0.005272   -0.000706
H     1.251595   -1.429029   -0.079157    0.011750    0.011264    0.005222
H     1.226663   -0.093190   -1.281393    0.074850    0.063016    0.033260
H     1.630546    2.352049    1.122636   -0.008502   -0.043072    0.048534
H     2.641435   -2.553961   11.186786   -0.001534   -0.001148   -0.000506
H     0.372429   -7.332487    7.303087   -0.003120    0.000748   -0.000794
H     2.385517    0.086922    1.292678    0.054672   -0.088172    0.132774
C     3.255667   -1.897934    3.366916    0.026176    0.017048   -0.049366
H     4.058774   -1.652328    2.670362    0.097934   -0.253202   -0.119884
H     3.532737   -2.695551    4.068064   -0.148410    0.103618    0.177594
O     1.429032   -3.670662    4.216401   -0.001038   -0.014006    0.001544
C     3.747869   -0.244727    5.322235    0.032556    0.071264   -0.053158
H     4.274948   -1.127398    5.689526   -0.170316   -0.121212   -0.129664
H     4.440134    0.542325    5.002615    0.192434    0.092842    0.225096
O     2.321883    2.001905    5.274861    0.004340    0.030026    0.024184
C     2.731431   -0.637569    4.166615    0.058374    0.474974   -0.427384
O     1.507709   -0.732740    4.556475   -0.022988    0.029652   -0.036652
H     4.333670    2.272228    1.544354   -0.181188    0.063534   -0.030792
H     2.518779    1.284611    3.503142   -0.273860   -0.361482    0.173550
H     4.423457    0.944936    0.734666   -0.040934    0.063010   -0.165288
O     4.679008    1.358789    1.584583   -0.071440    0.051552   -0.086190
H     3.984022    0.926884    2.339335    1.159600    0.589918   -0.848770
O     2.829159    0.439450    3.114945   -0.218270   -0.491094    0.412218
136
* Frequency(6) -441.1400
C    -0.465817    4.131404    5.461135    0.003196    0.001312   -0.001630
C     0.919788    1.293539    9.655443   -0.000388   -0.000726   -0.001528
C    -0.639326   -3.683400    9.640231   -0.000080    0.000564   -0.001074
C    -1.625920   -5.391029    4.771418    0.000926    0.001640   -0.000558
C    -0.931899   -2.823074    0.239095   -0.000440    0.000622    0.003736
C    -1.098651    2.369394    0.548523    0.001306    0.000468   -0.000358
O    -0.269411    2.852715    6.020907   -0.001428   -0.001156    0.001488
O    -0.093467    0.346213    9.514170   -0.002136    0.000818    0.003832
O    -1.202336   -3.480143    8.372355   -0.003870   -0.000348    0.000834
O    -1.369742   -4.164580    4.131385   -0.005244    0.000890   -0.000480
O    -1.628356   -1.665404    0.580629   -0.001940   -0.000914   -0.003234
O    -1.291460    2.245067    1.933804   -0.001604   -0.000100   -0.000326
C    -1.924645    4.239326    4.990759    0.001960    0.000058   -0.000510
C     0.226951    2.666795    9.745030   -0.000420   -0.000644   -0.000930
C    -1.497705   -2.891112   10.641375   -0.000490   -0.000014   -0.000326
C    -2.911453   -5.255192    5.603990    0.000068    0.000618   -0.000322
C    -1.902889   -4.006085    0.411994    0.000460   -0.000002    0.000830
C    -2.379098    1.882962   -0.150597    0.002144    0.000584   -0.001232
O    -2.845028    3.991490    6.020666    0.000304    0.001668   -0.000696
O    -0.655660    2.740484   10.827727   -0.000002    0.000062   -0.000894
O    -2.827818   -3.331613   10.647636    0.000158    0.000332   -0.000068
O    -4.007563   -4.835058    4.835752   -0.000522   -0.001392    0.000178
O    -3.048882   -3.863115   -0.376542    0.000954    0.000160    0.000218
O    -3.491530    2.656007    0.208707    0.001524   -0.000100   -0.000422
C    -2.138512    3.206841    3.880880    0.004042    0.000394   -0.001164
C    -0.510810    2.924268    8.421423    0.001242   -0.001258   -0.000894
C    -1.410411   -1.407127   10.261811   -0.000046   -0.000216   -0.000190
C    -2.662845   -4.227491    6.711743    0.000574    0.000026   -0.000266
C    -2.269813   -4.133041    1.898291    0.003106   -0.000014    0.000544
C    -2.583916    0.408103    0.214999    0.006902    0.000266   -0.001274
O    -3.407400    3.319707    3.284392    0.002764    0.000434   -0.000354
O    -1.112634    4.199326    8.412926    0.001414   -0.001534   -0.000742
O    -2.037444   -0.587430   11.215612    0.000452   -0.000596   -0.000746
O    -3.741149   -4.145234    7.609100    0.000682   -0.000130   -0.000920
O    -3.081184   -5.264758    2.121662    0.001500    0.001020    0.000812
O    -3.653370   -0.160127   -0.497415    0.004842    0.000346   -0.000030
C    -1.099785    3.376315    2.764783    0.004384   -0.001214   -0.001800
C     0.458306    2.806371    7.234021   -0.000606   -0.006622   -0.001996
C     0.041552   -0.929090   10.127296   -0.000016   -0.000724   -0.001474
C    -1.415553   -4.594160    7.523392    0.000878    0.000778   -0.001000
C    -1.002399   -4.236406    2.766051    0.004568    0.006246    0.002030
C    -1.335733   -0.438205   -0.080639    0.011312    0.000804   -0.000166
C     0.331593    3.441417    3.328790    0.007188   -0.006786   -0.002180
C     1.175300    1.450453    7.322640   -0.005242   -0.010366   -0.000626
C     0.900195   -1.901704    9.296264    0.000768   -0.000452   -0.000702
C    -0.214153   -4.863387    6.602751    0.000974    0.000536   -0.000472
C    -0.083345   -3.053370    2.425241    0.000290    0.011410    0.006464
C    -0.042192    0.229173    0.428742    0.012860    0.001584    0.005918
O     0.406482    4.381798    4.398956    0.000168   -0.001118   -0.000880
O     1.821152    1.284207    8.568402    0.000620    0.001792   -0.001492
O     0.692711   -3.254184    9.699394    0.000416    0.001230    0.001578
O    -0.560968   -5.796367    5.581450   -0.001362   -0.001272    0.002462
O     0.211990   -3.019752    1.043365    0.001738   -0.000368    0.005202
O     0.005471    1.626956    0.126582    0.003108    0.001582    0.003672
C     1.401264    3.901812    2.312365    0.019614   -0.012910    0.002632
C     2.210246    1.255476    6.221249   -0.005390   -0.020720   -0.006260
C     2.407750   -1.661929    9.478921   -0.000564   -0.000100    0.001502
C     0.969774   -5.488654    7.350787   -0.001184   -0.000736    0.000366
C     1.237610   -3.048809    3.195226    0.007476    0.032608    0.021112
C     1.228092   -0.345419   -0.219953    0.035556    0.021472    0.032006
O     2.160054    2.870394    1.755444    0.023038   -0.014102   -0.003334
O     2.978127    0.210756    6.444861   -0.000798   -0.013126   -0.024684
O     2.784362   -1.664630   10.829884   -0.000418   -0.000414   -0.000410
O     0.623379   -6.691954    7.985140   -0.000406    0.000204   -0.000366
O     2.143573   -2.316895    2.579369    0.009584   -0.017524   -0.008680
O     2.384555    0.236396    0.309657    0.042650   -0.002438    0.105746
H    -0.250770    4.914194    6.198688    0.004194   -0.000774    0.000408
H     1.537290    1.101215   10.541727    0.000750   -0.002850   -0.002422
H    -0.615782   -4.748904    9.902242    0.002258   -0.000078   -0.002568
H    -1.743739   -6.195355    4.033939    0.004330    0.000702   -0.000784
H    -0.557939   -2.782090   -0.791987    0.003592   -0.001234    0.003958
H    -0.889075    3.407622    0.262806    0.000542    0.001108    0.000460
H    -2.077431    5.250703    4.580537   -0.001088    0.000504    0.000762
H     0.983241    3.443170    9.900413    0.000896   -0.002310   -0.000792
H    -1.113675   -3.038165   11.655534    0.000018   -0.000350   -0.000636
H    -3.125443   -6.232537    6.065786    0.000596    0.000608   -0.000246
H    -1.406505   -4.925065    0.082835    0.001846    0.000218    0.002572
H    -2.266417    1.984031   -1.234781   -0.002284   -0.000168   -0.001822
H    -2.447862    4.229365    6.876690    0.002864   -0.006900   -0.000452
H    -1.169343    1.916666   10.881496    0.001358   -0.000490    0.002130
H    -3.131836   -3.459422    9.731528   -0.000420   -0.001034    0.000538
H    -3.880695   -5.110554    3.908773    0.003946    0.005582   -0.001482
H    -3.378095   -2.951701   -0.302434   -0.001468   -0.000730    0.003048
H    -3.516489    2.768965    1.176423   -0.000558   -0.003828   -0.000252
H    -2.008617    2.206247    4.320245    0.007186   -0.000296   -0.000854
H    -1.283615    2.150265    8.295895    0.003024   -0.003548   -0.001362
H    -1.888000   -1.279269    9.277210    0.003496   -0.000778   -0.002018
H    -2.482815   -3.250937    6.236768    0.006308   -0.000400    0.000070
H    -2.808707   -3.224841    2.209438    0.005554    0.000364    0.003938
H    -2.772208    0.347086    1.298893    0.011004   -0.003368    0.000006
H    -4.071833    3.350556    3.989917    0.003086    0.000180   -0.000700
H    -1.430323    4.379106    9.315105    0.001802   -0.000998   -0.000078
H    -2.885659   -0.994531   11.454990    0.000532   -0.001888    0.000724
H    -4.557426   -4.058258    7.092043    0.000010   -0.001820   -0.001346
H    -3.688629   -5.345954    1.365381    0.002150    0.002002   -0.001192
H    -4.402200    0.456584   -0.469254    0.006090    0.002432    0.000216
H    -1.331552    4.298639    2.214524    0.002352   -0.001242   -0.002122
H     1.198903    3.615562    7.264145    0.005724   -0.012908   -0.004088
H     0.483319   -0.817181   11.126819    0.002640   -0.001056   -0.001986
H    -1.625218   -5.490333    8.123357    0.002700    0.000454    0.000086
H    -0.476348   -5.177503    2.561241    0.014204    0.010154    0.005566
H    -1.272116   -0.609242   -1.164022    0.011348   -0.002980   -0.000340
H     0.584106    2.443614    3.714115   -0.006580   -0.008648    0.010710
H     0.425048    0.657375    7.172473   -0.000320   -0.014536    0.000304
H     0.636344   -1.789623    8.235009    0.011306    0.001392   -0.003638
H     0.102805   -3.918529    6.143420    0.007234   -0.000252    0.000048
H    -0.600163   -2.128739    2.729814    0.001422    0.011098    0.004690
H    -0.001170    0.096907    1.521025    0.002180   -0.009358    0.007014
H     2.096126    4.527671    2.877586    0.008752   -0.011344    0.009800
H     0.932248    4.517473    1.536353    0.018972   -0.017846    0.001728
H     2.936250   -2.443125    8.920868   -0.000598    0.003768   -0.005674
H     2.682158   -0.689579    9.069551   -0.002210   -0.003348   -0.006110
H     1.309660   -4.807045    8.131354   -0.000430    0.002672   -0.003314
H     1.776601   -5.639691    6.625241   -0.000862    0.005272   -0.000706
H     1.250315   -1.430256   -0.079726    0.011750    0.011264    0.005222
H     1.218506   -0.100057   -1.285018    0.074850    0.063016    0.033260
H     1.631472    2.356743    1.117347   -0.008502   -0.043072    0.048534
H     2.641603   -2.553836   11.186841   -0.001534   -0.001148   -0.000506
H     0.372769   -7.332569    7.303173   -0.003120    0.000748   -0.000794
H     2.379560    0.096531    1.278209    0.054672   -0.088172    0.132774
C     3.252815   -1.899792    3.372295    0.026176    0.017048   -0.049366
H     4.048102   -1.624735    2.683426    0.097934   -0.253202   -0.119884
H     3.548909   -2.706843    4.048711   -0.148410    0.103618    0.177594
O     1.429145   -3.669136    4.216233   -0.001038   -0.014006    0.001544
C     3.744321   -0.252493    5.328028    0.032556    0.071264   -0.053158
H     4.293508   -1.114189    5.703656   -0.170316   -0.121212   -0.129664
H     4.419164    0.532207    4.978085    0.192434    0.092842    0.225096
O     2.321410    1.998633    5.272225    0.004340    0.030026    0.024184
C     2.725070   -0.689329    4.213188    0.058374    0.474974   -0.427384
O     1.510214   -0.735971    4.560470   -0.022988    0.029652   -0.036652
H     4.353415    2.265304    1.547709   -0.181188    0.063534   -0.030792
H     2.548622    1.324003    3.484230   -0.273860   -0.361482    0.173550
H     4.427918    0.938070    0.752678   -0.040934    0.063010   -0.165288
O     4.686793    1.353171    1.593976   -0.071440    0.051552   -0.086190
H     3.857656    0.862599    2.431828    1.159600    0.589918   -0.848770
O     2.852945    0.492966    3.070024   -0.218270   -0.491094    0.412218
136
* Frequency(6) -441.1400
C    -0.466185    4.131252    5.461323    0.003196    0.001312   -0.001630
C     0.919832    1.293623    9.655619   -0.000388   -0.000726   -0.001528
C    -0.639316   -3.683464    9.640355   -0.000080    0.000564   -0.001074
C    -1.626026   -5.391217    4.771482    0.000926    0.001640   -0.000558
C    -0.931849   -2.823146    0.238665   -0.000440    0.000622    0.003736
C    -1.098801    2.369340    0.548565    0.001306    0.000468   -0.000358
O    -0.269247    2.852849    6.020735   -0.001428   -0.001156    0.001488
O    -0.093221    0.346119    9.513728   -0.002136    0.000818    0.003832
O    -1.201890   -3.480103    8.372259   -0.003870   -0.000348    0.000834
O    -1.369138   -4.164682    4.131441   -0.005244    0.000890   -0.000480
O    -1.628132   -1.665298    0.581001   -0.001940   -0.000914   -0.003234
O    -1.291276    2.245079    1.933842   -0.001604   -0.000100   -0.000326
C    -1.924871    4.239320    4.990817    0.001960    0.000058   -0.000510
C     0.226999    2.666869    9.745138   -0.000420   -0.000644   -0.000930
C    -1.497649   -2.891110   10.641413   -0.000490   -0.000014   -0.000326
C    -2.911461   -5.255264    5.604028    0.000068    0.000618   -0.000322
C    -1.902941   -4.006085    0.411898    0.000460   -0.000002    0.000830
C    -2.379346    1.882894   -0.150455    0.002144    0.000584   -0.001232
O    -2.845064    3.991298    6.020746    0.000304    0.001668   -0.000696
O    -0.655660    2.740476   10.827831   -0.000002    0.000062   -0.000894
O    -2.827836   -3.331651   10.647644    0.000158    0.000332   -0.000068
O    -4.007503   -4.834898    4.835732   -0.000522   -0.001392    0.000178
O    -3.048992   -3.863133   -0.376568    0.000954    0.000160    0.000218
O    -3.491706    2.656019    0.208755    0.001524   -0.000100   -0.000422
C    -2.138978    3.206795    3.881014    0.004042    0.000394   -0.001164
C    -0.510954    2.924412    8.421527    0.001242   -0.001258   -0.000894
C    -1.410405   -1.407103   10.261833   -0.000046   -0.000216   -0.000190
C    -2.662911   -4.227493    6.711773    0.000574    0.000026   -0.000266
C    -2.270171   -4.133039    1.898229    0.003106   -0.000014    0.000544
C    -2.584712    0.408073    0.215145    0.006902    0.000266   -0.001274
O    -3.407718    3.319657    3.284432    0.002764    0.000434   -0.000354
O    -1.112796    4.199502    8.413012    0.001414   -0.001534   -0.000742
O    -2.037496   -0.587362   11.215698    0.000452   -0.000596   -0.000746
O    -3.741227   -4.145220    7.609206    0.000682   -0.000130   -0.000920
O    -3.081356   -5.264876    2.121568    0.001500    0.001020    0.000812
O    -3.653928   -0.160167   -0.497411    0.004842    0.000346   -0.000030
C    -1.100291    3.376455    2.764991    0.004384   -0.001214   -0.001800
C     0.458376    2.807133    7.234251   -0.000606   -0.006622   -0.001996
C     0.041554   -0.929006   10.127466   -0.000016   -0.000724   -0.001474
C    -1.415655   -4.594250    7.523508    0.000878    0.000778   -0.001000
C    -1.002925   -4.237126    2.765817    0.004568    0.006246    0.002030
C    -1.337037   -0.438297   -0.080619    0.011312    0.000804   -0.000166
C     0.330765    3.442199    3.329042    0.007188   -0.006786   -0.002180
C     1.175904    1.451647    7.322712   -0.005242   -0.010366   -0.000626
C     0.900107   -1.901652    9.296344    0.000768   -0.000452   -0.000702
C    -0.214265   -4.863449    6.602805    0.000974    0.000536   -0.000472
C    -0.083379   -3.054684    2.424497    0.000290    0.011410    0.006464
C    -0.043674    0.228991    0.428060    0.012860    0.001584    0.005918
O     0.406462    4.381926    4.399058    0.000168   -0.001118   -0.000880
O     1.821080    1.284001    8.568574    0.000620    0.001792   -0.001492
O     0.692663   -3.254326    9.699212    0.000416    0.001230    0.001578
O    -0.560812   -5.796221    5.581166   -0.001362   -0.001272    0.002462
O     0.211790   -3.019710    1.042765    0.001738   -0.000368    0.005202
O     0.005113    1.626774    0.126158    0.003108    0.001582    0.003672
C     1.399004    3.903300    2.312061    0.019614   -0.012910    0.002632
C     2.210868    1.257864    6.221971   -0.005390   -0.020720   -0.006260
C     2.407814   -1.661917    9.478747   -0.000564   -0.000100    0.001502
C     0.969910   -5.488570    7.350745   -0.001184   -0.000736    0.000366
C     1.236748   -3.052565    3.192794    0.007476    0.032608    0.021112
C     1.223996   -0.347893   -0.223641    0.035556    0.021472    0.032006
O     2.157400    2.872018    1.755828    0.023038   -0.014102   -0.003334
O     2.978219    0.212268    6.447705   -0.000798   -0.013126   -0.024684
O     2.784410   -1.664582   10.829932   -0.000418   -0.000414   -0.000410
O     0.623425   -6.691978    7.985182   -0.000406    0.000204   -0.000366
O     2.142469   -2.314875    2.580369    0.009584   -0.017524   -0.008680
O     2.379641    0.236676    0.297473    0.042650   -0.002438    0.105746
H    -0.251254    4.914284    6.198640    0.004194   -0.000774    0.000408
H     1.537204    1.101543   10.542007    0.000750   -0.002850   -0.002422
H    -0.616042   -4.748896    9.902538    0.002258   -0.000078   -0.002568
H    -1.744237   -6.195435    4.034029    0.004330    0.000702   -0.000784
H    -0.558353   -2.781948   -0.792443    0.003592   -0.001234    0.003958
H    -0.889137    3.407494    0.262754    0.000542    0.001108    0.000460
H    -2.077305    5.250645    4.580449   -0.001088    0.000504    0.000762
H     0.983137    3.443436    9.900505    0.000896   -0.002310   -0.000792
H    -1.113677   -3.038125   11.655608    0.000018   -0.000350   -0.000636
H    -3.125511   -6.232607    6.065814    0.000596    0.000608   -0.000246
H    -1.406717   -4.925091    0.082539    0.001846    0.000218    0.002572
H    -2.266153    1.984051   -1.234571   -0.002284   -0.000168   -0.001822
H    -2.448192    4.230159    6.876742    0.002864   -0.006900   -0.000452
H    -1.169499    1.916722   10.881250    0.001358   -0.000490    0.002130
H    -3.131788   -3.459302    9.731466   -0.000420   -0.001034    0.000538
H    -3.881149   -5.111198    3.908943    0.003946    0.005582   -0.001482
H    -3.377925   -2.951617   -0.302786   -0.001468   -0.000730    0.003048
H    -3.516425    2.769407    1.176453   -0.000558   -0.003828   -0.000252
H    -2.009445    2.206281    4.320343    0.007186   -0.000296   -0.000854
H    -1.283963    2.150673    8.296051    0.003024   -0.003548   -0.001362
H    -1.888402   -1.279179    9.277442    0.003496   -0.000778   -0.002018
H    -2.483541   -3.250891    6.236760    0.006308   -0.000400    0.000070
H    -2.809347   -3.224883    2.208984    0.005554    0.000364    0.003938
H    -2.773476    0.347474    1.298893    0.011004   -0.003368    0.000006
H    -4.072189    3.350536    3.989997    0.003086    0.000180   -0.000700
H    -1.430531    4.379220    9.315113    0.001802   -0.000998   -0.000078
H    -2.885721   -0.994313   11.454906    0.000532   -0.001888    0.000724
H    -4.557428   -4.058048    7.092199    0.000010   -0.001820   -0.001346
H    -3.688877   -5.346184    1.365519    0.002150    0.002002   -0.001192
H    -4.402902    0.456304   -0.469278    0.006090    0.002432    0.000216
H    -1.331822    4.298783    2.214768    0.002352   -0.001242   -0.002122
H     1.198243    3.617050    7.264617    0.005724   -0.012908   -0.004088
H     0.483015   -0.817059   11.127047    0.002640   -0.001056   -0.001986
H    -1.625530   -5.490385    8.123347    0.002700    0.000454    0.000086
H    -0.477984   -5.178673    2.560599    0.014204    0.010154    0.005566
H    -1.273424   -0.608898   -1.163982    0.011348   -0.002980   -0.000340
H     0.584864    2.444610    3.712881   -0.006580   -0.008648    0.010710
H     0.425084    0.659049    7.172437   -0.000320   -0.014536    0.000304
H     0.635042   -1.789783    8.235429    0.011306    0.001392   -0.003638
H     0.101971   -3.918499    6.143414    0.007234   -0.000252    0.000048
H    -0.600327   -2.130017    2.729274    0.001422    0.011098    0.004690
H    -0.001422    0.097985    1.520217    0.002180   -0.009358    0.007014
H     2.095118    4.528979    2.876456    0.008752   -0.011344    0.009800
H     0.930062    4.519529    1.536153    0.018972   -0.017846    0.001728
H     2.936318   -2.443559    8.921522   -0.000598    0.003768   -0.005674
H     2.682412   -0.689193    9.070255   -0.002210   -0.003348   -0.006110
H     1.309710   -4.807353    8.131736   -0.000430    0.002672   -0.003314
H     1.776701   -5.640299    6.625323   -0.000862    0.005272   -0.000706
H     1.248961   -1.431554   -0.080328    0.011750    0.011264    0.005222
H     1.209882   -0.107317   -1.288850    0.074850    0.063016    0.033260
H     1.632452    2.361705    1.111755   -0.008502   -0.043072    0.048534
H     2.641779   -2.553704   11.186899   -0.001534   -0.001148   -0.000506
H     0.373129   -7.332655    7.303265   -0.003120    0.000748   -0.000794
H     2.373260    0.106689    1.262911    0.054672   -0.088172    0.132774
C     3.249799   -1.901756    3.377983    0.026176    0.017048   -0.049366
H     4.036818   -1.595563    2.697238    0.097934   -0.253202   -0.119884
H     3.566009   -2.718781    4.028249   -0.148410    0.103618    0.177594
O     1.429265   -3.667522    4.216055   -0.001038   -0.014006    0.001544
C     3.740571   -0.260703    5.334152    0.032556    0.071264   -0.053158
H     4.313132   -1.100223    5.718596   -0.170316   -0.121212   -0.129664
H     4.396992    0.521511    4.952151    0.192434    0.092842    0.225096
O     2.320910    1.995173    5.269439    0.004340    0.030026    0.024184
C     2.718344   -0.744053    4.262430    0.058374    0.474974   -0.427384
O     1.512862   -0.739387    4.564692   -0.022988    0.029652   -0.036652
H     4.374291    2.257984    1.551257   -0.181188    0.063534   -0.030792
H     2.580176    1.365651    3.464234   -0.273860   -0.361482    0.173550
H     4.432634    0.930810    0.771722   -0.040934    0.063010   -0.165288
O     4.695025    1.347231    1.603906   -0.071440    0.051552   -0.086190
H     3.724052    0.794631    2.529620    1.159600    0.589918   -0.848770
O     2.878093    0.549548    3.022530   -0.218270   -0.491094    0.412218
136
* Frequency(6) -441.1400
C    -0.466533    4.131109    5.461501    0.003196    0.001312   -0.001630
C     0.919875    1.293702    9.655786   -0.000388   -0.000726   -0.001528
C    -0.639308   -3.683526    9.640472   -0.000080    0.000564   -0.001074
C    -1.626127   -5.391396    4.771543    0.000926    0.001640   -0.000558
C    -0.931801   -2.823214    0.238258   -0.000440    0.000622    0.003736
C    -1.098944    2.369289    0.548604    0.001306    0.000468   -0.000358
O    -0.269091    2.852975    6.020573   -0.001428   -0.001156    0.001488
O    -0.092988    0.346030    9.513311   -0.002136    0.000818    0.003832
O    -1.201468   -3.480065    8.372168   -0.003870   -0.000348    0.000834
O    -1.368566   -4.164779    4.131493   -0.005244    0.000890   -0.000480
O    -1.627921   -1.665199    0.581354   -0.001940   -0.000914   -0.003234
O    -1.291101    2.245090    1.933877   -0.001604   -0.000100   -0.000326
C    -1.925084    4.239313    4.990873    0.001960    0.000058   -0.000510
C     0.227045    2.666939    9.745239   -0.000420   -0.000644   -0.000930
C    -1.497595   -2.891109   10.641448   -0.000490   -0.000014   -0.000326
C    -2.911468   -5.255331    5.604063    0.000068    0.000618   -0.000322
C    -1.902992   -4.006085    0.411808    0.000460   -0.000002    0.000830
C    -2.379579    1.882831   -0.150321    0.002144    0.000584   -0.001232
O    -2.845097    3.991116    6.020822    0.000304    0.001668   -0.000696
O    -0.655660    2.740470   10.827928   -0.000002    0.000062   -0.000894
O    -2.827853   -3.331687   10.647651    0.000158    0.000332   -0.000068
O    -4.007446   -4.834746    4.835712   -0.000522   -0.001392    0.000178
O    -3.049096   -3.863151   -0.376591    0.000954    0.000160    0.000218
O    -3.491872    2.656030    0.208801    0.001524   -0.000100   -0.000422
C    -2.139418    3.206752    3.881141    0.004042    0.000394   -0.001164
C    -0.511089    2.924550    8.421624    0.001242   -0.001258   -0.000894
C    -1.410400   -1.407079   10.261854   -0.000046   -0.000216   -0.000190
C    -2.662974   -4.227496    6.711802    0.000574    0.000026   -0.000266
C    -2.270509   -4.133038    1.898169    0.003106   -0.000014    0.000544
C    -2.585464    0.408044    0.215284    0.006902    0.000266   -0.001274
O    -3.408019    3.319610    3.284471    0.002764    0.000434   -0.000354
O    -1.112951    4.199670    8.413093    0.001414   -0.001534   -0.000742
O    -2.037545   -0.587297   11.215779    0.000452   -0.000596   -0.000746
O    -3.741302   -4.145205    7.609306    0.000682   -0.000130   -0.000920
O    -3.081520   -5.264987    2.121480    0.001500    0.001020    0.000812
O    -3.654456   -0.160205   -0.497408    0.004842    0.000346   -0.000030
C    -1.100768    3.376587    2.765187    0.004384   -0.001214   -0.001800
C     0.458442    2.807855    7.234468   -0.000606   -0.006622   -0.001996
C     0.041556   -0.928927   10.127627   -0.000016   -0.000724   -0.001474
C    -1.415750   -4.594335    7.523617    0.000878    0.000778   -0.001000
C    -1.003423   -4.237806    2.765596    0.004568    0.006246    0.002030
C    -1.338269   -0.438385   -0.080601    0.011312    0.000804   -0.000166
C     0.329982    3.442938    3.329279    0.007188   -0.006786   -0.002180
C     1.176475    1.452777    7.322780   -0.005242   -0.010366   -0.000626
C     0.900023   -1.901603    9.296421    0.000768   -0.000452   -0.000702
C    -0.214371   -4.863507    6.602857    0.000974    0.000536   -0.000472
C    -0.083410   -3.055928    2.423792    0.000290    0.011410    0.006464
C    -0.045075    0.228818    0.427415    0.012860    0.001584    0.005918
O     0.406444    4.382048    4.399154    0.000168   -0.001118   -0.000880
O     1.821013    1.283805    8.568737    0.000620    0.001792   -0.001492
O     0.692618   -3.254460    9.699040    0.000416    0.001230    0.001578
O    -0.560663   -5.796082    5.580898   -0.001362   -0.001272    0.002462
O     0.211600   -3.019670    1.042198    0.001738   -0.000368    0.005202
O     0.004774    1.626601    0.125758    0.003108    0.001582    0.003672
C     1.396867    3.904707    2.311775    0.019614   -0.012910    0.002632
C     2.211455    1.260122    6.222653   -0.005390   -0.020720   -0.006260
C     2.407876   -1.661906    9.478584   -0.000564   -0.000100    0.001502
C     0.970039   -5.488489    7.350705   -0.001184   -0.000736    0.000366
C     1.235934   -3.056119    3.190493    0.007476    0.032608    0.021112
C     1.220121   -0.350233   -0.227129    0.035556    0.021472    0.032006
O     2.154889    2.873555    1.756191    0.023038   -0.014102   -0.003334
O     2.978306    0.213699    6.450395   -0.000798   -0.013126   -0.024684
O     2.784456   -1.664537   10.829976   -0.000418   -0.000414   -0.000410
O     0.623470   -6.692000    7.985222   -0.000406    0.000204   -0.000366
O     2.141424   -2.312966    2.581315    0.009584   -0.017524   -0.008680
O     2.374993    0.236942    0.285950    0.042650   -0.002438    0.105746
H    -0.251711    4.914368    6.198596    0.004194   -0.000774    0.000408
H     1.537122    1.101854   10.542270    0.000750   -0.002850   -0.002422
H    -0.616288   -4.748887    9.902818    0.002258   -0.000078   -0.002568
H    -1.744709   -6.195512    4.034115    0.004330    0.000702   -0.000784
H    -0.558744   -2.781813   -0.792874    0.003592   -0.001234    0.003958
H    -0.889196    3.407373    0.262703    0.000542    0.001108    0.000460
H    -2.077187    5.250590    4.580366   -0.001088    0.000504    0.000762
H     0.983040    3.443688    9.900591    0.000896   -0.002310   -0.000792
H    -1.113679   -3.038087   11.655677    0.000018   -0.000350   -0.000636
H    -3.125576   -6.232673    6.065841    0.000596    0.000608   -0.000246
H    -1.406919   -4.925114    0.082259    0.001846    0.000218    0.002572
H    -2.265905    1.984069   -1.234372   -0.002284   -0.000168   -0.001822
H    -2.448504    4.230911    6.876791    0.002864   -0.006900   -0.000452
H    -1.169647    1.916776   10.881018    0.001358   -0.000490    0.002130
H    -3.131742   -3.459190    9.731407   -0.000420   -0.001034    0.000538
H    -3.881579   -5.111806    3.909105    0.003946    0.005582   -0.001482
H    -3.377765   -2.951537   -0.303118   -0.001468   -0.000730    0.003048
H    -3.516364    2.769824    1.176480   -0.000558   -0.003828   -0.000252
H    -2.010228    2.206313    4.320436    0.007186   -0.000296   -0.000854
H    -1.284293    2.151060    8.296200    0.003024   -0.003548   -0.001362
H    -1.888783   -1.279094    9.277662    0.003496   -0.000778   -0.002018
H    -2.484229   -3.250847    6.236752    0.006308   -0.000400    0.000070
H    -2.809952   -3.224923    2.208555    0.005554    0.000364    0.003938
H    -2.774675    0.347841    1.298892    0.011004   -0.003368    0.000006
H    -4.072525    3.350516    3.990074    0.003086    0.000180   -0.000700
H    -1.430727    4.379329    9.315122    0.001802   -0.000998   -0.000078
H    -2.885779   -0.994107   11.454827    0.000532   -0.001888    0.000724
H    -4.557429   -4.057850    7.092345    0.000010   -0.001820   -0.001346
H    -3.689111   -5.346402    1.365649    0.002150    0.002002   -0.001192
H    -4.403565    0.456039   -0.469302    0.006090    0.002432    0.000216
H    -1.332079    4.298918    2.214999    0.002352   -0.001242   -0.002122
H     1.197619    3.618456    7.265062    0.005724   -0.012908   -0.004088
H     0.482727   -0.816944   11.127264    0.002640   -0.001056   -0.001986
H    -1.625824   -5.490435    8.123338    0.002700    0.000454    0.000086
H    -0.479532   -5.179779    2.559993    0.014204    0.010154    0.005566
H    -1.274660   -0.608574   -1.163945    0.011348   -0.002980   -0.000340
H     0.585581    2.445553    3.711714   -0.006580   -0.008648    0.010710
H     0.425119    0.660633    7.172404   -0.000320   -0.014536    0.000304
H     0.633810   -1.789935    8.235825    0.011306    0.001392   -0.003638
H     0.101183   -3.918472    6.143409    0.007234   -0.000252    0.000048
H    -0.600482   -2.131227    2.728763    0.001422    0.011098    0.004690
H    -0.001659    0.099005    1.519453    0.002180   -0.009358    0.007014
H     2.094164    4.530215    2.875389    0.008752   -0.011344    0.009800
H     0.927995    4.521474    1.535965    0.018972   -0.017846    0.001728
H     2.936384   -2.443970    8.922140   -0.000598    0.003768   -0.005674
H     2.682653   -0.688828    9.070921   -0.002210   -0.003348   -0.006110
H     1.309757   -4.807644    8.132097   -0.000430    0.002672   -0.003314
H     1.776795   -5.640873    6.625400   -0.000862    0.005272   -0.000706
H     1.247681   -1.432781   -0.080897    0.011750    0.011264    0.005222
H     1.201725   -0.114184   -1.292475    0.074850    0.063016    0.033260
H     1.633378    2.366399    1.106466   -0.008502   -0.043072    0.048534
H     2.641947   -2.553579   11.186954   -0.001534   -0.001148   -0.000506
H     0.373469   -7.332737    7.303351   -0.003120    0.000748   -0.000794
H     2.367303    0.116298    1.248442    0.054672   -0.088172    0.132774
C     3.246947   -1.903614    3.383362    0.026176    0.017048   -0.049366
H     4.026146   -1.567970    2.710302    0.097934   -0.253202   -0.119884
H     3.582181   -2.730073    4.008896   -0.148410    0.103618    0.177594
O     1.429378   -3.665996    4.215887   -0.001038   -0.014006    0.001544
C     3.737023   -0.268469    5.339945    0.032556    0.071264   -0.053158
H     4.331692   -1.087014    5.732726   -0.170316   -0.121212   -0.129664
H     4.376022    0.511393    4.927621    0.192434    0.092842    0.225096
O     2.320437    1.991901    5.266803    0.004340    0.030026    0.024184
C     2.711983   -0.795813    4.309003    0.058374    0.474974   -0.427384
O     1.515367   -0.742618    4.568687   -0.022988    0.029652   -0.036652
H     4.394036    2.251060    1.554612   -0.181188    0.063534   -0.030792
H     2.610019    1.405043    3.445322   -0.273860   -0.361482    0.173550
H     4.437095    0.923944    0.789734   -0.040934    0.063010   -0.165288
O     4.702810    1.341613    1.613299   -0.071440    0.051552   -0.086190
H     3.597686    0.730346    2.622113    1.159600    0.589918   -0.848770
O     2.901879    0.603064    2.977609   -0.218270   -0.491094    0.412218
136
* Frequency(6) -441.1400
C    -0.466824    4.130990    5.461649    0.003196    0.001312   -0.001630
C     0.919910    1.293768    9.655924   -0.000388   -0.000726   -0.001528
C    -0.639300   -3.683577    9.640570   -0.000080    0.000564   -0.001074
C    -1.626211   -5.391545    4.771594    0.000926    0.001640   -0.000558
C    -0.931761   -2.823270    0.237918   -0.000440    0.000622    0.003736
C    -1.099062    2.369246    0.548636    0.001306    0.000468   -0.000358
O    -0.268961    2.853080    6.020438   -0.001428   -0.001156    0.001488
O    -0.092794    0.345955    9.512962   -0.002136    0.000818    0.003832
O    -1.201116   -3.480033    8.372092   -0.003870   -0.000348    0.000834
O    -1.368090   -4.164860    4.131537   -0.005244    0.000890   -0.000480
O    -1.627744   -1.665116    0.581648   -0.001940   -0.000914   -0.003234
O    -1.290955    2.245099    1.933907   -0.001604   -0.000100   -0.000326
C    -1.925263    4.239308    4.990919    0.001960    0.000058   -0.000510
C     0.227083    2.666998    9.745323   -0.000420   -0.000644   -0.000930
C    -1.497551   -2.891107   10.641478   -0.000490   -0.000014   -0.000326
C    -2.911475   -5.255387    5.604092    0.000068    0.000618   -0.000322
C    -1.903033   -4.006084    0.411732    0.000460   -0.000002    0.000830
C    -2.379774    1.882778   -0.150209    0.002144    0.000584   -0.001232
O    -2.845124    3.990964    6.020885    0.000304    0.001668   -0.000696
O    -0.655659    2.740464   10.828009   -0.000002    0.000062   -0.000894
O    -2.827868   -3.331717   10.647658    0.000158    0.000332   -0.000068
O    -4.007399   -4.834620    4.835696   -0.000522   -0.001392    0.000178
O    -3.049183   -3.863165   -0.376611    0.000954    0.000160    0.000218
O    -3.492010    2.656039    0.208840    0.001524   -0.000100   -0.000422
C    -2.139786    3.206717    3.881247    0.004042    0.000394   -0.001164
C    -0.511202    2.924664    8.421705    0.001242   -0.001258   -0.000894
C    -1.410396   -1.407059   10.261871   -0.000046   -0.000216   -0.000190
C    -2.663026   -4.227499    6.711826    0.000574    0.000026   -0.000266
C    -2.270792   -4.133036    1.898120    0.003106   -0.000014    0.000544
C    -2.586091    0.408020    0.215400    0.006902    0.000266   -0.001274
O    -3.408271    3.319570    3.284503    0.002764    0.000434   -0.000354
O    -1.113079    4.199809    8.413160    0.001414   -0.001534   -0.000742
O    -2.037586   -0.587243   11.215847    0.000452   -0.000596   -0.000746
O    -3.741364   -4.145194    7.609390    0.000682   -0.000130   -0.000920
O    -3.081656   -5.265080    2.121406    0.001500    0.001020    0.000812
O    -3.654896   -0.160236   -0.497405    0.004842    0.000346   -0.000030
C    -1.101167    3.376698    2.765351    0.004384   -0.001214   -0.001800
C     0.458497    2.808457    7.234650   -0.000606   -0.006622   -0.001996
C     0.041557   -0.928862   10.127761   -0.000016   -0.000724   -0.001474
C    -1.415830   -4.594405    7.523708    0.000878    0.000778   -0.001000
C    -1.003838   -4.238374    2.765411    0.004568    0.006246    0.002030
C    -1.339298   -0.438458   -0.080586    0.011312    0.000804   -0.000166
C     0.329328    3.443555    3.329477    0.007188   -0.006786   -0.002180
C     1.176952    1.453719    7.322837   -0.005242   -0.010366   -0.000626
C     0.899953   -1.901562    9.296485    0.000768   -0.000452   -0.000702
C    -0.214460   -4.863556    6.602900    0.000974    0.000536   -0.000472
C    -0.083437   -3.056965    2.423204    0.000290    0.011410    0.006464
C    -0.046244    0.228674    0.426877    0.012860    0.001584    0.005918
O     0.406429    4.382150    4.399234    0.000168   -0.001118   -0.000880
O     1.820956    1.283643    8.568872    0.000620    0.001792   -0.001492
O     0.692580   -3.254572    9.698897    0.000416    0.001230    0.001578
O    -0.560539   -5.795966    5.580674   -0.001362   -0.001272    0.002462
O     0.211442   -3.019636    1.041725    0.001738   -0.000368    0.005202
O     0.004492    1.626458    0.125424    0.003108    0.001582    0.003672
C     1.395083    3.905880    2.311535    0.019614   -0.012910    0.002632
C     2.211945    1.262005    6.223222   -0.005390   -0.020720   -0.006260
C     2.407927   -1.661897    9.478447   -0.000564   -0.000100    0.001502
C     0.970147   -5.488422    7.350672   -0.001184   -0.000736    0.000366
C     1.235254   -3.059084    3.188574    0.007476    0.032608    0.021112
C     1.216888   -0.352185   -0.230039    0.035556    0.021472    0.032006
O     2.152795    2.874837    1.756495    0.023038   -0.014102   -0.003334
O     2.978378    0.214892    6.452639   -0.000798   -0.013126   -0.024684
O     2.784494   -1.664499   10.830014   -0.000418   -0.000414   -0.000410
O     0.623507   -6.692019    7.985255   -0.000406    0.000204   -0.000366
O     2.140553   -2.311373    2.582104    0.009584   -0.017524   -0.008680
O     2.371115    0.237164    0.276335    0.042650   -0.002438    0.105746
H    -0.252092    4.914438    6.198559    0.004194   -0.000774    0.000408
H     1.537054    1.102113   10.542491    0.000750   -0.002850   -0.002422
H    -0.616493   -4.748880    9.903051    0.002258   -0.000078   -0.002568
H    -1.745103   -6.195576    4.034186    0.004330    0.000702   -0.000784
H    -0.559071   -2.781701   -0.793234    0.003592   -0.001234    0.003958
H    -0.889246    3.407273    0.262662    0.000542    0.001108    0.000460
H    -2.077088    5.250544    4.580297   -0.001088    0.000504    0.000762
H     0.982958    3.443898    9.900663    0.000896   -0.002310   -0.000792
H    -1.113681   -3.038055   11.655735    0.000018   -0.000350   -0.000636
H    -3.125630   -6.232729    6.065863    0.000596    0.000608   -0.000246
H    -1.407086   -4.925134    0.082025    0.001846    0.000218    0.002572
H    -2.265697    1.984084   -1.234207   -0.002284   -0.000168   -0.001822
H    -2.448764    4.231539    6.876832    0.002864   -0.006900   -0.000452
H    -1.169771    1.916820   10.880825    0.001358   -0.000490    0.002130
H    -3.131704   -3.459096    9.731358   -0.000420   -0.001034    0.000538
H    -3.881938   -5.112313    3.909240    0.003946    0.005582   -0.001482
H    -3.377632   -2.951471   -0.303395   -0.001468   -0.000730    0.003048
H    -3.516313    2.770172    1.176503   -0.000558   -0.003828   -0.000252
H    -2.010881    2.206340    4.320514    0.007186   -0.000296   -0.000854
H    -1.284568    2.151383    8.296324    0.003024   -0.003548   -0.001362
H    -1.889101   -1.279024    9.277846    0.003496   -0.000778   -0.002018
H    -2.484802   -3.250811    6.236746    0.006308   -0.000400    0.000070
H    -2.810457   -3.224956    2.208197    0.005554    0.000364    0.003938
H    -2.775676    0.348147    1.298891    0.011004   -0.003368    0.000006
H    -4.072806    3.350500    3.990137    0.003086    0.000180   -0.000700
H    -1.430891    4.379420    9.315129    0.001802   -0.000998   -0.000078
H    -2.885827   -0.993936   11.454762    0.000532   -0.001888    0.000724
H    -4.557430   -4.057684    7.092468    0.000010   -0.001820   -0.001346
H    -3.689307   -5.346585    1.365757    0.002150    0.002002   -0.001192
H    -4.404119    0.455818   -0.469322    0.006090    0.002432    0.000216
H    -1.332293    4.299031    2.215192    0.002352   -0.001242   -0.002122
H     1.197099    3.619630    7.265434    0.005724   -0.012908   -0.004088
H     0.482487   -0.816848   11.127444    0.002640   -0.001056   -0.001986
H    -1.626069   -5.490476    8.123330    0.002700    0.000454    0.000086
H    -0.480824   -5.180703    2.559487    0.014204    0.010154    0.005566
H    -1.275692   -0.608303   -1.163914    0.011348   -0.002980   -0.000340
H     0.586179    2.446339    3.710740   -0.006580   -0.008648    0.010710
H     0.425148    0.661955    7.172377   -0.000320   -0.014536    0.000304
H     0.632782   -1.790061    8.236156    0.011306    0.001392   -0.003638
H     0.100525   -3.918449    6.143405    0.007234   -0.000252    0.000048
H    -0.600611   -2.132236    2.728336    0.001422    0.011098    0.004690
H    -0.001857    0.099856    1.518815    0.002180   -0.009358    0.007014
H     2.093368    4.531246    2.874497    0.008752   -0.011344    0.009800
H     0.926270    4.523096    1.535808    0.018972   -0.017846    0.001728
H     2.936438   -2.444312    8.922656   -0.000598    0.003768   -0.005674
H     2.682854   -0.688524    9.071476   -0.002210   -0.003348   -0.006110
H     1.309796   -4.807887    8.132398   -0.000430    0.002672   -0.003314
H     1.776873   -5.641353    6.625464   -0.000862    0.005272   -0.000706
H     1.246612   -1.433806   -0.081372    0.011750    0.011264    0.005222
H     1.194920   -0.119914   -1.295499    0.074850    0.063016    0.033260
H     1.634151    2.370315    1.102053   -0.008502   -0.043072    0.048534
H     2.642086   -2.553474   11.187000   -0.001534   -0.001148   -0.000506
H     0.373752   -7.332805    7.303423   -0.003120    0.000748   -0.000794
H     2.362332    0.124315    1.236370    0.054672   -0.088172    0.132774
C     3.244567   -1.905164    3.387851    0.026176    0.017048   -0.049366
H     4.017242   -1.544949    2.721203    0.097934   -0.253202   -0.119884
H     3.595675   -2.739494    3.992749   -0.148410    0.103618    0.177594
O     1.429472   -3.664722    4.215746   -0.001038   -0.014006    0.001544
C     3.734063   -0.274949    5.344778    0.032556    0.071264   -0.053158
H     4.347177   -1.075994    5.744515   -0.170316   -0.121212   -0.129664
H     4.358526    0.502952    4.907155    0.192434    0.092842    0.225096
O     2.320042    1.989171    5.264605    0.004340    0.030026    0.024184
C     2.706675   -0.838998    4.347862    0.058374    0.474974   -0.427384
O     1.517457   -0.745314    4.572019   -0.022988    0.029652   -0.036652
H     4.410510    2.245284    1.557412   -0.181188    0.063534   -0.030792
H     2.634919    1.437910    3.429542   -0.273860   -0.361482    0.173550
H     4.440817    0.918215    0.804762   -0.040934    0.063010   -0.165288
O     4.709305    1.336926    1.621135   -0.071440    0.051552   -0.086190
H     3.492253    0.676709    2.699285    1.159600    0.589918   -0.848770
O     2.921724    0.647715    2.940129   -0.218270   -0.491094    0.412218
136
* Frequency(6) -441.1400
C    -0.467025    4.130907    5.461751    0.003196    0.001312   -0.001630
C     0.919934    1.293814    9.656021   -0.000388   -0.000726   -0.001528
C    -0.639295   -3.683613    9.640637   -0.000080    0.000564   -0.001074
C    -1.626270   -5.391649    4.771629    0.000926    0.001640   -0.000558
C    -0.931733   -2.823309    0.237683   -0.000440    0.000622    0.003736
C    -1.099145    2.369217    0.548659    0.001306    0.000468   -0.000358
O    -0.268871    2.853153    6.020344   -0.001428   -0.001156    0.001488
O    -0.092659    0.345904    9.512721   -0.002136    0.000818    0.003832
O    -1.200873   -3.480011    8.372040   -0.003870   -0.000348    0.000834
O    -1.367759   -4.164916    4.131567   -0.005244    0.000890   -0.000480
O    -1.627622   -1.665058    0.581852   -0.001940   -0.000914   -0.003234
O    -1.290854    2.245105    1.933927   -0.001604   -0.000100   -0.000326
C    -1.925386    4.239304    4.990951    0.001960    0.000058   -0.000510
C     0.227110    2.667038    9.745382   -0.000420   -0.000644   -0.000930
C    -1.497520   -2.891107   10.641498   -0.000490   -0.000014   -0.000326
C    -2.911479   -5.255426    5.604112    0.000068    0.000618   -0.000322
C    -1.903062   -4.006084    0.411680    0.000460   -0.000002    0.000830
C    -2.379909    1.882741   -0.150131    0.002144    0.000584   -0.001232
O    -2.845143    3.990859    6.020929    0.000304    0.001668   -0.000696
O    -0.655659    2.740460   10.828066   -0.000002    0.000062   -0.000894
O    -2.827878   -3.331738   10.647662    0.000158    0.000332   -0.000068
O    -4.007366   -4.834532    4.835685   -0.000522   -0.001392    0.000178
O    -3.049243   -3.863175   -0.376625    0.000954    0.000160    0.000218
O    -3.492106    2.656045    0.208866    0.001524   -0.000100   -0.000422
C    -2.140041    3.206692    3.881320    0.004042    0.000394   -0.001164
C    -0.511280    2.924743    8.421762    0.001242   -0.001258   -0.000894
C    -1.410393   -1.407046   10.261883   -0.000046   -0.000216   -0.000190
C    -2.663062   -4.227500    6.711843    0.000574    0.000026   -0.000266
C    -2.270988   -4.133036    1.898086    0.003106   -0.000014    0.000544
C    -2.586526    0.408003    0.215480    0.006902    0.000266   -0.001274
O    -3.408445    3.319543    3.284525    0.002764    0.000434   -0.000354
O    -1.113168    4.199906    8.413207    0.001414   -0.001534   -0.000742
O    -2.037615   -0.587205   11.215894    0.000452   -0.000596   -0.000746
O    -3.741407   -4.145185    7.609448    0.000682   -0.000130   -0.000920
O    -3.081751   -5.265144    2.121355    0.001500    0.001020    0.000812
O    -3.655201   -0.160258   -0.497403    0.004842    0.000346   -0.000030
C    -1.101443    3.376774    2.765464    0.004384   -0.001214   -0.001800
C     0.458535    2.808874    7.234776   -0.000606   -0.006622   -0.001996
C     0.041558   -0.928816   10.127853   -0.000016   -0.000724   -0.001474
C    -1.415885   -4.594454    7.523771    0.000878    0.000778   -0.001000
C    -1.004126   -4.238768    2.765283    0.004568    0.006246    0.002030
C    -1.340011   -0.438509   -0.080576    0.011312    0.000804   -0.000166
C     0.328875    3.443983    3.329615    0.007188   -0.006786   -0.002180
C     1.177282    1.454373    7.322877   -0.005242   -0.010366   -0.000626
C     0.899905   -1.901533    9.296529    0.000768   -0.000452   -0.000702
C    -0.214521   -4.863590    6.602929    0.000974    0.000536   -0.000472
C    -0.083455   -3.057684    2.422797    0.000290    0.011410    0.006464
C    -0.047055    0.228574    0.426504    0.012860    0.001584    0.005918
O     0.406418    4.382220    4.399289    0.000168   -0.001118   -0.000880
O     1.820917    1.283530    8.568966    0.000620    0.001792   -0.001492
O     0.692554   -3.254649    9.698797    0.000416    0.001230    0.001578
O    -0.560453   -5.795886    5.580519   -0.001362   -0.001272    0.002462
O     0.211333   -3.019613    1.041398    0.001738   -0.000368    0.005202
O     0.004296    1.626358    0.125193    0.003108    0.001582    0.003672
C     1.393847    3.906694    2.311369    0.019614   -0.012910    0.002632
C     2.212285    1.263311    6.223616   -0.005390   -0.020720   -0.006260
C     2.407963   -1.661891    9.478353   -0.000564   -0.000100    0.001502
C     0.970221   -5.488376    7.350649   -0.001184   -0.000736    0.000366
C     1.234783   -3.061139    3.187243    0.007476    0.032608    0.021112
C     1.214648   -0.353538   -0.232056    0.035556    0.021472    0.032006
O     2.151343    2.875726    1.756705    0.023038   -0.014102   -0.003334
O     2.978429    0.215719    6.454195   -0.000798   -0.013126   -0.024684
O     2.784520   -1.664473   10.830039   -0.000418   -0.000414   -0.000410
O     0.623532   -6.692031    7.985278   -0.000406    0.000204   -0.000366
O     2.139949   -2.310268    2.582651    0.009584   -0.017524   -0.008680
O     2.368428    0.237317    0.269671    0.042650   -0.002438    0.105746
H    -0.252356    4.914487    6.198533    0.004194   -0.000774    0.000408
H     1.537007    1.102292   10.542643    0.000750   -0.002850   -0.002422
H    -0.616636   -4.748875    9.903213    0.002258   -0.000078   -0.002568
H    -1.745376   -6.195620    4.034235    0.004330    0.000702   -0.000784
H    -0.559297   -2.781623   -0.793484    0.003592   -0.001234    0.003958
H    -0.889280    3.407203    0.262633    0.000542    0.001108    0.000460
H    -2.077019    5.250512    4.580249   -0.001088    0.000504    0.000762
H     0.982902    3.444043    9.900713    0.000896   -0.002310   -0.000792
H    -1.113682   -3.038033   11.655775    0.000018   -0.000350   -0.000636
H    -3.125668   -6.232767    6.065879    0.000596    0.000608   -0.000246
H    -1.407203   -4.925148    0.081863    0.001846    0.000218    0.002572
H    -2.265553    1.984095   -1.234092   -0.002284   -0.000168   -0.001822
H    -2.448945    4.231974    6.876861    0.002864   -0.006900   -0.000452
H    -1.169856    1.916851   10.880690    0.001358   -0.000490    0.002130
H    -3.131677   -3.459031    9.731325   -0.000420   -0.001034    0.000538
H    -3.882187   -5.112665    3.909333    0.003946    0.005582   -0.001482
H    -3.377539   -2.951425   -0.303587   -0.001468   -0.000730    0.003048
H    -3.516278    2.770413    1.176519   -0.000558   -0.003828   -0.000252
H    -2.011334    2.206359    4.320568    0.007186   -0.000296   -0.000854
H    -1.284758    2.151606    8.296410    0.003024   -0.003548   -0.001362
H    -1.889322   -1.278975    9.277973    0.003496   -0.000778   -0.002018
H    -2.485200   -3.250786    6.236742    0.006308   -0.000400    0.000070
H    -2.810807   -3.224979    2.207949    0.005554    0.000364    0.003938
H    -2.776369    0.348360    1.298891    0.011004   -0.003368    0.000006
H    -4.073000    3.350488    3.990181    0.003086    0.000180   -0.000700
H    -1.431005    4.379483    9.315134    0.001802   -0.000998   -0.000078
H    -2.885861   -0.993817   11.454716    0.000532   -0.001888    0.000724
H    -4.557430   -4.057570    7.092552    0.000010   -0.001820   -0.001346
H    -3.689442   -5.346711    1.365832    0.002150    0.002002   -0.001192
H    -4.404503    0.455664   -0.469335    0.006090    0.002432    0.000216
H    -1.332441    4.299109    2.215326    0.002352   -0.001242   -0.002122
H     1.196738    3.620443    7.265691    0.005724   -0.012908   -0.004088
H     0.482321   -0.816782   11.127570    0.002640   -0.001056   -0.001986
H    -1.626239   -5.490505    8.123324    0.002700    0.000454    0.000086
H    -0.481719   -5.181343    2.559136    0.014204    0.010154    0.005566
H    -1.276407   -0.608115   -1.163893    0.011348   -0.002980   -0.000340
H     0.586594    2.446884    3.710065   -0.006580   -0.008648    0.010710
H     0.425169    0.662871    7.172358   -0.000320   -0.014536    0.000304
H     0.632069   -1.790149    8.236385    0.011306    0.001392   -0.003638
H     0.100069   -3.918433    6.143402    0.007234   -0.000252    0.000048
H    -0.600701   -2.132935    2.728041    0.001422    0.011098    0.004690
H    -0.001995    0.100445    1.518373    0.002180   -0.009358    0.007014
H     2.092817    4.531961    2.873880    0.008752   -0.011344    0.009800
H     0.925074    4.524221    1.535699    0.018972   -0.017846    0.001728
H     2.936476   -2.444550    8.923014   -0.000598    0.003768   -0.005674
H     2.682993   -0.688313    9.071861   -0.002210   -0.003348   -0.006110
H     1.309823   -4.808055    8.132607   -0.000430    0.002672   -0.003314
H     1.776927   -5.641685    6.625508   -0.000862    0.005272   -0.000706
H     1.245872   -1.434515   -0.081701    0.011750    0.011264    0.005222
H     1.190203   -0.123885   -1.297595    0.074850    0.063016    0.033260
H     1.634687    2.373029    1.098995   -0.008502   -0.043072    0.048534
H     2.642183   -2.553402   11.187032   -0.001534   -0.001148   -0.000506
H     0.373949   -7.332852    7.303473   -0.003120    0.000748   -0.000794
H     2.358886    0.129871    1.228003    0.054672   -0.088172    0.132774
C     3.242917   -1.906238    3.390962    0.026176    0.017048   -0.049366
H     4.011070   -1.528993    2.728757    0.097934   -0.253202   -0.119884
H     3.605027   -2.746024    3.981557   -0.148410    0.103618    0.177594
O     1.429538   -3.663840    4.215649   -0.001038   -0.014006    0.001544
C     3.732011   -0.279440    5.348128    0.032556    0.071264   -0.053158
H     4.357910   -1.068355    5.752686   -0.170316   -0.121212   -0.129664
H     4.346399    0.497101    4.892970    0.192434    0.092842    0.225096
O     2.319769    1.987279    5.263081    0.004340    0.030026    0.024184
C     2.702997   -0.868930    4.374794    0.058374    0.474974   -0.427384
O     1.518906   -0.747183    4.574329   -0.022988    0.029652   -0.036652
H     4.421927    2.241280    1.559352   -0.181188    0.063534   -0.030792
H     2.652177    1.460689    3.418606   -0.273860   -0.361482    0.173550
H     4.443396    0.914244    0.815178   -0.040934    0.063010   -0.165288
O     4.713807    1.333678    1.626567   -0.071440    0.051552   -0.086190
H     3.419178    0.639534    2.752772    1.159600    0.589918   -0.848770
O     2.935479    0.678663    2.914153   -0.218270   -0.491094    0.412218
136
* Frequency(6) -441.1400
C    -0.467116    4.130870    5.461798    0.003196    0.001312   -0.001630
C     0.919945    1.293834    9.656064   -0.000388   -0.000726   -0.001528
C    -0.639293   -3.683629    9.640668   -0.000080    0.000564   -0.001074
C    -1.626296   -5.391695    4.771645    0.000926    0.001640   -0.000558
C    -0.931721   -2.823327    0.237577   -0.000440    0.000622    0.003736
C    -1.099182    2.369204    0.548669    0.001306    0.000468   -0.000358
O    -0.268831    2.853185    6.020302   -0.001428   -0.001156    0.001488
O    -0.092599    0.345881    9.512612   -0.002136    0.000818    0.003832
O    -1.200763   -3.480002    8.372016   -0.003870   -0.000348    0.000834
O    -1.367611   -4.164941    4.131580   -0.005244    0.000890   -0.000480
O    -1.627567   -1.665032    0.581943   -0.001940   -0.000914   -0.003234
O    -1.290809    2.245108    1.933937   -0.001604   -0.000100   -0.000326
C    -1.925442    4.239303    4.990966    0.001960    0.000058   -0.000510
C     0.227121    2.667057    9.745408   -0.000420   -0.000644   -0.000930
C    -1.497506   -2.891106   10.641508   -0.000490   -0.000014   -0.000326
C    -2.911481   -5.255444    5.604121    0.000068    0.000618   -0.000322
C    -1.903075   -4.006084    0.411656    0.000460   -0.000002    0.000830
C    -2.379970    1.882724   -0.150096    0.002144    0.000584   -0.001232
O    -2.845152    3.990812    6.020949    0.000304    0.001668   -0.000696
O    -0.655659    2.740458   10.828091   -0.000002    0.000062   -0.000894
O    -2.827882   -3.331748   10.647664    0.000158    0.000332   -0.000068
O    -4.007351   -4.834492    4.835680   -0.000522   -0.001392    0.000178
O    -3.049270   -3.863180   -0.376631    0.000954    0.000160    0.000218
O    -3.492150    2.656048    0.208878    0.001524   -0.000100   -0.000422
C    -2.140155    3.206681    3.881353    0.004042    0.000394   -0.001164
C    -0.511315    2.924779    8.421787    0.001242   -0.001258   -0.000894
C    -1.410392   -1.407040   10.261888   -0.000046   -0.000216   -0.000190
C    -2.663078   -4.227501    6.711851    0.000574    0.000026   -0.000266
C    -2.271075   -4.133035    1.898070    0.003106   -0.000014    0.000544
C    -2.586721    0.407995    0.215516    0.006902    0.000266   -0.001274
O    -3.408523    3.319531    3.284535    0.002764    0.000434   -0.000354
O    -1.113208    4.199949    8.413228    0.001414   -0.001534   -0.000742
O    -2.037628   -0.587188   11.215915    0.000452   -0.000596   -0.000746
O    -3.741426   -4.145182    7.609474    0.000682   -0.000130   -0.000920
O    -3.081793   -5.265173    2.121332    0.001500    0.001020    0.000812
O    -3.655338   -0.160268   -0.497403    0.004842    0.000346   -0.000030
C    -1.101567    3.376808    2.765515    0.004384   -0.001214   -0.001800
C     0.458552    2.809062    7.234832   -0.000606   -0.006622   -0.001996
C     0.041559   -0.928795   10.127895   -0.000016   -0.000724   -0.001474
C    -1.415910   -4.594476    7.523799    0.000878    0.000778   -0.001000
C    -1.004255   -4.238945    2.765226    0.004568    0.006246    0.002030
C    -1.340331   -0.438531   -0.080571    0.011312    0.000804   -0.000166
C     0.328672    3.444175    3.329676    0.007188   -0.006786   -0.002180
C     1.177430    1.454666    7.322894   -0.005242   -0.010366   -0.000626
C     0.899883   -1.901520    9.296549    0.000768   -0.000452   -0.000702
C    -0.214549   -4.863605    6.602943    0.000974    0.000536   -0.000472
C    -0.083463   -3.058007    2.422614    0.000290    0.011410    0.006464
C    -0.047419    0.228529    0.426337    0.012860    0.001584    0.005918
O     0.406413    4.382252    4.399314    0.000168   -0.001118   -0.000880
O     1.820900    1.283479    8.569008    0.000620    0.001792   -0.001492
O     0.692542   -3.254684    9.698753    0.000416    0.001230    0.001578
O    -0.560415   -5.795850    5.580449   -0.001362   -0.001272    0.002462
O     0.211284   -3.019603    1.041251    0.001738   -0.000368    0.005202
O     0.004208    1.626313    0.125089    0.003108    0.001582    0.003672
C     1.393293    3.907059    2.311295    0.019614   -0.012910    0.002632
C     2.212437    1.263897    6.223794   -0.005390   -0.020720   -0.006260
C     2.407979   -1.661888    9.478310   -0.000564   -0.000100    0.001502
C     0.970255   -5.488355    7.350638   -0.001184   -0.000736    0.000366
C     1.234571   -3.062061    3.186646    0.007476    0.032608    0.021112
C     1.213642   -0.354146   -0.232961    0.035556    0.021472    0.032006
O     2.150691    2.876125    1.756799    0.023038   -0.014102   -0.003334
O     2.978451    0.216090    6.454893   -0.000798   -0.013126   -0.024684
O     2.784532   -1.664462   10.830051   -0.000418   -0.000414   -0.000410
O     0.623544   -6.692037    7.985289   -0.000406    0.000204   -0.000366
O     2.139678   -2.309773    2.582897    0.009584   -0.017524   -0.008680
O     2.367221    0.237386    0.266680    0.042650   -0.002438    0.105746
H    -0.252475    4.914509    6.198522    0.004194   -0.000774    0.000408
H     1.536985    1.102373   10.542712    0.000750   -0.002850   -0.002422
H    -0.616700   -4.748873    9.903286    0.002258   -0.000078   -0.002568
H    -1.745498   -6.195640    4.034257    0.004330    0.000702   -0.000784
H    -0.559399   -2.781589   -0.793596    0.003592   -0.001234    0.003958
H    -0.889295    3.407172    0.262620    0.000542    0.001108    0.000460
H    -2.076989    5.250498    4.580227   -0.001088    0.000504    0.000762
H     0.982876    3.444109    9.900735    0.000896   -0.002310   -0.000792
H    -1.113682   -3.038023   11.655793    0.000018   -0.000350   -0.000636
H    -3.125685   -6.232784    6.065886    0.000596    0.000608   -0.000246
H    -1.407255   -4.925154    0.081790    0.001846    0.000218    0.002572
H    -2.265488    1.984100   -1.234040   -0.002284   -0.000168   -0.001822
H    -2.449026    4.232169    6.876874    0.002864   -0.006900   -0.000452
H    -1.169895    1.916865   10.880630    0.001358   -0.000490    0.002130
H    -3.131666   -3.459001    9.731309   -0.000420   -0.001034    0.000538
H    -3.882298   -5.112823    3.909375    0.003946    0.005582   -0.001482
H    -3.377498   -2.951404   -0.303673   -0.001468   -0.000730    0.003048
H    -3.516262    2.770521    1.176526   -0.000558   -0.003828   -0.000252
H    -2.011538    2.206367    4.320592    0.007186   -0.000296   -0.000854
H    -1.284844    2.151707    8.296448    0.003024   -0.003548   -0.001362
H    -1.889420   -1.278953    9.278030    0.003496   -0.000778   -0.002018
H    -2.485378   -3.250774    6.236740    0.006308   -0.000400    0.000070
H    -2.810964   -3.224989    2.207837    0.005554    0.000364    0.003938
H    -2.776680    0.348455    1.298891    0.011004   -0.003368    0.000006
H    -4.073087    3.350483    3.990201    0.003086    0.000180   -0.000700
H    -1.431056    4.379511    9.315136    0.001802   -0.000998   -0.000078
H    -2.885876   -0.993763   11.454695    0.000532   -0.001888    0.000724
H    -4.557430   -4.057518    7.092590    0.000010   -0.001820   -0.001346
H    -3.689503   -5.346767    1.365866    0.002150    0.002002   -0.001192
H    -4.404675    0.455596   -0.469341    0.006090    0.002432    0.000216
H    -1.332507    4.299144    2.215386    0.002352   -0.001242   -0.002122
H     1.196576    3.620808    7.265807    0.005724   -0.012908   -0.004088
H     0.482246   -0.816752   11.127626    0.002640   -0.001056   -0.001986
H    -1.626316   -5.490517    8.123322    0.002700    0.000454    0.000086
H    -0.482120   -5.181630    2.558979    0.014204    0.010154    0.005566
H    -1.276728   -0.608031   -1.163883    0.011348   -0.002980   -0.000340
H     0.586780    2.447128    3.709762   -0.006580   -0.008648    0.010710
H     0.425178    0.663282    7.172349   -0.000320   -0.014536    0.000304
H     0.631749   -1.790189    8.236488    0.011306    0.001392   -0.003638
H     0.099865   -3.918426    6.143400    0.007234   -0.000252    0.000048
H    -0.600741   -2.133249    2.727908    0.001422    0.011098    0.004690
H    -0.002056    0.100710    1.518174    0.002180   -0.009358    0.007014
H     2.092569    4.532282    2.873603    0.008752   -0.011344    0.009800
H     0.924537    4.524726    1.535650    0.018972   -0.017846    0.001728
H     2.936493   -2.444656    8.923174   -0.000598    0.003768   -0.005674
H     2.683056   -0.688218    9.072034   -0.002210   -0.003348   -0.006110
H     1.309835   -4.808131    8.132701   -0.000430    0.002672   -0.003314
H     1.776952   -5.641834    6.625528   -0.000862    0.005272   -0.000706
H     1.245540   -1.434834   -0.081848    0.011750    0.011264    0.005222
H     1.188086   -0.125667   -1.298535    0.074850    0.063016    0.033260
H     1.634928    2.374248    1.097622   -0.008502   -0.043072    0.048534
H     2.642226   -2.553370   11.187046   -0.001534   -0.001148   -0.000506
H     0.374037   -7.332873    7.303496   -0.003120    0.000748   -0.000794
H     2.357340    0.132365    1.224248    0.054672   -0.088172    0.132774
C     3.242177   -1.906720    3.392358    0.026176    0.017048   -0.049366
H     4.008300   -1.521831    2.732148    0.097934   -0.253202   -0.119884
H     3.609225   -2.748954    3.976534   -0.148410    0.103618    0.177594
O     1.429567   -3.663444    4.215605   -0.001038   -0.014006    0.001544
C     3.731090   -0.281455    5.349632    0.032556    0.071264   -0.053158
H     4.362727   -1.064927    5.756353   -0.170316   -0.121212   -0.129664
H     4.340956    0.494475    4.886603    0.192434    0.092842    0.225096
O     2.319646    1.986430    5.262397    0.004340    0.030026    0.024184
C     2.701346   -0.882364    4.386882    0.058374    0.474974   -0.427384
O     1.519556   -0.748022    4.575365   -0.022988    0.029652   -0.036652
H     4.427052    2.239483    1.560223   -0.181188    0.063534   -0.030792
H     2.659923    1.470914    3.413697   -0.273860   -0.361482    0.173550
H     4.444554    0.912462    0.819853   -0.040934    0.063010   -0.165288
O     4.715828    1.332219    1.629004   -0.071440    0.051552   -0.086190
H     3.386380    0.622849    2.776779    1.159600    0.589918   -0.848770
O     2.941653    0.692553    2.902493   -0.218270   -0.491094    0.412218
136
* Frequency(6) -441.1400
C    -0.467085    4.130883    5.461782    0.003196    0.001312   -0.001630
C     0.919942    1.293827    9.656049   -0.000388   -0.000726   -0.001528
C    -0.639294   -3.683623    9.640657   -0.000080    0.000564   -0.001074
C    -1.626287   -5.391679    4.771639    0.000926    0.001640   -0.000558
C    -0.931725   -2.823321    0.237612   -0.000440    0.000622    0.003736
C    -1.099169    2.369208    0.548665    0.001306    0.000468   -0.000358
O    -0.268844    2.853174    6.020316   -0.001428   -0.001156    0.001488
O    -0.092619    0.345888    9.512649   -0.002136    0.000818    0.003832
O    -1.200800   -3.480005    8.372024   -0.003870   -0.000348    0.000834
O    -1.367661   -4.164933    4.131576   -0.005244    0.000890   -0.000480
O    -1.627586   -1.665041    0.581912   -0.001940   -0.000914   -0.003234
O    -1.290824    2.245107    1.933934   -0.001604   -0.000100   -0.000326
C    -1.925423    4.239303    4.990961    0.001960    0.000058   -0.000510
C     0.227118    2.667051    9.745400   -0.000420   -0.000644   -0.000930
C    -1.497511   -2.891106   10.641505   -0.000490   -0.000014   -0.000326
C    -2.911480   -5.255438    5.604118    0.000068    0.000618   -0.000322
C    -1.903071   -4.006084    0.411664    0.000460   -0.000002    0.000830
C    -2.379949    1.882730   -0.150108    0.002144    0.000584   -0.001232
O    -2.845149    3.990828    6.020942    0.000304    0.001668   -0.000696
O    -0.655659    2.740459   10.828082   -0.000002    0.000062   -0.000894
O    -2.827881   -3.331745   10.647663    0.000158    0.000332   -0.000068
O    -4.007356   -4.834506    4.835682   -0.000522   -0.001392    0.000178
O    -3.049261   -3.863178   -0.376629    0.000954    0.000160    0.000218
O    -3.492135    2.656047    0.208874    0.001524   -0.000100   -0.000422
C    -2.140116    3.206684    3.881342    0.004042    0.000394   -0.001164
C    -0.511303    2.924767    8.421778    0.001242   -0.001258   -0.000894
C    -1.410392   -1.407042   10.261886   -0.000046   -0.000216   -0.000190
C    -2.663073   -4.227501    6.711848    0.000574    0.000026   -0.000266
C    -2.271046   -4.133035    1.898075    0.003106   -0.000014    0.000544
C    -2.586656    0.407998    0.215504    0.006902    0.000266   -0.001274
O    -3.408497    3.319535    3.284532    0.002764    0.000434   -0.000354
O    -1.113195    4.199934    8.413221    0.001414   -0.001534   -0.000742
O    -2.037623   -0.587194   11.215908    0.000452   -0.000596   -0.000746
O    -3.741419   -4.145183    7.609465    0.000682   -0.000130   -0.000920
O    -3.081779   -5.265163    2.121339    0.001500    0.001020    0.000812
O    -3.655292   -0.160264   -0.497403    0.004842    0.000346   -0.000030
C    -1.101525    3.376797    2.765498    0.004384   -0.001214   -0.001800
C     0.458547    2.808999    7.234813   -0.000606   -0.006622   -0.001996
C     0.041558   -0.928802   10.127881   -0.000016   -0.000724   -0.001474
C    -1.415902   -4.594469    7.523789    0.000878    0.000778   -0.001000
C    -1.004212   -4.238885    2.765245    0.004568    0.006246    0.002030
C    -1.340223   -0.438524   -0.080573    0.011312    0.000804   -0.000166
C     0.328740    3.444110    3.329656    0.007188   -0.006786   -0.002180
C     1.177381    1.454567    7.322888   -0.005242   -0.010366   -0.000626
C     0.899890   -1.901525    9.296542    0.000768   -0.000452   -0.000702
C    -0.214539   -4.863600    6.602938    0.000974    0.000536   -0.000472
C    -0.083460   -3.057898    2.422676    0.000290    0.011410    0.006464
C    -0.047296    0.228545    0.426393    0.012860    0.001584    0.005918
O     0.406415    4.382241    4.399306    0.000168   -0.001118   -0.000880
O     1.820906    1.283496    8.568994    0.000620    0.001792   -0.001492
O     0.692546   -3.254672    9.698768    0.000416    0.001230    0.001578
O    -0.560428   -5.795862    5.580473   -0.001362   -0.001272    0.002462
O     0.211300   -3.019606    1.041300    0.001738   -0.000368    0.005202
O     0.004237    1.626328    0.125124    0.003108    0.001582    0.003672
C     1.393479    3.906936    2.311320    0.019614   -0.012910    0.002632
C     2.212386    1.263700    6.223734   -0.005390   -0.020720   -0.006260
C     2.407973   -1.661889    9.478324   -0.000564   -0.000100    0.001502
C     0.970244   -5.488362    7.350642   -0.001184   -0.000736    0.000366
C     1.234642   -3.061751    3.186847    0.007476    0.032608    0.021112
C     1.213980   -0.353941   -0.232656    0.035556    0.021472    0.032006
O     2.150910    2.875991    1.756767    0.023038   -0.014102   -0.003334
O     2.978444    0.215966    6.454658   -0.000798   -0.013126   -0.024684
O     2.784528   -1.664466   10.830047   -0.000418   -0.000414   -0.000410
O     0.623540   -6.692035    7.985285   -0.000406    0.000204   -0.000366
O     2.139769   -2.309939    2.582814    0.009584   -0.017524   -0.008680
O     2.367627    0.237363    0.267686    0.042650   -0.002438    0.105746
H    -0.252435    4.914502    6.198526    0.004194   -0.000774    0.000408
H     1.536993    1.102346   10.542689    0.000750   -0.002850   -0.002422
H    -0.616678   -4.748874    9.903261    0.002258   -0.000078   -0.002568
H    -1.745457   -6.195633    4.034250    0.004330    0.000702   -0.000784
H    -0.559365   -2.781600   -0.793558    0.003592   -0.001234    0.003958
H    -0.889290    3.407182    0.262624    0.000542    0.001108    0.000460
H    -2.076999    5.250503    4.580234   -0.001088    0.000504    0.000762
H     0.982885    3.444087    9.900728    0.000896   -0.002310   -0.000792
H    -1.113682   -3.038026   11.655787    0.000018   -0.000350   -0.000636
H    -3.125679   -6.232778    6.065883    0.000596    0.000608   -0.000246
H    -1.407237   -4.925152    0.081814    0.001846    0.000218    0.002572
H    -2.265510    1.984098   -1.234058   -0.002284   -0.000168   -0.001822
H    -2.448999    4.232103    6.876869    0.002864   -0.006900   -0.000452
H    -1.169882    1.916860   10.880650    0.001358   -0.000490    0.002130
H    -3.131669   -3.459011    9.731314   -0.000420   -0.001034    0.000538
H    -3.882261   -5.112770    3.909361    0.003946    0.005582   -0.001482
H    -3.377512   -2.951411   -0.303644   -0.001468   -0.000730    0.003048
H    -3.516268    2.770485    1.176524   -0.000558   -0.003828   -0.000252
H    -2.011469    2.206364    4.320584    0.007186   -0.000296   -0.000854
H    -1.284815    2.151673    8.296435    0.003024   -0.003548   -0.001362
H    -1.889387   -1.278960    9.278011    0.003496   -0.000778   -0.002018
H    -2.485318   -3.250778    6.236740    0.006308   -0.000400    0.000070
H    -2.810911   -3.224986    2.207875    0.005554    0.000364    0.003938
H    -2.776576    0.348423    1.298891    0.011004   -0.003368    0.000006
H    -4.073058    3.350485    3.990195    0.003086    0.000180   -0.000700
H    -1.431038    4.379502    9.315135    0.001802   -0.000998   -0.000078
H    -2.885871   -0.993781   11.454702    0.000532   -0.001888    0.000724
H    -4.557430   -4.057535    7.092578    0.000010   -0.001820   -0.001346
H    -3.689482   -5.346748    1.365854    0.002150    0.002002   -0.001192
H    -4.404617    0.455619   -0.469339    0.006090    0.002432    0.000216
H    -1.332485    4.299132    2.215366    0.002352   -0.001242   -0.002122
H     1.196631    3.620686    7.265768    0.005724   -0.012908   -0.004088
H     0.482271   -0.816762   11.127607    0.002640   -0.001056   -0.001986
H    -1.626290   -5.490513    8.123323    0.002700    0.000454    0.000086
H    -0.481985   -5.181533    2.559032    0.014204    0.010154    0.005566
H    -1.276620   -0.608059   -1.163887    0.011348   -0.002980   -0.000340
H     0.586718    2.447046    3.709864   -0.006580   -0.008648    0.010710
H     0.425175    0.663144    7.172352   -0.000320   -0.014536    0.000304
H     0.631857   -1.790175    8.236453    0.011306    0.001392   -0.003638
H     0.099934   -3.918428    6.143401    0.007234   -0.000252    0.000048
H    -0.600727   -2.133143    2.727953    0.001422    0.011098    0.004690
H    -0.002036    0.100621    1.518241    0.002180   -0.009358    0.007014
H     2.092653    4.532174    2.873696    0.008752   -0.011344    0.009800
H     0.924718    4.524556    1.535667    0.018972   -0.017846    0.001728
H     2.936487   -2.444620    8.923120   -0.000598    0.003768   -0.005674
H     2.683035   -0.688250    9.071976   -0.002210   -0.003348   -0.006110
H     1.309831   -4.808106    8.132669   -0.000430    0.002672   -0.003314
H     1.776943   -5.641784    6.625522   -0.000862    0.005272   -0.000706
H     1.245651   -1.434727   -0.081799    0.011750    0.011264    0.005222
H     1.188798   -0.125068   -1.298219    0.074850    0.063016    0.033260
H     1.634847    2.373838    1.098084   -0.008502   -0.043072    0.048534
H     2.642211   -2.553380   11.187042   -0.001534   -0.001148   -0.000506
H     0.374008   -7.332866    7.303488   -0.003120    0.000748   -0.000794
H     2.357860    0.131526    1.225511    0.054672   -0.088172    0.132774
C     3.242426   -1.906558    3.391888    0.026176    0.017048   -0.049366
H     4.009232   -1.524240    2.731007    0.097934   -0.253202   -0.119884
H     3.607813   -2.747969    3.978224   -0.148410    0.103618    0.177594
O     1.429557   -3.663577    4.215620   -0.001038   -0.014006    0.001544
C     3.731400   -0.280777    5.349126    0.032556    0.071264   -0.053158
H     4.361107   -1.066080    5.755120   -0.170316   -0.121212   -0.129664
H     4.342787    0.495359    4.888745    0.192434    0.092842    0.225096
O     2.319687    1.986715    5.262627    0.004340    0.030026    0.024184
C     2.701901   -0.877845    4.382816    0.058374    0.474974   -0.427384
O     1.519338   -0.747740    4.575017   -0.022988    0.029652   -0.036652
H     4.425328    2.240088    1.559930   -0.181188    0.063534   -0.030792
H     2.657317    1.467474    3.415348   -0.273860   -0.361482    0.173550
H     4.444165    0.913061    0.818281   -0.040934    0.063010   -0.165288
O     4.715148    1.332710    1.628184   -0.071440    0.051552   -0.086190
H     3.397413    0.628462    2.768703    1.159600    0.589918   -0.848770
O     2.939576    0.687880    2.906416   -0.218270   -0.491094    0.412218
136
* Frequency(6) -441.1400
C    -0.466937    4.130944    5.461707    0.003196    0.001312   -0.001630
C     0.919924    1.293794    9.655979   -0.000388   -0.000726   -0.001528
C    -0.639298   -3.683597    9.640608   -0.000080    0.000564   -0.001074
C    -1.626244   -5.391604    4.771613    0.000926    0.001640   -0.000558
C    -0.931745   -2.823292    0.237785   -0.000440    0.000622    0.003736
C    -1.099109    2.369230    0.548649    0.001306    0.000468   -0.000358
O    -0.268911    2.853121    6.020385   -0.001428   -0.001156    0.001488
O    -0.092718    0.345926    9.512826   -0.002136    0.000818    0.003832
O    -1.200979   -3.480021    8.372063   -0.003870   -0.000348    0.000834
O    -1.367903   -4.164892    4.131554   -0.005244    0.000890   -0.000480
O    -1.627676   -1.665083    0.581763   -0.001940   -0.000914   -0.003234
O    -1.290898    2.245102    1.933919   -0.001604   -0.000100   -0.000326
C    -1.925332    4.239306    4.990937    0.001960    0.000058   -0.000510
C     0.227098    2.667021    9.745356   -0.000420   -0.000644   -0.000930
C    -1.497533   -2.891107   10.641490   -0.000490   -0.000014   -0.000326
C    -2.911477   -5.255409    5.604103    0.000068    0.000618   -0.000322
C    -1.903050   -4.006084    0.411703    0.000460   -0.000002    0.000830
C    -2.379850    1.882757   -0.150165    0.002144    0.000584   -0.001232
O    -2.845135    3.990905    6.020910    0.000304    0.001668   -0.000696
O    -0.655659    2.740462   10.828041   -0.000002    0.000062   -0.000894
O    -2.827873   -3.331729   10.647660    0.000158    0.000332   -0.000068
O    -4.007380   -4.834570    4.835690   -0.000522   -0.001392    0.000178
O    -3.049217   -3.863171   -0.376619    0.000954    0.000160    0.000218
O    -3.492065    2.656042    0.208855    0.001524   -0.000100   -0.000422
C    -2.139929    3.206703    3.881288    0.004042    0.000394   -0.001164
C    -0.511246    2.924709    8.421737    0.001242   -0.001258   -0.000894
C    -1.410395   -1.407052   10.261878   -0.000046   -0.000216   -0.000190
C    -2.663046   -4.227500    6.711836    0.000574    0.000026   -0.000266
C    -2.270902   -4.133036    1.898101    0.003106   -0.000014    0.000544
C    -2.586336    0.408010    0.215445    0.006902    0.000266   -0.001274
O    -3.408369    3.319555    3.284516    0.002764    0.000434   -0.000354
O    -1.113129    4.199863    8.413186    0.001414   -0.001534   -0.000742
O    -2.037602   -0.587221   11.215874    0.000452   -0.000596   -0.000746
O    -3.741388   -4.145189    7.609423    0.000682   -0.000130   -0.000920
O    -3.081710   -5.265116    2.121377    0.001500    0.001020    0.000812
O    -3.655068   -0.160248   -0.497404    0.004842    0.000346   -0.000030
C    -1.101323    3.376741    2.765414    0.004384   -0.001214   -0.001800
C     0.458519    2.808692    7.234721   -0.000606   -0.006622   -0.001996
C     0.041558   -0.928836   10.127813   -0.000016   -0.000724   -0.001474
C    -1.415861   -4.594433    7.523743    0.000878    0.000778   -0.001000
C    -1.004000   -4.238596    2.765339    0.004568    0.006246    0.002030
C    -1.339700   -0.438487   -0.080580    0.011312    0.000804   -0.000166
C     0.329073    3.443796    3.329555    0.007188   -0.006786   -0.002180
C     1.177138    1.454087    7.322859   -0.005242   -0.010366   -0.000626
C     0.899926   -1.901546    9.296510    0.000768   -0.000452   -0.000702
C    -0.214494   -4.863575    6.602916    0.000974    0.000536   -0.000472
C    -0.083447   -3.057370    2.422975    0.000290    0.011410    0.006464
C    -0.046701    0.228618    0.426667    0.012860    0.001584    0.005918
O     0.406423    4.382190    4.399265    0.000168   -0.001118   -0.000880
O     1.820934    1.283579    8.568925    0.000620    0.001792   -0.001492
O     0.692565   -3.254615    9.698841    0.000416    0.001230    0.001578
O    -0.560491   -5.795921    5.580587   -0.001362   -0.001272    0.002462
O     0.211381   -3.019623    1.041541    0.001738   -0.000368    0.005202
O     0.004381    1.626401    0.125294    0.003108    0.001582    0.003672
C     1.394387    3.906339    2.311442    0.019614   -0.012910    0.002632
C     2.212136    1.262741    6.223444   -0.005390   -0.020720   -0.006260
C     2.407947   -1.661894    9.478394   -0.000564   -0.000100    0.001502
C     0.970189   -5.488396    7.350659   -0.001184   -0.000736    0.000366
C     1.234988   -3.060241    3.187824    0.007476    0.032608    0.021112
C     1.215626   -0.352947   -0.231175    0.035556    0.021472    0.032006
O     2.151977    2.875338    1.756613    0.023038   -0.014102   -0.003334
O     2.978407    0.215358    6.453516   -0.000798   -0.013126   -0.024684
O     2.784508   -1.664485   10.830028   -0.000418   -0.000414   -0.000410
O     0.623521   -6.692026    7.985268   -0.000406    0.000204   -0.000366
O     2.140213   -2.310750    2.582412    0.009584   -0.017524   -0.008680
O     2.369601    0.237250    0.272581    0.042650   -0.002438    0.105746
H    -0.252241    4.914466    6.198544    0.004194   -0.000774    0.000408
H     1.537027    1.102214   10.542577    0.000750   -0.002850   -0.002422
H    -0.616574   -4.748877    9.903142    0.002258   -0.000078   -0.002568
H    -1.745257   -6.195601    4.034214    0.004330    0.000702   -0.000784
H    -0.559198   -2.781657   -0.793375    0.003592   -0.001234    0.003958
H    -0.889265    3.407233    0.262645    0.000542    0.001108    0.000460
H    -2.077049    5.250526    4.580270   -0.001088    0.000504    0.000762
H     0.982926    3.443980    9.900691    0.000896   -0.002310   -0.000792
H    -1.113681   -3.038042   11.655757    0.000018   -0.000350   -0.000636
H    -3.125652   -6.232750    6.065872    0.000596    0.000608   -0.000246
H    -1.407152   -4.925142    0.081933    0.001846    0.000218    0.002572
H    -2.265616    1.984090   -1.234142   -0.002284   -0.000168   -0.001822
H    -2.448866    4.231784    6.876848    0.002864   -0.006900   -0.000452
H    -1.169819    1.916838   10.880749    0.001358   -0.000490    0.002130
H    -3.131689   -3.459059    9.731339   -0.000420   -0.001034    0.000538
H    -3.882078   -5.112512    3.909292    0.003946    0.005582   -0.001482
H    -3.377580   -2.951445   -0.303503   -0.001468   -0.000730    0.003048
H    -3.516294    2.770308    1.176512   -0.000558   -0.003828   -0.000252
H    -2.011137    2.206351    4.320544    0.007186   -0.000296   -0.000854
H    -1.284675    2.151509    8.296372    0.003024   -0.003548   -0.001362
H    -1.889225   -1.278996    9.277917    0.003496   -0.000778   -0.002018
H    -2.485026   -3.250797    6.236743    0.006308   -0.000400    0.000070
H    -2.810654   -3.224969    2.208057    0.005554    0.000364    0.003938
H    -2.776066    0.348267    1.298891    0.011004   -0.003368    0.000006
H    -4.072915    3.350493    3.990162    0.003086    0.000180   -0.000700
H    -1.430955    4.379455    9.315132    0.001802   -0.000998   -0.000078
H    -2.885846   -0.993869   11.454736    0.000532   -0.001888    0.000724
H    -4.557430   -4.057620    7.092515    0.000010   -0.001820   -0.001346
H    -3.689383   -5.346656    1.365799    0.002150    0.002002   -0.001192
H    -4.404335    0.455731   -0.469329    0.006090    0.002432    0.000216
H    -1.332376    4.299075    2.215268    0.002352   -0.001242   -0.002122
H     1.196896    3.620088    7.265579    0.005724   -0.012908   -0.004088
H     0.482393   -0.816811   11.127515    0.002640   -0.001056   -0.001986
H    -1.626165   -5.490492    8.123327    0.002700    0.000454    0.000086
H    -0.481328   -5.181063    2.559289    0.014204    0.010154    0.005566
H    -1.276095   -0.608197   -1.163902    0.011348   -0.002980   -0.000340
H     0.586413    2.446646    3.710360   -0.006580   -0.008648    0.010710
H     0.425160    0.662471    7.172366   -0.000320   -0.014536    0.000304
H     0.632380   -1.790111    8.236285    0.011306    0.001392   -0.003638
H     0.100268   -3.918440    6.143403    0.007234   -0.000252    0.000048
H    -0.600662   -2.132630    2.728170    0.001422    0.011098    0.004690
H    -0.001935    0.100188    1.518566    0.002180   -0.009358    0.007014
H     2.093058    4.531649    2.874150    0.008752   -0.011344    0.009800
H     0.925596    4.523730    1.535747    0.018972   -0.017846    0.001728
H     2.936459   -2.444446    8.922858   -0.000598    0.003768   -0.005674
H     2.682933   -0.688405    9.071693   -0.002210   -0.003348   -0.006110
H     1.309811   -4.807982    8.132516   -0.000430    0.002672   -0.003314
H     1.776904   -5.641540    6.625489   -0.000862    0.005272   -0.000706
H     1.246195   -1.434205   -0.081557    0.011750    0.011264    0.005222
H     1.192262   -0.122151   -1.296679    0.074850    0.063016    0.033260
H     1.634453    2.371844    1.100330   -0.008502   -0.043072    0.048534
H     2.642140   -2.553434   11.187018   -0.001534   -0.001148   -0.000506
H     0.373863   -7.332831    7.303452   -0.003120    0.000748   -0.000794
H     2.360391    0.127445    1.231656    0.054672   -0.088172    0.132774
C     3.243637   -1.905769    3.389604    0.026176    0.017048   -0.049366
H     4.013765   -1.535959    2.725459    0.097934   -0.253202   -0.119884
H     3.600944   -2.743173    3.986443   -0.148410    0.103618    0.177594
O     1.429509   -3.664225    4.215692   -0.001038   -0.014006    0.001544
C     3.732907   -0.277479    5.346666    0.032556    0.071264   -0.053158
H     4.353224   -1.071690    5.749119   -0.170316   -0.121212   -0.129664
H     4.351693    0.499656    4.899163    0.192434    0.092842    0.225096
O     2.319888    1.988105    5.263746    0.004340    0.030026    0.024184
C     2.704603   -0.855862    4.363036    0.058374    0.474974   -0.427384
O     1.518274   -0.746367    4.573320   -0.022988    0.029652   -0.036652
H     4.416943    2.243028    1.558505   -0.181188    0.063534   -0.030792
H     2.644642    1.450744    3.423380   -0.273860   -0.361482    0.173550
H     4.442270    0.915978    0.810631   -0.040934    0.063010   -0.165288
O     4.711842    1.335096    1.624195   -0.071440    0.051552   -0.086190
H     3.451082    0.655764    2.729421    1.159600    0.589918   -0.848770
O     2.929474    0.665152    2.925494   -0.218270   -0.491094    0.412218
136
* Frequency(6) -441.1400
C    -0.466688    4.131046    5.461579    0.003196    0.001312   -0.001630
C     0.919893    1.293737    9.655859   -0.000388   -0.000726   -0.001528
C    -0.639304   -3.683553    9.640524   -0.000080    0.000564   -0.001074
C    -1.626172   -5.391476    4.771570    0.000926    0.001640   -0.000558
C    -0.931779   -2.823244    0.238077   -0.000440    0.000622    0.003736
C    -1.099007    2.369266    0.548621    0.001306    0.000468   -0.000358
O    -0.269022    2.853031    6.020501   -0.001428   -0.001156    0.001488
O    -0.092885    0.345990    9.513125   -0.002136    0.000818    0.003832
O    -1.201281   -3.480048    8.372128   -0.003870   -0.000348    0.000834
O    -1.368313   -4.164822    4.131516   -0.005244    0.000890   -0.000480
O    -1.627827   -1.665155    0.581510   -0.001940   -0.000914   -0.003234
O    -1.291023    2.245094    1.933893   -0.001604   -0.000100   -0.000326
C    -1.925179    4.239311    4.990898    0.001960    0.000058   -0.000510
C     0.227065    2.666970    9.745284   -0.000420   -0.000644   -0.000930
C    -1.497572   -2.891108   10.641464   -0.000490   -0.000014   -0.000326
C    -2.911472   -5.255361    5.604078    0.000068    0.000618   -0.000322
C    -1.903014   -4.006085    0.411768    0.000460   -0.000002    0.000830
C    -2.379683    1.882802   -0.150261    0.002144    0.000584   -0.001232
O    -2.845111    3.991035    6.020856    0.000304    0.001668   -0.000696
O    -0.655660    2.740467   10.827971   -0.000002    0.000062   -0.000894
O    -2.827861   -3.331703   10.647655    0.000158    0.000332   -0.000068
O    -4.007421   -4.834679    4.835704   -0.000522   -0.001392    0.000178
O    -3.049142   -3.863158   -0.376602    0.000954    0.000160    0.000218
O    -3.491946    2.656034    0.208822    0.001524   -0.000100   -0.000422
C    -2.139614    3.206733    3.881197    0.004042    0.000394   -0.001164
C    -0.511149    2.924610    8.421667    0.001242   -0.001258   -0.000894
C    -1.410398   -1.407069   10.261863   -0.000046   -0.000216   -0.000190
C    -2.663001   -4.227498    6.711815    0.000574    0.000026   -0.000266
C    -2.270660   -4.133037    1.898143    0.003106   -0.000014    0.000544
C    -2.585798    0.408031    0.215346    0.006902    0.000266   -0.001274
O    -3.408153    3.319589    3.284488    0.002764    0.000434   -0.000354
O    -1.113019    4.199744    8.413129    0.001414   -0.001534   -0.000742
O    -2.037567   -0.587268   11.215815    0.000452   -0.000596   -0.000746
O    -3.741335   -4.145199    7.609351    0.000682   -0.000130   -0.000920
O    -3.081592   -5.265036    2.121440    0.001500    0.001020    0.000812
O    -3.654690   -0.160221   -0.497407    0.004842    0.000346   -0.000030
C    -1.100980    3.376646    2.765274    0.004384   -0.001214   -0.001800
C     0.458471    2.808176    7.234565   -0.000606   -0.006622   -0.001996
C     0.041556   -0.928892   10.127698   -0.000016   -0.000724   -0.001474
C    -1.415793   -4.594372    7.523665    0.000878    0.000778   -0.001000
C    -1.003644   -4.238109    2.765498    0.004568    0.006246    0.002030
C    -1.338817   -0.438424   -0.080593    0.011312    0.000804   -0.000166
C     0.329634    3.443267    3.329385    0.007188   -0.006786   -0.002180
C     1.176729    1.453278    7.322811   -0.005242   -0.010366   -0.000626
C     0.899986   -1.901581    9.296455    0.000768   -0.000452   -0.000702
C    -0.214418   -4.863533    6.602879    0.000974    0.000536   -0.000472
C    -0.083424   -3.056480    2.423479    0.000290    0.011410    0.006464
C    -0.045698    0.228741    0.427129    0.012860    0.001584    0.005918
O     0.406436    4.382102    4.399196    0.000168   -0.001118   -0.000880
O     1.820983    1.283719    8.568809    0.000620    0.001792   -0.001492
O     0.692598   -3.254519    9.698964    0.000416    0.001230    0.001578
O    -0.560597   -5.796021    5.580779   -0.001362   -0.001272    0.002462
O     0.211516   -3.019652    1.041947    0.001738   -0.000368    0.005202
O     0.004624    1.626525    0.125581    0.003108    0.001582    0.003672
C     1.395917    3.905331    2.311647    0.019614   -0.012910    0.002632
C     2.211716    1.261124    6.222956   -0.005390   -0.020720   -0.006260
C     2.407903   -1.661902    9.478511   -0.000564   -0.000100    0.001502
C     0.970097   -5.488454    7.350687   -0.001184   -0.000736    0.000366
C     1.235572   -3.057697    3.189471    0.007476    0.032608    0.021112
C     1.218400   -0.351272   -0.228677    0.035556    0.021472    0.032006
O     2.153774    2.874238    1.756353    0.023038   -0.014102   -0.003334
O     2.978345    0.214334    6.451589   -0.000798   -0.013126   -0.024684
O     2.784476   -1.664517   10.829996   -0.000418   -0.000414   -0.000410
O     0.623489   -6.692010    7.985240   -0.000406    0.000204   -0.000366
O     2.140961   -2.312118    2.581735    0.009584   -0.017524   -0.008680
O     2.372929    0.237060    0.280832    0.042650   -0.002438    0.105746
H    -0.251914    4.914405    6.198576    0.004194   -0.000774    0.000408
H     1.537086    1.101992   10.542388    0.000750   -0.002850   -0.002422
H    -0.616397   -4.748883    9.902942    0.002258   -0.000078   -0.002568
H    -1.744919   -6.195546    4.034153    0.004330    0.000702   -0.000784
H    -0.558918   -2.781754   -0.793066    0.003592   -0.001234    0.003958
H    -0.889223    3.407320    0.262681    0.000542    0.001108    0.000460
H    -2.077134    5.250566    4.580329   -0.001088    0.000504    0.000762
H     0.982996    3.443800    9.900629    0.000896   -0.002310   -0.000792
H    -1.113680   -3.038070   11.655708    0.000018   -0.000350   -0.000636
H    -3.125605   -6.232703    6.065853    0.000596    0.000608   -0.000246
H    -1.407008   -4.925125    0.082134    0.001846    0.000218    0.002572
H    -2.265794    1.984077   -1.234284   -0.002284   -0.000168   -0.001822
H    -2.448643    4.231245    6.876813    0.002864   -0.006900   -0.000452
H    -1.169713    1.916799   10.880915    0.001358   -0.000490    0.002130
H    -3.131722   -3.459140    9.731381   -0.000420   -0.001034    0.000538
H    -3.881770   -5.112076    3.909177    0.003946    0.005582   -0.001482
H    -3.377694   -2.951502   -0.303265   -0.001468   -0.000730    0.003048
H    -3.516337    2.770009    1.176492   -0.000558   -0.003828   -0.000252
H    -2.010576    2.206328    4.320478    0.007186   -0.000296   -0.000854
H    -1.284439    2.151232    8.296266    0.003024   -0.003548   -0.001362
H    -1.888953   -1.279057    9.277760    0.003496   -0.000778   -0.002018
H    -2.484534   -3.250828    6.236749    0.006308   -0.000400    0.000070
H    -2.810221   -3.224940    2.208364    0.005554    0.000364    0.003938
H    -2.775208    0.348004    1.298892    0.011004   -0.003368    0.000006
H    -4.072674    3.350507    3.990107    0.003086    0.000180   -0.000700
H    -1.430814    4.379378    9.315126    0.001802   -0.000998   -0.000078
H    -2.885804   -0.994016   11.454792    0.000532   -0.001888    0.000724
H    -4.557429   -4.057762    7.092410    0.000010   -0.001820   -0.001346
H    -3.689215   -5.346499    1.365706    0.002150    0.002002   -0.001192
H    -4.403860    0.455921   -0.469312    0.006090    0.002432    0.000216
H    -1.332193    4.298978    2.215102    0.002352   -0.001242   -0.002122
H     1.197342    3.619081    7.265260    0.005724   -0.012908   -0.004088
H     0.482599   -0.816893   11.127360    0.002640   -0.001056   -0.001986
H    -1.625954   -5.490457    8.123334    0.002700    0.000454    0.000086
H    -0.480219   -5.180271    2.559723    0.014204    0.010154    0.005566
H    -1.275210   -0.608429   -1.163929    0.011348   -0.002980   -0.000340
H     0.585900    2.445971    3.711196   -0.006580   -0.008648    0.010710
H     0.425135    0.661337    7.172390   -0.000320   -0.014536    0.000304
H     0.633262   -1.790002    8.236001    0.011306    0.001392   -0.003638
H     0.100833   -3.918460    6.143407    0.007234   -0.000252    0.000048
H    -0.600551   -2.131764    2.728536    0.001422    0.011098    0.004690
H    -0.001765    0.099458    1.519113    0.002180   -0.009358    0.007014
H     2.093741    4.530764    2.874914    0.008752   -0.011344    0.009800
H     0.927077    4.522337    1.535882    0.018972   -0.017846    0.001728
H     2.936413   -2.444152    8.922415   -0.000598    0.003768   -0.005674
H     2.682760   -0.688666    9.071216   -0.002210   -0.003348   -0.006110
H     1.309777   -4.807773    8.132257   -0.000430    0.002672   -0.003314
H     1.776836   -5.641128    6.625434   -0.000862    0.005272   -0.000706
H     1.247112   -1.433326   -0.081150    0.011750    0.011264    0.005222
H     1.198103   -0.117234   -1.294084    0.074850    0.063016    0.033260
H     1.633790    2.368483    1.104117   -0.008502   -0.043072    0.048534
H     2.642021   -2.553523   11.186979   -0.001534   -0.001148   -0.000506
H     0.373620   -7.332773    7.303390   -0.003120    0.000748   -0.000794
H     2.364657    0.120565    1.242017    0.054672   -0.088172    0.132774
C     3.245680   -1.904439    3.385751    0.026176    0.017048   -0.049366
H     4.021407   -1.555717    2.716104    0.097934   -0.253202   -0.119884
H     3.589363   -2.735087    4.000302   -0.148410    0.103618    0.177594
O     1.429428   -3.665318    4.215812   -0.001038   -0.014006    0.001544
C     3.735447   -0.271918    5.342518    0.032556    0.071264   -0.053158
H     4.339934   -1.081149    5.739000   -0.170316   -0.121212   -0.129664
H     4.366710    0.506900    4.916728    0.192434    0.092842    0.225096
O     2.320227    1.990448    5.265633    0.004340    0.030026    0.024184
C     2.709158   -0.818798    4.329686    0.058374    0.474974   -0.427384
O     1.516480   -0.744053    4.570460   -0.022988    0.029652   -0.036652
H     4.402804    2.247986    1.556102   -0.181188    0.063534   -0.030792
H     2.623272    1.422536    3.436923   -0.273860   -0.361482    0.173550
H     4.439076    0.920894    0.797733   -0.040934    0.063010   -0.165288
O     4.706267    1.339119    1.617470   -0.071440    0.051552   -0.086190
H     3.541570    0.701798    2.663188    1.159600    0.589918   -0.848770
O     2.912441    0.626830    2.957661   -0.218270   -0.491094    0.412218
136
* Frequency(6) -441.1400
C    -0.466364    4.131179    5.461414    0.003196    0.001312   -0.001630
C     0.919854    1.293664    9.655705   -0.000388   -0.000726   -0.001528
C    -0.639312   -3.683496    9.640415   -0.000080    0.000564   -0.001074
C    -1.626078   -5.391309    4.771513    0.000926    0.001640   -0.000558
C    -0.931824   -2.823181    0.238455   -0.000440    0.000622    0.003736
C    -1.098874    2.369314    0.548585    0.001306    0.000468   -0.000358
O    -0.269167    2.852913    6.020652   -0.001428   -0.001156    0.001488
O    -0.093101    0.346073    9.513514   -0.002136    0.000818    0.003832
O    -1.201673   -3.480083    8.372212   -0.003870   -0.000348    0.000834
O    -1.368844   -4.164732    4.131468   -0.005244    0.000890   -0.000480
O    -1.628024   -1.665247    0.581183   -0.001940   -0.000914   -0.003234
O    -1.291186    2.245084    1.933860   -0.001604   -0.000100   -0.000326
C    -1.924981    4.239316    4.990846    0.001960    0.000058   -0.000510
C     0.227023    2.666905    9.745190   -0.000420   -0.000644   -0.000930
C    -1.497621   -2.891109   10.641431   -0.000490   -0.000014   -0.000326
C    -2.911465   -5.255298    5.604046    0.000068    0.000618   -0.000322
C    -1.902967   -4.006085    0.411852    0.000460   -0.000002    0.000830
C    -2.379466    1.882862   -0.150386    0.002144    0.000584   -0.001232
O    -2.845081    3.991204    6.020785    0.000304    0.001668   -0.000696
O    -0.655660    2.740473   10.827881   -0.000002    0.000062   -0.000894
O    -2.827845   -3.331670   10.647648    0.000158    0.000332   -0.000068
O    -4.007474   -4.834820    4.835722   -0.000522   -0.001392    0.000178
O    -3.049045   -3.863142   -0.376580    0.000954    0.000160    0.000218
O    -3.491791    2.656024    0.208779    0.001524   -0.000100   -0.000422
C    -2.139204    3.206773    3.881079    0.004042    0.000394   -0.001164
C    -0.511023    2.924483    8.421577    0.001242   -0.001258   -0.000894
C    -1.410403   -1.407090   10.261844   -0.000046   -0.000216   -0.000190
C    -2.662943   -4.227495    6.711788    0.000574    0.000026   -0.000266
C    -2.270345   -4.133038    1.898198    0.003106   -0.000014    0.000544
C    -2.585098    0.408058    0.215217    0.006902    0.000266   -0.001274
O    -3.407873    3.319633    3.284452    0.002764    0.000434   -0.000354
O    -1.112876    4.199588    8.413053    0.001414   -0.001534   -0.000742
O    -2.037521   -0.587328   11.215740    0.000452   -0.000596   -0.000746
O    -3.741266   -4.145212    7.609258    0.000682   -0.000130   -0.000920
O    -3.081440   -5.264933    2.121523    0.001500    0.001020    0.000812
O    -3.654199   -0.160186   -0.497410    0.004842    0.000346   -0.000030
C    -1.100536    3.376523    2.765092    0.004384   -0.001214   -0.001800
C     0.458410    2.807505    7.234363   -0.000606   -0.006622   -0.001996
C     0.041555   -0.928966   10.127549   -0.000016   -0.000724   -0.001474
C    -1.415704   -4.594293    7.523564    0.000878    0.000778   -0.001000
C    -1.003181   -4.237476    2.765703    0.004568    0.006246    0.002030
C    -1.337671   -0.438342   -0.080610    0.011312    0.000804   -0.000166
C     0.330362    3.442579    3.329164    0.007188   -0.006786   -0.002180
C     1.176198    1.452228    7.322747   -0.005242   -0.010366   -0.000626
C     0.900064   -1.901627    9.296384    0.000768   -0.000452   -0.000702
C    -0.214320   -4.863479    6.602832    0.000974    0.000536   -0.000472
C    -0.083395   -3.055324    2.424134    0.000290    0.011410    0.006464
C    -0.044394    0.228902    0.427728    0.012860    0.001584    0.005918
O     0.406453    4.381989    4.399107    0.000168   -0.001118   -0.000880
O     1.821046    1.283900    8.568658    0.000620    0.001792   -0.001492
O     0.692640   -3.254395    9.699124    0.000416    0.001230    0.001578
O    -0.560735   -5.796149    5.581028   -0.001362   -0.001272    0.002462
O     0.211692   -3.019689    1.042474    0.001738   -0.000368    0.005202
O     0.004939    1.626685    0.125953    0.003108    0.001582    0.003672
C     1.397905    3.904023    2.311914    0.019614   -0.012910    0.002632
C     2.211170    1.259025    6.222321   -0.005390   -0.020720   -0.006260
C     2.407846   -1.661912    9.478663   -0.000564   -0.000100    0.001502
C     0.969977   -5.488528    7.350724   -0.001184   -0.000736    0.000366
C     1.236329   -3.054393    3.191611    0.007476    0.032608    0.021112
C     1.222003   -0.349096   -0.225434    0.035556    0.021472    0.032006
O     2.156109    2.872809    1.756015    0.023038   -0.014102   -0.003334
O     2.978264    0.213004    6.449088   -0.000798   -0.013126   -0.024684
O     2.784434   -1.664559   10.829955   -0.000418   -0.000414   -0.000410
O     0.623448   -6.691989    7.985203   -0.000406    0.000204   -0.000366
O     2.141932   -2.313893    2.580855    0.009584   -0.017524   -0.008680
O     2.377251    0.236813    0.291548    0.042650   -0.002438    0.105746
H    -0.251489    4.914327    6.198618    0.004194   -0.000774    0.000408
H     1.537162    1.101703   10.542142    0.000750   -0.002850   -0.002422
H    -0.616169   -4.748891    9.902682    0.002258   -0.000078   -0.002568
H    -1.744480   -6.195475    4.034073    0.004330    0.000702   -0.000784
H    -0.558554   -2.781879   -0.792665    0.003592   -0.001234    0.003958
H    -0.889168    3.407432    0.262728    0.000542    0.001108    0.000460
H    -2.077244    5.250617    4.580406   -0.001088    0.000504    0.000762
H     0.983087    3.443566    9.900549    0.000896   -0.002310   -0.000792
H    -1.113678   -3.038105   11.655643    0.000018   -0.000350   -0.000636
H    -3.125545   -6.232641    6.065828    0.000596    0.000608   -0.000246
H    -1.406821   -4.925103    0.082395    0.001846    0.000218    0.002572
H    -2.266025    1.984060   -1.234469   -0.002284   -0.000168   -0.001822
H    -2.448352    4.230546    6.876767    0.002864   -0.006900   -0.000452
H    -1.169575    1.916750   10.881131    0.001358   -0.000490    0.002130
H    -3.131764   -3.459244    9.731436   -0.000420   -0.001034    0.000538
H    -3.881370   -5.111510    3.909026    0.003946    0.005582   -0.001482
H    -3.377843   -2.951576   -0.302956   -0.001468   -0.000730    0.003048
H    -3.516394    2.769621    1.176467   -0.000558   -0.003828   -0.000252
H    -2.009848    2.206298    4.320391    0.007186   -0.000296   -0.000854
H    -1.284133    2.150872    8.296128    0.003024   -0.003548   -0.001362
H    -1.888598   -1.279136    9.277555    0.003496   -0.000778   -0.002018
H    -2.483895   -3.250869    6.236756    0.006308   -0.000400    0.000070
H    -2.809658   -3.224903    2.208763    0.005554    0.000364    0.003938
H    -2.774093    0.347663    1.298892    0.011004   -0.003368    0.000006
H    -4.072362    3.350526    3.990037    0.003086    0.000180   -0.000700
H    -1.430632    4.379276    9.315118    0.001802   -0.000998   -0.000078
H    -2.885750   -0.994207   11.454866    0.000532   -0.001888    0.000724
H    -4.557428   -4.057946    7.092274    0.000010   -0.001820   -0.001346
H    -3.688997   -5.346297    1.365585    0.002150    0.002002   -0.001192
H    -4.403243    0.456168   -0.469291    0.006090    0.002432    0.000216
H    -1.331954    4.298852    2.214887    0.002352   -0.001242   -0.002122
H     1.197922    3.617773    7.264846    0.005724   -0.012908   -0.004088
H     0.482867   -0.817000   11.127159    0.002640   -0.001056   -0.001986
H    -1.625681   -5.490411    8.123342    0.002700    0.000454    0.000086
H    -0.478780   -5.179242    2.560287    0.014204    0.010154    0.005566
H    -1.274060   -0.608731   -1.163963    0.011348   -0.002980   -0.000340
H     0.585233    2.445095    3.712281   -0.006580   -0.008648    0.010710
H     0.425102    0.659864    7.172420   -0.000320   -0.014536    0.000304
H     0.634408   -1.789861    8.235632    0.011306    0.001392   -0.003638
H     0.101566   -3.918485    6.143412    0.007234   -0.000252    0.000048
H    -0.600407   -2.130639    2.729011    0.001422    0.011098    0.004690
H    -0.001544    0.098509    1.519824    0.002180   -0.009358    0.007014
H     2.094627    4.529614    2.875907    0.008752   -0.011344    0.009800
H     0.928999    4.520529    1.536057    0.018972   -0.017846    0.001728
H     2.936352   -2.443770    8.921840   -0.000598    0.003768   -0.005674
H     2.682536   -0.689006    9.070597   -0.002210   -0.003348   -0.006110
H     1.309734   -4.807503    8.131922   -0.000430    0.002672   -0.003314
H     1.776749   -5.640594    6.625362   -0.000862    0.005272   -0.000706
H     1.248303   -1.432185   -0.080620    0.011750    0.011264    0.005222
H     1.205688   -0.110848   -1.290714    0.074850    0.063016    0.033260
H     1.632928    2.364119    1.109035   -0.008502   -0.043072    0.048534
H     2.641865   -2.553640   11.186928   -0.001534   -0.001148   -0.000506
H     0.373304   -7.332697    7.303309   -0.003120    0.000748   -0.000794
H     2.370197    0.111630    1.255471    0.054672   -0.088172    0.132774
C     3.248332   -1.902711    3.380749    0.026176    0.017048   -0.049366
H     4.031330   -1.581374    2.703956    0.097934   -0.253202   -0.119884
H     3.574325   -2.724588    4.018297   -0.148410    0.103618    0.177594
O     1.429323   -3.666737    4.215969   -0.001038   -0.014006    0.001544
C     3.738746   -0.264697    5.337131    0.032556    0.071264   -0.053158
H     4.322676   -1.093431    5.725862   -0.170316   -0.121212   -0.129664
H     4.386209    0.516308    4.939537    0.192434    0.092842    0.225096
O     2.320667    1.993491    5.268084    0.004340    0.030026    0.024184
C     2.715073   -0.770669    4.286379    0.058374    0.474974   -0.427384
O     1.514150   -0.741049    4.566746   -0.022988    0.029652   -0.036652
H     4.384444    2.254424    1.552982   -0.181188    0.063534   -0.030792
H     2.595522    1.385908    3.454509   -0.273860   -0.361482    0.173550
H     4.434928    0.927279    0.780984   -0.040934    0.063010   -0.165288
O     4.699028    1.344342    1.608736   -0.071440    0.051552   -0.086190
H     3.659071    0.761574    2.577182    1.159600    0.589918   -0.848770
O     2.890324    0.577067    2.999431   -0.218270   -0.491094    0.412218
136
* Frequency(6) -441.1400
C    -0.466001    4.131328    5.461229    0.003196    0.001312   -0.001630
C     0.919810    1.293581    9.655531   -0.000388   -0.000726   -0.001528
C    -0.639321   -3.683432    9.640293   -0.000080    0.000564   -0.001074
C    -1.625973   -5.391123    4.771450    0.000926    0.001640   -0.000558
C    -0.931874   -2.823110    0.238880   -0.000440    0.000622    0.003736
C    -1.098726    2.369367    0.548544    0.001306    0.000468   -0.000358
O    -0.269329    2.852782    6.020821   -0.001428   -0.001156    0.001488
O    -0.093344    0.346166    9.513949   -0.002136    0.000818    0.003832
O    -1.202113   -3.480123    8.372307   -0.003870   -0.000348    0.000834
O    -1.369440   -4.164631    4.131413   -0.005244    0.000890   -0.000480
O    -1.628244   -1.665351    0.580815   -0.001940   -0.000914   -0.003234
O    -1.291368    2.245073    1.933823   -0.001604   -0.000100   -0.000326
C    -1.924758    4.239323    4.990788    0.001960    0.000058   -0.000510
C     0.226975    2.666832    9.745084   -0.000420   -0.000644   -0.000930
C    -1.497677   -2.891111   10.641394   -0.000490   -0.000014   -0.000326
C    -2.911457   -5.255228    5.604009    0.000068    0.000618   -0.000322
C    -1.902915   -4.006085    0.411946    0.000460   -0.000002    0.000830
C    -2.379222    1.882928   -0.150526    0.002144    0.000584   -0.001232
O    -2.845046    3.991394    6.020706    0.000304    0.001668   -0.000696
O    -0.655660    2.740480   10.827779   -0.000002    0.000062   -0.000894
O    -2.827827   -3.331632   10.647640    0.000158    0.000332   -0.000068
O    -4.007533   -4.834978    4.835742   -0.000522   -0.001392    0.000178
O    -3.048937   -3.863124   -0.376555    0.000954    0.000160    0.000218
O    -3.491618    2.656013    0.208731    0.001524   -0.000100   -0.000422
C    -2.138745    3.206818    3.880947    0.004042    0.000394   -0.001164
C    -0.510882    2.924340    8.421475    0.001242   -0.001258   -0.000894
C    -1.410408   -1.407115   10.261822   -0.000046   -0.000216   -0.000190
C    -2.662878   -4.227492    6.711758    0.000574    0.000026   -0.000266
C    -2.269992   -4.133040    1.898260    0.003106   -0.000014    0.000544
C    -2.584314    0.408088    0.215072    0.006902    0.000266   -0.001274
O    -3.407559    3.319682    3.284412    0.002764    0.000434   -0.000354
O    -1.112715    4.199414    8.412969    0.001414   -0.001534   -0.000742
O    -2.037470   -0.587396   11.215655    0.000452   -0.000596   -0.000746
O    -3.741188   -4.145227    7.609153    0.000682   -0.000130   -0.000920
O    -3.081270   -5.264817    2.121615    0.001500    0.001020    0.000812
O    -3.653649   -0.160147   -0.497413    0.004842    0.000346   -0.000030
C    -1.100038    3.376385    2.764887    0.004384   -0.001214   -0.001800
C     0.458341    2.806752    7.234136   -0.000606   -0.006622   -0.001996
C     0.041553   -0.929048   10.127381   -0.000016   -0.000724   -0.001474
C    -1.415604   -4.594205    7.523450    0.000878    0.000778   -0.001000
C    -1.002662   -4.236766    2.765934    0.004568    0.006246    0.002030
C    -1.336385   -0.438251   -0.080629    0.011312    0.000804   -0.000166
C     0.331179    3.441808    3.328916    0.007188   -0.006786   -0.002180
C     1.175602    1.451050    7.322676   -0.005242   -0.010366   -0.000626
C     0.900151   -1.901678    9.296304    0.000768   -0.000452   -0.000702
C    -0.214209   -4.863418    6.602778    0.000974    0.000536   -0.000472
C    -0.083362   -3.054027    2.424869    0.000290    0.011410    0.006464
C    -0.042933    0.229082    0.428401    0.012860    0.001584    0.005918
O     0.406472    4.381862    4.399007    0.000168   -0.001118   -0.000880
O     1.821116    1.284104    8.568488    0.000620    0.001792   -0.001492
O     0.692687   -3.254255    9.699303    0.000416    0.001230    0.001578
O    -0.560890   -5.796294    5.581308   -0.001362   -0.001272    0.002462
O     0.211890   -3.019731    1.043065    0.001738   -0.000368    0.005202
O     0.005292    1.626865    0.126370    0.003108    0.001582    0.003672
C     1.400134    3.902556    2.312213    0.019614   -0.012910    0.002632
C     2.210557    1.256670    6.221610   -0.005390   -0.020720   -0.006260
C     2.407782   -1.661923    9.478834   -0.000564   -0.000100    0.001502
C     0.969842   -5.488612    7.350766   -0.001184   -0.000736    0.000366
C     1.237179   -3.050687    3.194010    0.007476    0.032608    0.021112
C     1.226044   -0.346656   -0.221797    0.035556    0.021472    0.032006
O     2.158727    2.871206    1.755636    0.023038   -0.014102   -0.003334
O     2.978173    0.211512    6.446283   -0.000798   -0.013126   -0.024684
O     2.784386   -1.664606   10.829908   -0.000418   -0.000414   -0.000410
O     0.623402   -6.691966    7.985161   -0.000406    0.000204   -0.000366
O     2.143021   -2.315885    2.579869    0.009584   -0.017524   -0.008680
O     2.382098    0.236536    0.303565    0.042650   -0.002438    0.105746
H    -0.251012    4.914239    6.198664    0.004194   -0.000774    0.000408
H     1.537247    1.101379   10.541867    0.000750   -0.002850   -0.002422
H    -0.615912   -4.748900    9.902390    0.002258   -0.000078   -0.002568
H    -1.743988   -6.195395    4.033984    0.004330    0.000702   -0.000784
H    -0.558146   -2.782019   -0.792215    0.003592   -0.001234    0.003958
H    -0.889106    3.407558    0.262780    0.000542    0.001108    0.000460
H    -2.077368    5.250674    4.580493   -0.001088    0.000504    0.000762
H     0.983189    3.443303    9.900459    0.000896   -0.002310   -0.000792
H    -1.113676   -3.038145   11.655571    0.000018   -0.000350   -0.000636
H    -3.125477   -6.232572    6.065800    0.000596    0.000608   -0.000246
H    -1.406611   -4.925078    0.082687    0.001846    0.000218    0.002572
H    -2.266285    1.984041   -1.234676   -0.002284   -0.000168   -0.001822
H    -2.448027    4.229762    6.876716    0.002864   -0.006900   -0.000452
H    -1.169421    1.916694   10.881373    0.001358   -0.000490    0.002130
H    -3.131812   -3.459362    9.731497   -0.000420   -0.001034    0.000538
H    -3.880922   -5.110876    3.908858    0.003946    0.005582   -0.001482
H    -3.378010   -2.951659   -0.302610   -0.001468   -0.000730    0.003048
H    -3.516457    2.769186    1.176438   -0.000558   -0.003828   -0.000252
H    -2.009031    2.206264    4.320294    0.007186   -0.000296   -0.000854
H    -1.283789    2.150469    8.295973    0.003024   -0.003548   -0.001362
H    -1.888201   -1.279224    9.277326    0.003496   -0.000778   -0.002018
H    -2.483178   -3.250914    6.236764    0.006308   -0.000400    0.000070
H    -2.809027   -3.224862    2.209211    0.005554    0.000364    0.003938
H    -2.772842    0.347280    1.298893    0.011004   -0.003368    0.000006
H    -4.072011    3.350546    3.989957    0.003086    0.000180   -0.000700
H    -1.430427    4.379163    9.315109    0.001802   -0.000998   -0.000078
H    -2.885690   -0.994422   11.454948    0.000532   -0.001888    0.000724
H    -4.557427   -4.058153    7.092121    0.000010   -0.001820   -0.001346
H    -3.688753   -5.346069    1.365450    0.002150    0.002002   -0.001192
H    -4.402551    0.456444   -0.469266    0.006090    0.002432    0.000216
H    -1.331687    4.298711    2.214646    0.002352   -0.001242   -0.002122
H     1.198573    3.616306    7.264381    0.005724   -0.012908   -0.004088
H     0.483167   -0.817120   11.126933    0.002640   -0.001056   -0.001986
H    -1.625374   -5.490359    8.123352    0.002700    0.000454    0.000086
H    -0.477166   -5.178088    2.560920    0.014204    0.010154    0.005566
H    -1.272770   -0.609070   -1.164002    0.011348   -0.002980   -0.000340
H     0.584485    2.444112    3.713498   -0.006580   -0.008648    0.010710
H     0.425066    0.658212    7.172455   -0.000320   -0.014536    0.000304
H     0.635693   -1.789703    8.235219    0.011306    0.001392   -0.003638
H     0.102388   -3.918514    6.143417    0.007234   -0.000252    0.000048
H    -0.600245   -2.129378    2.729544    0.001422    0.011098    0.004690
H    -0.001296    0.097446    1.520621    0.002180   -0.009358    0.007014
H     2.095622    4.528325    2.877021    0.008752   -0.011344    0.009800
H     0.931155    4.518501    1.536253    0.018972   -0.017846    0.001728
H     2.936284   -2.443342    8.921195   -0.000598    0.003768   -0.005674
H     2.682285   -0.689386    9.069903   -0.002210   -0.003348   -0.006110
H     1.309685   -4.807199    8.131545   -0.000430    0.002672   -0.003314
H     1.776651   -5.639995    6.625282   -0.000862    0.005272   -0.000706
H     1.249638   -1.430905   -0.080027    0.011750    0.011264    0.005222
H     1.214194   -0.103687   -1.286934    0.074850    0.063016    0.033260
H     1.631962    2.359224    1.114551   -0.008502   -0.043072    0.048534
H     2.641691   -2.553770   11.186870   -0.001534   -0.001148   -0.000506
H     0.372949   -7.332612    7.303219   -0.003120    0.000748   -0.000794
H     2.376410    0.101610    1.270560    0.054672   -0.088172    0.132774
C     3.251307   -1.900774    3.375139    0.026176    0.017048   -0.049366
H     4.042460   -1.610149    2.690332    0.097934   -0.253202   -0.119884
H     3.557459   -2.712812    4.038480   -0.148410    0.103618    0.177594
O     1.429205   -3.668329    4.216144   -0.001038   -0.014006    0.001544
C     3.742446   -0.256598    5.331090    0.032556    0.071264   -0.053158
H     4.303320   -1.107206    5.711126   -0.170316   -0.121212   -0.129664
H     4.408078    0.526859    4.965118    0.192434    0.092842    0.225096
O     2.321160    1.996903    5.270832    0.004340    0.030026    0.024184
C     2.721707   -0.716691    4.237809    0.058374    0.474974   -0.427384
O     1.511538   -0.737679    4.562581   -0.022988    0.029652   -0.036652
H     4.363853    2.261644    1.549483   -0.181188    0.063534   -0.030792
H     2.564399    1.344827    3.474232   -0.273860   -0.361482    0.173550
H     4.430276    0.934440    0.762200   -0.040934    0.063010   -0.165288
O     4.690909    1.350201    1.598941   -0.071440    0.051552   -0.086190
H     3.790854    0.828615    2.480724    1.159600    0.589918   -0.848770
O     2.865519    0.521257    3.046277   -0.218270   -0.491094    0.412218
