136
Coordinates from ORCA-job job E -257.684988659250
  C          -0.46600128739389      4.13132783035984      5.46122872860642
  C           0.91981032694138      1.29358074248171      9.65553069025553
  C          -0.63932060150171     -3.68343240875447      9.64029286012003
  C          -1.62597270476828     -5.39112347980321      4.77145029047279
  C          -0.93187419253467     -2.82311037579485      0.23887955127712
  C          -1.09872589211244      2.36936748886013      0.54854382873440
  O          -0.26932936050213      2.85278224349796      6.02082076125221
  O          -0.09334410209455      0.34616597013937      9.51394930467880
  O          -1.20211286934634     -3.48012338769428      8.37230738418787
  O          -1.36943967359542     -4.16463111645996      4.13141309950155
  O          -1.62824388221293     -1.66535066060700      0.58081509423148
  O          -1.29136808689124      2.24507326927125      1.93382346030718
  C          -1.92475780895499      4.23932273693539      4.99078809641679
  C           0.22697483268208      2.66683205052391      9.74508407781235
  C          -1.49767729096247     -2.89111086556511     10.64139353257538
  C          -2.91145662603948     -5.25522774218629      5.60400853395848
  C          -1.90291490548424     -4.00608535501077      0.41194604643783
  C          -2.37922245377837      1.88292837333650     -0.15052631700580
  O          -2.84504610715319      3.99139390007230      6.02070552310007
  O          -0.65565964384487      2.74047953569046     10.82777855577670
  O          -2.82782737914655     -3.33163219948539     10.64763956159928
  O          -4.00753259412936     -4.83497848869057      4.83574166140934
  O          -3.04893729456377     -3.86312357130311     -0.37655466725855
  O          -3.49161848220367      2.65601306390696      0.20873111534426
  C          -2.13874453995734      3.20681849009427      3.88094661661674
  C          -0.51088183829988      2.92434022242421      8.42147463929110
  C          -1.41040765834531     -1.40711490793484     10.26182183462316
  C          -2.66287780412802     -4.22749154680428      6.71175826436128
  C          -2.26999152496332     -4.13303971606358      1.89826043184304
  C          -2.58431369905046      0.40808780668357      0.21507165183250
  O          -3.40755949061283      3.31968236591526      3.28441197468241
  O          -1.11271509730738      4.19941393963542      8.41296884012811
  O          -2.03746969255642     -0.58739614986658     11.21565460033013
  O          -3.74118800118408     -4.14522703835842      7.60915250350740
  O          -3.08126956815411     -5.26481713378022      2.12161474449767
  O          -3.65364866652090     -0.16014678272927     -0.49741318880813
  C          -1.10003824688727      3.37638548173954      2.76488720996055
  C           0.45834121206616      2.80675175749724      7.23413630279030
  C           0.04155284772645     -0.92904782717361     10.12738077412698
  C          -1.41560417912268     -4.59420522825020      7.52344954946322
  C          -1.00266217766650     -4.23676636924582      2.76593437018283
  C          -1.33638526773944     -0.43825102727227     -0.08062914154560
  C           0.33117918194109      3.44180788917269      3.32891583272917
  C           1.17560157509166      1.45104956886724      7.32267585358646
  C           0.90015062818673     -1.90167798824565      9.29630359332257
  C          -0.21420887648605     -4.86341760032321      6.60277753156594
  C          -0.08336221637567     -3.05402739034862      2.42486933113842
  C          -0.04293298214449      0.22908219286283      0.42840105325940
  O           0.40647217655715      4.38186231930661      4.39900748665270
  O           1.82111610141362      1.28410421960392      8.56848838209782
  O           0.69268716084799     -3.25425479604951      9.69930279029598
  O          -0.56089040909645     -5.79629417696265      5.58130791099761
  O           0.21189047934347     -3.01973148956640      1.04306500215691
  O           0.00529241108335      1.62686492017434      0.12636992107217
  C           1.40013397770611      3.90255616971889      2.31221289090721
  C           2.21055655240160      1.25667019897294      6.22160975821029
  C           2.40778174147520     -1.66192292845066      9.47883405925390
  C           0.96984212006153     -5.48861223334713      7.35076634734628
  C           1.23717923751367     -3.05068675548169      3.19400986812780
  C           1.22604416476537     -0.34665603563432     -0.22179692797396
  O           2.15872712033592      2.87120626408603      1.75563565732718
  O           2.97817307030705      0.21151205433146      6.44628338422803
  O           2.78438567405624     -1.66460598690060     10.82990795165000
  O           0.62340208875249     -6.69196604585525      7.98516113676253
  O           2.14302109276440     -2.31588510083749      2.57986921649530
  O           2.38209807074668      0.23653573544352      0.30356504230396
  H          -0.25101216141239      4.91423870723265      6.19866381632358
  H           1.53724668021840      1.10137907733052     10.54186720901739
  H          -0.61591213989477     -4.74890017652479      9.90239037635097
  H          -1.74398790713912     -6.19539525885556      4.03398351429899
  H          -0.55814579247282     -2.78201905886406     -0.79221477231189
  H          -0.88910618964465      3.40755809003788      0.26278025000633
  H          -2.07736837120437      5.25067397961975      4.58049254297116
  H           0.98318866574508      3.44330313527984      9.90045907851672
  H          -1.11367588166020     -3.03814543875082     11.65557068762226
  H          -3.12547674039258     -6.23257248091998      6.06579956532663
  H          -1.40661104020499     -4.92507758358583      0.08268732937180
  H          -2.26628515257070      1.98404059568284     -1.23467562266791
  H          -2.44802714997277      4.22976223532178      6.87671579889711
  H          -1.16942126102827      1.91669408314234     10.88137297727764
  H          -3.13181165909235     -3.45936150541737      9.73149725810632
  H          -3.88092244504731     -5.11087605713187      3.90885768750840
  H          -3.37800988706306     -2.95165946306060     -0.30261002814644
  H          -3.51645743302110      2.76918593529229      1.17643819390973
  H          -2.00903086114633      2.20626435004115      4.32029445726268
  H          -1.28378922083939      2.15046881748972      8.29597275533899
  H          -1.88820088174006     -1.27922408173962      9.27732563156504
  H          -2.48317760766766     -3.25091360315584      6.23676359329834
  H          -2.80902693627764     -3.22486248039542      2.20921146651712
  H          -2.77284177893339      0.34727964504099      1.29889326770296
  H          -4.07201127002180      3.35054624367015      3.98995749283430
  H          -1.43042699601868      4.37916290213048      9.31510897824456
  H          -2.88569034172298     -0.99442231737912     11.45494779601505
  H          -4.55742683701011     -4.05815262884000      7.09212067660522
  H          -3.68875283024025     -5.34606930504501      1.36545030497234
  H          -4.40255110869889      0.45644409826454     -0.46926628533500
  H          -1.33168707962738      4.29871055716904      2.21464581762496
  H           1.19857251263172      3.61630627407453      7.26438076153369
  H           0.48316687318310     -0.81712045986716     11.12693346204361
  H          -1.62537425211838     -5.49035900200387      8.12335200047768
  H          -0.47716623864151     -5.17808834475287      2.56092002924563
  H          -1.27276977749877     -0.60906967329336     -1.16400197856109
  H           0.58448525254472      2.44411249882261      3.71349794881132
  H           0.42506631038141      0.65821196431943      7.17245516592440
  H           0.63569297842521     -1.78970287351891      8.23521862673332
  H           0.10238799234814     -3.91851431484092      6.14341731728161
  H          -0.60024451815216     -2.12937812165079      2.72954424999868
  H          -0.00129635843231      0.09744649919172      1.52062093675094
  H           2.09562156956722      4.52832517234632      2.87702113029683
  H           0.93115508897555      4.51850058359667      1.53625303024926
  H           2.93628412135420     -2.44334185663063      8.92119451375377
  H           2.68228549887463     -0.68938551731927      9.06990332672068
  H           1.30968493993603     -4.80719867576509      8.13154525782379
  H           1.77665073973027     -5.63999512086056      6.62528205753610
  H           1.24963819290378     -1.43090513121789     -0.08002704024808
  H           1.21419373203807     -0.10368704497132     -1.28693410705387
  H           1.63196210596569      2.35922356018573      1.11455066057993
  H           2.64169071089788     -2.55377043162827     11.18687025654375
  H           0.37294918527324     -7.33261184335305      7.30321871679436
  H           2.37640953526577      0.10160968468718      1.27055980599403
  C           3.25130731446484     -1.90077392330548      3.37513884341090
  H           4.04245962928821     -1.61014865907213      2.69033210889604
  H           3.55745868451040     -2.71281222791167      4.03848039504358
  O           1.42920510921820     -3.66832869137857      4.21614430123262
  C           3.74244636165031     -0.25659775255209      5.33109011004567
  H           4.30332029409374     -1.10720648246364      5.71112590499655
  H           4.40807764843576      0.52685933562120      4.96511812693415
  O           2.32116049207080      1.99690330446510      5.27083181276239
  C           2.72170711984722     -0.71669088262700      4.23780908625067
  O           1.51153757093697     -0.73767882909747      4.56258082548606
  H           4.36385263582763      2.26164416936112      1.54948275878365
  H           2.56439873767836      1.34482721033267      3.47423196395795
  H           4.43027632916368      0.93443988822330      0.76219983148451
  O           4.69090920873041      1.35020111890441      1.59894144260319
  H           3.79085351793412      0.82861529733311      2.48072389919829
  O           2.86551909754414      0.52125739076836      3.04627681946921
