23
Coordinates from ORCA-job job.QMRegion
  C          -3.04680320072516      6.72428619833047      0.23372398754199
  C           3.84566901065946     -6.92843511506339     -1.81007954785906
  O          -4.18678585494691      6.84186483431995      1.06776662015370
  O           3.07955330684733     -7.29929379485444     -2.93022896302026
  C           3.56890451276289     -7.45241805607525     -4.11415507836406
  H           2.84039752573358     -7.77420960616531     -4.84134717485837
  H           4.62634132521316     -7.27599399813109     -4.30384233434891
  O           5.10179823043379     -6.98382543189042     -1.84248567668737
  C          -5.42209704373692      6.93222351176512      0.46620291605153
  H          -5.41825713555320      7.53607762737896     -0.43567180939733
  H          -6.13899029356708      7.28557635594643      1.20112403939816
  O          -2.75725704641971      7.62111311488846     -0.49132540417946
  C          -5.94797038376390      5.50360481790943     -0.02069332150913
  O          -6.21825565256622      5.37156643816890     -1.19497364013994
  H           0.45358550552978      1.41475096350149      1.05936846806334
  O           0.82151847309711      1.46292835740757      1.70960813036305
  H           0.85262232313987      0.71029322447007      1.67985699691760
  O          -6.25329993287280      4.55356399339547      0.83188076355838
  O          -5.82354323232033      4.80922896788434      2.16887723467166
  H          -5.47648988892829      3.89087713080283      2.42574855960050
  H           1.45640527281623      1.54179891037509      1.29883668226851
  H          -2.67292345572662      5.72269843292306      0.33884520196942
  H           3.26646630127039     -6.46923781945027     -1.01159111406070
