137
Coordinates from ORCA-job job
  C           1.03687570979737      5.74924640978091     -0.12524398137580
  C          -3.64271796419557      3.28276232491241      0.00764075579962
  C          -3.46119264272131     -1.51622735455625      1.95560821103171
  C          -0.52159335294715     -5.26696580614126     -0.16849714242133
  C           3.77446133446897     -4.00390946970425     -0.97364172064692
  C           3.65551431329539      1.19900228632656     -0.67101893052918
  O          -0.22520478709566      5.24400914487310      0.27075124720571
  O          -3.05056494329831      2.71879910615304      1.13110045074188
  O          -2.25390650940125     -2.18008055751692      2.37533747392190
  O           0.90429459308920     -5.40129574416902     -0.02219560492787
  O           3.05792825439669     -3.08665377905976     -0.21676252913616
  O           3.17346568841301      2.12360451393588      0.29725861063361
  C           1.68513451963301      5.19297473120247     -1.41856404825510
  C          -2.87308217699395      3.18346325620775     -1.32758124930348
  C          -3.40216659968040     -0.91199883027601      0.50842854450773
  C          -1.03132654571926     -3.89076921285146     -0.63736817884800
  C           3.17481088538986     -4.21726151474462     -2.38365391872785
  C           2.50733556792429      0.45563707059587     -1.47900845378872
  O           0.85821017157935      5.38336491174751     -2.54552111622062
  O          -3.13032158374520      2.03278346858994     -2.05482762368216
  O          -3.10164393294520     -1.75642711636461     -0.56356361530111
  O          -0.62248246832279     -3.45245495134926     -1.89457905083563
  O           3.15278255027834     -3.05944550853722     -3.15904815813762
  O           1.32339824258908      1.15380921441096     -1.57882851716087
  C           2.10827897920434      3.72235565695523     -1.26329325843677
  C          -1.38548187823405      3.48087196382665     -1.02792831535913
  C          -2.43505463381618      0.28753150938466      0.63139343991918
  C          -0.71280621046151     -2.90322426976117      0.51671696622772
  C           1.76081684084497     -4.77887413028213     -2.24324498726091
  C           2.08401721401977     -0.92252658112332     -0.93591632715078
  O           2.68700561166471      3.30464238613744     -2.49903829040686
  O          -0.66348104043562      3.24292846983309     -2.23562656143323
  O          -1.76077772780012      0.60672819069996     -0.54483821266633
  O          -0.62804382180091     -1.62858471518186      0.02912237034135
  O           1.30360493654346     -5.29633628917965     -3.48456990366605
  O           1.21824711129975     -1.48548609399312     -1.91625064646574
  C           2.99524422788753      3.50532913690695     -0.02119679342593
  C          -1.33596558111463      4.96928921528040     -0.57314339011796
  C          -3.33999047242233      1.33420298019245      1.30642930093692
  C          -1.88085101253399     -3.22979978118519      1.48786912446053
  C           1.63328240247373     -5.85547887789518     -1.14925190772279
  C           3.31460721356207     -1.69805202149958     -0.52845838965522
  C           2.12431566117167      4.07896517352679      1.13194264364966
  C          -2.52524498677519      5.32708206243361      0.38036694848986
  C          -3.26037123567487      0.82781210709835      2.76645907500324
  C          -1.40634825356441     -4.57703422677277      2.08807077774403
  C           3.03910748450930     -6.28898563468302     -0.69815441467561
  C           3.83359060268769     -0.79145965965553      0.62951835371544
  O           1.88763172927703      5.50166161050123      0.94633017878898
  O          -3.78249367118069      4.67617220948957      0.21337298251672
  O          -3.85926039297466     -0.50533921341688      2.84850799841902
  O          -1.16558083726542     -5.57331587643421      1.04117522212207
  O           3.82330053764128     -5.20985396504889     -0.24126224313086
  O           4.52989568015438      0.29213638404900     -0.03266769560004
  C           2.77219416927688      3.88217180427702      2.50740048770274
  C          -3.04680320072516      6.72428619833047      0.23372398754199
  C          -4.00198839307585      1.79465084312673      3.69478693214534
  C          -2.48139942269791     -5.22283822469139      2.96953597581780
  C           3.84566901065946     -6.92843511506339     -1.81007954785906
  C           4.80556383302214     -1.52933342056423      1.53779841542034
  O           3.89825837088102      4.72715904857706      2.69325677826554
  O          -4.18678585494691      6.84186483431995      1.06776662015370
  O          -5.20712838423010      2.30983985148104      3.12929398485054
  O          -3.67469914618868     -5.46237449539379      2.25866785841515
  O           3.07955330684733     -7.29929379485444     -2.93022896302026
  O           5.93435612830068     -2.01486669351593      0.81285931400245
  H           0.96985901764989      6.84422232540419     -0.23381639456962
  H          -4.66500137371176      2.89955962145778     -0.14844197006792
  H          -4.27534853887072     -2.25942055543404      1.99850578848278
  H          -0.84987832831429     -6.04764076740154     -0.87600979794721
  H           4.82569475146224     -3.67494605880133     -1.08226849345798
  H           4.28315246301185      1.73275650099085     -1.39522126324895
  H           2.58364514972088      5.80612917049875     -1.58658276523363
  H          -3.28279114087075      4.01254862792181     -1.93159448294942
  H          -4.43628524974768     -0.58647506102745      0.32204081277258
  H          -2.12299345920781     -4.03313025052137     -0.71385770985833
  H           3.82463109546366     -4.91798219895869     -2.91842470674142
  H           2.90157633761995      0.30408830180145     -2.49018894850154
  H           0.34162994642011      4.52943814123578     -2.60040975621969
  H          -2.47141210697027      1.35654637101016     -1.59988670701261
  H          -2.14589352087660     -1.49047907013301     -0.72111751425324
  H          -0.57919024561110     -2.46341554505272     -1.79200573434179
  H           2.44472559857620     -2.44860015596454     -2.79204735925219
  H           0.79649145642035      0.99383677434943     -0.63036059183473
  H           1.22066019594567      3.10806676474070     -1.05253062873454
  H          -0.96141428058702      2.82338639572633     -0.22612419408975
  H          -1.63312617158931      0.03766942029627      1.34427104543262
  H           0.24191406229754     -3.19631538490602      0.96853122493291
  H           1.14216976650367     -3.92695530731110     -1.94480502731334
  H           1.48683532405656     -0.74251467616356     -0.01687940156993
  H           2.20927631808944      2.46366684116595     -2.64594284896881
  H          -0.17786375724392      2.39936194052691     -1.98700861268368
  H          -0.83566340735619      0.98952889247433     -0.13501408580812
  H          -0.14348878294416     -0.90627802634246      0.63699450513254
  H           0.60417694154068     -4.67930578807001     -3.77781562717457
  H           0.45375404355868     -0.86840074792558     -1.67741095334411
  H           3.95911943148011      4.01735167697639     -0.11566261921195
  H          -1.35663388850568      5.62326946296862     -1.45274648142087
  H          -4.37553140700497      1.20152512839426      0.97166319402695
  H          -2.78557168000835     -3.47453885259792      0.92178489634738
  H           1.12941455532950     -6.72715754654921     -1.59368309323826
  H           4.07606131665839     -1.67645982775852     -1.31800211713464
  H           1.13810738191191      3.59159128355519      1.08641248229698
  H          -2.12724835096484      5.05916553065921      1.38716380305168
  H          -2.20904332167223      0.76146609562519      3.08103810469545
  H          -0.49041105762144     -4.43665362975815      2.67200866619019
  H           2.95498567546178     -6.94514418479263      0.18424746819752
  H           2.97935549741237     -0.39044916308281      1.21540763165454
  H           3.14162231011904      2.85582848072000      2.58322421304283
  H           2.02141909861451      4.07290410796127      3.28086784898407
  H          -4.20656816649581      1.29950166049898      4.64848506573937
  H          -3.34696485368078      2.65091701445226      3.85177048957103
  H          -2.73118420691856     -4.54308268132298      3.78506996039289
  H          -2.08634334305085     -6.16182459177757      3.37250506217757
  H           5.13882229079292     -0.86404999389348      2.34142775416058
  H           4.30314845093688     -2.40538756836474      1.95238425795936
  H           3.62191538304620      5.59675955853288      2.39079291652343
  H          -5.75864723755737      1.53167592568591      2.96930596717809
  H          -3.43169093913472     -5.95494407843119      1.46546546635780
  H           6.23812682629571     -1.23679640475765      0.32246754526919
  C           3.56890451276289     -7.45241805607525     -4.11415507836406
  H           2.84039752573358     -7.77420960616531     -4.84134717485837
  H           4.62634132521316     -7.27599399813109     -4.30384233434891
  O           5.10179823043379     -6.98382543189042     -1.84248567668737
  C          -5.42209704373692      6.93222351176512      0.46620291605153
  H          -5.41825713555320      7.53607762737896     -0.43567180939733
  H          -6.13899029356708      7.28557635594643      1.20112403939816
  O          -2.75725704641971      7.62111311488846     -0.49132540417946
  C          -5.94797038376390      5.50360481790943     -0.02069332150913
  O          -6.21825565256622      5.37156643816890     -1.19497364013994
  H           0.45358550552978      1.41475096350149      1.05936846806334
  O           0.82151847309711      1.46292835740757      1.70960813036305
  H           0.85262232313987      0.71029322447007      1.67985699691760
  O          -6.25329993287280      4.55356399339547      0.83188076355838
  O          -5.82354323232033      4.80922896788434      2.16887723467166
  H          -5.47648988892829      3.89087713080283      2.42574855960050
  H           1.45640527281623      1.54179891037509      1.29883668226851
