150
Coordinates from ORCA-job job
  C          -0.81624241497786      4.91545696007856      0.79779495826499
  C           4.16938407351893      3.23044149943340      0.44670664056190
  C           4.76009336957727     -1.87431698287992      0.28565940956929
  C           0.54227297037209     -4.93995645494645     -0.33617643147037
  C          -4.18505873702707     -3.08653046640941     -1.68827948110964
  C          -4.99766338188529      1.90731517775009     -0.16420430232657
  O           0.05448621235185      3.80691601211392      0.74322920157935
  O           4.05897627452828      2.06013421902129      1.19287438528334
  O           3.35142524720302     -2.01262512410883      0.26562877062496
  O          -0.34468376032906     -3.88798223818784     -0.60326244515480
  O          -4.05846012798436     -2.05983727797127     -0.75711578880731
  O          -3.75165759689472      2.14047121148180      0.44973087192431
  C          -1.70176519324196      4.80650436733730      2.04922100071232
  C           3.72973044096669      4.41054253064878      1.33659367545875
  C           5.24298802928355     -1.41813553468227      1.67391701554251
  C           1.01091733242832     -4.79999352739490      1.12134450986673
  C          -4.04549461711386     -4.40297918199969     -0.89756071462015
  C          -5.76871728928945      0.88942675229311      0.69480351150240
  O          -0.94551008663565      4.67728865214023      3.22396842437944
  O           4.48734063740585      4.50012915414415      2.50746707877710
  O           4.98995832950308     -2.34083081079446      2.69364830333962
  O          -0.04411942355772     -4.85384682819573      2.04457900285495
  O          -5.05113581317607     -4.53966495793640      0.06561320993586
  O          -5.90294448040201      1.32284741609236      2.01987742292701
  C          -2.60415409742705      3.57215313041466      1.93013258620892
  C           2.23088717807958      4.28892266052531      1.66717283150360
  C           4.59541097565720     -0.06357239373314      1.97733470863110
  C           1.72393935432911     -3.44781852222592      1.25696440143208
  C          -2.65624556344658     -4.40755214386200     -0.24041071931550
  C          -5.06580098734714     -0.47322226911391      0.61356249141949
  O          -3.61723642564868      3.55723116165017      2.90370451462810
  O           1.76769735262130      5.43367041959563      2.34502062049707
  O           5.05095066902306      0.45052273780762      3.20270844398598
  O           2.29828261309100     -3.29539318892948      2.53294259895244
  O          -2.40239211854634     -5.61146171882188      0.44838928063625
  O          -5.81831971000750     -1.48105055490552      1.24638757906082
  C          -3.30096438251064      3.48767601444707      0.56451633998410
  C           1.39621577860810      4.09308326500148      0.38834785050919
  C           4.90362465202317      0.95740240579616      0.87157773964077
  C           2.84349172053678     -3.33935396689192      0.21821513805929
  C          -1.54894325585454     -4.18866000528400     -1.28373818154566
  C          -4.86932882070872     -0.89858435227278     -0.84734478326487
  C          -2.38466421180167      3.85171674240260     -0.61581120375683
  C           2.00339700656149      2.91337632471007     -0.38216690138869
  C           4.65759334195429      0.37342508146019     -0.53757447147905
  C           2.33280751711137     -3.67167570788357     -1.19481637956967
  C          -1.89446616282209     -2.96333077936673     -2.13779201953425
  C          -4.20892140045058      0.21669382756901     -1.67574249712770
  O          -1.60493188473586      5.01284828213574     -0.34976835449207
  O           3.35114520862887      3.18922419018504     -0.70934982421206
  O           5.17340609912890     -0.95258025094784     -0.67344397010288
  O           1.64774397384604     -4.92047456499590     -1.19725681455767
  O          -3.19063798957152     -3.03069994217102     -2.69288083117253
  O          -4.87449948773212      1.46630837614577     -1.48409794669843
  C          -3.18955301547935      4.17451038820814     -1.88277585696384
  C           1.28879469612395      2.54151262898820     -1.66996206663892
  C           5.37790257902413      1.15244509317541     -1.65735399934348
  C           3.48523850184549     -3.79532641432178     -2.19777097142348
  C          -0.88832058211425     -2.70696966135052     -3.25318029972561
  C          -4.29957122771834     -0.05573213321337     -3.18483866936350
  O          -4.11154247497815      5.21237515710753     -1.67382177498884
  O           1.92808846516070      1.56444856108253     -2.28186865969527
  O           6.71100403826033      1.45139518456683     -1.34009179155200
  O           4.42928688361081     -4.76076707263054     -1.81407017271251
  O          -1.23251829513911     -1.62326241775890     -3.95227971565930
  O          -5.62567872871792     -0.23444765413782     -3.61057240157153
  H          -0.24371173272185      5.85025919680485      0.83572474529766
  H           5.19129300949214      3.38536743618925      0.07996715562474
  H           5.24438816176975     -2.81788021465703      0.00535208842590
  H           0.06534970830407     -5.91485806766226     -0.49716790552256
  H          -5.13936191052879     -3.04148092954528     -2.22744545304487
  H          -5.56674145910607      2.84373142232666     -0.23371863156791
  H          -2.33089317201516      5.70940037915330      2.09284943168712
  H           3.89675713000324      5.34074484282188      0.78257759866519
  H           6.33228033813734     -1.30296740309832      1.63394835554127
  H           1.72852603693462     -5.60826098880506      1.33347105221840
  H          -4.13887026952345     -5.25220963549156     -1.58177726196578
  H          -6.78448114761649      0.78678475392678      0.29716683779528
  H          -0.08263656880142      5.11451358918632      3.11332483000878
  H           4.57917998351988      3.61580529944864      2.89831112582648
  H           4.04992937002696     -2.60967409040745      2.68567696375726
  H          -0.84187078054388     -5.21672766107934      1.61941583900313
  H          -5.18560826950823     -3.68551957287524      0.51450429205974
  H          -5.07520845037447      1.73876552834176      2.31626072693425
  H          -1.96038307943811      2.69353628991231      2.05846225147705
  H           2.08369028897580      3.40149396584848      2.30200669826974
  H           3.50320882892026     -0.20760246459534      2.01803860578235
  H           0.98438324596725     -2.65411535136195      1.07751374635244
  H          -2.61005980573986     -3.56160484862328      0.46266712232105
  H          -4.07136796548646     -0.40109890951329      1.07791428778513
  H          -3.21105341957566      3.68056052689125      3.77560247458898
  H           2.45916190871632      5.70903698941464      2.97104779824800
  H           5.25140482725712     -0.30372255445403      3.78107933295768
  H           1.65440899490632     -3.61136634176495      3.18632207247836
  H          -3.23422276254428     -5.89629837981415      0.86507851768540
  H          -6.10446309484482     -1.14634714275467      2.11131360280631
  H          -4.16020449154370      4.17086503428995      0.57884393216859
  H           1.44135986670109      4.99296699779024     -0.23622809563192
  H           5.95334881595400      1.27332915668932      0.94984723267223
  H           3.63254730788457     -4.05342338026252      0.48563759803130
  H          -1.42962523470795     -5.07583837631621     -1.91709765509036
  H          -5.84203276167532     -1.15305701435850     -1.28941047479663
  H          -1.71828577501339      3.00415291754352     -0.81857430271198
  H           1.95574570301884      2.01626316050482      0.25640659922291
  H           3.57974313633747      0.36647525774004     -0.74257848352434
  H           1.65109087661880     -2.88267224729718     -1.53221817215309
  H          -1.81552016026211     -2.08027221433453     -1.48158309900236
  H          -3.15130273010148      0.29894863603513     -1.39426846975763
  H          -3.76511112763512      3.29800965522970     -2.18270173370414
  H          -2.47790747601705      4.43160910342458     -2.67455256784028
  H           5.31739732115448      0.53507710872570     -2.56003388348952
  H           4.87292086985729      2.09856299082834     -1.84470411378347
  H           4.01452295925524     -2.84208567202724     -2.25256132830981
  H           3.05286313724845     -4.02686673440112     -3.17698896230246
  H          -3.82615593385714      0.78203800371856     -3.70782438791787
  H          -3.75705392610752     -0.96904802457448     -3.42926052434350
  H          -3.62099220741971      6.02645776892823     -1.48880981291032
  H           7.22411793948677      0.63065028387625     -1.34107921126084
  H           4.00018979706863     -5.62892756699194     -1.83307964310560
  H          -6.10238252484308      0.59830790047200     -3.47643102014938
  C          -0.17186840305597     -0.82087431745519     -4.42987197256414
  H          -0.58306424534244     -0.17190894641111     -5.20427436639128
  H           0.66332060709374     -1.42826485920470     -4.78935989893556
  O           0.08287208218299     -3.38175800482887     -3.48494821819733
  C           1.37677865949151      1.02711507876636     -3.48173351848274
  H           2.20683499756048      0.51355397988631     -3.97273672779581
  H           0.98293538726512      1.82856526840174     -4.11712161297624
  O           0.26661983655975      3.04639345280988     -2.07728554613161
  C           0.24812445003531      0.01839438863502     -3.16891589746664
  O           0.64000650374480     -0.98840129440723     -2.29204568647315
  O          -0.92911056103684      0.68153118006794     -2.73060402261151
  O           0.66015739837927     -0.29026162073524     -0.66028931039129
  H          -0.72388339438578      1.63217218060986     -2.65050481448418
  H          -2.18129364700529      0.95901597865884      0.85296685703015
  H           1.49774193630212     -0.74282604407036     -0.42108102885804
  H           0.27227313181413      0.19570060236033      0.63924874011103
  O          -1.70557970448915      0.21701991431168      1.25968167286291
  C          -0.38575761038902      0.56530847706973      1.55327716716026
  C           0.15652506887534     -0.13475898506736      2.75535661414925
  H          -0.20575165369099      1.65291813678912      1.56269809174357
  C           1.26415742058395      0.38936421365569      3.41752893475158
  C          -0.42860537994474     -1.30984604403769      3.21800363896624
  C           1.76534716863282     -0.24259531858148      4.53928967417090
  H           1.72562545510112      1.29466846672964      3.05196046926285
  C           0.07595895788394     -1.93851473906554      4.34125627528960
  H          -1.27901764604879     -1.71328401159657      2.69137138952488
  C           1.17293328356626     -1.40726380196366      5.00299653159416
  H           2.61997797710952      0.17466737094737      5.04716230149817
  H          -0.38844854420380     -2.84607855180708      4.69454164857759
  H           1.56789607209709     -1.90025392224064      5.87706467679397
