20
Coordinates from ORCA-job job
  C          -1.75897614616900     -0.41667663053166      0.26418284291292
  H          -2.65162444987289     -1.28134311369759     -1.27584009000097
  H          -1.53363904417378     -1.34354690187178      0.81232773365619
  C          -3.25179473795358      1.58470933917332      0.54448162034787
  O          -1.88205928608966     -0.71058121026543     -1.14924664617691
  H          -0.89789715941740      0.25594848535589      0.34011512444067
  H          -6.15195560517300      1.96204668216113      2.23407694609805
  H          -3.67855247445707     -1.49620934669597      1.86256032599829
  H          -5.69444893571852     -0.40549665219507      2.75448640979364
  H          -4.58256162840401      3.23297223928121      0.81553064153118
  H          -2.56448365594490      2.14156029646928     -0.07453347057736
  C          -2.98866513586828      0.25118150536882      0.83403962517997
  C          -3.87768958130529     -0.46018117630705      1.62874329333656
  C          -5.01116606926061      0.15395347688795      2.13333390114758
  C          -5.26804595017653      1.48261447043578      1.84113370735155
  C          -4.38713234739288      2.19633416520544      1.04508406297354
  O          -1.47657726721182      1.68982905536855     -2.53297632321586
  O          -0.36128808398163      2.03882947403143     -1.65481761904361
  H          -1.68521664585974      0.78282550935400     -2.19713111076471
  H           0.39620438808587      1.91867879929364     -2.25739690110420
