137
Coordinates from ORCA-job job
  C           0.56944578028232      4.53238896883085     -0.13937192024852
  C          -4.47830717766939      3.17520528987502      0.40049587526378
  C          -5.21585252421274     -1.77969200308068     -0.76759527223128
  C          -0.75603952383446     -4.61664724816994     -0.52183616178394
  C           4.34733161762834     -3.35089324032315     -0.06865219062415
  C           4.99172782983031      1.70477783217142     -0.73855132120643
  O          -0.36230812983891      3.48247952671083      0.03678368111870
  O          -4.44502134265158      2.21259435945331     -0.60303995727971
  O          -3.81934654250332     -1.87295135922138     -0.89995424522984
  O           0.21061341765540     -3.59105719114843     -0.43211624785513
  O           4.34446641836363     -2.30820620659835     -0.99133855785583
  O           3.58501649523628      1.80627842722333     -0.84574367697222
  C           1.12185083658440      4.49706749667847     -1.57724722508006
  C          -3.99933891540012      4.49627774402741     -0.22975110346535
  C          -5.74699012447011     -0.97695027110376     -1.96503705052337
  C          -1.43085854378934     -4.54531672282068     -1.90308787308323
  C           3.83438600406941     -4.60047820063480     -0.81374669005232
  C           5.52412232997848      1.04613882629316     -2.02030257632506
  O           0.11473914062857      4.56198543273805     -2.54686685287498
  O          -4.79128381909897      4.87602315183594     -1.31613184746186
  O          -5.46111971925364     -1.60013966882119     -3.18666664771485
  O          -0.50391055723733     -4.58294061962355     -2.95282177377046
  O           4.60651156484940     -4.88850752517498     -1.94166753450092
  O           5.17601148074207      1.77626568294827     -3.16443396142097
  C           1.88895078543543      3.18440380409275     -1.76178369041814
  C          -2.53081211560221      4.34999970466157     -0.66973339679975
  C          -5.11874135334582      0.42182680718082     -1.90264520107010
  C          -2.21982944566042     -3.23449339374847     -1.99019986957687
  C           2.36117481781876     -4.39230645451610     -1.21631244292747
  C           4.98818009797304     -0.39013006009913     -2.10133375387032
  O           2.51077222121661      3.10053526891069     -3.01982854540398
  O          -2.04637487296242      5.58704797650798     -1.14032465733934
  O          -5.65752497668690      1.26271943254987     -2.89151475372363
  O          -2.95470923875719     -3.13969023933470     -3.18505131626480
  O           1.83396631190637     -5.57608281583005     -1.77007304518739
  O           5.61680636410528     -1.09470811038672     -3.14386225324897
  C           2.98746932434105      3.08568439139710     -0.70182728333663
  C          -1.65305086094302      3.85477040054651      0.49081788702652
  C          -5.32800113295750      1.09678996336070     -0.53941872746290
  C          -3.21340020049552     -3.15002964939050     -0.82866122374095
  C           1.50321116683505     -3.97526209906617     -0.00827349078428
  C           5.20148422236548     -1.18591183987918     -0.80375308958394
  C           2.41795058930853      3.28044534042471      0.71314738684631
  C          -2.30725079982709      2.59171835749050      1.06319208591423
  C          -5.02689767787188      0.14141097620666      0.63556815666686
  C          -2.49083351711653     -3.34003746227031      0.51431184224822
  C           2.20100612602226     -2.75927775662514      0.62570468441243
  C           4.87568697045096     -0.36284992663350      0.46202260518828
  O           1.60881550169715      4.45223931794243      0.79078633238006
  O          -3.63123777354635      2.84317244062406      1.48693238281654
  O          -5.58206750361957     -1.15644270628897      0.42565026438048
  O          -1.69699740595005     -4.52456199160061      0.50736768174106
  O           3.50478939329181     -3.08781361185854      1.03807420250654
  O           5.37171123417734      0.97509005895030      0.38213229364194
  C           3.54768671565999      3.48508767143505      1.73275351858276
  C          -1.56647055027279      2.02353264484000      2.27163176135172
  C          -5.66481225144206      0.59715617582300      1.96145958959072
  C          -3.49344254006371     -3.51699272332300      1.66360635607170
  C           1.45508123665208     -2.08906283969146      1.74390691991848
  C           5.55160859838804     -0.91853709252658      1.73010101686049
  O           4.35767305895469      4.57789772774768      1.39295139932575
  O          -1.85317367846664      0.74363302181477      2.41675523327755
  O          -7.01898359648425      0.92556429749871      1.80783070453978
  O          -4.34674307408968     -4.60723448878733      1.44059667745331
  O           2.20512939122190     -1.63226557003062      2.72138880525387
  O           6.92136826606372     -1.14459883776572      1.53711131136519
  H           0.09116731709633      5.49988104133600      0.05366216069413
  H          -5.48014142518208      3.28558166221649      0.83335862336515
  H          -5.67920339952441     -2.77375960756406     -0.73072606553062
  H          -0.28552749687101     -5.59894088289010     -0.38959137525284
  H           5.34466179295084     -3.52499392934143      0.35305353041744
  H           5.43919917102582      2.69748109286223     -0.60601171076182
  H           1.82029353892317      5.34215738709024     -1.69266724284015
  H          -4.07576626057632      5.29662388075206      0.51344972818443
  H          -6.83685409286980     -0.89228452657749     -1.89867644968417
  H          -2.13391780219693     -5.39016773600066     -1.98761777054370
  H           3.90668313176903     -5.46830513930895     -0.14999059287716
  H           6.61854651295498      1.02079247669583     -1.98374058889173
  H          -0.61027457991521      5.12351514486748     -2.20811993821532
  H          -4.90372815737906      4.10665486828957     -1.89642519418517
  H          -4.55380068131882     -1.95675472858516     -3.15989608955574
  H           0.29317547847304     -5.06542146173316     -2.65654504923387
  H           4.74169320620937     -4.06470208781505     -2.43552721944652
  H           4.24055638498241      2.04266935656876     -3.10704748673778
  H           1.17546772865671      2.35602600881452     -1.63264416156738
  H          -2.47919438067382      3.59771393668487     -1.47307799076454
  H          -4.03152898891468      0.31170280760114     -2.05271680879177
  H          -1.50753507670032     -2.39772779612948     -1.90985674185349
  H           2.30984608180810     -3.57673240244539     -1.95516028339032
  H           3.90210633090440     -0.34707224423628     -2.28462164668900
  H           1.84811850500767      3.30805617577461     -3.69435319016348
  H          -2.74976261795013      5.97945617158409     -1.68531638173266
  H          -5.72916994780806      0.73940492943430     -3.70465375557160
  H          -2.35759785120180     -3.34058309546195     -3.92035864519061
  H           2.50283109435750     -5.93300456892027     -2.37804181102403
  H           5.63452864962206     -0.51086523465800     -3.91722376578573
  H           3.73117107805329      3.86841268273449     -0.90035582935938
  H          -1.57853952693089      4.62442397852150      1.26990315116644
  H          -6.36492109986119      1.45407701050433     -0.46432267061072
  H          -3.96936288999177     -3.93657061017739     -0.95203614448013
  H           1.44688478289426     -4.79707562231301      0.71676993070087
  H           6.24588095701451     -1.52595111213343     -0.75367246447836
  H           1.82325630550901      2.40233845576301      0.99116770824685
  H          -2.30215466926887      1.81850710442452      0.28114089267872
  H          -3.93814110669944      0.05734290973938      0.75530798389977
  H          -1.85471045476684     -2.46427995639103      0.69617172604739
  H           2.23021652033751     -1.97084175304656     -0.15748089425881
  H           3.78924451741766     -0.33987982497545      0.60945830462288
  H           4.18941332288772      2.60286117024713      1.74921759138097
  H           3.09545395896576      3.61646536168299      2.72089036659704
  H          -5.54119742466996     -0.22381932464211      2.67755158029081
  H          -5.15882167040619      1.48174111579161      2.34524877056032
  H          -4.12683919439412     -2.63138794774930      1.73510709862428
  H          -2.93190132338495     -3.64674940059781      2.59603442752015
  H           5.38305546013229     -0.18719815279568      2.52954437254287
  H           5.10070705230598     -1.86633363146088      2.01968887011379
  H           3.79006008387715      5.36151051700820      1.36960029507026
  H          -7.48174132960184      0.13037409989316      1.50780954242345
  H          -3.79180559241469     -5.39311670161163      1.33245275652212
  H           7.33143507366174     -0.29666183415416      1.31600534351846
  C           1.42604899234460     -0.82102275986864      3.61490012013026
  H           2.10390974329007     -0.11902165597964      4.09436945287348
  H           0.93604719988958     -1.44645110532438      4.35925531384616
  O           0.26415217349688     -1.83983144090941      1.71253933874311
  C          -1.02898660684636      0.02866196600424      3.32236869286878
  H          -1.44617466454468     -0.97390814673202      3.38906992068245
  H          -1.00423290544084      0.49494824201422      4.31194113264599
  O          -0.85772831012241      2.66727794266355      3.00480921095183
  C           0.39591661005798     -0.03193554506603      2.81811528832672
  O           0.74675028743836      0.69940925172411      1.89069710963697
  H           1.10319649798570      0.14219673958304     -0.05200315895501
  O           1.55282866073532     -0.13824219362827     -0.86016108199442
  H           0.35618937081921      2.52530475987625      4.39041652787665
  O           0.92380328986085      2.06455445980435      5.03698007121845
  O           2.23947936683758      2.22875349456589      4.42801825183394
  H           2.65612320225618      2.77668449901708      5.12109952822332
  H           2.29797685542042      0.49247596412353     -0.90151309982588
