147
Coordinates from ORCA-job job
  C          -0.69622878046146      4.75510165278359      0.73436506286391
  C           4.37231237188907      3.25853739422946      0.55273282533915
  C           4.98531323709986     -1.93454495915285      0.52315660541961
  C           0.63946248058765     -4.80605969461120     -0.31436467045291
  C          -4.25974819573654     -3.13315896841767     -1.38593963760848
  C          -5.05106923277520      1.88377672787966     -0.15780192226601
  O           0.26797826252382      3.74085621978758      0.55792325461702
  O           4.17762750684293      2.02590508465115      1.16826168093091
  O           3.60757940088159     -2.12048743470637      0.71376624226208
  O          -0.32421993014552     -3.78515651794804     -0.33281019552858
  O          -4.27342068896403     -2.13240391221702     -0.41888546427865
  O          -3.72223809330984      1.99970831669258      0.28325092706837
  C          -1.52604239729864      4.45918591729830      1.99625687101056
  C           3.86773700346773      4.34756585250827      1.51972408053987
  C           5.56042379278771     -1.36064441746741      1.82847676078779
  C           1.20201250524682     -4.92870148967835      1.11129263936803
  C          -4.00971170500470     -4.46352069722523     -0.64453685938510
  C          -5.80186208796385      0.99470682034885      0.84977203326980
  O          -0.73980415061465      4.28123768377445      3.14176970970449
  O           4.52532921544842      4.31213549166903      2.75110888533663
  O           5.35411936888172     -2.21519271170017      2.91764904656211
  O           0.20386794134784     -5.12967811679572      2.07531724879652
  O          -4.99464306108466     -4.72303229695760      0.31201205767060
  O          -5.80551093989316      1.53640887356738      2.14058868322912
  C          -2.34449527875555      3.18388168006376      1.76915918996822
  C           2.34550192398665      4.20616031722253      1.71428854093979
  C           4.90334647225078      0.00454551408742      2.07087741494723
  C           1.97756151712418     -3.64826171763332      1.44457516866104
  C          -2.61710474612677     -4.41247185408707      0.00849480632197
  C          -5.14527120534026     -0.39253195029161      0.83263948652211
  O          -3.24043720246502      2.95216357607520      2.82514137092623
  O           1.84423103987015      5.28069309476974      2.47368044019660
  O           5.46276472963295      0.64980011858198      3.18611020523231
  O           2.63026901973529     -3.74587366875427      2.68491348903194
  O          -2.28031299499393     -5.64274788478961      0.60407144036460
  O          -5.84361600840124     -1.29653912222945      1.64856807075500
  C          -3.16431376412411      3.28507896575197      0.47839529973922
  C           1.61102867262900      4.15639348500901      0.36373447138802
  C           5.04904825868198      0.93883882547820      0.86099532120943
  C           3.03712668382775     -3.37062420177877      0.37390941865876
  C          -1.53513306502231     -4.05292151380145     -1.02141760344027
  C          -5.09170000095412     -0.97915497536405     -0.58427653861666
  C          -2.28405311821517      3.71946736832030     -0.70610904195138
  C           2.29792351093565      3.11230228583763     -0.51858004395361
  C           4.69281939090743      0.22937833987553     -0.46200698088927
  C           2.39161990323844     -3.36863248416297     -1.02135062538572
  C          -1.97321798412038     -2.78930916505166     -1.76812164359253
  C          -4.52874872179936      0.04349879144835     -1.59120146868825
  O          -1.53452969026696      4.88755434119417     -0.37762013104224
  O           3.67330013677660      3.38604290697750     -0.67602306505296
  O           5.27263087662058     -1.07192413235109     -0.54196257036265
  O           1.67593531846470     -4.58185733555296     -1.22891605289554
  O          -3.24697167676479     -2.94808646296011     -2.36123773969942
  O          -5.13997541006430      1.32682012824833     -1.43897685017912
  C          -3.13203268953118      4.08131269876712     -1.93091211666069
  C           1.69126214978520      2.99737273036045     -1.91640557993087
  C           5.26732789324449      0.95498115614152     -1.69078124348595
  C           3.42866046692146     -3.29734951118331     -2.14734339218992
  C          -0.98945332535379     -2.35926986529950     -2.84677340916484
  C          -4.80585906347563     -0.33810240522069     -3.05326980090655
  O          -4.02299095073978      5.13100933558886     -1.67139733331848
  O           2.10579055165950      1.86144505493359     -2.45104517769954
  O           6.65307620598542      1.13404537675355     -1.59368455582460
  O           4.31118224397783     -4.38526968920147     -2.12398262852868
  O          -1.36956375575608     -1.20147745267984     -3.37135901234701
  O          -6.16693411332178     -0.57223849461503     -3.29366432068839
  H          -0.20250942068079      5.73085521795823      0.82981730287002
  H           5.42681200598977      3.41686848985046      0.29058880339315
  H           5.47836338403732     -2.87967559225098      0.25873008013756
  H           0.19461182961033     -5.76025890553760     -0.62748967409239
  H          -5.19813167654056     -3.16364009949559     -1.95472023342935
  H          -5.52628440676389      2.87020814762515     -0.24101770708093
  H          -2.22205939105800      5.30202814373815      2.14063847077025
  H           4.07745326548016      5.32663783027448      1.07507495846035
  H           6.64374828062448     -1.23798159539832      1.72638429254143
  H           1.90258220107637     -5.77941550687138      1.12591702945988
  H          -4.04338817761326     -5.28434333056532     -1.36823241164563
  H          -6.85043145661270      0.90703634137783      0.54637851358458
  H           0.09028632795122      4.78946496227649      3.06009328983046
  H           4.61101874865889      3.39084925705986      3.04824666155660
  H           4.45050271383121     -2.57895853289350      2.88643673784041
  H          -0.63444668716275     -5.37725290738162      1.64305397707097
  H          -5.17056976991402     -3.91068356621774      0.81638048487264
  H          -4.91888289390001      1.87944926190727      2.36013356308810
  H          -1.65048037571656      2.33609170169024      1.66374651075975
  H           2.14022358833240      3.25587690992366      2.23119597900691
  H           3.82788044384547     -0.16820830567317      2.22574752323212
  H           1.27229235517926     -2.80494041835301      1.44653166655075
  H          -2.62002055231825     -3.61723891308920      0.76917944514113
  H          -4.10293382042236     -0.28473789069263      1.17559733288807
  H          -2.74607601928119      2.99948318130771      3.65994460993852
  H           2.49555268352017      5.47916451185640      3.17129883123626
  H           5.65090169551276     -0.02542293994035      3.85961231474923
  H           2.01620825324175     -4.16312594042135      3.31060855934928
  H          -3.07671907913190     -5.98803907011249      1.04600078519057
  H          -6.05804484540691     -0.84325418018167      2.48103205909205
  H          -3.96371428276701      4.02668954349311      0.61820203915856
  H           1.64110402527666      5.13344297335412     -0.13423768548633
  H           6.08300387956614      1.30790251176749      0.80380717443739
  H           3.80711427685582     -4.15444377071470      0.40943719839580
  H          -1.39508859736226     -4.87150133927651     -1.73799782187737
  H          -6.09829777772934     -1.28773923791374     -0.90015876170975
  H          -1.60813517993014      2.90163242248737     -0.98359010630638
  H           2.16957042483179      2.12149032252178     -0.05846962995514
  H           3.59864681683655      0.15682395457872     -0.54778438673448
  H           1.71321646659468     -2.50946414647345     -1.10256688880188
  H          -1.99449790860459     -1.95322793790453     -1.05217507248269
  H          -3.44795604978027      0.13024883590059     -1.43437257144494
  H          -3.72645461836410      3.21125353959451     -2.21537410764166
  H          -2.44835314064924      4.32586152953385     -2.75145092787291
  H           5.00607248486381      0.36086868038721     -2.57479968919756
  H           4.81824371217648      1.94191986707592     -1.79026834016121
  H           4.02821990442400     -2.39344505373041     -2.02852475419117
  H           2.88146485949409     -3.24511436399968     -3.09612122460538
  H          -4.42608486460339      0.47776534645824     -3.67987257336364
  H          -4.26653464908753     -1.24964918911459     -3.30857660967268
  H          -3.50356146277039      5.92285555900836     -1.46389911125943
  H           7.07402876627409      0.26045023968292     -1.58177089703788
  H           3.79385959122035     -5.19412611034104     -2.26050603752060
  H          -6.64851913996921      0.25566038652620     -3.14395868960913
  C          -0.39350462509725     -0.44346471463802     -4.05969646637673
  H          -0.90228126008684      0.10175377253668     -4.85680687712586
  H           0.39726592637037     -1.09518736268296     -4.44109469971411
  O          -0.01261241531955     -2.98028331487107     -3.18712643859695
  C           1.42901496525453      1.32230399182949     -3.56717633047765
  H           2.12718477875750      0.63944608937888     -4.05273659730672
  H           1.08735472131881      2.11686678223417     -4.23940445850137
  O           0.99873382840268      3.82466784238824     -2.45333830869207
  C           0.18375721366445      0.56928881404429     -3.02104127720338
  O           0.72376492540432     -0.49355875118519     -2.01221754974899
  O          -0.70715776038358      1.37727063251793     -2.47123554775729
  O           1.06667856304273      0.11190885970214     -0.74306624524368
  H           0.51038457126202     -1.85972685965257      4.93848159260938
  H          -1.34854779040611      0.54629148093022     -1.33575023134170
  H          -1.38992922274110     -2.54720739792835      3.51476068251201
  H           2.10308714084344     -0.16031907406111      4.12454947324717
  O          -1.33309228219946      0.00419172540145     -0.47464411842193
  C          -0.16677535032852      0.38996523251052      0.12614895071274
  C           0.03656380027409     -0.28397607905303      1.45897545328017
  H          -0.09968062919955      1.49062141784695      0.22846406186255
  C           1.10376592380226      0.10291293616625      2.25851106717186
  C          -0.86146106574859     -1.23688699066273      1.91744491887236
  C           1.27531903432043     -0.46910399346135      3.50627504128825
  H           1.78696095353723      0.85174641821400      1.88296800790989
  C          -0.68833976884202     -1.80552082573930      3.16837355153130
  H          -1.69286066328836     -1.50964647015178      1.28520986913503
  C           0.37911163840419     -1.42253585177667      3.96214837692927
