133
Coordinates from ORCA-job job
  C           0.77567800504913      5.16370674602790     -0.00308505152306
  C          -4.04887998193513      2.95453879416091      0.57879427880310
  C          -5.12510159517826     -2.04145783025646      0.08789025193819
  C          -0.83392306496711     -5.06088393466066     -0.44454307319936
  C           3.91815697601921     -2.80062507842162      0.19645217300390
  C           5.08487942623035      2.17379738364281     -0.57706271314278
  O          -0.11135797508570      4.14851319792756     -0.42365768092830
  O          -4.25641468001713      1.98771913880097     -0.40910285899888
  O          -3.80321914552733     -2.33900001588359     -0.30000445467169
  O          -0.01851829196096     -3.93718198734550     -0.70338172776066
  O           4.02550159254538     -1.83584498935773     -0.81187030685091
  O           3.76503304977909      2.54662578949368     -0.90366074398339
  C           1.66806944591155      5.58760095010641     -1.18372437374266
  C          -3.89293940829792      4.35370591129751     -0.05896118238457
  C          -5.82148379895272     -1.33152978986511     -1.08385268335794
  C          -1.82525153509026     -5.18718502759565     -1.61575357281857
  C           3.75251722009360     -4.18949080324210     -0.45827033039794
  C           5.62306106284373      1.38240727631635     -1.77798767250263
  O           0.97805415334377      6.18442885367734     -2.23756279190716
  O          -4.88771116950630      4.58723411782674     -1.01191878773116
  O          -5.84319438289487     -2.11024739146605     -2.24385041208643
  O          -1.17517015429089     -5.33171282928500     -2.84611131970808
  O           4.75303461252424     -4.42434180589234     -1.40536540079825
  O           5.53109379602416      2.12022516460610     -2.96713914012934
  C           2.44725866146471      4.34813704924106     -1.62656754579779
  C          -2.48841336617533      4.60968790904440     -0.66044683436267
  C          -5.09958826570108      0.00317326666466     -1.32640017397406
  C          -2.65817410505872     -3.90238027170920     -1.63616817890227
  C           2.35527018899946     -4.37281503397241     -1.09338264631668
  C           4.83413639669792      0.06807340147062     -1.88474829437601
  O           3.29539136615315      4.62336778430681     -2.71116936501047
  O          -2.30268562158215      5.98748910069946     -0.85175662353597
  O          -5.73163282101058      0.71724842129608     -2.35711000032116
  O          -3.58655171552504     -3.85602556853040     -2.68375632174072
  O           2.15338394112037     -5.71714775698733     -1.43730311982774
  O           5.36405236061294     -0.74761835819258     -2.89588291224810
  C           3.30275917993760      3.81616220290878     -0.47749057709382
  C          -1.35922587337960      4.09041912094458      0.24639194691487
  C          -5.07439664348375      0.86501655341146     -0.05763308955286
  C          -3.37288911136968     -3.69760372615961     -0.28794516415585
  C           1.26355232896868     -3.94561666864802     -0.10372516606852
  C           4.86692101802524     -0.71560809195685     -0.56602727152870
  C           2.50323882449707      3.69008277750756      0.83245924578118
  C          -1.73627365708775      2.63565191541697      0.57561392698382
  C          -4.54822432352903      0.04387904926276      1.14230663219975
  C          -2.46528733191617     -3.92928907958256      0.93151205342106
  C           1.61085843927068     -2.51059836421202      0.34639876356027
  C           4.42006890558311      0.19193169005975      0.60156307913179
  O           1.57881770386735      4.75772114121093      1.06423621502019
  O          -2.90707149715679      2.63971843476531      1.34722503803748
  O          -5.16889904850858     -1.23524103842900      1.22420997588554
  O          -1.51834472555041     -4.98400501488413      0.77124526137327
  O           2.82369359321106     -2.51279712169450      1.04502530680766
  O           5.15837700686486      1.41396923311819      0.58714877223360
  C           3.43755526193115      3.72762798987449      2.05475213678189
  C          -0.70011971150144      1.81073858515238      1.29640144491975
  C          -4.85698709109820      0.66993168919640      2.52127959799264
  C          -3.30393697210004     -4.30429926040360      2.16733721959434
  C           0.51341511724188     -2.01624534733358      1.24344648894313
  C           4.72359665032504     -0.37807368777921      2.00387298894579
  O           4.17152722650142      4.91833237403123      2.09395977444337
  O          -1.08497744533647      1.51571529987562      2.52815944463278
  O          -6.13412171322881      1.23890055734523      2.57804223826509
  O          -4.11907114396229     -5.41419213964295      1.91698992778421
  O           0.74127227835457     -2.25254254454117      2.50205418206116
  O           6.01159026497780     -0.92021399972188      2.07955957832296
  H           0.20707906871295      6.02839275509782      0.36160624906659
  H          -4.88682838745523      2.97129214142308      1.28599790893286
  H          -5.66424284052183     -2.95609487830249      0.36712631306880
  H          -0.21102503046972     -5.96209644199584     -0.36156986638025
  H           4.80379823700949     -2.79828391925875      0.84315172969704
  H           5.70015586160169      3.06280782230489     -0.38543807582914
  H           2.36786954264290      6.34836682930218     -0.81259075066328
  H          -4.03863350221431      5.09960775880552      0.73144548511868
  H          -6.86537937537556     -1.13101795370705     -0.81992213894761
  H          -2.48511751456351     -6.04693343218333     -1.41674692082475
  H           3.87338494509864     -4.95244231937967      0.31947843251875
  H           6.68435984759204      1.15500694316988     -1.63173475845268
  H           0.47932744256313      5.48454056194259     -2.77527869166488
  H          -4.95474278914883      3.81119532750223     -1.58808928540511
  H          -4.96194422041645     -2.50738395423229     -2.39307493933077
  H          -0.59012277185379     -6.10382562200697     -2.79782946583908
  H           4.82880484993783     -3.64425660260423     -1.97539785428105
  H           4.69599333952797      2.61092520895213     -2.96476483098439
  H           1.71110915708563      3.57118000997622     -1.90733926175872
  H          -2.38897193532460      4.07825265384565     -1.62326960884950
  H          -4.05010811076569     -0.20878216424050     -1.60316192828081
  H          -1.98050031009562     -3.05480459747409     -1.79603382148472
  H           2.27333789781563     -3.73093693987687     -1.98598493933334
  H           3.78001347944583      0.31652489025307     -2.10506581975213
  H           2.83515236095746      5.24683019645432     -3.29347426696953
  H          -3.10326753649767      6.33559261912437     -1.27855305979881
  H          -6.04595473879029      0.05962865794613     -3.00107685352879
  H          -4.13726289567513     -4.65708585695218     -2.64414496857799
  H           2.96316120612964     -6.03167222445499     -1.87159611859999
  H           5.58407405146689     -0.17334908716550     -3.64595223248186
  H           4.15106089224434      4.50002639071314     -0.33642710751515
  H          -1.31896696022907      4.67397176394314      1.17358321393042
  H          -6.08811920317714      1.22829994428443      0.16178895821602
  H          -4.24036211159620     -4.37060639300086     -0.23124479711375
  H           1.27353887243757     -4.60407956928688      0.77433022909511
  H           5.88953129673750     -1.07150219144674     -0.37633675066629
  H           1.95818961918573      2.73828058380076      0.77954345461578
  H          -1.89683248182242      2.11689821815282     -0.38715280855068
  H          -3.46114063958968     -0.08178823609246      1.02187460576632
  H          -1.95110428272678     -2.97794625026315      1.10337901863888
  H           1.65174420630372     -1.85872573745159     -0.53960302734698
  H           3.34425074858279      0.40397777336559      0.49543870878765
  H           4.15743443060459      2.91091375601670      1.99014846595237
  H           2.82143151454445      3.61590005467862      2.95474645914429
  H          -4.74376679694240     -0.13432905640032      3.25544541225929
  H          -4.13182187946262      1.44926340142926      2.74821347312300
  H          -3.95479920896246     -3.46446189619971      2.41998291846451
  H          -2.62631182075689     -4.50233511954698      3.00492419883020
  H           4.60254122942451      0.45068890559380      2.71132943682378
  H           4.02027228673034     -1.16934979910039      2.25888989130272
  H           3.53896233282802      5.65086107263482      2.09506145750785
  H          -6.78321291953402      0.52151509649907      2.53495157704311
  H          -3.53879815537359     -6.17435647525998      1.76322066603765
  H           6.64682618809174     -0.20305449279395      1.94254937046064
  C          -0.34481301693004     -2.03660076711249      3.42606477360240
  H           0.17435516602050     -1.92032750342833      4.40743840765077
  H          -0.99173976343937     -2.91186391470944      3.43363986472775
  O          -0.48945605022064     -1.45628486284751      0.81029622926596
  C          -0.38032361334866      0.44566173331936      3.18731478850149
  H          -0.33511787013953      0.73482474430987      4.24547532428136
  H           0.61862189338277      0.35518744225365      2.77386779467596
  O           0.32469722908187      1.39192994011938      0.77133193537544
  C          -1.16620280299567     -0.83713798532990      3.13481910041042
  O          -2.35609107047749     -0.86749177493793      3.04838472579720
  O          -0.17932477617073      4.48387326342245     -3.80441079458622
  O          -0.69204846109258      3.24228697158679     -3.19857564841848
  H          -1.06560699663543      2.86543049378346     -4.01975313682102
