133
Coordinates from ORCA-job job
  C           0.70188070293798      5.10629982214204     -0.35881685807924
  C          -4.09103208238179      3.12103816338910      0.81312405180514
  C          -5.03043324865221     -1.87710085986741      0.04938703419474
  C          -0.74871326170365     -4.85229300643253     -0.79485110295969
  C           3.98687910068484     -2.82871599677671      0.35997092170957
  C           5.04792601494482      2.13243470694012     -0.43506380682953
  O          -0.14967864552190      3.98115599190554     -0.26817658085818
  O          -4.25533292201162      2.18807687228898     -0.21370320948665
  O          -3.68589807344816     -2.11853282192911     -0.31708515141768
  O           0.08414569511594     -3.71003252259823     -0.82676394405651
  O           4.16813844656620     -1.88697771376614     -0.65508825867393
  O           3.68948264953808      2.35748554890418     -0.75491446619177
  C           1.38034282690965      5.08080557046963     -1.74260541293740
  C          -3.87322784130956      4.52572877830172      0.21735012813472
  C          -5.73907120443432     -1.11581351758484     -1.08362755771273
  C          -1.68889610636763     -4.76118164059421     -2.00853072882880
  C           3.79823146424064     -4.21070073518205     -0.29901187334711
  C           5.66824071718067      1.37082326815579     -1.61684943399380
  O           0.49418837414063      5.20254260661592     -2.81731673968426
  O          -4.87273234514491      4.86243088188504     -0.69747656889247
  O          -5.76231653878307     -1.81703106816371     -2.29009196082258
  O          -0.98675834201432     -4.69986634866783     -3.21771426478336
  O           4.86166413527285     -4.51929720284238     -1.14979992948704
  O           5.54618049386165      2.08531384888945     -2.81712898138997
  C           2.18859752263755      3.78509932401053     -1.83132596739649
  C          -2.47541898524651      4.68079505748036     -0.42439015732346
  C          -5.03782763163800      0.24107843577350     -1.24290485110795
  C          -2.51747444366014     -3.48392556728968     -1.84945836284729
  C           2.45832230470310     -4.28278487490247     -1.06277552015590
  C           4.97235268135666      0.00674313040861     -1.72062220588521
  O           2.90215355323849      3.69857357551414     -3.03840531115329
  O          -2.22976553058073      6.03574117881253     -0.68142765972137
  O          -5.64494455092052      0.99254654694850     -2.26002648741816
  O          -3.41893876577793     -3.28676726261535     -2.90449806116793
  O           2.21181462999548     -5.59316762984441     -1.49475664284269
  O           5.58655652082308     -0.79595439523457     -2.69366323910159
  C           3.19046770122511      3.67872086580875     -0.68252377605506
  C          -1.34686129090699      4.12996032529522      0.46963617969482
  C          -5.06240259115613      1.03842212547213      0.06726016148762
  C          -3.26616670650741     -3.47046782005022     -0.50299127097583
  C           1.31808228107902     -3.83535906063310     -0.14113531034294
  C           4.99266058326473     -0.75719747334632     -0.38994834567791
  C           2.52188054873425      3.94923473684639      0.67631566734452
  C          -1.79209607178798      2.72578729944122      0.90392351128226
  C          -4.53916467737840      0.16611422308786      1.22949733283531
  C          -2.38046716021925     -3.89191019662900      0.68221251263063
  C           1.68393924200586     -2.43990878900535      0.40754814412988
  C           4.50750923739596      0.14154002351586      0.76934970106029
  O           1.67319471102714      5.09873337326581      0.64388164205903
  O          -2.98500259429927      2.78897772297554      1.62936843142986
  O          -5.11795345145087     -1.13539337485058      1.22378697374234
  O          -1.48748221023629     -4.95960023089310      0.38469945138997
  O           2.86293484587712     -2.49686389166800      1.15830371326585
  O           5.17693488771610      1.40179917785733      0.74276901462240
  C           3.56588904175060      4.23960357307176      1.76683282677056
  C          -0.80603808895844      1.87280448322160      1.67055404836420
  C          -4.89955760310658      0.69154335446745      2.63608166615289
  C          -3.24081311765353     -4.37739823617701      1.86393784833198
  C           0.55392383943851     -2.00375861422226      1.29572453479665
  C           4.84082027108079     -0.40685345075684      2.17373919176021
  O           4.42034853994672      5.28500433884763      1.40252972038901
  O          -1.40503851158666      1.26974371574582      2.68749771052616
  O          -6.22818857917582      1.12122417191049      2.71490046575859
  O          -4.12589263166106     -5.38897771911883      1.47471319223003
  O           0.65170926635652     -2.45853718880813      2.49637603360743
  O           6.14091116269283     -0.91689233472301      2.24649743989369
  H           0.12850566105947      6.03073748581860     -0.22927060941854
  H          -4.96076337602250      3.12706704114136      1.48159377556408
  H          -5.54510310638864     -2.82134474096902      0.26979818404449
  H          -0.13716020030536     -5.76349920683567     -0.83675454921687
  H           4.84132955381381     -2.85173300424178      1.04682576879414
  H           5.57299197968905      3.07914150556303     -0.25972384712825
  H           2.05362501438553      5.94395638679504     -1.81070223767986
  H          -3.94318975360540      5.25375571195405      1.03408630265762
  H          -6.78381447722657     -0.94687807351369     -0.80013166470912
  H          -2.36190625902283     -5.63338471924613     -1.98809605750777
  H           3.79311109874554     -4.97523486709144      0.48619626062968
  H           6.73994896968890      1.22393319750802     -1.44763496801541
  H          -0.07441838918856      4.38128490444019     -2.90115758694706
  H          -4.96797049478536      4.14619872819197     -1.34152497172904
  H          -4.87159478356025     -2.17016644103771     -2.48976530921751
  H          -0.42024150779083     -5.48544462497683     -3.28126397817157
  H           5.04057535727566     -3.75274428475424     -1.71516345106005
  H           4.65105350775134      2.45605965309307     -2.87871230718488
  H           1.47758885552639      2.93934383081917     -1.74930603680445
  H          -2.43667001622533      4.09953308191803     -1.36608250039622
  H          -3.97383971035590      0.06232397818717     -1.49524199480320
  H          -1.83633139771624     -2.62273520070326     -1.86583303080113
  H           2.49368612128912     -3.59353245429653     -1.92276344834973
  H           3.91324037743846      0.18620153376041     -1.98369817234896
  H           2.35607027803285      4.09427901233209     -3.73513791124036
  H          -3.03802087477800      6.41334860582108     -1.06935074688804
  H          -5.99582638523103      0.35542653605391     -2.90770757864212
  H          -3.91342349728015     -4.11511671672185     -3.04206596935476
  H           3.05544139282877     -5.96053767121075     -1.80816308306178
  H           5.79132710003519     -0.22739719618396     -3.45251484451430
  H           3.99855811563748      4.40218778372469     -0.85531608412610
  H          -1.18828003404853      4.77866383599026      1.33982516981345
  H          -6.08642122650958      1.37375604289205      0.28394877818643
  H          -4.13921277448971     -4.13483071930394     -0.56258942879978
  H           1.21908711212819     -4.53671254974267      0.69819560293738
  H           6.01487724240346     -1.10190448884113     -0.17819987151320
  H           1.93148884421601      3.06099756690134      0.93455328562938
  H          -1.93472841765488      2.15466303378297     -0.03720334829386
  H          -3.44723168310516      0.08689605609789      1.12232579882382
  H          -1.81995197511867     -2.99557420033590      0.96453974688032
  H           1.76232794007902     -1.73442808517483     -0.43358575969745
  H           3.42199257747002      0.29983590596635      0.66779713700594
  H           4.18645709603402      3.35423161685254      1.91554896077491
  H           3.02751305424800      4.47320824391200      2.69273851433246
  H          -4.70403179218413     -0.13634066248201      3.32652256878272
  H          -4.25723060154026      1.52819237244595      2.90363096214047
  H          -3.83332070630494     -3.53790545446870      2.23409082623046
  H          -2.57340613539034     -4.72991558042899      2.65812820831276
  H           4.70286639816753      0.42641804509158      2.87301410101176
  H           4.15738669334672     -1.21145311384234      2.44225301126376
  H           3.87535407966484      6.06836992482216      1.24059817794973
  H          -6.79701860256909      0.34505469067103      2.60553434976556
  H          -3.59717742973400     -6.16890069475817      1.24966223599430
  H           6.75907703501052     -0.18645164087241      2.10106465415464
  C          -0.46026032683992     -2.29034073625297      3.38299226419314
  H          -0.00798800769051     -2.14550719733803      4.38758866743994
  H          -1.05743034223660     -3.20802823096607      3.37519957665426
  O          -0.36898502510706     -1.29461796118165      0.89782375405956
  C          -0.68834137627153      0.20379576184209      3.33969377402959
  H          -0.80801243922728      0.36837085744788      4.41503507142365
  H           0.35828417086425      0.24330385192121      3.05871636476954
  O           0.35262239080419      1.66628872174661      1.33314485882265
  C          -1.33637893815100     -1.12673606124602      3.06012807230403
  O          -2.49559031717847     -1.23901046687053      2.81962884142227
  O          -1.02179426355592      3.09903866310545     -3.24890232760371
  O          -0.83846982993515      1.90046173417483     -2.41285186823976
  H          -1.45877469136637      1.32780808861021     -2.90311290512933
