19
Coordinates from ORCA-job job.QMRegion
  C          -0.86844000392681      1.94271146541300      1.72100894837246
  C           0.64166648431493     -1.92712904615537      1.22146732062096
  O          -1.46602205767446      1.24814475819080      2.67540871926883
  O           0.69877207339364     -2.46193932428081      2.37937935066879
  C          -0.40039392347787     -2.30868016905736      3.27093072611364
  H           0.02782400297908     -2.15409020910184      4.27664082721598
  H          -0.98277591653580     -3.24220101131892      3.27466667483948
  O          -0.25502202484020     -1.15886415354425      0.86084896679777
  C          -0.71177535599156      0.19526172574200      3.30638490810491
  H          -0.87990093543670      0.29851331090414      4.37775790937309
  H           0.33942860816157      0.29534789105376      3.05803237529691
  O           0.30944246153660      1.81155031423879      1.40990398125356
  C          -1.29322538757471     -1.14980904046558      2.94483583186194
  O          -2.42971780238000     -1.28007564886829      2.64721679181411
  O          -1.21795937222556      1.99228860389593     -2.63024781008411
  O          -0.56422664137875      0.92915078443014     -1.85046856911509
  H          -1.07911131466551      0.18256157557103     -2.21136767792426
  H          -1.58245251519596      2.53367973233721      1.19001625520404
  H           1.44426539832382     -2.22127779605382      0.58654651004936
