19
Coordinates from ORCA-job job.QMRegion
  C          -0.53944611414388      1.86275156045979      1.43959890157992
  C           0.59931623079490     -2.43230867545438      1.79075485467871
  O          -0.95046796694058      1.58947454037772      2.65977290366944
  O           1.10064693409110     -1.84980678126278      2.84843948128882
  C           0.15491000438337     -1.72548937559612      3.92816589612101
  H           0.75011753699259     -1.40572692570790      4.79768171852831
  H          -0.38526656725232     -2.65775615060501      4.07978090418480
  O          -0.56603767119798     -2.77032845071441      1.72782894795731
  C          -0.15104700304996      0.65885701080798      3.41068891199710
  H          -0.10353674295728      1.04549498020086      4.43815991147999
  H           0.83703882684504      0.57997684846182      2.97392707121120
  O           0.52468100314081      1.47257798810759      0.96998913637565
  C          -0.82108506808519     -0.65674987283039      3.53002214539336
  O          -1.98564530420916     -0.82456891349201      3.41754615790734
  O          -1.57460932300151     -0.55556712356386     -0.39705861410770
  O          -0.33193796191498     -0.63776662508135     -1.16899339982306
  H          -0.36093057289292     -1.59343218154964     -1.39846081122796
  H          -1.29561681887337      2.37300136525865      0.88848121459891
  H           1.29175994267967     -2.53481112193422      0.98292772704446
