133
Coordinates from ORCA-job job
  C           0.48906597144448      4.68747027020397     -1.05130320703010
  C          -4.18353880948456      3.32971507596265      1.04934825272114
  C          -4.95869617639033     -1.66423124065980      0.15586975678967
  C          -0.63374160422440     -4.40195405566485     -1.21964983112972
  C           4.15062276189595     -2.93873510145864      0.41858667612647
  C           4.93980394100407      2.04423275700648      0.06533198799995
  O          -0.45200936800476      3.66101761016118     -0.75113787982528
  O          -4.56653282418998      2.44175407981439      0.04119443965935
  O          -3.62005911415669     -1.75199963678092     -0.32656539186006
  O           0.27535462076891     -3.32708486076699     -1.05946363080634
  O           4.44852337190713     -1.95840929663970     -0.52283762975215
  O           3.54033839847125      2.06045602739773     -0.19388276719034
  C           1.27175363861759      4.16993724612312     -2.26681569635132
  C          -3.91466084876563      4.69152573257584      0.38260385939636
  C          -5.83774021312966     -0.93021814472027     -0.86980491989551
  C          -1.54807187612368     -4.04683047929384     -2.40370420284488
  C           3.87947316660825     -4.25049674508711     -0.34369137052313
  C           5.71838360410412      1.46804505227226     -1.13171576742244
  O           0.44228110955969      3.88004665750971     -3.35890408526769
  O          -5.01687797572126      5.16513215163067     -0.32730859309478
  O          -5.84100434760131     -1.54649758808365     -2.12347181421896
  O          -0.81624490418498     -3.75216964855561     -3.56015055458866
  O           4.96600874082909     -4.62676752702949     -1.13182848000850
  O           5.62064873850601      2.24058899131079     -2.29342378770537
  C           2.04911761036340      2.92524196917265     -1.82242554867060
  C          -2.68595593751103      4.59023066298333     -0.54700283327113
  C          -5.35329793911909      0.52036919101759     -0.98073095105864
  C          -2.36710339779737     -2.81741989932770     -2.00478841466076
  C           2.60510660850122     -4.11216927436428     -1.20545793489940
  C           5.20529476350364      0.04677863054747     -1.38229399957769
  O           2.81185180281926      2.39930504026704     -2.87856619312468
  O          -2.37963082918542      5.84846343608137     -1.07275973735883
  O          -6.20118158208840      1.24964681351991     -1.82636341907012
  O          -3.22761685174870     -2.39019185124537     -3.02608639175372
  O           2.27908356612664     -5.33794761154818     -1.79824913850029
  O           5.96620510195800     -0.59151429993647     -2.37262380149185
  C           2.98273581611148      3.27619371388541     -0.65956169054878
  C          -1.45933736880838      4.01543174644659      0.18287437703695
  C          -5.26351686043211      1.23822027107565      0.37502580586368
  C          -3.15189894058277     -3.05258913246810     -0.70355424570514
  C           1.44255558096800     -3.65054353284572     -0.31729699838535
  C           5.22365812205016     -0.82907222646623     -0.12112359573141
  C           2.19459536558459      3.95410174901071      0.47531434009051
  C          -1.93130858138060      2.71708054107769      0.84915334467654
  C          -4.54272274949183      0.34527840857627      1.40479017112693
  C          -2.24207591299652     -3.62750697818068      0.39572842700857
  C           1.88071122021432     -2.35894889170965      0.40635208813089
  C           4.67361743423280     -0.07828646033172      1.11266516459237
  O           1.34268819712340      4.99718830353719     -0.00051900900533
  O          -3.00541369179200      2.92232473516477      1.71986932000512
  O          -5.02145204843024     -0.99370984260396      1.37015630800771
  O          -1.38818165489816     -4.66277913823538     -0.07643241841106
  O           3.01341263592064     -2.57487688069924      1.19185501497607
  O           5.17953197538684      1.25473984298279      1.18297330339103
  C           3.13485512589682      4.61625127398168      1.49588659806442
  C          -0.90550392254067      1.85901371098024      1.52849184054659
  C          -4.78029540434859      0.75793814504531      2.87262043364625
  C          -3.05040488743567     -4.24036776766764      1.55446078438160
  C           0.74593718610398     -1.96734229141070      1.30165394155517
  C           5.10635880761065     -0.69814971221162      2.46072620437949
  O           4.03909976474972      5.48935407632780      0.88473463744037
  O          -1.41824324698819      1.25116248997650      2.58471747749738
  O          -6.13077099001505      0.99652864194351      3.13322034205943
  O          -3.97875032438363     -5.18009216028568      1.09657598716237
  O           0.78838560316896     -2.47737523388995      2.45467635473023
  O           6.44577460674939     -1.09705827116018      2.45905014997046
  H          -0.04469590447628      5.61948095814885     -1.27964842891559
  H          -4.94945767662456      3.40677341674503      1.83217051024441
  H          -5.34897952735454     -2.66942217234507      0.36204559207825
  H          -0.07633598571739     -5.32919800820626     -1.41206960073538
  H           4.96472485849887     -3.07496197328012      1.14088496241714
  H           5.29847736308641      3.05002246804727      0.31650675103344
  H           1.97140669741459      4.93788082536103     -2.61332677764132
  H          -3.70172133119615      5.42849656009686      1.16526251308936
  H          -6.87498818813418     -0.93907944509434     -0.51571814072997
  H          -2.23774368450866     -4.88813448359775     -2.57506868945908
  H           3.72649816450310     -5.05515073145158      0.38465322252819
  H           6.78191291655558      1.43930259435406     -0.86945364114892
  H          -0.30947111073980      3.36369645747463     -3.04955587792737
  H          -5.35999436176950      4.45410457609453     -0.88796840433824
  H          -4.92519599837327     -1.66346302083555     -2.43444496325058
  H          -0.32985658209097     -4.55592661334124     -3.81543778356154
  H           5.26646409997855     -3.86001107541960     -1.64272914315969
  H           4.68558015358625      2.30577245227433     -2.55903443418596
  H           1.32260898070380      2.16301619326353     -1.46892339103541
  H          -2.91787216707523      3.86836458454522     -1.35602530239304
  H          -4.31918044067532      0.51590655570989     -1.38718305902698
  H          -1.68246895462516     -1.97717038591071     -1.81085311111051
  H           2.76988909330361     -3.34251950053484     -1.97783128593871
  H           4.14881025536587      0.12520653083405     -1.70488580146472
  H           2.38751674804010      2.65560573907737     -3.71484467680656
  H          -3.22373301430477      6.30763260644538     -1.23771299931959
  H          -6.54502324234761      0.63078426274667     -2.49515867962604
  H          -3.71010641675706     -3.18026515560053     -3.34673459526013
  H           3.11539990859736     -5.78496152842506     -2.02017806466115
  H           6.20505351235041      0.08032855678120     -3.03233173312368
  H           3.77067709721771      3.94835460463243     -1.02174400220855
  H          -1.05812825936946      4.72253687213885      0.91862532065754
  H          -6.26695590808841      1.49931324526616      0.74222502703890
  H          -4.00288013164663     -3.72214617928700     -0.88684793662749
  H           1.21225040814694     -4.42442088597775      0.42814136203915
  H           6.25248017325728     -1.15895266092978      0.08447639578761
  H           1.59705123785651      3.17163839391337      0.95827052027960
  H          -2.23079968589071      2.05611417300477     -0.00830577211292
  H          -3.46925684371648      0.35331948180726      1.15473339205326
  H          -1.65313005180178     -2.77483449700742      0.74750763116107
  H           2.02418358540634     -1.56615684318444     -0.34418111367572
  H           3.57622731819738     -0.04073100812664      1.04519649302377
  H           3.71858450329589      3.84110713940029      1.99514820208933
  H           2.51541368785763      5.13771971503765      2.23439413757016
  H          -4.39028881693361     -0.06302435234493      3.48502715992349
  H          -4.22466820838857      1.66429187485881      3.10541197922838
  H          -3.59684749798921     -3.43884603493336      2.05573491052975
  H          -2.34439166205578     -4.69377367003726      2.26059658238386
  H           4.92146532532673      0.06495681181437      3.22608758892348
  H           4.50155703243025     -1.57591284622759      2.68555437875774
  H           3.52775921143935      6.18790341870220      0.45096988811932
  H          -6.60850791691493      0.16039040489111      3.02570128758142
  H          -3.48460157486882     -5.96342928453801      0.81129556729371
  H           6.99737911969072     -0.30624228471824      2.37463574857050
  C          -0.34912080850321     -2.31948334010291      3.29531675533250
  H           0.00942543988069     -2.15139134501405      4.31920454957306
  H          -0.93601852242570     -3.25332775230892      3.27883060403493
  O          -0.15544328174593     -1.21565372378020      0.92761498225966
  C          -0.63439713224588      0.21591855629423      3.21509933710667
  H          -0.79024869402780      0.34557333028938      4.27852011936053
  H           0.40655685980808      0.31630927281595      2.92582456377336
  O           0.22199776540016      1.62688869136199      1.09044753488596
  C          -1.21175144371440     -1.15038242181453      2.89740115250906
  O          -2.34580466920861     -1.27090783170774      2.58533110541087
  O          -2.18862815858574      1.09840100464636     -1.68830322438180
  O          -0.93946718624399      0.33954136320689     -1.68965593980218
  H          -0.98538921096862      0.06019031976081     -2.62850828331409
