19
Coordinates from ORCA-job job.QMRegion
  C          -0.90550392254067      1.85901371098024      1.52849184054659
  C           0.74593718610398     -1.96734229141070      1.30165394155517
  O          -1.41824324698819      1.25116248997650      2.58471747749738
  O           0.78838560316896     -2.47737523388995      2.45467635473023
  C          -0.34912080850321     -2.31948334010291      3.29531675533250
  H           0.00942543988069     -2.15139134501405      4.31920454957306
  H          -0.93601852242570     -3.25332775230892      3.27883060403493
  O          -0.15544328174593     -1.21565372378020      0.92761498225966
  C          -0.63439713224588      0.21591855629423      3.21509933710667
  H          -0.79024869402780      0.34557333028938      4.27852011936053
  H           0.40655685980808      0.31630927281595      2.92582456377336
  O           0.22199776540016      1.62688869136199      1.09044753488596
  C          -1.21175144371440     -1.15038242181453      2.89740115250906
  O          -2.34580466920861     -1.27090783170774      2.58533110541087
  O          -2.18862815858574      1.09840100464636     -1.68830322438180
  O          -0.93946718624399      0.33954136320689     -1.68965593980218
  H          -0.98538921096862      0.06019031976081     -2.62850828331409
  H          -1.63089812559493      2.46579269080057      1.04809998175641
  H           1.55094067467355     -2.24514621528589      0.66653091823504
