19
Coordinates from ORCA-job job.QMRegion
  C          -0.70011971150144      1.81073858515238      1.29640144491975
  C           0.51341511724188     -2.01624534733358      1.24344648894313
  O          -1.08497744533647      1.51571529987562      2.52815944463278
  O           0.74127227835457     -2.25254254454117      2.50205418206116
  C          -0.34481301693004     -2.03660076711249      3.42606477360240
  H           0.17435516602050     -1.92032750342833      4.40743840765077
  H          -0.99173976343937     -2.91186391470944      3.43363986472775
  O          -0.48945605022064     -1.45628486284751      0.81029622926596
  C          -0.38032361334866      0.44566173331936      3.18731478850149
  H          -0.33511787013953      0.73482474430987      4.24547532428136
  H           0.61862189338277      0.35518744225365      2.77386779467596
  O           0.32469722908187      1.39192994011938      0.77133193537544
  C          -1.16620280299567     -0.83713798532990      3.13481910041042
  O          -2.35609107047749     -0.86749177493793      3.04838472579720
  O          -0.17932477617073      4.48387326342245     -3.80441079458622
  O          -0.69204846109258      3.24228697158679     -3.19857564841848
  H          -1.06560699663543      2.86543049378346     -4.01975313682102
  H          -1.43283237674718      2.39407318267002      0.78669905408066
  H           1.29193637009482     -2.36693710728739      0.60708495207315
