133
Coordinates from ORCA-job job
  C           0.75785492961292      5.01914688916183     -0.64984914296549
  C          -3.91500372160045      3.00109678056162      0.80352344822469
  C          -5.36220328018276     -1.90703452240891     -0.09582190926473
  C          -0.97753822726253     -4.61674758817663     -0.88508037729757
  C           3.87072387288926     -2.81194902073997      0.20139971514474
  C           5.17701484506064      2.21201880150597     -0.23629533384686
  O          -0.10449241890538      3.88817383899401     -0.71649477838993
  O          -4.22553028750110      2.05128202638657     -0.17862448285625
  O          -4.24859480209231     -2.17927456058075     -0.91694992440444
  O          -0.12570228816651     -3.48056139942288     -0.83204996282225
  O           3.92894699865197     -1.62576795776961     -0.52785772566496
  O           3.91741701517047      2.44011468908990     -0.81733546932632
  C           1.55742860873088      5.04124089082574     -1.96019320491778
  C          -3.75469054904240      4.38038912801130      0.13480233039568
  C          -6.25544016886985     -0.96537999773230     -0.91560170313310
  C          -1.75020660411700     -4.58875016487079     -2.20774900520266
  C           3.62207978602878     -3.94937484294371     -0.81020798379781
  C           5.96744117040861      1.38134861079326     -1.26194943617255
  O           0.73224714999969      5.09813934284841     -3.08696733184853
  O          -4.86325367878054      4.71054373006086     -0.64539825816281
  O          -6.64283007136463     -1.52933310798486     -2.13153250754919
  O          -0.90150539239529     -4.36532184038066     -3.30146483763759
  O           4.59040541860789     -3.94685102677169     -1.81590169635652
  O           6.12531542554579      2.07251351362984     -2.46879105089368
  C           2.44330953138658      3.79194473814622     -1.98561900463666
  C          -2.46457697862912      4.44080025415897     -0.70821417507123
  C          -5.46028790852909      0.32763939500208     -1.14165594487965
  C          -2.79482802160473     -3.46863120446140     -2.17515318824345
  C           2.20711189397191     -3.80515569538938     -1.41151045302883
  C           5.19136295707410      0.07540063281476     -1.47709884919299
  O           3.26627214348275      3.76208635600882     -3.12113982356036
  O          -2.23745285664817      5.74607994454106     -1.15752699470583
  O          -6.19609881200170      1.23984580379390     -1.90273833347151
  O          -3.64992274691694     -3.54534199568645     -3.27822278194343
  O           1.88925874583736     -4.89440573247889     -2.23374300108619
  O           5.89324835405228     -0.82072737015957     -2.29827746603423
  C           3.34319874696533      3.73241501218977     -0.74889445552334
  C          -1.24943701232590      3.97184335165793      0.10893799723066
  C          -5.08664524494927      0.97825742151369      0.19124428368450
  C          -3.66751835454299     -3.47880353079585     -0.90972684729004
  C           1.16828286072239     -3.72205865419933     -0.28651467100514
  C           4.89391449813783     -0.64394377609700     -0.15707248037838
  C           2.53949533282160      3.92997340874734      0.54767560699266
  C          -1.60877287264813      2.58431319512823      0.66024460222950
  C          -4.42938726069053     -0.03433480456293      1.15613319127031
  C          -2.83389706979095     -3.71237558876878      0.35618555663775
  C           1.57542025455020     -2.57680135946100      0.65200047472168
  C           4.36831146254254      0.30022087134772      0.94283624682647
  O           1.60314860968191      5.00426346366888      0.45600741716341
  O          -2.73028614465804      2.66219677133462      1.49530077305389
  O          -5.04894715030536     -1.31635846944374      1.13713157535362
  O          -1.85711750004708     -4.72907222901724      0.18857374578543
  O           2.85207934939861     -2.77630506972463      1.18425305751289
  O           5.08203117234538      1.53022318093755      0.98084878475726
  C           3.45129701900541      4.29935004482743      1.73120111192418
  C          -0.53944611414388      1.86275156045979      1.43959890157992
  C          -4.56453904151647      0.41626739181461      2.63030397848603
  C          -3.66024293835615     -4.18078941549661      1.56655166816281
  C           0.59931623079490     -2.43230867545438      1.79075485467871
  C           4.56435252719687     -0.29869390192212      2.34863481220656
  O           4.24656079351668      5.41274026198221      1.44173931740240
  O          -0.95046796694058      1.58947454037772      2.65977290366944
  O          -5.85022694542343      0.87323942167151      2.91828709294758
  O          -4.44059545777481     -5.29720771108787      1.26815236861160
  O           1.10064693409110     -1.84980678126278      2.84843948128882
  O           5.89642822942073     -0.67009668854491      2.55938383096455
  H           0.15778813228190      5.93208586441041     -0.54710664779112
  H          -4.69407092335812      3.03531252470071      1.57546498114936
  H          -5.88232004881912     -2.83812772495437      0.16497686718166
  H          -0.36304648291223     -5.52581275793487     -0.83087680198467
  H           4.79508187782652     -2.98416084690125      0.76764501532606
  H           5.68976773550643      3.15511370236819     -0.00893563683700
  H           2.18427236663454      5.93848966707657     -1.98955290215372
  H          -3.68621202473983      5.13842944815512      0.92387534822954
  H          -7.17281423522500     -0.74222389453786     -0.36198406330762
  H          -2.27773796193746     -5.55040932556437     -2.31473257244621
  H           3.69280429847153     -4.91544204101316     -0.29874445142879
  H           6.97125323194236      1.16511492533060     -0.88412631983092
  H           0.03880788959083      4.43253137362728     -2.99105760778982
  H          -5.11193267341783      3.94302761640714     -1.18150350119007
  H          -5.86623306220820     -1.92171809550972     -2.55736007567045
  H          -0.05537841155047     -4.82286404844034     -3.14476813032258
  H           4.77736676578303     -3.02948842299048     -2.07575885041377
  H           5.27050607227180      2.45838586436055     -2.71907298000824
  H           1.78922479595250      2.89876559959611     -1.95933175549221
  H          -2.56891810721007      3.74597598645492     -1.56070398036387
  H          -4.50710869051837      0.07189405610700     -1.64620799759627
  H          -2.25752177644095     -2.49971856484818     -2.16802245366387
  H           2.15408870440789     -2.86282106794435     -1.98376922529776
  H           4.21779101890730      0.32884695768971     -1.93321004206204
  H           2.75654767594313      4.12648290196523     -3.86288128674886
  H          -3.09764548590992      6.12780633814641     -1.40317857669614
  H          -6.75361765364825      0.72364404982212     -2.51251115864435
  H          -3.11082145739128     -3.71973155866128     -4.06674186005251
  H           2.68584924671280     -5.10952730015172     -2.75073799814828
  H           6.31502196320316     -0.30209855509710     -3.00198688294370
  H           4.12635730143671      4.49938501365955     -0.82661907121614
  H          -1.06079326665133      4.64861892911234      0.95121123403874
  H          -5.98638871941309      1.39448967575515      0.66816570804251
  H          -4.45622385065517     -4.23907146911140     -1.00267552620134
  H           1.15713593689652     -4.65434400811829      0.29118258502400
  H           5.80896240574014     -1.13862013175159      0.19763855696778
  H           2.01257138987718      2.98756393571449      0.75050592363226
  H          -1.79768207256525      1.90247600822787     -0.19266638511863
  H          -3.36130949396263     -0.14079126820735      0.86975853091054
  H          -2.35616894215702     -2.74715412292406      0.58707278315262
  H           1.51916815767638     -1.62503632184743      0.08756499030332
  H           3.29775539772788      0.48940393132577      0.75012451765099
  H           4.12333092899423      3.46744328811824      1.94657217941744
  H           2.81119079158674      4.48470712972224      2.60189056219367
  H          -4.28808323077387     -0.43753832159747      3.25554328684876
  H          -3.86612475792697      1.22936565402396      2.82766423739282
  H          -4.32532366010263     -3.37974178294705      1.88833165291873
  H          -2.94381898011615     -4.38908910641523      2.37056515328810
  H           4.24369763275986      0.45383524450983      3.07876375568724
  H           3.95065051846050     -1.19320189921238      2.46286044093810
  H           3.65639580475364      6.16052200142572      1.26774869961267
  H          -6.45748732266768      0.11806231612216      2.90246491489869
  H          -3.84578182756416     -6.02679320827435      1.03629974977716
  H           6.43908398271770      0.13084627238629      2.50415498449523
  C           0.15491000438337     -1.72548937559612      3.92816589612101
  H           0.75011753699259     -1.40572692570790      4.79768171852831
  H          -0.38526656725232     -2.65775615060501      4.07978090418480
  O          -0.56603767119798     -2.77032845071441      1.72782894795731
  C          -0.15104700304996      0.65885701080798      3.41068891199710
  H          -0.10353674295728      1.04549498020086      4.43815991147999
  H           0.83703882684504      0.57997684846182      2.97392707121120
  O           0.52468100314081      1.47257798810759      0.96998913637565
  C          -0.82108506808519     -0.65674987283039      3.53002214539336
  O          -1.98564530420916     -0.82456891349201      3.41754615790734
  O          -1.57460932300151     -0.55556712356386     -0.39705861410770
  O          -0.33193796191498     -0.63776662508135     -1.16899339982306
  H          -0.36093057289292     -1.59343218154964     -1.39846081122796
