19
Coordinates from ORCA-job job.QMRegion
  C          -0.77881893690268      1.75178961500532      1.67593851214155
  C           0.57883863532767     -2.00063356739424      1.33155763674921
  O          -1.35505807335167      1.20805690680027      2.74444075730566
  O           0.82892866825873     -2.39736313984335      2.55340765101031
  C          -0.23764474212744     -2.26660035189769      3.53536293750573
  H           0.33562722351744     -2.14976114338625      4.47406566396929
  H          -0.80607437903557     -3.19486950836828      3.54066662372057
  O          -0.43245757590416     -1.38052372604296      0.99852621612039
  C          -0.59668880547195      0.22986799166140      3.48636641429626
  H          -0.72350807183649      0.52496902660354      4.53430084209149
  H           0.44963133837413      0.28286237921051      3.19816004503915
  O           0.38677390784639      1.57419537115192      1.35062542029029
  C          -1.19314184560022     -1.14427688321985      3.32381337678219
  O          -2.37714274094009     -1.32280137762797      3.19469176730669
  O           1.87976293186599      3.71501864621095     -4.85814868988018
  O           1.47752709802022      2.30836229313293     -4.72693980496776
  H           1.04083629116346      2.20496924925292     -5.59391599539702
  H          -1.50428757255717      2.29801363901533      1.10527088505958
  H           1.33163681457278     -2.28169820103120      0.63067087593891
