133
Coordinates from ORCA-job job
  C           0.54958996719782      4.99280868821882     -0.48404287939700
  C          -4.11489806434298      2.93227998902556      0.88373589046244
  C          -5.22402170045433     -2.04015203138562      0.25389879411424
  C          -0.85805413745409     -4.81580833711633     -0.73422010746868
  C           3.93373096546020     -2.74836688451743      0.07407592093827
  C           5.04854376281431      2.25090823633802     -0.11013239464852
  O          -0.21554767859965      3.81076364038752     -0.43531551269673
  O          -4.35209675160640      1.94851557774046     -0.07680197232220
  O          -3.92048270305515     -2.22965605493090     -0.24736342285318
  O          -0.06497602855541     -3.65038967970311     -0.83099315042689
  O           4.05862332790854     -1.66813305785503     -0.80820721257895
  O           3.66895709814170      2.45762295527148     -0.31757987671141
  C           1.38341389076623      4.99197828658725     -1.77411322486203
  C          -3.93602980557926      4.29118335449452      0.17972928473566
  C          -6.03288420293316     -1.28536203329337     -0.81436319540558
  C          -1.84436785586319     -4.80481170100866     -1.91510687562220
  C           3.69605232341901     -4.02921619399602     -0.75585577198077
  C           5.68424384061338      1.62737875319283     -1.36465840812241
  O           0.51578314288913      4.91784972405482     -2.87535075328852
  O          -4.98670614920042      4.55356862783181     -0.70322858172625
  O          -6.10999920442864     -1.99805431960321     -2.01561697748102
  O          -1.18384568723855     -4.74908663996004     -3.14845704988354
  O           4.66653151047328     -4.17370516008756     -1.75157331513011
  O           5.68469085971976      2.47250808550138     -2.48272397992140
  C           2.37408030614136      3.82655853330221     -1.72109842388115
  C          -2.57833936782024      4.38565092471745     -0.55324005960256
  C          -5.36978102487744      0.08249185302242     -1.02716981044677
  C          -2.72887413453889     -3.56535399097099     -1.76318789978599
  C           2.27968645315497     -4.05593248373646     -1.37010214703494
  C           4.93595772104363      0.31922550342392     -1.65729182424877
  O           3.33092846018237      3.90623389453845     -2.74757914844926
  O          -2.35686211335377      5.71837490407167     -0.93758261309877
  O          -6.13274495324825      0.87223444965328     -1.90294299843483
  O          -3.68506789759565     -3.43484635967801     -2.77871810563721
  O           2.00433215001783     -5.31791024253159     -1.91586499589493
  O           5.51823964838690     -0.35265014965383     -2.74460665833659
  C           3.16015785320567      3.77640218270920     -0.40736155210016
  C          -1.40793763880938      3.91142160994768      0.32982278143139
  C          -5.19427535766797      0.85405505922424      0.28723036213997
  C          -3.42157218154298     -3.55294776155188     -0.38759373771205
  C           1.23727983116895     -3.74850515443574     -0.28730975161624
  C           4.94722469103863     -0.61803852016235     -0.44215360396374
  C           2.29736739569017      4.05896590831914      0.83134803658557
  C          -1.80472885341874      2.52422361880704      0.86893797637076
  C          -4.60275969115026     -0.03525143694682      1.40291468562598
  C          -2.46781819247626     -3.87048261739424      0.77509252834512
  C           1.64002139895872     -2.39683663071848      0.34355185998854
  C           4.54039576426629      0.13061054732885      0.84829786549524
  O           1.37724568099040      5.12942289475376      0.63225698189851
  O          -2.96468358887711      2.63799308217321      1.65020209623198
  O          -5.21833149043051     -1.31903367011018      1.44614856612119
  O          -1.54062662765606     -4.91218360608561      0.48113773285589
  O           2.87686223930506     -2.53185851182212      0.98876419213370
  O           5.22505632783835      1.37992616544690      0.96245362034036
  C           3.17511378304877      4.47226183416548      2.02149185722817
  C          -0.77881893690268      1.75178961500532      1.67593851214155
  C          -4.83730352288963      0.52227645019235      2.82184967267250
  C          -3.25179088462928     -4.33812720925502      2.01416493264233
  C           0.57883863532767     -2.00063356739424      1.33155763674921
  C           4.92583850636703     -0.60726274118524      2.14860660570365
  O           3.94912357344787      5.60141075693390      1.72817086184752
  O          -1.35505807335167      1.20805690680027      2.74444075730566
  O          -6.15480554117256      0.95939001719874      3.00549965383049
  O          -4.10764586623155     -5.40383565631785      1.71204260188043
  O           0.82892866825873     -2.39736313984335      2.55340765101031
  O           6.20594967507235     -1.16812594438472      2.08330067450142
  H          -0.10857599309748      5.86932032918404     -0.48175108235713
  H          -4.93995648763846      2.98778400354055      1.60428923129163
  H          -5.69661238319958     -3.00016173692215      0.49719348508792
  H          -0.21924314285525     -5.70799835783082     -0.77614820369750
  H           4.83587108394921     -2.86488620933775      0.68669351036131
  H           5.55293150721397      3.18649342473838      0.16090017537328
  H           1.95908187840972      5.93224892747042     -1.81128492121993
  H          -3.95952954274768      5.08047323079545      0.93930784400350
  H          -7.06042128573964     -1.14278426423034     -0.46458674219055
  H          -2.47029308928794     -5.70985452472198     -1.84824302510505
  H           3.79826465420805     -4.89700117133055     -0.09419415317653
  H           6.73676067894889      1.40281286414537     -1.15600699834042
  H           1.02059839623440      4.54013958852171     -3.64949866827417
  H          -5.14521730056616      3.75986723302469     -1.23727695816836
  H          -5.21538789527299     -2.29716578105289     -2.27147312451428
  H          -0.51169538479139     -5.44765560494622     -3.17118504643917
  H           4.77370432396650     -3.32406167419585     -2.20489967195880
  H           4.81045911286593      2.90002953578878     -2.58312034626139
  H           1.78946626847569      2.89120918825834     -1.80977272016841
  H          -2.59428876160800      3.73441085909260     -1.44362813764593
  H          -4.36169164177412     -0.08501947873091     -1.44725427199298
  H          -2.08976684191228     -2.67652603333309     -1.83235372116066
  H           2.20446341597828     -3.27674985796003     -2.14692547027009
  H           3.88422973477866      0.57097987585143     -1.88790757989735
  H           2.83393100881865      3.88430980493337     -3.63990349566954
  H          -3.17401867347601      6.03372463610637     -1.35883191210023
  H          -6.45389260318055      0.28869341367242     -2.60914528724552
  H          -4.16574202869910     -4.27614928545349     -2.86119154241991
  H           2.78445668989859     -5.59364261340184     -2.42371204553729
  H           5.77328798118060      0.32220323010167     -3.39279406235127
  H           3.97573285807004      4.50783241456296     -0.47531070799018
  H          -1.25839670605876      4.60429628959867      1.16724821428945
  H          -6.16869490069270      1.24499495913920      0.61307661602650
  H          -4.25052446431974     -4.27452265203734     -0.38922869894470
  H           1.26763920461543     -4.51976794397412      0.49328058952302
  H           5.95840633607800     -1.03233266862872     -0.32110044995329
  H           1.75010870070132      3.13643906826864      1.05931634033315
  H          -1.99569638676930      1.87901428442259     -0.01069153959124
  H          -3.52323471206145     -0.15185809199342      1.22289402406147
  H          -1.93674928135401     -2.93844029517921      0.99828877191290
  H           1.67460869529125     -1.63030077454048     -0.44610563746733
  H           3.45605966624256      0.31331991412367      0.81839100008229
  H           3.86665916483587      3.66080416666391      2.25498051181250
  H           2.52045307841749      4.66013938020952      2.88059414936043
  H          -4.58285077965989     -0.28438053715895      3.51784671832625
  H          -4.17487287645135      1.36548761849039      3.00894597093988
  H          -3.86540850316460     -3.51136405806759      2.37818358940551
  H          -2.53534446481249     -4.62374039435635      2.79157655932678
  H           4.86036568888006      0.13309130371046      2.95430791146373
  H           4.22553292016725     -1.41740288967978      2.34797273878483
  H           3.34450267005880      6.30078179366859      1.44143126122835
  H          -6.73311623351012      0.18642180392806      2.93261491470287
  H          -3.55772522734939     -6.15324168404141      1.43990651458623
  H           6.84561273953077     -0.44775544833199      1.99334259239033
  C          -0.23764474212744     -2.26660035189769      3.53536293750573
  H           0.33562722351744     -2.14976114338625      4.47406566396929
  H          -0.80607437903557     -3.19486950836828      3.54066662372057
  O          -0.43245757590416     -1.38052372604296      0.99852621612039
  C          -0.59668880547195      0.22986799166140      3.48636641429626
  H          -0.72350807183649      0.52496902660354      4.53430084209149
  H           0.44963133837413      0.28286237921051      3.19816004503915
  O           0.38677390784639      1.57419537115192      1.35062542029029
  C          -1.19314184560022     -1.14427688321985      3.32381337678219
  O          -2.37714274094009     -1.32280137762797      3.19469176730669
  O           1.87976293186599      3.71501864621095     -4.85814868988018
  O           1.47752709802022      2.30836229313293     -4.72693980496776
  H           1.04083629116346      2.20496924925292     -5.59391599539702
