19
Coordinates from ORCA-job job.QMRegion
  C          -0.80603808895844      1.87280448322160      1.67055404836420
  C           0.55392383943851     -2.00375861422226      1.29572453479665
  O          -1.40503851158666      1.26974371574582      2.68749771052616
  O           0.65170926635652     -2.45853718880813      2.49637603360743
  C          -0.46026032683992     -2.29034073625297      3.38299226419314
  H          -0.00798800769051     -2.14550719733803      4.38758866743994
  H          -1.05743034223660     -3.20802823096607      3.37519957665426
  O          -0.36898502510706     -1.29461796118165      0.89782375405956
  C          -0.68834137627153      0.20379576184209      3.33969377402959
  H          -0.80801243922728      0.36837085744788      4.41503507142365
  H           0.35828417086425      0.24330385192121      3.05871636476954
  O           0.35262239080419      1.66628872174661      1.33314485882265
  C          -1.33637893815100     -1.12673606124602      3.06012807230403
  O          -2.49559031717847     -1.23901046687053      2.81962884142227
  O          -1.02179426355592      3.09903866310545     -3.24890232760371
  O          -0.83846982993515      1.90046173417483     -2.41285186823976
  H          -1.45877469136637      1.32780808861021     -2.90311290512933
  H          -1.50332556806662      2.47598832027918      1.12843392569629
  H           1.35555157664457     -2.31316154527882      0.66565628203440
