133
Coordinates from ORCA-job job
  C           0.56520610433534      4.86686209428958     -0.78804234299706
  C          -4.15915424254939      3.23843501402647      0.93556075504930
  C          -5.01056191330817     -1.76848085279005      0.11709367896135
  C          -0.70040813729288     -4.59633802157978     -1.08463209759001
  C           4.05853976304150     -2.86135344362873      0.33505725213088
  C           5.02164913168680      2.10289211177569     -0.02045562927171
  O          -0.27716143558143      3.80667444008830     -0.38739706308895
  O          -4.36334463119334      2.30042500418111     -0.07820775901960
  O          -3.66470432081983     -1.93081453169223     -0.30215038402295
  O           0.15611103971319     -3.46908168672337     -1.02173494979103
  O           4.33263583939238     -1.89435664186113     -0.63118327086486
  O           3.61568374179293      2.21082852710845     -0.19519700960777
  C           1.25641578541843      4.39437982152745     -2.07979972955882
  C          -3.91507280578310      4.61679643749603      0.29392018485822
  C          -5.80716572368550     -1.01057014631074     -0.95923216377379
  C          -1.65781072284097     -4.37518818209078     -2.26705717594685
  C           3.81541898014313     -4.19940173263373     -0.39028421380886
  C           5.69463881341896      1.49978898901982     -1.26758211454675
  O           0.36440728953535      4.10011131727243     -3.11991451267179
  O          -4.95529064929837      4.98966488740398     -0.55738857219716
  O          -5.85920446433582     -1.67468901880458     -2.18503486198374
  O          -0.97442666198207     -4.18556345940151     -3.47438016831036
  O           4.89555335182187     -4.54859428058990     -1.20107167262307
  O           5.59051338212150      2.29848087703363     -2.41142663139134
  C           2.10037176426908      3.16722919681838     -1.72825235532863
  C          -2.56571718032258      4.65596481849694     -0.45939938834100
  C          -5.18522174839499      0.38429998266991     -1.11108510015722
  C          -2.48705737217020     -3.12538956188763     -1.96278375620494
  C           2.51340021556063     -4.14358454307528     -1.21712641921371
  C           5.08068977480027      0.11601808160538     -1.50909326955385
  O           2.80899056476021      2.70573669809524     -2.85220106205150
  O          -2.29237406799775      5.96864836553921     -0.85810726854567
  O          -5.89910492537290      1.14097212112062     -2.04929685760072
  O          -3.39910866152146     -2.82622773993778     -2.98434816447304
  O           2.21720293502456     -5.40704548664938     -1.74417036205057
  O           5.74067851765774     -0.54321724582850     -2.55688096728593
  C           3.09017006416347      3.46209381373404     -0.59953848554830
  C          -1.40591952225291      4.12249729617372      0.40285094089856
  C          -5.14933676231623      1.14276432365481      0.22258971516152
  C          -3.21825490987769     -3.25157935970978     -0.61356927276102
  C           1.36406737142462     -3.68693620460071     -0.31166856437346
  C           5.14012805613009     -0.77799299846652     -0.26264684282242
  C           2.37114690916344      4.12317967685827      0.59099423803901
  C          -1.87814942460591      2.77841982768684      0.97011408848979
  C          -4.55475745692188      0.25465645738108      1.33536401025288
  C          -2.29188020549581     -3.75718408486733      0.50597987597304
  C           1.77305090730769     -2.34177614805041      0.32645051661530
  C           4.66181342068709     -0.01781805237125      0.99496431133549
  O           1.51518717701224      5.18946146299422      0.18112223549709
  O          -3.03688713286463      2.90417653170153      1.73413435444974
  O          -5.08917928897006     -1.06455371104019      1.31311994156977
  O          -1.41947734281670     -4.80233085982041      0.09177767014191
  O           2.92314698724649     -2.49465622751908      1.10620306652103
  O           5.26598918805744      1.27392542707360      1.06851026608419
  C           3.37141494229565      4.74436442977971      1.57816169843706
  C          -0.86844000392681      1.94271146541300      1.72100894837246
  C          -4.87983774291529      0.72949775462826      2.76727492090768
  C          -3.10208973973067     -4.32546851343560      1.68666584483062
  C           0.64166648431493     -1.92712904615537      1.22146732062096
  C           5.05905858856530     -0.68572772931998      2.33222816527386
  O           4.23611360720126      5.64429050930006      0.94764399160095
  O          -1.46602205767446      1.24814475819080      2.67540871926883
  O          -6.23151235534090      1.05201000357936      2.91693919132049
  O          -4.00812842181790     -5.30474396946351      1.26573445916021
  O           0.69877207339364     -2.46193932428081      2.37937935066879
  O           6.32207332270326     -1.28274631209881      2.28823344078262
  H          -0.01696918184397      5.77913096494605     -0.96048007138551
  H          -5.01106504770208      3.27370949790683      1.62602979311302
  H          -5.46462247987604     -2.74520759475311      0.32841907927227
  H          -0.10413871283575     -5.50805012132587     -1.22353117715359
  H           4.88200954567413     -2.96481153908446      1.05162679861651
  H           5.45899579736603      3.07811243298795      0.22601398502581
  H           1.90207752978329      5.19707455058335     -2.45455295979244
  H          -3.88031898710127      5.36650529409227      1.09284308635376
  H          -6.84333040568752     -0.90481073847878     -0.61884729412074
  H          -2.33241843053780     -5.24374499945817     -2.32828097482504
  H           3.71833431514898     -4.99233314831008      0.36018028692814
  H           6.76659163950016      1.39622126887085     -1.06476582116102
  H          -0.22291024626570      3.33647727737807     -2.86809294620479
  H          -5.15018386069884      4.25765796172944     -1.16034036075220
  H          -4.95631992374700     -1.91250318156055     -2.47341007534615
  H          -0.47354729239483     -4.99568570101680     -3.66603482129353
  H           5.15139760880775     -3.77863326221408     -1.73080293168888
  H           4.65071746435081      2.44518288173177     -2.62008293397109
  H           1.40990838699333      2.37563126654997     -1.37354262366071
  H          -2.62145274140045      3.98548490287226     -1.34038283274895
  H          -4.13141767781115      0.27033036747226     -1.44297280412907
  H          -1.80866733217582     -2.26230174905538     -1.89482800905751
  H           2.62582306025449     -3.40399934579442     -2.02755927622529
  H           4.01159145442583      0.25924614215257     -1.76083764608051
  H           2.30723013635070      2.95419923328025     -3.64566985819292
  H          -3.13422623672924      6.37112619299658     -1.13900771746575
  H          -6.25024968929811      0.51915176720013     -2.71137585565125
  H          -3.88664008806572     -3.64486208341963     -3.19869797097715
  H           3.06040269269351     -5.82267836365300     -1.99573656231244
  H           5.93937314375054      0.12194911566114     -3.23590158462340
  H           3.88459767073678      4.11809466955427     -0.97527401230721
  H          -1.14092926924873      4.82995160838202      1.19840986322538
  H          -6.16317779469001      1.46447144446147      0.50054102746924
  H          -4.07672715607754     -3.92884515847227     -0.71887950694298
  H           1.20336922973229     -4.42478733078756      0.48671692090323
  H           6.17200753835281     -1.12477108035427     -0.10936110807909
  H           1.78192344986259      3.33876135040786      1.08244088308683
  H          -2.07323534222823      2.14418860168636      0.07778555997173
  H          -3.46619948086085      0.21493528924081      1.18111118672103
  H          -1.71517748836941     -2.88324381470417      0.82434781788314
  H           1.89453510732949     -1.58631851818788     -0.46490293431233
  H           3.56903919520330      0.09971884425657      0.94113010331120
  H           3.98569522921540      3.95219197555376      2.00930843692789
  H           2.79821018397301      5.23694238760548      2.37205655041638
  H          -4.58691250324780     -0.09152196340448      3.43165467541160
  H          -4.29244358432012      1.61066715227074      3.01793956721130
  H          -3.67202381120590     -3.51235275918903      2.14084287848406
  H          -2.39881367990731     -4.73239081308364      2.42243992863042
  H           5.01848169101278      0.10292227455541      3.09219161296716
  H           4.33959811992916     -1.46269456037266      2.58977050630390
  H           3.69422347649494      6.33869728869271      0.54595121825310
  H          -6.74508250022540      0.23903029521457      2.79957483956993
  H          -3.49456769707423     -6.08071029582362      0.99657827507312
  H           6.98869955433244     -0.58499133830233      2.21469458988770
  C          -0.40039392347787     -2.30868016905736      3.27093072611364
  H           0.02782400297908     -2.15409020910184      4.27664082721598
  H          -0.98277591653580     -3.24220101131892      3.27466667483948
  O          -0.25502202484020     -1.15886415354425      0.86084896679777
  C          -0.71177535599156      0.19526172574200      3.30638490810491
  H          -0.87990093543670      0.29851331090414      4.37775790937309
  H           0.33942860816157      0.29534789105376      3.05803237529691
  O           0.30944246153660      1.81155031423879      1.40990398125356
  C          -1.29322538757471     -1.14980904046558      2.94483583186194
  O          -2.42971780238000     -1.28007564886829      2.64721679181411
  O          -1.21795937222556      1.99228860389593     -2.63024781008411
  O          -0.56422664137875      0.92915078443014     -1.85046856911509
  H          -1.07911131466551      0.18256157557103     -2.21136767792426
