145
Coordinates from ORCA-job job
  C          -0.96626040611501      4.39282179873407     -0.39679544791079
  O          -1.29730617173745      3.08866543991225     -0.81808682971173
  C          -0.06500970510967      5.03287066173996     -1.46243370439024
  O          -0.34895740041525      4.40891490369443      0.85523135269186
  C          -2.63557288619351      2.67152761491214     -0.63573849673416
  O          -0.66605526634439      5.10415751378068     -2.72328520257180
  C           1.25087400514443      4.24339660269701     -1.51045024750445
  C           0.92249049895432      3.76064149011961      0.94350793819064
  C          -3.27945997626660      2.48776590854622     -2.01864468711079
  C          -2.71349033477069      1.33019928586524      0.11662332628669
  O           2.15054567018917      4.79499418888828     -2.43392793652211
  C           1.90236287904804      4.27864942177311     -0.12371406201889
  C           1.40827193072472      4.06967823730818      2.36820850345312
  C          -4.71358302323454      1.95220403224964     -1.86389014394904
  O          -3.25613607315522      3.72443374995982     -2.68088755969272
  O          -4.05637650459677      0.90881080430712      0.22032751738344
  C          -2.16797119381111      1.40393084610432      1.53529071356909
  O           3.06135566853169      3.47436316390548     -0.22645768762641
  O           1.60234171225873      5.44269901628772      2.56886993590336
  C          -4.65161883167494      0.65398600287917     -1.03731486259311
  O          -5.31421302428274      1.75351063486295     -3.10849434668698
  O          -0.87880532785329      1.09938017145520      1.54718286683298
  O          -2.81443633671299      1.69819543273481      2.50721766621640
  C           4.19461342267163      3.81754554372870      0.52455216621872
  O          -3.93973055090321     -0.26323804160987     -1.80721271860683
  C          -0.26159577816638      0.73819910542760      2.77112262346147
  C           5.41243260710319      3.59561170977766     -0.38695091345217
  O           4.33018181075235      3.06126893480156      1.69578994303272
  C          -4.27178692058278     -1.64605268211409     -1.74868105094927
  C          -0.36897914151579     -0.79768055119760      2.92902708477740
  O           5.34553690854837      4.37596265132410     -1.54715638972380
  C           5.47639701565797      2.10013610830917     -0.72849723384759
  C           4.34337771371094      1.64613101274155      1.51191794310988
  C          -3.89894965373613     -2.16081673140640     -3.14573593868358
  C          -3.52492277259428     -2.38230349157048     -0.61979052100494
  C           0.90624000796461     -1.46754652219835      3.47009385349133
  O          -0.98937138854529     -1.42917551093781      1.83362948960131
  O          -1.54701463954157     -1.30517909435775      3.43887441260636
  O           6.64118721045727      1.78451694131271     -1.44515542166901
  C           5.44887287044904      1.21860103830454      0.52840012263386
  C           4.56460840617456      1.08403422263229      2.92604645550216
  C          -3.88070934936050     -3.69284428614237     -3.21213575116063
  O          -4.80860225420578     -1.60478929783706     -4.05883746707804
  O          -3.50585491003444     -3.79071970338037     -0.83589879370412
  C          -4.22015116018725     -2.20348125717533      0.73845342222675
  O           1.99016665070280     -1.31991007970462      2.56338302407218
  O           5.25053837209834     -0.09087305359870      0.00503432715766
  O           5.83635920577541      1.39541132334136      3.42544640026964
  C          -2.97327624351781     -4.18881024489930     -2.07214024252017
  O          -3.43580329046621     -4.13399403187735     -4.46355472068062
  O          -5.53674046735299     -2.67930402155024      0.71488154324535
  C           2.25359911078904     -2.32368581332226      1.74109992427875
  C           5.60933686456599     -1.20170451028187      0.76093702326167
  O          -1.70186528157908     -3.65557375577895     -2.32224041490636
  C           3.38929215175896     -1.96163805686892      0.79132850341949
  O           1.69145164442370     -3.38989016821533      1.76257982010166
  C           6.05120328423074     -2.28521268958939     -0.24264366163831
  O           4.54705374303140     -1.70333823830184      1.55829930670689
  C          -0.55942807348428     -4.47262560919894     -2.15818073987234
  C           3.64979028589053     -3.06085390692735     -0.24238820824093
  O           7.12890057892072     -1.86854508240236     -1.02653929878396
  C           4.84141073355450     -2.65050923717639     -1.12011726896076
  C           0.47953330278285     -3.86296795745821     -3.10842681352082
  C          -0.02115158375608     -4.49979055790298     -0.71860720685098
  O           2.50239027784645     -3.22321959057005     -1.06103276297079
  O           5.14470945739282     -3.70374607756000     -2.00264619204094
  C           1.83786587874279     -4.55119959519345     -2.94925963402162
  O          -0.01268361823232     -3.98935602937361     -4.41636193271063
  O           1.24542904304954     -5.15209603688693     -0.68839371671705
  C          -0.90754694183249     -5.29901947809620      0.24348764482295
  C           2.23489366900082     -4.54530960876222     -1.46595401675695
  O           2.77594845432499     -3.90009303824589     -3.76307646738487
  O          -1.10228064804147     -6.61854103699083     -0.18607422367435
  C           0.60837647997160     -0.34709647324125     -0.51351001742650
  O           1.37098564740306      0.22706493474132      0.30866571818670
  C           0.75977881085335     -0.05572153261812     -1.96735903766297
  C           1.99346060884097      0.36670666538998     -2.45037954151764
  C          -0.31527639744663     -0.19831751061259     -2.83703615466707
  C           2.15077850456744      0.63884465728960     -3.79673526791761
  C          -0.15652425090816      0.08798505919612     -4.18099531759338
  C           1.07568231404212      0.50270933867918     -4.66069064392238
  H          -1.87756937554215      4.99233263310662     -0.26597117633706
  H           0.15982391032508      6.06258427934048     -1.15280163481179
  H          -3.19830221968890      3.42020477845193     -0.06259877780533
  H          -1.39732434021366      4.46528805558568     -2.79352227020326
  H           1.03538108198201      3.19212455586818     -1.76349480286583
  H           0.80826041888758      2.67712341297756      0.80032725894350
  H          -2.67966784914708      1.74820789557744     -2.57175939350931
  H          -2.11000359362143      0.58274552169927     -0.41636411690518
  H           1.64422380814445      5.08968813373019     -3.21016458323598
  H           2.18960523258747      5.31277486077921      0.11614803885791
  H           2.37030750094841      3.58694464398082      2.54027371166492
  H           0.66844871132900      3.66990287975572      3.07167274328791
  H          -5.31932252559777      2.69101721451794     -1.32861133051268
  H          -3.90762215764686      3.69659987749728     -3.40440587103138
  H           0.74655385862342      5.89010711200945      2.48799722576314
  H          -5.65593537405589      0.28295675676666     -0.79454106510475
  H          -5.03620107234288      0.89557636907771     -3.47229326845794
  H           4.14132818199943      4.86035746751190      0.86596645732890
  H           0.79112724805288      1.01552780165221      2.67733524696444
  H          -0.76026281805159      1.23110278525140      3.61467084260282
  H           6.32516904436603      3.89155617983902      0.13979286978483
  H          -5.35397215412782     -1.76047758818585     -1.59486176824805
  H           4.43616077046589      4.36589884223554     -1.89247285391311
  H           4.58135928092126      1.85083545133874     -1.32066470211715
  H           3.37137973198084      1.30731395749942      1.12552747621065
  H          -2.87828796926492     -1.80792489953387     -3.36233245477346
  H          -2.49588370132090     -2.00215787864817     -0.54926140445479
  H           1.20047077094906     -0.96801236332032      4.39802891270862
  H           0.69547556042089     -2.53220938275086      3.63786638323761
  H           6.78133683462863      2.47380169663742     -2.11577966261898
  H           6.42393024881389      1.26788078223882      1.03309851753743
  H           3.77719601266945      1.49151126506482      3.57118641016097
  H           4.47599543750109     -0.00152966482004      2.91255975114332
  H          -4.89212831506239     -4.08755104165951     -3.07752406554374
  H          -4.73957369074041     -2.09671841979927     -4.89457655890457
  H          -3.61623845910908     -2.71473506239311      1.49791882297719
  H          -4.26147908608586     -1.14570227112738      1.00033306310859
  H           5.89739682825479      2.35741905788750      3.52978963121821
  H          -2.94522547177496     -5.28585812546353     -2.03174844848891
  H          -2.47304909682769     -4.00873865360297     -4.52437305994679
  H          -5.51160339792034     -3.63594097027502      0.55623435905516
  H           6.40720084821051     -0.96751076281561      1.47757101279157
  H           3.07329511156831     -1.04423113427585      0.27560830284360
  H           6.38117897249764     -3.17149497886608      0.30888956177196
  H          -0.79049689480075     -5.50046984626554     -2.47463105920917
  H           3.86759795882603     -3.99649544546066      0.28850891997799
  H           6.98111595440492     -0.95337953509625     -1.32021165416705
  H           4.53616362401577     -1.76055701531937     -1.69195228156797
  H           0.59436184511580     -2.80066410010887     -2.83850087276985
  H           0.06757522010196     -3.46761363678693     -0.35222078300844
  H           6.06148102171001     -3.57876121367532     -2.30909536214268
  H           1.73573544877595     -5.60367617887253     -3.26196912780798
  H           0.71784757923887     -3.81927806431605     -5.03324514161407
  H          -1.88837697858348     -4.82797545812956      0.31039734904764
  H          -0.43056856749073     -5.26257466508741      1.22967333597610
  H           3.12551115599673     -5.17133456669546     -1.32045239655678
  H           3.64840189788484     -3.90162265873748     -3.32859800926305
  H          -0.24485864435545     -7.07150598348304     -0.17213283121716
  O          -0.31379154977578     -1.19949481411193     -0.21778712152896
  H           2.80920628420992      0.47179072362942     -1.74802806378594
  H          -1.26166951838719     -0.53450836053263     -2.43490477103105
  H           3.11154048704453      0.95833979742802     -4.16795812219519
  H          -0.99568928474493     -0.01893714362989     -4.85040757378685
  H           1.19840619969071      0.71809905742874     -5.71012960217213
