140
Coordinates from ORCA-job job
  C           0.59669687386164      4.80758922225570     -0.34010549707873
  C          -4.37634031916850      3.34678853906054      0.50602406220644
  C          -4.97783652004739     -1.69604116833006     -0.59877180496800
  C          -0.77878849637185     -4.85523755563131     -0.64972811334292
  C           4.24325664344521     -3.46917217012759      0.03490839940136
  C           4.78358911998847      1.64351377249707     -0.70205960335245
  O          -0.32772285932302      3.78797810830152     -0.04689842688233
  O          -4.30634375664715      2.33745165943781     -0.44914295821048
  O          -3.59525845128285     -1.84521040592575     -0.82824608330121
  O           0.19796452154170     -3.87695650114425     -0.41035343322662
  O           4.10078653601651     -2.38045563983821     -0.82049952558579
  O           3.38043680811716      1.81315716702255     -0.80352566978872
  C           1.10825174389844      4.60350302882770     -1.77944206126368
  C          -3.98731696818267      4.65910281226081     -0.20093000203249
  C          -5.58600725600062     -0.88119291000553     -1.75240145800007
  C          -1.39401104526724     -4.59710306421272     -2.03744750077495
  C           3.84010712217389     -4.71855282577031     -0.77198937157179
  C           5.29825952904704      0.92855360673817     -1.96359979526454
  O           0.08486934265961      4.64659641830131     -2.73693057321737
  O          -4.84074728900475      4.95933030557831     -1.26828076022383
  O          -5.37906904043425     -1.48650975323633     -2.99924687801527
  O          -0.44115793007444     -4.61152635423202     -3.06589210070285
  O           4.66127952260791     -4.90583389940994     -1.88920889904777
  O           5.00724374763203      1.63676080002889     -3.13647408832038
  C           1.76337566923946      3.21798362471967     -1.83398784858110
  C          -2.53407612251212      4.55070141210557     -0.69038235487258
  C          -5.00251700797828      0.53728666614546     -1.71911314824265
  C          -2.05130382984827     -3.21226072925573     -1.99752290997781
  C           2.37165418568109     -4.56905078856464     -1.19836564199826
  C           4.71823287927468     -0.49217269010039     -2.00947998440275
  O           2.33887512080990      2.93636820239005     -3.08531366986584
  O          -2.11396326100756      5.76580022183783     -1.27519034760173
  O          -5.65134421424905      1.37499193272353     -2.64315238854803
  O          -2.71735273332780     -2.89494790394719     -3.19414492098452
  O           1.91575039016472     -5.72099013496105     -1.87649391432022
  O           5.29772689008659     -1.24494078387143     -3.04685682992228
  C           2.87102922292236      3.14156889248603     -0.77903885839835
  C          -1.58931449466309      4.17115117140163      0.46274295690467
  C          -5.13457184822295      1.18603404274136     -0.33339096397338
  C          -3.07517672532964     -3.16681469999031     -0.86005549880610
  C           1.47484065657790     -4.31267211968878      0.02177626287900
  C           4.96260697648782     -1.25375058445626     -0.69821788481370
  C           2.33867953785137      3.52754307561801      0.61340916430739
  C          -2.15967106375403      2.93037203479321      1.15736428056387
  C          -4.70568156264400      0.23154904503557      0.79966400281544
  C          -2.42426193175084     -3.57399001489774      0.47375208206139
  C           2.05832837120071     -3.16349967515746      0.85163873413554
  C           4.64914602219252     -0.40254164078280      0.54774608828231
  O           1.67301498198079      4.78915633932736      0.55519378498914
  O          -3.49557962556071      3.12733495232101      1.58959024682050
  O          -5.24369901246033     -1.08129202447479      0.62466612039797
  O          -1.77530103657781     -4.83790949469986      0.33416088044240
  O           3.42341779497802     -3.35845323169677      1.18370466300050
  O           5.13668047029630      0.93761996938040      0.44453887172255
  C           3.47848636135033      3.67702696592982      1.62763270653651
  C          -1.37172221389780      2.50178898290365      2.39502582574410
  C          -5.23492737659917      0.66451125084388      2.17770551720902
  C          -3.46409454639576     -3.74398483155226      1.58668626148027
  C           1.28863192388292     -2.97454935599286      2.15857134401808
  C           5.31561572961841     -0.95390436308651      1.82288914584930
  O           4.41516088200913      4.64749490243831      1.23209839977479
  O          -1.78340576749454      1.29851469845737      2.75671112567911
  O          -6.61990242909006      0.89383206490094      2.17012627389294
  O          -4.42985397341047     -4.71365707066388      1.26930199782642
  O           1.65734434853175     -1.84268939423855      2.74494415291414
  O           6.68011913330811     -1.23334785725617      1.64366104380161
  H           0.14163526158210      5.79836754876270     -0.22991964992011
  H          -5.37600801957726      3.42047511219929      0.95318294895296
  H          -5.46579129403828     -2.67674361003946     -0.53254748183758
  H          -0.34801295938466     -5.86284998109724     -0.60477384353280
  H           5.26753000236949     -3.56403987285734      0.41586306671195
  H           5.27547286329124      2.61769359457073     -0.59791744288865
  H           1.86014861770073      5.38034111754361     -1.99067650003915
  H          -4.07251837160167      5.48391803657163      0.51428495795373
  H          -6.67091885845678     -0.82465353815300     -1.61180196249749
  H          -2.16306293961314     -5.36343554455050     -2.22329477543953
  H           3.95437548726961     -5.60647168166552     -0.14226942673745
  H           6.39038131779724      0.86472608920905     -1.90654143661831
  H          -0.62986743491910      5.23016960321775     -2.42634638008975
  H          -4.97923978326177      4.15540284250008     -1.79651087839393
  H          -4.46582283088100     -1.82443344138489     -3.06556076478891
  H           0.32985730080566     -5.14508450917905     -2.79608832453191
  H           4.76066547164025     -4.05638505728855     -2.35163890272381
  H           4.08066180280466      1.94617480286998     -3.12783148708952
  H           0.97423012092688      2.48765076871124     -1.60335564744377
  H          -2.47932996425431      3.74403446757580     -1.43722192898413
  H          -3.92851519105823      0.48305628848256     -1.95220698176256
  H          -1.25757947509511     -2.47870036833446     -1.79746959684864
  H           2.28989725447070     -3.69499065626873     -1.86156226924019
  H           3.63022165114597     -0.42913775714078     -2.16044356644129
  H           1.69327400587085      3.16023111418810     -3.77283476600409
  H          -2.88386570936610      6.15452112391127     -1.72506800228460
  H          -5.72817074392940      0.89660833554005     -3.48418090939585
  H          -2.12619494423552     -3.11071422708589     -3.93293568863529
  H           2.64765831303908     -6.04617979311655     -2.42775881924180
  H           5.30322949500114     -0.70042244925748     -3.84961588597396
  H           3.66295256006706      3.84733924748230     -1.05743152475854
  H          -1.48884855889833      5.00066088699619      1.17366395820255
  H          -6.17681064489095      1.49489386866149     -0.17189366312000
  H          -3.88105986002418     -3.87684156533055     -1.08780071829142
  H           1.39041574858106     -5.21902055624536      0.63348723689933
  H           6.00841251477897     -1.58692116742489     -0.66282012152240
  H           1.63241088198553      2.77297674438921      0.97481252359024
  H          -2.11190790926997      2.09654873378754      0.43994761162792
  H          -3.61107167892255      0.18156885113662      0.83559866401697
  H          -1.69438692968700     -2.81654628230779      0.78129882867357
  H           1.94353343984891     -2.24084504079699      0.26398397389202
  H           3.56396883909541     -0.39227553288003      0.69021404830552
  H           4.01780097403288      2.73242257028149      1.70858526102053
  H           3.03926934528763      3.91665190670869      2.60133006869347
  H          -4.97415817532431     -0.12618508605997      2.89047589128009
  H          -4.75766855535920      1.59204907189345      2.49025523396437
  H          -3.99742207432576     -2.80296727456931      1.73008135652876
  H          -2.93341253104391     -4.00288996917577      2.50955964776140
  H           5.17541584501869     -0.20971881786315      2.61499305208346
  H           4.83851127002639     -1.88856119490986      2.11905518284392
  H           3.97112233160837      5.50737057691076      1.22238478371004
  H          -7.06635679839142      0.05414163708783      1.98784796932474
  H          -3.98121723705805     -5.56853177037389      1.19153507957730
  H           7.15268901330985     -0.39847954986799      1.51480026115093
  C           0.79147979386086     -1.31124083157337      3.73962620132843
  H           1.37777205391259     -0.67274121989038      4.40117699994263
  H           0.30569880569289     -2.11760618337559      4.30134161189500
  O           0.48680873687376     -3.75172635618046      2.61109817535307
  C          -1.05171865753748      0.56961156157836      3.73136090244839
  H          -1.77564987660436      0.10366203266811      4.40760331553020
  H          -0.36982717609675      1.22924241072982      4.27680657143311
  O          -0.53869435246108      3.15945899270625      2.96350180081998
  C          -0.28762493092402     -0.52600322863608      2.96410393223416
  O          -0.82705313871650     -1.09356576889348      1.98732470519656
  H          -1.28898530747234     -0.32572654995640      0.47620028709687
  O          -1.31974677333267      0.07542572049109     -0.42223596617584
  H           0.49485972399729      0.06639162103312     -0.63163375691627
  O           1.39617508777771      0.00640033005963     -0.21138575826879
  H           1.22159908752052      0.30172740142674      0.85719137345401
  O           0.91372430728201      0.71545997255517      2.08841207626929
  O           2.12916306345405      1.06429158468126      2.80140986027348
  H           1.99815755059685      0.68002957880918     -0.60205790971682
  H          -1.91933260737353     -0.50715388038772     -0.91165797940482
  H           2.63966197770797      0.23214836654845      2.75077798092436
