140
 xtb: 6.7.1 (edcfbbe)
C            0.55256126284325        4.88990100406817       -0.42490979965631
C           -4.38210489291594        3.28894823828911        0.45409842676152
C           -4.94777556018318       -1.76210535214614       -0.58750713193294
C           -0.67436488565276       -4.80905670883164       -0.72573975997398
C            4.30028948764772       -3.35300238755888        0.11484372855783
C            4.79858757262433        1.79262764552780       -0.56309318922895
O           -0.35751226948867        3.83692759462034       -0.21866560561721
O           -4.34242217824912        2.28086825189506       -0.50839636303539
O           -3.57116577496948       -1.87296401625142       -0.86860669259704
O            0.28396546351116       -3.82103622187198       -0.46186619341844
O            4.14859018600833       -2.24322432752288       -0.71442298625035
O            3.40564931788130        1.95832621163641       -0.75915764103385
C            1.15244402521791        4.73092796099378       -1.83247934609960
C           -4.03754646720148        4.60286216030915       -0.27449135472448
C           -5.61562869625432       -0.97310644101273       -1.72494408449856
C           -1.28858851790775       -4.54042318885097       -2.11072234876251
C            3.94937171130700       -4.58454721951086       -0.74196810875433
C            5.39487581264113        1.07407730409591       -1.78461526832466
O            0.18118271105555        4.77386747177197       -2.84552529536967
O           -4.93350136824394        4.88347207197340       -1.31177539428881
O           -5.44064536357394       -1.58788846303089       -2.97323824831099
O           -0.32764252616476       -4.50605460662951       -3.13207422674644
O            4.80374972460590       -4.71953860417147       -1.84244861479252
O            5.18643653875290        1.78247664279295       -2.97648197672922
C            1.85494903489201        3.36806308143797       -1.87629530680211
C           -2.60132626478014        4.50242561508728       -0.81052747665646
C           -5.04807589916025        0.45041584683633       -1.72476066693063
C           -2.00145415841765       -3.18461778763946       -2.05537949644645
C            2.49046813351643       -4.44059928856429       -1.20136201077579
C            4.80541576271416       -0.34037546372668       -1.86353067689276
O            2.52962445561397        3.14764730267861       -3.09069828934325
O           -2.20426420122138        5.70444755375299       -1.43412534475415
O           -5.72718385327495        1.27029121940901       -2.64199184990628
O           -2.69141767247343       -2.89609740327273       -3.24660105627880
O            2.06640219594110       -5.56756574729139       -1.93882455320166
O            5.42114195793262       -1.09470494903462       -2.87925192869510
C            2.88818303020058        3.28164744721846       -0.74776008364356
C           -1.62178102844608        4.16331007913942        0.32244138952229
C           -5.14230810047431        1.11656296094376       -0.34455714415048
C           -3.01826881326491       -3.18000387944508       -0.91079235415228
C            1.55446934218487       -4.25042546737957        0.00135057018056
C            4.98582332304621       -1.10462203012254       -0.54442697350823
C            2.25557027083137        3.62803031390984        0.61253238682076
C           -2.13518595972528        2.91274563968786        1.04195264528021
C           -4.64934041008132        0.18301706087822        0.77835854238964
C           -2.34155112637959       -3.57656416017716        0.41202001401386
C            2.08892298760819       -3.13436172735967        0.90853108430868
C            4.57706415096816       -0.25582443307804        0.67411808573220
O            1.56850013415848        4.87606630452498        0.53525191351394
O           -3.46569206345190        3.07927487048160        1.50326605480918
O           -5.17888910657069       -1.13757370877701        0.63577293270927
O           -1.67307390400395       -4.82547739680338        0.25460968283491
O            3.45538403933742       -3.30288583338658        1.24563874119918
O            5.06757242647141        1.08748627051764        0.60476684368335
C            3.31490882050356        3.77799417973917        1.71280376385284
C           -1.27322297080821        2.50843688767466        2.22417947359004
C           -5.12158366114569        0.61429105298772        2.17721568072229
C           -3.35203719669617       -3.76832178828765        1.54815183395545
C            1.28058833322727       -3.03452620326521        2.20356800145838
C            5.15081074297567       -0.80425320077092        1.99597398138807
O            4.25594598431901        4.77652640481554        1.40892381094455
O           -1.67857512046057        1.33746127750753        2.69440026552952
O           -6.50696013800332        0.83348205386898        2.22818340576699
O           -4.31656987941595       -4.74250884327739        1.24219979204978
O            1.69946222073261       -2.00100509846122        2.93870004620418
O            6.52569337228818       -1.07680323311546        1.91248284430831
H            0.06074343283852        5.86613100680188       -0.32663432384615
H           -5.36701636755010        3.35021156562192        0.93595713884959
H           -5.40513550236196       -2.75607802398439       -0.48994356209999
H           -0.22922747408729       -5.81284319492432       -0.70075379373767
H            5.31448723370391       -3.42802768777155        0.52127214389532
H            5.28163655581212        2.76828822809067       -0.42812091789563
H            1.89141094350157        5.53277244899815       -1.99260500728950
H           -4.10886304029803        5.43372575915577        0.43330247916693
H           -6.69620812079642       -0.93291863049649       -1.54648669755866
H           -2.03478426151136       -5.32848295084157       -2.31957090109989
H            4.06178383656815       -5.49078155425033       -0.13937097093826
H            6.48014001105998        1.00266723790240       -1.65763311358381
H           -0.60790741666773        5.24392820058834       -2.52686234462978
H           -5.09289366011780        4.06862370855987       -1.82129773057721
H           -4.52253628836633       -1.89707108301383       -3.07121846041477
H            0.46230154599003       -5.00751831926579       -2.85901890319349
H            4.90888362935926       -3.85003532405151       -2.26568218506916
H            4.26741731753411        2.10814859244548       -3.02106908209168
H            1.07960994378662        2.60250354522510       -1.72827242867028
H           -2.56053188711174        3.67519436000259       -1.53801480787908
H           -3.97815582772976        0.39555627001204       -1.98288661294063
H           -1.24886076541858       -2.41013338467839       -1.85824109383592
H            2.41186885504452       -3.53987002709056       -1.82985197349255
H            3.72374417190915       -0.26307088326547       -2.05682862489898
H            1.93459528287740        3.38124366368239       -3.81772705933281
H           -2.98559308465541        6.07417750094916       -1.88626001607494
H           -5.85903273010531        0.76614387151484       -3.46061216206946
H           -2.10931168679658       -3.10651543415886       -3.99189288597712
H            2.82160861190113       -5.86569569067612       -2.48082928215080
H            5.49494076667425       -0.53720869290393       -3.66824685111506
H            3.69036550206322        4.00006856431726       -0.96053483899731
H           -1.53697836302723        5.00461265765891        1.02164696177128
H           -6.18290965892636        1.40980358481120       -0.14629193834767
H           -3.80877302375161       -3.90893707841236       -1.13896630139575
H            1.46120449228635       -5.18940969189629        0.56042454496593
H            6.03203016542052       -1.42411587871327       -0.44913116520535
H            1.53734822706747        2.85263069279405        0.89689984305087
H           -2.06307846010596        2.05405730038469        0.33991450689370
H           -3.55250168872470        0.14949339744303        0.75271196798860
H           -1.61890711551375       -2.80266334338283        0.69506203300953
H            1.94129455622107       -2.18589414168583        0.36419366510066
H            3.48708963300353       -0.25011319302367        0.72244836454434
H            3.87674554304802        2.85119298868061        1.80536159760460
H            2.79621821552001        4.00074568360207        2.65120821178528
H           -4.82518752238089       -0.17415523068772        2.87808633658016
H           -4.63981040138340        1.54699324430214        2.46753537641920
H           -3.88825786495919       -2.83428474154626        1.71513712978175
H           -2.79248237713981       -4.03750903172710        2.45167748507223
H            4.96801178255953       -0.05955137793201        2.77601385318237
H            4.66880820824161       -1.74277906287713        2.25705081092965
H            3.79702773070205        5.63217304069793        1.38568896341897
H           -6.95750631964298       -0.01384494289923        2.09559206768443
H           -3.86484231939501       -5.59722384272486        1.16366173360356
H            7.00878583906895       -0.23966921380223        1.81059381815098
C            0.76150021464250       -1.38285804844620        3.81768136473473
H            1.30805264804611       -0.92842186258809        4.62798888317408
H            0.03512168995129       -2.12633275809500        4.18772099254261
O            0.39547592104543       -3.77801697824976        2.52592189244842
C           -0.87510720729503        0.66968795990390        3.66503684282739
H           -1.56270804813969        0.14614902759968        4.32841934435526
H           -0.25916768067888        1.39418880103306        4.21076027883300
O           -0.33183757770973        3.12518025241508        2.65276059063340
C            0.01648499565630       -0.35447162487350        2.93369491673677
O           -0.57527789647399       -1.03482712738519        1.93092830226772
H           -0.99485701408436       -0.42497599757836        1.21576599791929
O           -1.29826461251478        0.32696590637144       -0.19375250982026
H            0.39712047831782        0.26147041272947       -0.33924275999187
O            1.32665291620304        0.16429227483338       -0.05592907268987
H            1.27589966211434        0.37510211403908        1.29549662384836
O            1.16948387978080        0.53749689457737        2.36045492479562
O            2.45367893055010        0.00713874477923        2.95314253359038
H            1.89892699668681        0.85575076308987       -0.46297087076005
H           -1.83991098692781       -0.29779469534981       -0.68095465652579
H            2.46175192957802       -0.94763413589362        2.92280848212932
