16
Coordinates from ORCA-job job
  H          -3.31447835657429      0.42790881494412     -1.39649614447162
  C          -2.43191769489153      0.38797172706761     -0.77820191611366
  C          -2.43397522313966     -0.35348616475229      0.39447984875736
  C          -1.30041077542507     -0.40801821118395      1.19348764356758
  C          -0.15776947590906      0.27684122783280      0.82774112324874
  C          -0.15524487626582      1.02334733321585     -0.35199599426833
  C          -1.29632532688382      1.07720843492593     -1.15541281449655
  H          -3.32221364427756     -0.89103164393846      0.68750321222677
  H          -1.30862764863195     -0.98625744781377      2.10371640390539
  H           0.73051106171095      0.24399559016833      1.43833511111802
  H          -1.26603727032782      1.66179962207310     -2.06222029061345
  O           3.23748320827259      2.36381763644072     -0.33769055703676
  C           1.02813852196092      1.76887624585751     -0.78868379531730
  O           1.14201837439633      2.44986853687310     -1.79880719878435
  O           2.07120763128916      1.62776784532649      0.09420599944373
  H           2.91433262879662      2.76459215076291     -1.18487489456558
