19
Coordinates from ORCA-job job.QMRegion
  C          -1.32184619039978      2.94532258853448      2.34568711937996
  C           1.07207840379311     -2.75692487868021      1.67104008273539
  O          -1.74453323326390      1.82695968694876      2.96190053389784
  O           1.52810080379721     -1.62862986620931      2.19054886008339
  C           0.76438469964568     -0.94125967414097      3.20246938034921
  H           1.52124546855281     -0.47165455088200      3.82235764307901
  H           0.11250106730300     -1.64538812179361      3.71288230760292
  O           0.15790457574009     -3.43040669459941      2.09606519199808
  C          -0.74915672220557      0.98301515786573      3.58184534534661
  H          -1.32482707770219      0.34654846509325      4.24422257267393
  H          -0.00867846531574      1.60328869302246      4.08780120237478
  O          -0.40821118487645      3.65516243065002      2.69806705798185
  C          -0.10945946993835      0.09448955139234      2.51004207121261
  O          -0.96327872690051     -0.41887846807475      1.61350476640669
  O           0.74218853238185      0.96873697074686      1.64451187617558
  O           1.93053559260748      1.49541116065456      2.45780257219839
  H           2.66049044939251      1.29451576020854      1.83571868196454
  H          -1.95371025931884      3.09843372012216      1.47428656373394
  H           1.68494497047658     -2.97554291767166      0.80655900535638
