133
Coordinates from ORCA-job job
  C           0.46695303335683      4.86206239497439     -0.68292981241716
  C          -4.45894634726937      3.36154696050115      0.53295469200797
  C          -5.02473874136234     -1.79335488980046      0.29386321588579
  C          -0.82624968716918     -4.57998985801601     -1.29135054642924
  C           4.16988901053853     -3.38108774376680     -0.11349127275420
  C           4.67428044055903      1.78160503625160      0.16530560188071
  O          -0.44959516567214      3.84638095298421     -0.30462295144071
  O          -4.40077843631975      2.19080182150175     -0.22101675494433
  O          -3.65501202475160     -1.88055729801426     -0.06352017401525
  O           0.14921571091299     -3.62159726788565     -0.96374558263944
  O           4.17801407134207     -2.18643490896231     -0.82611117488136
  O           3.28317750802762      1.96648423118595     -0.07682547203747
  C           1.15537972059328      4.39050016718944     -1.97619391470729
  C          -4.15888253544057      4.53362584880274     -0.42145609197588
  C          -5.85870944619139     -1.15255913582887     -0.83254188903820
  C          -1.68481238426592     -3.99568848259993     -2.42192400784204
  C           3.81551586207766     -4.51535062728226     -1.09664832528792
  C           5.41652893397904      1.29504989990754     -1.09523469018024
  O           0.24434470505047      4.22571101463114     -3.02322752336076
  O          -5.07257907489183      4.60515167784748     -1.47257894319094
  O          -5.94068255137633     -1.91425818144321     -1.99850946933588
  O          -0.91796109881980     -3.60708873550709     -3.52537659493966
  O           4.70763290937489     -4.57719839930231     -2.16842131588439
  O           5.33510608643128      2.18272101977124     -2.16741103973336
  C           1.91798177647139      3.09266336024241     -1.66684445344934
  C          -2.72675717120969      4.36599752556259     -0.96539542855338
  C          -5.24836964940296      0.22286139961284     -1.11385893785886
  C          -2.40657069862119     -2.75649186933482     -1.88740667117927
  C           2.36838810870833     -4.34806863502822     -1.61452940358833
  C           4.85262299676371     -0.07355740932412     -1.49185009143747
  O           2.62803852683131      2.63279086136686     -2.79000455383417
  O          -2.37868877705719      5.42395045693584     -1.81512654337379
  O          -5.96548988071729      0.90010144521981     -2.10823023269382
  O          -3.27446894101754     -2.22523546951982     -2.85131176972462
  O           1.98277810184553     -5.46773549045629     -2.36480041336387
  O           5.53635659580157     -0.59172685749381     -2.59986315505991
  C           2.86626597706223      3.27635542293672     -0.46619230275437
  C          -1.71644490369400      4.26543969849557      0.18826863260992
  C          -5.21591998270696      1.08661821783594      0.15220625351398
  C          -3.22282905141944     -3.10554321521137     -0.63955164348749
  C           1.37104235956939     -4.14197024801501     -0.46246501567116
  C           4.94431409362546     -1.08474956865532     -0.34379808483985
  C           2.15800191264693      3.97176751496855      0.71173038400464
  C          -2.20462847068831      3.15923535953879      1.12824652195230
  C          -4.66493307091517      0.31495886690188      1.37304131482118
  C          -2.35174938576607     -3.85058533971101      0.38350995540376
  C           1.93221396003139     -3.06374720966364      0.45777286802550
  C           4.40417956486815     -0.48378949214467      0.97132192036462
  O           1.42694566941287      5.11971318150811      0.29563597115770
  O          -3.51172347775069      3.36706568646585      1.58747569289595
  O          -5.15117609248143     -1.02252824600030      1.44716071277736
  O          -1.63711435804741     -4.92673206803056     -0.20169522747820
  O           3.21331025012006     -3.37293024451388      0.93632943813981
  O           4.83889409152661      0.86076018501752      1.19347875725186
  C           3.15510700527881      4.44939669764916      1.77761304761123
  C          -1.32184619039978      2.94532258853448      2.34568711937996
  C          -5.11042632881378      0.94305252550932      2.70847628828857
  C          -3.19142977172917     -4.46282659812933      1.51314614689886
  C           1.07207840379311     -2.75692487868021      1.67104008273539
  C           4.92635022670804     -1.21511663345110      2.22402135331384
  O           4.20486595615587      5.19091010732333      1.22516400230982
  O          -1.74453323326390      1.82695968694876      2.96190053389784
  O          -6.47401772550150      1.23947954908871      2.71605744788738
  O          -4.19126867575408     -5.30543149977729      1.02387359652121
  O           1.52810080379721     -1.62862986620931      2.19054886008339
  O           6.32052818966217     -1.32516852099684      2.20874554807758
  H          -0.06060478343085      5.80830043013829     -0.84629637061051
  H          -5.43054534180600      3.47987820926601      1.02868242473348
  H          -5.41537563288358     -2.78470285520728      0.55886805504739
  H          -0.34758158323664     -5.51749717982629     -1.60345692647977
  H           5.13272939234086     -3.56783635838297      0.37928899387162
  H           5.11918920534271      2.71507161275742      0.53546355832563
  H           1.86740204377183      5.16114518152902     -2.29592390203587
  H          -4.23190955600733      5.47395345046698      0.13438808651730
  H          -6.88498694020125     -1.03598939968063     -0.46657518610857
  H          -2.43715671633947     -4.74690267804017     -2.70626425487473
  H           3.89041059625421     -5.46965024834165     -0.56409997595850
  H           6.48004740933503      1.19863604868688     -0.84875548353759
  H          -0.58915257307702      3.90127448737084     -2.66020221508213
  H          -5.19413608428666      3.71632689561426     -1.84205989995134
  H          -5.04640269359788     -2.03407793573973     -2.37345437044496
  H          -0.43633020354247     -4.38490189354302     -3.84914603090409
  H           4.82270457040490     -3.68423110871741     -2.52934977956389
  H           4.39759995910079      2.26371948609555     -2.43895125178960
  H           1.19960372130797      2.30568883651977     -1.39440003707986
  H          -2.68862170541860      3.40490909611283     -1.50925767209646
  H          -4.19960251334789      0.07550757400988     -1.43172085860815
  H          -1.65082829271162     -2.00851047887039     -1.58687909216812
  H           2.32554935267010     -3.43899530387293     -2.23891564189012
  H           3.77956823864703      0.05387521463409     -1.73031376958843
  H           2.89028746054587      3.40610389124019     -3.32214674092329
  H          -3.17903349482812      5.67690332118565     -2.30709534476266
  H          -6.29888329158311      0.22797020097671     -2.72778985485648
  H          -2.78649449773350     -2.14986913917994     -3.68757912346396
  H           2.73974288690350     -5.71907491381347     -2.92143678870814
  H           5.72455798161498      0.15326021332931     -3.19590697911538
  H           3.73606803785496      3.87304845005591     -0.76815024920439
  H          -1.62489004728826      5.21279540451558      0.73056846766470
  H          -6.22927036716435      1.44512361313117      0.38337180927149
  H          -4.08303282850598     -3.72531095226247     -0.92017567215417
  H           1.19584731486458     -5.07037351428682      0.09260707139470
  H           5.98860302772937     -1.39892230163274     -0.20349926386430
  H           1.46149068630658      3.25921730705856      1.16170704824622
  H          -2.13887393667878      2.20096313699228      0.57627495427862
  H          -3.56137275306494      0.30196379398488      1.31857416405256
  H          -1.66020334008217     -3.10674563539345      0.81116812197058
  H           1.96246265073829     -2.12949572107047     -0.13001907119858
  H           3.30636333715223     -0.52960478861462      0.94206258904186
  H           3.58712434010212      3.57962978255460      2.27517502872463
  H           2.59058675367589      5.02998258332351      2.51568054667682
  H          -4.84958660091520      0.22954876167655      3.49824043398726
  H          -4.56631158930347      1.87265669872422      2.87767811610574
  H          -3.67557069003403     -3.65630659591731      2.06683004392436
  H          -2.50439341118854     -4.99269770565867      2.18406103536192
  H           4.58104661083935     -0.64520317496803      3.09514933149115
  H           4.51330340209986     -2.22102579707093      2.27797971785056
  H           3.82761758014608      5.99706035768994      0.84323650490529
  H          -6.96326533171911      0.40298064102208      2.69019807936286
  H          -3.75814162550669     -6.02224900593623      0.53498177056410
  H           6.68594809461357     -0.42784590923393      2.22039777997315
  C           0.76438469964568     -0.94125967414097      3.20246938034921
  H           1.52124546855281     -0.47165455088200      3.82235764307901
  H           0.11250106730300     -1.64538812179361      3.71288230760292
  O           0.15790457574009     -3.43040669459941      2.09606519199808
  C          -0.74915672220557      0.98301515786573      3.58184534534661
  H          -1.32482707770219      0.34654846509325      4.24422257267393
  H          -0.00867846531574      1.60328869302246      4.08780120237478
  O          -0.40821118487645      3.65516243065002      2.69806705798185
  C          -0.10945946993835      0.09448955139234      2.51004207121261
  O          -0.96327872690051     -0.41887846807475      1.61350476640669
  O           0.74218853238185      0.96873697074686      1.64451187617558
  O           1.93053559260748      1.49541116065456      2.45780257219839
  H           2.66049044939251      1.29451576020854      1.83571868196454
