11
Coordinates from ORCA-job job.QMRegion
  C          -0.63106153284481     -0.50429233900402      2.80322194904152
  O          -0.92326820769132     -1.48283057704932      1.83309099408330
  O          -1.53152307768953     -1.33767729025575      3.45254334957565
  C          -0.34386138173245     -0.58550207970810     -0.65400383411286
  O           0.78077286435282      0.25031215386360     -0.52737205424559
  H          -0.41484892246332     -1.18226392332534      0.31940995135434
  H          -1.29193562434069     -0.02420483556107     -0.68031555552282
  H           0.64541019663141      1.08227374561255     -1.02184607743667
  H          -0.98199083373028      0.49904519359926      2.53806418905022
  H           0.39643300210689     -0.52246386659271      3.17920365165417
  H          -0.29174979073939     -1.31326351784300     -1.45729948599750
