11
* (null), Energy   -1000.0000000
C    -0.630478   -0.502809    2.806576   -0.011222   -0.000230    0.000160
O    -0.920828   -1.482455    1.838440   -0.006892   -0.012976   -0.022434
O    -1.531642   -1.333207    3.457016   -0.000342    0.009682    0.005418
C    -0.346824   -0.587600   -0.652702   -0.020518   -0.005368    0.012252
O     0.771304    0.257984   -0.509155   -0.001546   -0.021862   -0.012602
H    -0.419418   -1.185698    0.321705    0.004846    0.010614    0.000042
H    -1.297843   -0.028099   -0.675530   -0.001832    0.004412    0.017178
H     0.641228    1.081628   -1.019173   -0.024894   -0.001666    0.022204
H    -0.980128    0.501103    2.538851   -0.005372   -0.018368   -0.007948
H     0.397271   -0.519774    3.184577    0.015166   -0.018740   -0.015034
H    -0.287955   -1.308191   -1.456359    0.009020    0.009900    0.024466
11
* Frequency(7) -105.6400
C    -0.631753   -0.502835    2.806594   -0.011222   -0.000230    0.000160
O    -0.921611   -1.483930    1.835890   -0.006892   -0.012976   -0.022434
O    -1.531681   -1.332107    3.457632   -0.000342    0.009682    0.005418
C    -0.349156   -0.588210   -0.651310   -0.020518   -0.005368    0.012252
O     0.771128    0.255499   -0.510587   -0.001546   -0.021862   -0.012602
H    -0.418867   -1.184492    0.321710    0.004846    0.010614    0.000042
H    -1.298051   -0.027598   -0.673578   -0.001832    0.004412    0.017178
H     0.638399    1.081439   -1.016650   -0.024894   -0.001666    0.022204
H    -0.980738    0.499016    2.537948   -0.005372   -0.018368   -0.007948
H     0.398995   -0.521904    3.182868    0.015166   -0.018740   -0.015034
H    -0.286930   -1.307066   -1.453579    0.009020    0.009900    0.024466
11
* Frequency(7) -105.6400
C    -0.632890   -0.502858    2.806610   -0.011222   -0.000230    0.000160
O    -0.922310   -1.485245    1.833617   -0.006892   -0.012976   -0.022434
O    -1.531716   -1.331126    3.458181   -0.000342    0.009682    0.005418
C    -0.351235   -0.588754   -0.650068   -0.020518   -0.005368    0.012252
O     0.770972    0.253284   -0.511864   -0.001546   -0.021862   -0.012602
H    -0.418376   -1.183416    0.321714    0.004846    0.010614    0.000042
H    -1.298237   -0.027151   -0.671837   -0.001832    0.004412    0.017178
H     0.635876    1.081270   -1.014400   -0.024894   -0.001666    0.022204
H    -0.981283    0.497154    2.537142   -0.005372   -0.018368   -0.007948
H     0.400531   -0.523803    3.181345    0.015166   -0.018740   -0.015034
H    -0.286016   -1.306063   -1.451099    0.009020    0.009900    0.024466
11
* Frequency(7) -105.6400
C    -0.633766   -0.502876    2.806623   -0.011222   -0.000230    0.000160
O    -0.922847   -1.486257    1.831867   -0.006892   -0.012976   -0.022434
O    -1.531742   -1.330370    3.458604   -0.000342    0.009682    0.005418
C    -0.352836   -0.589173   -0.649112   -0.020518   -0.005368    0.012252
O     0.770851    0.251578   -0.512847   -0.001546   -0.021862   -0.012602
H    -0.417998   -1.182588    0.321717    0.004846    0.010614    0.000042
H    -1.298380   -0.026806   -0.670497   -0.001832    0.004412    0.017178
H     0.633934    1.081140   -1.012667   -0.024894   -0.001666    0.022204
H    -0.981702    0.495721    2.536522   -0.005372   -0.018368   -0.007948
H     0.401715   -0.525265    3.180172    0.015166   -0.018740   -0.015034
H    -0.285312   -1.305290   -1.449190    0.009020    0.009900    0.024466
11
* Frequency(7) -105.6400
C    -0.634286   -0.502887    2.806630   -0.011222   -0.000230    0.000160
O    -0.923166   -1.486858    1.830828   -0.006892   -0.012976   -0.022434
O    -1.531758   -1.329922    3.458854   -0.000342    0.009682    0.005418
C    -0.353786   -0.589421   -0.648545   -0.020518   -0.005368    0.012252
O     0.770779    0.250566   -0.513431   -0.001546   -0.021862   -0.012602
H    -0.417774   -1.182097    0.321719    0.004846    0.010614    0.000042
H    -1.298465   -0.026602   -0.669702   -0.001832    0.004412    0.017178
H     0.632782    1.081063   -1.011639   -0.024894   -0.001666    0.022204
H    -0.981951    0.494871    2.536154   -0.005372   -0.018368   -0.007948
H     0.402417   -0.526132    3.179476    0.015166   -0.018740   -0.015034
H    -0.284895   -1.304832   -1.448058    0.009020    0.009900    0.024466
11
* Frequency(7) -105.6400
C    -0.634392   -0.502889    2.806632   -0.011222   -0.000230    0.000160
O    -0.923232   -1.486981    1.830615   -0.006892   -0.012976   -0.022434
O    -1.531761   -1.329830    3.458906   -0.000342    0.009682    0.005418
C    -0.353981   -0.589472   -0.648428   -0.020518   -0.005368    0.012252
O     0.770765    0.250358   -0.513551   -0.001546   -0.021862   -0.012602
H    -0.417728   -1.181996    0.321720    0.004846    0.010614    0.000042
H    -1.298482   -0.026560   -0.669538   -0.001832    0.004412    0.017178
H     0.632545    1.081047   -1.011428   -0.024894   -0.001666    0.022204
H    -0.982002    0.494696    2.536079   -0.005372   -0.018368   -0.007948
H     0.402561   -0.526311    3.179333    0.015166   -0.018740   -0.015034
H    -0.284809   -1.304738   -1.447825    0.009020    0.009900    0.024466
11
* Frequency(7) -105.6400
C    -0.634075   -0.502883    2.806627   -0.011222   -0.000230    0.000160
O    -0.923037   -1.486614    1.831249   -0.006892   -0.012976   -0.022434
O    -1.531752   -1.330104    3.458753   -0.000342    0.009682    0.005418
C    -0.353400   -0.589321   -0.648775   -0.020518   -0.005368    0.012252
O     0.770808    0.250977   -0.513194   -0.001546   -0.021862   -0.012602
H    -0.417865   -1.182296    0.321718    0.004846    0.010614    0.000042
H    -1.298430   -0.026685   -0.670024   -0.001832    0.004412    0.017178
H     0.633249    1.081094   -1.012056   -0.024894   -0.001666    0.022204
H    -0.981850    0.495216    2.536304   -0.005372   -0.018368   -0.007948
H     0.402132   -0.525781    3.179758    0.015166   -0.018740   -0.015034
H    -0.285064   -1.305018   -1.448517    0.009020    0.009900    0.024466
11
* Frequency(7) -105.6400
C    -0.633368   -0.502868    2.806617   -0.011222   -0.000230    0.000160
O    -0.922603   -1.485796    1.832663   -0.006892   -0.012976   -0.022434
O    -1.531730   -1.330714    3.458411   -0.000342    0.009682    0.005418
C    -0.352107   -0.588982   -0.649547   -0.020518   -0.005368    0.012252
O     0.770906    0.252354   -0.512400   -0.001546   -0.021862   -0.012602
H    -0.418170   -1.182965    0.321716    0.004846    0.010614    0.000042
H    -1.298315   -0.026963   -0.671107   -0.001832    0.004412    0.017178
H     0.634818    1.081199   -1.013455   -0.024894   -0.001666    0.022204
H    -0.981511    0.496373    2.536804   -0.005372   -0.018368   -0.007948
H     0.401176   -0.524600    3.180706    0.015166   -0.018740   -0.015034
H    -0.285632   -1.305642   -1.450059    0.009020    0.009900    0.024466
11
* Frequency(7) -105.6400
C    -0.632347   -0.502847    2.806603   -0.011222   -0.000230    0.000160
O    -0.921976   -1.484617    1.834703   -0.006892   -0.012976   -0.022434
O    -1.531699   -1.331594    3.457919   -0.000342    0.009682    0.005418
C    -0.350242   -0.588494   -0.650661   -0.020518   -0.005368    0.012252
O     0.771046    0.254342   -0.511254   -0.001546   -0.021862   -0.012602
H    -0.418611   -1.183930    0.321712    0.004846    0.010614    0.000042
H    -1.298148   -0.027364   -0.672668   -0.001832    0.004412    0.017178
H     0.637081    1.081350   -1.015474   -0.024894   -0.001666    0.022204
H    -0.981023    0.498043    2.537527   -0.005372   -0.018368   -0.007948
H     0.399797   -0.522896    3.182073    0.015166   -0.018740   -0.015034
H    -0.286452   -1.306542   -1.452283    0.009020    0.009900    0.024466
11
* Frequency(7) -105.6400
C    -0.631124   -0.502822    2.806585   -0.011222   -0.000230    0.000160
O    -0.921225   -1.483203    1.837148   -0.006892   -0.012976   -0.022434
O    -1.531662   -1.332649    3.457328   -0.000342    0.009682    0.005418
C    -0.348006   -0.587909   -0.651996   -0.020518   -0.005368    0.012252
O     0.771215    0.256725   -0.509881   -0.001546   -0.021862   -0.012602
H    -0.419139   -1.185087    0.321707    0.004846    0.010614    0.000042
H    -1.297949   -0.027845   -0.674540   -0.001832    0.004412    0.017178
H     0.639794    1.081532   -1.017894   -0.024894   -0.001666    0.022204
H    -0.980437    0.500045    2.538393   -0.005372   -0.018368   -0.007948
H     0.398145   -0.520854    3.183711    0.015166   -0.018740   -0.015034
H    -0.287435   -1.307621   -1.454950    0.009020    0.009900    0.024466
11
* Frequency(7) -105.6400
C    -0.629832   -0.502796    2.806567   -0.011222   -0.000230    0.000160
O    -0.920431   -1.481707    1.839732   -0.006892   -0.012976   -0.022434
O    -1.531622   -1.333765    3.456704   -0.000342    0.009682    0.005418
C    -0.345642   -0.587291   -0.653408   -0.020518   -0.005368    0.012252
O     0.771393    0.259243   -0.508429   -0.001546   -0.021862   -0.012602
H    -0.419697   -1.186309    0.321703    0.004846    0.010614    0.000042
H    -1.297737   -0.028353   -0.676520   -0.001832    0.004412    0.017178
H     0.642662    1.081724   -1.020452   -0.024894   -0.001666    0.022204
H    -0.979819    0.502161    2.539309   -0.005372   -0.018368   -0.007948
H     0.396397   -0.518694    3.185443    0.015166   -0.018740   -0.015034
H    -0.288475   -1.308761   -1.457768    0.009020    0.009900    0.024466
11
* Frequency(7) -105.6400
C    -0.628609   -0.502771    2.806549   -0.011222   -0.000230    0.000160
O    -0.919680   -1.480293    1.842177   -0.006892   -0.012976   -0.022434
O    -1.531585   -1.334820    3.456113   -0.000342    0.009682    0.005418
C    -0.343406   -0.586706   -0.654743   -0.020518   -0.005368    0.012252
O     0.771562    0.261626   -0.507056   -0.001546   -0.021862   -0.012602
H    -0.420225   -1.187466    0.321698    0.004846    0.010614    0.000042
H    -1.297538   -0.028834   -0.678392   -0.001832    0.004412    0.017178
H     0.645375    1.081906   -1.022872   -0.024894   -0.001666    0.022204
H    -0.979233    0.504163    2.540175   -0.005372   -0.018368   -0.007948
H     0.394745   -0.516652    3.187081    0.015166   -0.018740   -0.015034
H    -0.289458   -1.309840   -1.460435    0.009020    0.009900    0.024466
11
* Frequency(7) -105.6400
C    -0.627588   -0.502750    2.806535   -0.011222   -0.000230    0.000160
O    -0.919053   -1.479114    1.844217   -0.006892   -0.012976   -0.022434
O    -1.531554   -1.335700    3.455621   -0.000342    0.009682    0.005418
C    -0.341541   -0.586218   -0.655857   -0.020518   -0.005368    0.012252
O     0.771702    0.263614   -0.505910   -0.001546   -0.021862   -0.012602
H    -0.420666   -1.188431    0.321694    0.004846    0.010614    0.000042
H    -1.297371   -0.029235   -0.679953   -0.001832    0.004412    0.017178
H     0.647638    1.082057   -1.024891   -0.024894   -0.001666    0.022204
H    -0.978745    0.505833    2.540898   -0.005372   -0.018368   -0.007948
H     0.393366   -0.514948    3.188448    0.015166   -0.018740   -0.015034
H    -0.290278   -1.310740   -1.462659    0.009020    0.009900    0.024466
11
* Frequency(7) -105.6400
C    -0.626881   -0.502735    2.806525   -0.011222   -0.000230    0.000160
O    -0.918619   -1.478296    1.845631   -0.006892   -0.012976   -0.022434
O    -1.531532   -1.336310    3.455279   -0.000342    0.009682    0.005418
C    -0.340248   -0.585879   -0.656629   -0.020518   -0.005368    0.012252
O     0.771800    0.264991   -0.505116   -0.001546   -0.021862   -0.012602
H    -0.420971   -1.189100    0.321692    0.004846    0.010614    0.000042
H    -1.297256   -0.029513   -0.681036   -0.001832    0.004412    0.017178
H     0.649207    1.082162   -1.026290   -0.024894   -0.001666    0.022204
H    -0.978406    0.506990    2.541398   -0.005372   -0.018368   -0.007948
H     0.392410   -0.513767    3.189396    0.015166   -0.018740   -0.015034
H    -0.290846   -1.311364   -1.464201    0.009020    0.009900    0.024466
11
* Frequency(7) -105.6400
C    -0.626564   -0.502729    2.806520   -0.011222   -0.000230    0.000160
O    -0.918424   -1.477929    1.846265   -0.006892   -0.012976   -0.022434
O    -1.531523   -1.336584    3.455126   -0.000342    0.009682    0.005418
C    -0.339667   -0.585728   -0.656976   -0.020518   -0.005368    0.012252
O     0.771843    0.265610   -0.504759   -0.001546   -0.021862   -0.012602
H    -0.421108   -1.189400    0.321690    0.004846    0.010614    0.000042
H    -1.297204   -0.029638   -0.681522   -0.001832    0.004412    0.017178
H     0.649911    1.082209   -1.026918   -0.024894   -0.001666    0.022204
H    -0.978254    0.507510    2.541623   -0.005372   -0.018368   -0.007948
H     0.391981   -0.513237    3.189821    0.015166   -0.018740   -0.015034
H    -0.291101   -1.311644   -1.464893    0.009020    0.009900    0.024466
11
* Frequency(7) -105.6400
C    -0.626670   -0.502731    2.806522   -0.011222   -0.000230    0.000160
O    -0.918490   -1.478052    1.846052   -0.006892   -0.012976   -0.022434
O    -1.531526   -1.336492    3.455178   -0.000342    0.009682    0.005418
C    -0.339862   -0.585779   -0.656859   -0.020518   -0.005368    0.012252
O     0.771829    0.265402   -0.504879   -0.001546   -0.021862   -0.012602
H    -0.421062   -1.189299    0.321691    0.004846    0.010614    0.000042
H    -1.297221   -0.029596   -0.681358   -0.001832    0.004412    0.017178
H     0.649674    1.082193   -1.026707   -0.024894   -0.001666    0.022204
H    -0.978305    0.507335    2.541548   -0.005372   -0.018368   -0.007948
H     0.392125   -0.513416    3.189678    0.015166   -0.018740   -0.015034
H    -0.291015   -1.311550   -1.464660    0.009020    0.009900    0.024466
11
* Frequency(7) -105.6400
C    -0.627190   -0.502742    2.806529   -0.011222   -0.000230    0.000160
O    -0.918809   -1.478653    1.845013   -0.006892   -0.012976   -0.022434
O    -1.531542   -1.336044    3.455428   -0.000342    0.009682    0.005418
C    -0.340812   -0.586027   -0.656292   -0.020518   -0.005368    0.012252
O     0.771757    0.264390   -0.505463   -0.001546   -0.021862   -0.012602
H    -0.420838   -1.188808    0.321693    0.004846    0.010614    0.000042
H    -1.297306   -0.029392   -0.680563   -0.001832    0.004412    0.017178
H     0.648522    1.082116   -1.025679   -0.024894   -0.001666    0.022204
H    -0.978554    0.506485    2.541180   -0.005372   -0.018368   -0.007948
H     0.392827   -0.514283    3.188982    0.015166   -0.018740   -0.015034
H    -0.290598   -1.311092   -1.463528    0.009020    0.009900    0.024466
11
* Frequency(7) -105.6400
C    -0.628066   -0.502760    2.806542   -0.011222   -0.000230    0.000160
O    -0.919346   -1.479665    1.843263   -0.006892   -0.012976   -0.022434
O    -1.531568   -1.335288    3.455851   -0.000342    0.009682    0.005418
C    -0.342413   -0.586446   -0.655336   -0.020518   -0.005368    0.012252
O     0.771636    0.262684   -0.506446   -0.001546   -0.021862   -0.012602
H    -0.420460   -1.187980    0.321696    0.004846    0.010614    0.000042
H    -1.297449   -0.029047   -0.679223   -0.001832    0.004412    0.017178
H     0.646580    1.081986   -1.023946   -0.024894   -0.001666    0.022204
H    -0.978973    0.505052    2.540560   -0.005372   -0.018368   -0.007948
H     0.394011   -0.515745    3.187809    0.015166   -0.018740   -0.015034
H    -0.289894   -1.310319   -1.461619    0.009020    0.009900    0.024466
11
* Frequency(7) -105.6400
C    -0.629203   -0.502783    2.806558   -0.011222   -0.000230    0.000160
O    -0.920045   -1.480980    1.840990   -0.006892   -0.012976   -0.022434
O    -1.531603   -1.334307    3.456400   -0.000342    0.009682    0.005418
C    -0.344492   -0.586990   -0.654094   -0.020518   -0.005368    0.012252
O     0.771480    0.260469   -0.507723   -0.001546   -0.021862   -0.012602
H    -0.419969   -1.186904    0.321700    0.004846    0.010614    0.000042
H    -1.297635   -0.028600   -0.677482   -0.001832    0.004412    0.017178
H     0.644057    1.081817   -1.021696   -0.024894   -0.001666    0.022204
H    -0.979518    0.503190    2.539754   -0.005372   -0.018368   -0.007948
H     0.395547   -0.517644    3.186286    0.015166   -0.018740   -0.015034
H    -0.288980   -1.309316   -1.459139    0.009020    0.009900    0.024466
11
* Frequency(7) -105.6400
C    -0.630478   -0.502809    2.806576   -0.011222   -0.000230    0.000160
O    -0.920828   -1.482455    1.838440   -0.006892   -0.012976   -0.022434
O    -1.531642   -1.333207    3.457016   -0.000342    0.009682    0.005418
C    -0.346824   -0.587600   -0.652702   -0.020518   -0.005368    0.012252
O     0.771304    0.257984   -0.509155   -0.001546   -0.021862   -0.012602
H    -0.419418   -1.185698    0.321705    0.004846    0.010614    0.000042
H    -1.297843   -0.028099   -0.675530   -0.001832    0.004412    0.017178
H     0.641228    1.081628   -1.019173   -0.024894   -0.001666    0.022204
H    -0.980128    0.501103    2.538851   -0.005372   -0.018368   -0.007948
H     0.397271   -0.519774    3.184577    0.015166   -0.018740   -0.015034
H    -0.287955   -1.308191   -1.456359    0.009020    0.009900    0.024466
