147
 xtb: 6.7.1 (edcfbbe)
C            4.97173151538128       -3.28281143609279        5.59375928104574
O            4.56223001397065       -2.35353779821766        4.61818242665620
C            6.01067416951777       -4.20755575191134        4.93555377910811
O            3.90392985513888       -4.01683892217059        6.12238304107760
C            4.03459512045705       -1.12548868972431        5.09913296954444
O            7.09977676168763       -3.50078434496060        4.41880206783171
C            5.31449060873721       -5.03704727016126        3.84619030361804
C            3.18987447096600       -4.80315496263803        5.17572318853984
C            5.01729389733191        0.00298791956220        4.75635169821174
C            2.69449452017113       -0.84131625646514        4.41093671598893
O            6.18268728035689       -5.98304699393599        3.27729688501470
C            4.12418452033571       -5.78666476179702        4.45199346291951
C            2.09578033503646       -5.53309605011085        5.96787057334081
C            4.39379116650041        1.38151158102027        5.04373777015146
O            6.18871762822012       -0.19570084220085        5.50167607005834
O            2.18535037037314        0.42709582941570        4.78516819837221
C            1.60097402604463       -1.82948781417222        4.80268444110788
O            3.46316021671105       -6.42451340555891        3.37439781810753
O            2.63839430430329       -6.36336782241765        6.95688110578291
C            3.02349025663111        1.48212229419092        4.34620668844335
O            5.25508802364232        2.40531816856520        4.63959585923384
O            0.94965278061909       -2.21237015063203        3.71468296990315
O            1.36354649666821       -2.19144143899825        5.92541616189807
C            3.01994953724868       -7.74922343470088        3.53945973600632
O            3.25154333070564        1.42901179648009        2.97396082473921
C           -0.24969238410471       -2.96799720595236        3.83669787974905
C            3.57507460176652       -8.58061124969537        2.36985531858391
O            1.62345928710587       -7.82753453902007        3.57202195818831
C            2.41882018501867        2.16968679256992        2.08752978476970
C           -1.27500668170709       -2.40472585943382        2.87131454359559
O            4.97424594279630       -8.59095643858186        2.33964312076788
C            2.99437816882388       -8.00767929462969        1.06970191980450
C            0.95513634900664       -7.30536903214269        2.42561475041862
C            3.20462892836451        2.13106487582131        0.76948723215334
C            1.00003198572921        1.58729095951019        1.92642987667536
C           -2.33877646581315       -3.41449674836248        2.47062914010289
O           -0.83313475169763       -1.56655529159482        1.85584319361467
O           -1.59619518964330       -1.06817321450518        2.92027168972482
O            3.35489976529975       -8.78050678531484       -0.04560988376615
C            1.46173239824576       -7.94920653693558        1.11984046185610
C           -0.53404951892090       -7.59582644748658        2.68038584632952
C            2.38204053478164        2.68139283686782       -0.40323020469879
O            4.38869572113811        2.86130180351033        0.95478250589008
O            0.35135384857802        2.12318277782483        0.77697249429290
C            0.07013869072058        1.95367030748925        3.09623733183334
O           -1.65964656936783       -4.37450214014815        1.66594226611189
O            1.11763724539042       -7.18815371319197       -0.03133166141239
O           -0.80192518067102       -8.97175821473245        2.68338766570035
C            1.03657610160100        1.93520635147939       -0.43169838697186
O            3.07905839401507        2.55210889386174       -1.61042914646429
O            0.07727923861591        3.32918577825561        3.35875523304595
C           -1.68111695841137       -4.19765010866998        0.34400490444517
C           -0.12148865963535       -7.36891765768651       -0.64150763359982
O            1.30765666864552        0.57993146199272       -0.67569210364259
C           -0.64939252356252       -5.10821946946014       -0.31429273673163
O           -2.39743825646586       -3.42664724484627       -0.23470947369900
C            0.09667812139048       -7.17859192026404       -2.15634907326685
O           -1.09034189816578       -6.44284357166811       -0.17944891773255
C            0.66294558472782       -0.05493132861507       -1.76658040035367
C           -0.40604395601997       -4.72781859716319       -1.77896605491024
O            1.01282163963396       -8.09873704687740       -2.67253939148540
C            0.57046167680298       -5.73520264892470       -2.40481409947618
C            1.69350869577307       -1.03929568333047       -2.32964639291502
C           -0.61837184297009       -0.78755185162687       -1.33632419047936
O            0.18247636431357       -3.43746320264415       -1.79804317485326
O            0.68329724737178       -5.45531384240980       -3.78008215720431
C            1.06044915032026       -1.91625714286799       -3.41799368828133
O            2.77390845751157       -0.28795393274471       -2.82109378396534
O           -1.10750030022994       -1.59873989184374       -2.39871092021959
C           -1.74878156265661        0.18556627577031       -0.98045343336741
C           -0.20226245886485       -2.57296213896450       -2.83713287083619
O            2.00642080981690       -2.85555441219988       -3.85546952510196
O           -2.04380126940047        1.06387208263625       -2.03219365796214
C           -1.86997254879239       -0.55937169134932        5.95400595899173
H           -0.79573877752491       -0.22610609929683        5.63564887050945
C           -1.91936449770727       -0.47899424759620        7.47349978663030
C           -3.09566899810168       -0.15458566293149        8.13368262522174
C           -0.81209786299921       -0.86793214966710        8.21467903765416
C           -3.16060774760777       -0.20463647222866        9.51499121444659
C           -0.87819725998777       -0.92442955904839        9.59546142685843
C           -2.05250823865386       -0.59074306876824       10.24932463804428
H            5.41527043569320       -2.76103556413289        6.45121333774591
H            6.40970910089962       -4.88394077454946        5.69875940397656
H            3.87144365704947       -1.17589319501622        6.18084822285824
H            6.78122665290423       -2.68325061759581        4.00656348619394
H            4.93044209944013       -4.35718037064733        3.06947866075173
H            2.72583032027286       -4.15321409205454        4.42082144575274
H            5.23109265052455       -0.05720286879244        3.67752563884151
H            2.82579469749272       -0.88234400237238        3.31932888618006
H            7.05165670427897       -5.56657801875594        3.14762119816493
H            4.48959482414518       -6.53152514036076        5.17079160273107
H            1.52971901175461       -6.17918805376561        5.29428077768349
H            1.42532434538615       -4.77907308404508        6.39750523719557
H            4.24591865462030        1.49297180250659        6.12326366725065
H            6.72311673124401        0.61330130947041        5.45637202464592
H            3.07647451677656       -5.80809731503295        7.61884062377732
H            2.50008360495404        2.40130065849437        4.63998046508137
H            5.20834154695890        2.49797644977531        3.67307112386839
H            3.35096969158503       -8.15958916440292        4.50138284214437
H           -0.01320826530208       -4.03737864180451        3.54724853423883
H           -0.65677026744346       -2.91150073752772        4.82585271236662
H            3.25780050286067       -9.62249491936677        2.48381188578816
H            2.33624860614270        3.20669234925455        2.44145160229486
H            5.32141693585349       -7.69799851208271        2.52318405169211
H            3.36288937913349       -6.97624648098762        0.95241767153938
H            1.11915738872537       -6.21990462784808        2.36589312235164
H            3.43654377210191        1.07453233780046        0.56003975087459
H            1.05770651744761        0.49339455527394        1.83944696526402
H           -2.72619828809694       -3.92658365195266        3.36095482229380
H           -3.12687417320751       -2.93254598759250        1.90888872677275
H            4.29092591392430       -9.02513465702817        0.04590791122382
H            1.05346880395669       -8.96511561064364        1.03320950443024
H           -0.80802992591063       -7.13761295200911        3.63752009188060
H           -1.14295646161530       -7.15343637370596        1.89141383437752
H            2.20332415784572        3.75111956867481       -0.25584637225496
H            4.78551757112734        3.01850763318390        0.08189867500426
H           -0.93687632702015        1.59490079074800        2.85284704515627
H            0.38145702608163        1.44444397058826        4.00831545324863
H           -0.34991416963396       -9.37089678352151        3.44175159460559
H            0.37551780940827        2.35302246813363       -1.20116459447077
H            3.04935963242333        1.62489864157657       -1.91272256173393
H           -0.37148500732659        3.78262767920907        2.62744105229887
H           -0.54661089692083       -8.35624405997889       -0.42218899728294
H            0.29518196541685       -4.97211814586532        0.23265604308451
H           -0.85002980206777       -7.34731451911747       -2.67945797859511
H            0.41211943676824        0.68455764526295       -2.53688124544145
H           -1.35752075199860       -4.72662273418917       -2.32417169252586
H            1.76949633259662       -8.18137611277287       -2.06661644266482
H            1.54673818798891       -5.59941010748270       -1.91582346807151
H            2.02235557947168       -1.69350299490337       -1.50732456201272
H           -0.39691595738245       -1.40427572053386       -0.45230584701975
H            1.05606285407317       -6.24278248485805       -4.21723522482430
H            0.75726624987946       -1.27300880204880       -4.25898614908427
H            3.35672420682298       -0.88388758227426       -3.31747861814830
H           -1.44469266283410        0.79313326516742       -0.12528934543940
H           -2.62595174526940       -0.40723881562330       -0.69754891306562
H           -0.73789795273009       -3.12120284953149       -3.62168690011972
H            1.58748834622821       -3.72925141919410       -3.96762325722262
H           -2.39057013429679        0.54228162379065       -2.77245210468511
O           -2.23046646320943       -1.75424437451418        5.51231061957449
H           -3.95606783253948        0.14174675880131        7.53839482927099
H            0.09249253902567       -1.13540422784209        7.67717954186916
H           -4.08404274396989        0.04967931471481       10.00702809632253
H           -0.01108181668800       -1.23634362317539       10.14494583621898
H           -2.10431055611191       -0.63969500156236       11.31657201062337
H           -3.13760639030965        0.19050489161435        4.64643428535473
O           -2.69017055258334        0.50770696499968        5.41056717971243
