11
Coordinates from ORCA-job job.QMRegion
  C          -1.20122662412741     -2.32846501233322      2.81411514845589
  O          -0.73185416135148     -1.48331826223224      1.77415671481751
  O          -1.49452056380203     -0.98486174858434      2.97665023542066
  C          -1.80464000379739     -0.73089001192609      6.00440625623966
  H          -0.77118315330300     -0.37988386384170      5.71954118255972
  O          -2.13433641944147     -1.94859226677995      5.53040904501623
  H          -3.47032621528653     -0.16517797693792      5.19570496163816
  O          -2.65221539489186      0.32152355949228      5.38572233629946
  H          -0.46015694897659     -2.76324669292036      3.49120587561441
  H          -1.98918011108691     -3.02595836320839      2.50601767160209
  H          -1.88549874618231     -0.68065625233283      7.13749265582755
