147
Coordinates from ORCA-job job
  C           4.96733879076991     -3.25459763686660      5.61054887657836
  O           4.58945826810109     -2.32158091049809      4.62609079463237
  C           5.99771055278476     -4.20136471699692      4.96978627316810
  O           3.87939056994564     -3.96579850418269      6.13000907569333
  C           4.07563274221113     -1.08192423987344      5.09200293769683
  O           7.10331287023110     -3.51572420835890      4.45990053623114
  C           5.30005919149181     -5.02825597660161      3.87915878069689
  C           3.16553930809573     -4.75167836573792      5.18254937421975
  C           5.06681407906513      0.03298254114863      4.72829549262458
  C           2.73794859920146     -0.78929543104833      4.40292417495843
  O           6.15970120473469     -5.99112338535443      3.32609977191515
  C           4.09337331741400     -5.75575111773564      4.47923433962049
  C           2.05254811281872     -5.45896604337335      5.96886394392958
  C           4.45784230664167      1.42294912709652      4.99536539315116
  O           6.23811632623138     -0.16339539075133      5.47400392590075
  O           2.23948700304721      0.48270958246975      4.77857648277036
  C           1.63471527225063     -1.77077434327738      4.78106424170940
  O           3.43530831301738     -6.39608903793606      3.40122169617706
  O           2.57281369299957     -6.28677895794309      6.97199173797504
  C           3.07889947759777      1.52720900083772      4.31454862456722
  O           5.32410633803214      2.43069755135066      4.56279856380670
  O           1.01769374062094     -2.16449839354911      3.67725127555094
  O           1.36371469838709     -2.11447677893236      5.90099641069295
  C           2.96771172126778     -7.71100052517903      3.57721281329960
  O           3.28729049728097      1.45746801725787      2.94037980943413
  C          -0.17404309743609     -2.93110818473855      3.75261859062027
  C           3.51977038929350     -8.56511122182752      2.42246275466774
  O           1.56977008197168     -7.76616682646235      3.59873371788554
  C           2.44066891501215      2.18418424256879      2.05499800647190
  C          -1.20122662412741     -2.32846501233322      2.81411514845589
  O           4.91887065394833     -8.59424921690004      2.40300274410341
  C           2.95625495980667     -8.00198686307418      1.11051508767096
  C           0.91903673398419     -7.25082721123711      2.43943593116649
  C           3.20857731979427      2.13113818581186      0.72713289038991
  C           1.02097971971632      1.59679915836517      1.91786630469351
  C          -2.29579192118735     -3.29736994064818      2.38612947181755
  O          -0.73185416135148     -1.48331826223224      1.77415671481751
  O          -1.49452056380203     -0.98486174858434      2.97665023542066
  O           3.31641350259197     -8.79287375436214      0.00777913978204
  C           1.42406293976993     -7.92451816689875      1.14829826946676
  C          -0.57685356258221     -7.51061136005961      2.68675641826475
  C           2.37047074247045      2.67385585673118     -0.43809908741667
  O           4.39743792457590      2.85957821247681      0.88806093058897
  O           0.35689843809571      2.11814943515674      0.77024380365575
  C           0.10578212464951      1.97655157147580      3.09510402076124
  O          -1.63160759744474     -4.27859835330387      1.59955267742689
  O           1.09757579889979     -7.17869604947915     -0.01773060668574
  O          -0.86460438686178     -8.88182926616020      2.73090079915748
  C           1.02669780306881      1.92358064083987     -0.44551200691935
  O           3.05378982006120      2.54189775220534     -1.65281222098934
  O           0.10565612362679      3.35726356131290      3.33195636324828
  C          -1.70149921985001     -4.17817665331968      0.27243155235956
  C          -0.13225697977417     -7.36403942927984     -0.64548111556475
  O           1.29822887966567      0.56752543753292     -0.68773027992963
  C          -0.65787937229731     -5.09786200382772     -0.35590489673095
  O          -2.46322231623263     -3.47288700385301     -0.33032717933737
  C           0.11346590345956     -7.19433811650392     -2.15879727214899
  O          -1.10612871832265     -6.42997647423057     -0.21241725899612
  C           0.65635791432900     -0.06703757426715     -1.78059732939166
  C          -0.38797559791536     -4.73846485396140     -1.82073390265396
  O           1.03516652076196     -8.12534782397838     -2.64557896156301
  C           0.59809353034783     -5.75567023426590     -2.41396313768935
  C           1.69178068066577     -1.03921322565320     -2.35645194262382
  C          -0.61585910332526     -0.81566924499414     -1.35101167266067
  O           0.20788416029838     -3.45164838346283     -1.85203733927085
  O           0.74169405691452     -5.48677548857989     -3.78822770815516
  C           1.05934574399765     -1.90515831298896     -3.45518766556128
  O           2.76783575590213     -0.27816809366195     -2.84252212765912
  O          -1.10537039522307     -1.61806852666535     -2.41935162387457
  C          -1.75113338611864      0.14293795994980     -0.97328169622373
  C          -0.19473251867381     -2.57872136898565     -2.87638372223203
  O           2.00589174303415     -2.83145252254770     -3.91918745424710
  O          -2.06075855451032      1.03330895978446     -2.01075384376065
  C          -1.80464000379739     -0.73089001192609      6.00440625623966
  H          -0.77118315330300     -0.37988386384170      5.71954118255972
  C          -1.91279699595045     -0.66369712489994      7.52002736552634
  C          -3.04795249008310     -0.19548243935867      8.16460876901791
  C          -0.86904694473112     -1.17692424816581      8.27968218579703
  C          -3.13722441112935     -0.23432166273782      9.54592560894254
  C          -0.96006965694920     -1.22155398514093      9.65905466772524
  C          -2.09569160632107     -0.74963368831701     10.29674172595239
  H           5.40986737119133     -2.73866519758339      6.47260315300014
  H           6.37822874298042     -4.87932381546382      5.74163123077882
  H           3.91856738740090     -1.11521292922493      6.17579540357996
  H           6.80228679559744     -2.69841121010673      4.03559955681974
  H           4.93356244055604     -4.34841691285063      3.09396932010738
  H           2.71897554583543     -4.10255512368514      4.41592191485381
  H           5.27759385822758     -0.04736254445101      3.65004172199081
  H           2.87220528474722     -0.83142908351621      3.31326414333569
  H           7.03418041534676     -5.58721507786316      3.19584213577462
  H           4.44016700577728     -6.49770673591843      5.20958101079153
  H           1.48512382573873     -6.10347082143173      5.29465865225941
  H           1.38558754402646     -4.69257767801630      6.38231080763730
  H           4.32561145785426      1.55532025510267      6.07422161369218
  H           6.78528764768275      0.63722408947342      5.40502949190898
  H           3.01170986962250     -5.73069268884894      7.63271861936484
  H           2.56752666275359      2.45363912151781      4.60422177979053
  H           5.26412930105629      2.50988358486530      3.59539080323001
  H           3.28345821427437     -8.11541383275020      4.54694042626568
  H           0.03448626602083     -3.96611683981186      3.46712158940500
  H          -0.65405998510720     -2.86737329311589      4.75554156851219
  H           3.18776079247733     -9.60105208394391      2.54754405145177
  H           2.36015583099208      3.22517229744915      2.39710156263823
  H           5.27612805471036     -7.70368766718708      2.57824106719407
  H           3.33742051892975     -6.97618193284256      0.98352523889009
  H           1.10250499464335     -6.16924674590665      2.36403944159025
  H           3.43451078039283      1.07213903040777      0.52313900115125
  H           1.08006497437028      0.50218966149929      1.84341116599405
  H          -2.72288808323427     -3.77066052944236      3.27347503201958
  H          -3.06105226328977     -2.77903172634131      1.79677261209067
  H           4.24853089578951     -9.04624810943546      0.10913461177514
  H           1.00276363918719     -8.93593921868661      1.07751653299383
  H          -0.85541277743639     -7.01730633430315      3.62578107568054
  H          -1.17048275762188     -7.08542735177835      1.87746130101078
  H           2.18994616559555      3.74363138227144     -0.29310820518177
  H           4.77766129921322      3.01179085409092      0.00643862194428
  H          -0.90197401842386      1.60384693994322      2.87923631192434
  H           0.43941446080573      1.48816548963666      4.01081789393131
  H          -0.42430111204102     -9.26296597037354      3.50531396805019
  H           0.35389885063726      2.33561739895361     -1.20816621012422
  H           3.02316204021468      1.61332575749749     -1.95166447901446
  H          -0.36044085782962      3.79206872393660      2.60113584031887
  H          -0.56462891231591     -8.34640901778434     -0.41903300925782
  H           0.27556973642459     -4.95744671515438      0.20910731287522
  H          -0.82507315255591     -7.36449880631475     -2.69611401818281
  H           0.39520784902627      0.67578538335705     -2.54610541592321
  H          -1.32997854208724     -4.74263317640250     -2.38084589926429
  H           1.77696194714066     -8.20499970042358     -2.02164417890145
  H           1.56311589897554     -5.61826296743827     -1.90301763875305
  H           2.02572754357072     -1.70018390401985     -1.54249152735130
  H          -0.37961098296032     -1.44107852339599     -0.47877200746490
  H           1.12367542766100     -6.27571700760149     -4.21036696209423
  H           0.74921062130890     -1.25195467757545     -4.28514363932781
  H           3.34903843696324     -0.86634692094376     -3.35194496183695
  H          -1.44481408009147      0.73819216212734     -0.11121416551144
  H          -2.62105613113675     -0.46188713403768     -0.69331757991979
  H          -0.73019482652317     -3.12331825338429     -3.66429308795941
  H           1.61403646053113     -3.72313442613917     -3.96706785899274
  H          -2.41212105497694      0.51826385581764     -2.75339028614346
  O          -2.13433641944147     -1.94859226677995      5.53040904501623
  H          -3.85451631794420      0.21656697358530      7.57547647287780
  H           0.01129532377030     -1.54191998380285      7.76730728931799
  H          -4.02578659426911      0.13999878937328     10.03188914243045
  H          -0.13931019687646     -1.62374902690846     10.23412824570289
  H          -2.16593405914796     -0.78227473674576     11.37311956853392
  H          -3.47032621528653     -0.16517797693792      5.19570496163816
  O          -2.65221539489186      0.32152355949228      5.38572233629946
