22
Coordinates from ORCA-job job.QMRegion
  O          -1.72348193637932      1.06940177755026      2.57976792625034
  O           1.70192146882069     -2.08509144573638      3.03264440231082
  C           0.67119620172292     -1.59285239633116      3.89662488141076
  H           1.16606229131148     -0.97214738173477      4.64685962506174
  H           0.12053515989488     -2.43390471910162      4.34885204190646
  C          -1.02184199094621      0.39087137105176      3.62431816984396
  H          -1.74375729381034      0.02854293959496      4.36800117250452
  H          -0.31489107713219      1.08257052821158      4.10897254233511
  C          -0.29243725656526     -0.78780172550124      3.03045157644935
  O          -0.48178858772387     -1.15282273836002      1.87899105830877
  H          -1.29470335438795     -0.12215275641865      0.50773161869381
  O          -1.38457845105279      0.26314365887832     -0.38497920760596
  H           0.61907000677004      0.19310803642784     -0.35173656805958
  O           1.51959492976698      0.06638558394859     -0.00336563330745
  H           1.79600942141731      0.58801295894690      1.70019243007731
  O           1.87653642881279      0.59621348233445      2.68415029901533
  O           1.49902219856747      1.97833933146269      3.01462587599056
  H           2.24864239171462      2.19272870904105      3.59830572520629
  H          -1.97801064436798     -0.36718055989803     -0.82178184440913
  H           2.08760729144002      0.67938660648575     -0.50658111195254
  H          -1.60720857441724      2.00601904593104      2.49274697517694
  H           1.44636571337091     -2.82849154294628      2.50273869249600
