140
Coordinates from ORCA-job job
  C           0.50883806060555      4.75471611373062     -0.31017025260132
  C          -4.46476476622764      3.34317988017900      0.48660130980571
  C          -4.92430683135463     -1.68514147594503     -0.64721899803417
  C          -0.64521243365943     -4.74463194081593     -0.67242058251348
  C           4.35187662683728     -3.38309047427357      0.16478090225698
  C           4.83139757059240      1.75666939801039     -0.68772390182661
  O          -0.36301537782199      3.71686525151057      0.09806478598900
  O          -4.37946559314261      2.35703136845118     -0.49097010696989
  O          -3.52427246528000     -1.77182172807452     -0.81851945260853
  O           0.34109156222028     -3.79361520061821     -0.35573645812146
  O           4.15772362150398     -2.25952602009076     -0.63668071398120
  O           3.43142696193079      1.90305729549591     -0.84220647047329
  C           0.95763005578031      4.52503656380252     -1.76840081161032
  C          -4.02094172702632      4.65415323231466     -0.18524037996886
  C          -5.51349786692662     -0.89871976133435     -1.82926504838287
  C          -1.21094046897964     -4.41715887485049     -2.06660416542586
  C           3.99131950652201     -4.59038389792366     -0.72509023588584
  C           5.36009397779817      0.99309339892757     -1.91479557092334
  O          -0.11136893709232      4.45905032514615     -2.67016923001166
  O          -4.82218566962890      4.98686342947815     -1.28105344645955
  O          -5.22596256416866     -1.50231262565622     -3.06073220088684
  O          -0.21411961556653     -4.36952975803185     -3.05106137490483
  O           4.82158910337110     -4.66468666609977     -1.84879995004739
  O           5.03135827022784      1.64946577020923     -3.10947432853989
  C           1.71798241054034      3.19633672903651     -1.83097428221446
  C          -2.55578147137169      4.50483327714441     -0.63141291300953
  C          -4.96855310003126      0.53367117682449     -1.77764083312465
  C          -1.89447736390336     -3.04567461277498     -1.99153481517578
  C           2.52362196815976     -4.43208623406695     -1.15303318688509
  C           4.78170309185578     -0.42747448826720     -1.89256041363628
  O           2.25492903368273      2.94415668640269     -3.10661856792558
  O          -2.11075078534040      5.71330715807546     -1.20759300759709
  O          -5.58573787200888      1.34041643366736     -2.75042888899355
  O          -2.53304426583572     -2.70212094962634     -3.19626847027939
  O           2.08505457926325     -5.53931750283937     -1.90819554014318
  O           5.34310687576026     -1.22655721094897     -2.90529544672744
  C           2.88212110840568      3.21372499339359     -0.83747730566736
  C          -1.65222580478056      4.10131296581439      0.54658573847155
  C          -5.18781470127163      1.18973704398353     -0.40678040738169
  C          -2.95453156362660     -3.06729940708652     -0.88719989659779
  C           1.60800811100606     -4.26980006423819      0.06603788552655
  C           5.02362689836243     -1.13487669156057     -0.55220561175257
  C           2.39689181397924      3.61984088570062      0.56333038655897
  C          -2.27855223070114      2.85607745838532      1.19349180690248
  C          -4.79386742561383      0.25431668170585      0.75583474801805
  C          -2.31566835195310     -3.49243726659266      0.44568700852099
  C           2.16932081181427     -3.19513688794949      1.00690781551457
  C           4.68464523461498     -0.23637857749476      0.65088467594544
  O           1.63114162569511      4.82285132470422      0.51747798179480
  O          -3.61932234535452      3.08878644593606      1.59070294652727
  O          -5.26266127979641     -1.08164623767638      0.55954107548317
  O          -1.66488995391130     -4.75123276930297      0.28602704095398
  O           3.53421899792945     -3.37735441173081      1.31944789676125
  O           5.16174475067892      1.10330855290013      0.49574924275289
  C           3.57080142464983      3.89807218494906      1.51143453786390
  C          -1.56083024874325      2.37961055452614      2.45803665166658
  C          -5.43548242128895      0.66562097242472      2.09320938650661
  C          -3.36055525823551     -3.68580599962975      1.55109195200470
  C           1.34538216754573     -3.12224809580072      2.29334502246916
  C           5.33028191615087     -0.74138294818936      1.95174498812307
  O           4.46805718455414      4.83365167932576      0.97211030735359
  O          -1.72348193637932      1.06940177755026      2.57976792625034
  O          -6.82147724175937      0.84453032212271      1.97470001120848
  O          -4.32835567335254     -4.63511849055754      1.19063215780211
  O           1.70192146882069     -2.08509144573638      3.03264440231082
  O           6.71141619757340     -0.94770390330014      1.81213975299702
  H           0.01768073037510      5.72922394990577     -0.21428816523282
  H          -5.47641871869683      3.42710146958305      0.90327518683100
  H          -5.36927263566985     -2.68691744815925     -0.59859310890143
  H          -0.22969469612720     -5.75946658874325     -0.66059647907568
  H           5.38112311361884     -3.45562083399053      0.53619957577598
  H           5.31188022569502      2.74046638876158     -0.61805774364050
  H           1.63919455690507      5.34769482735453     -2.04068975243186
  H          -4.10493283169279      5.47636272307660      0.53238207979932
  H          -6.60471903403796     -0.87464087631439     -1.73842820324736
  H          -1.96165746944631     -5.18133066196887     -2.32504592880960
  H           4.12251032086683     -5.52128195391605     -0.16485339305760
  H           6.45302257932866      0.94410313079008     -1.87273643265153
  H          -0.79830661355271      5.08656851074737     -2.37571558570821
  H          -4.91826393137164      4.19699889672207     -1.83647645906934
  H          -4.28641846509771     -1.76095234239006     -3.08132857048711
  H           0.54982716868123     -4.90613828987973     -2.76437763729909
  H           4.87135239134427     -3.77999123239776     -2.24791193206123
  H           4.09208497511385      1.90941349264807     -3.08253220616659
  H           1.00617102120199      2.40320266069416     -1.55458621105178
  H          -2.50311992021208      3.69606698244603     -1.37803591599717
  H          -3.88184071250159      0.50100579957911     -1.95805113082432
  H          -1.12184280325444     -2.30197897172277     -1.74383087134758
  H           2.44077767256294     -3.51384341882927     -1.75562188207869
  H           3.69071451868430     -0.36100970023872     -2.03473025638655
  H           1.55454975360823      3.09794927273769     -3.75889764390400
  H          -2.85433853331748      6.06562622660072     -1.72680665923444
  H          -5.64088654808374      0.81641742043980     -3.56420877804544
  H          -1.91741936816161     -2.88325039690234     -3.92230301904774
  H           2.79462159628010     -5.76002478742566     -2.53421205653859
  H           5.37731208551804     -0.69126879556870     -3.71237621301217
  H           3.63157272475641      3.93317944443945     -1.19047288521228
  H          -1.57710165031187      4.91907541732003      1.27555928428502
  H          -6.24386075581839      1.47762694046307     -0.30301673825829
  H          -3.72496484309642     -3.80026881452233     -1.15919288171858
  H           1.50602677269761     -5.22442506004952      0.59638775554534
  H           6.06943316656614     -1.46592158878972     -0.49405649814843
  H           1.76628326008131      2.82168019334234      0.96583920423335
  H          -2.24048276638154      2.03779665059383      0.45933361972378
  H          -3.70244257694382      0.25035477204566      0.85857057356261
  H          -1.58312760959854     -2.73828608102607      0.75817304943852
  H           2.02676354957955     -2.21922735053095      0.51222348673488
  H           3.59817515491792     -0.24495379749984      0.77775408981746
  H           4.13825655851484      2.98033286235991      1.67410374911479
  H           3.15672595106579      4.25629824718904      2.45997426440259
  H          -5.20622655922270     -0.12264345626131      2.82002600469197
  H          -5.01749707935425      1.60786792412739      2.44439561095671
  H          -3.88951670836569     -2.74663066305991      1.72382194566481
  H          -2.83305101794647     -3.98609625274314      2.46530832183330
  H           5.12080382670095     -0.00500277212423      2.73551089672665
  H           4.88517427436024     -1.69545350301724      2.23737418585290
  H           3.98032794595716      5.65611140371814      0.82713714172680
  H          -7.20040762651027      0.00324170409068      1.68330078791423
  H          -3.86651341918499     -5.46618358471811      1.00848567395424
  H           7.11260468008138     -0.09620607669712      1.58683859187366
  C           0.67119620172292     -1.59285239633116      3.89662488141076
  H           1.16606229131148     -0.97214738173477      4.64685962506174
  H           0.12053515989488     -2.43390471910162      4.34885204190646
  O           0.45267335309927     -3.88056779854665      2.57257236350339
  C          -1.02184199094621      0.39087137105176      3.62431816984396
  H          -1.74375729381034      0.02854293959496      4.36800117250452
  H          -0.31489107713219      1.08257052821158      4.10897254233511
  O          -0.96700111936120      3.08120722067585      3.22718176477180
  C          -0.29243725656526     -0.78780172550124      3.03045157644935
  O          -0.48178858772387     -1.15282273836002      1.87899105830877
  H          -1.29470335438795     -0.12215275641865      0.50773161869381
  O          -1.38457845105279      0.26314365887832     -0.38497920760596
  H           0.61907000677004      0.19310803642784     -0.35173656805958
  O           1.51959492976698      0.06638558394859     -0.00336563330745
  H           1.79600942141731      0.58801295894690      1.70019243007731
  O           1.87653642881279      0.59621348233445      2.68415029901533
  O           1.49902219856747      1.97833933146269      3.01462587599056
  H           2.24864239171462      2.19272870904105      3.59830572520629
  H          -1.97801064436798     -0.36718055989803     -0.82178184440913
  H           2.08760729144002      0.67938660648575     -0.50658111195254
