139
* (null), Energy   -1000.0000000
C     0.575214    4.888582   -0.360733   -0.003370    0.005776   -0.001398
C    -4.379559    3.296498    0.432111   -0.004288    0.001408    0.001500
C    -4.974821   -1.770319   -0.553620    0.003024   -0.000354    0.001226
C    -0.698551   -4.831709   -0.672541   -0.009940   -0.000516   -0.003866
C     4.296517   -3.339255    0.069175   -0.071882    0.023316    0.057850
C     4.840438    1.810118   -0.503288   -0.011866   -0.004150    0.001390
O    -0.336542    3.835239   -0.166010    0.002070   -0.001724    0.015430
O    -4.313648    2.263319   -0.499374    0.003490   -0.002390    0.003718
O    -3.595261   -1.898423   -0.806357    0.004200    0.004554    0.000118
O     0.266115   -3.834930   -0.470407   -0.035832    0.020318   -0.043336
O     4.151834   -2.211779   -0.735153   -0.004934   -0.000702    0.013314
O     3.449048    1.977070   -0.688000   -0.021640   -0.014070    0.028404
C     1.186583    4.739836   -1.765468   -0.003736   -0.000896   -0.002108
C    -4.019937    4.595377   -0.317057   -0.000758   -0.000290   -0.000706
C    -5.613779   -0.983395   -1.710330    0.001244   -0.000704    0.001082
C    -1.350135   -4.600797   -2.047771   -0.011990   -0.008240   -0.005484
C     3.935348   -4.558063   -0.802370   -0.038250    0.014774    0.053570
C     5.433164    1.113072   -1.739891   -0.008562   -0.000930    0.002628
O     0.221235    4.771812   -2.783378   -0.004758   -0.005084   -0.001614
O    -4.889850    4.845309   -1.384452    0.000934   -0.000456   -0.002614
O    -5.432563   -1.614512   -2.948395    0.000332    0.001286   -0.000322
O    -0.417195   -4.594761   -3.095512   -0.006566   -0.007606   -0.001926
O     4.773369   -4.670919   -1.917628   -0.020518    0.014976    0.060622
O     5.229973    1.846318   -2.916241   -0.005292   -0.001370    0.002378
C     1.899149    3.382230   -1.810755   -0.004678   -0.003178   -0.003376
C    -2.568037    4.501324   -0.815129    0.000582   -0.000616    0.000864
C    -5.027920    0.434219   -1.718443    0.001020   -0.000702   -0.000044
C    -2.055354   -3.239838   -2.006782   -0.003464   -0.004132   -0.001618
C     2.467422   -4.427929   -1.237043   -0.027406    0.016392    0.036686
C     4.833282   -0.295345   -1.847680   -0.000596   -0.006556    0.002488
O     2.578381    3.166757   -3.022881    0.003392   -0.002744    0.001420
O    -2.163836    5.707203   -1.428256    0.000532    0.000024    0.001030
O    -5.689096    1.254660   -2.649327    0.002070    0.000182   -0.000144
O    -2.768778   -2.971642   -3.188786   -0.003548    0.004506    0.000154
O     2.042596   -5.561596   -1.963809   -0.021674    0.008816    0.038724
O     5.446779   -1.036385   -2.874153    0.003554   -0.001402    0.001094
C     2.926283    3.298741   -0.676360   -0.008986   -0.002712    0.001220
C    -1.613284    4.167504    0.342603   -0.001712    0.002790    0.004466
C    -5.135156    1.112073   -0.344753    0.002430   -0.001178    0.000180
C    -3.045212   -3.206619   -0.838885    0.004816    0.004822    0.004534
C     1.546578   -4.242522   -0.021087   -0.045448    0.089402    0.018838
C     5.002231   -1.085885   -0.542315    0.007456   -0.006132    0.005854
C     2.285009    3.635685    0.682814   -0.006272    0.011766    0.003018
C    -2.150573    2.920181    1.050741   -0.009666    0.002942    0.004534
C    -4.682576    0.181876    0.799624    0.001756   -0.002528    0.000492
C    -2.343871   -3.576630    0.479769    0.003878   -0.002478    0.004806
C     2.091365   -3.113619    0.858659   -0.100672    0.188926   -0.083764
C     4.611491   -0.257129    0.697175    0.009718   -0.003742    0.004274
O     1.583858    4.876092    0.608980   -0.003776    0.012360   -0.000330
O    -3.479774    3.110590    1.504770   -0.007220    0.006516    0.004772
O    -5.225234   -1.133765    0.661978   -0.002568   -0.000728    0.000008
O    -1.669987   -4.826584    0.335441   -0.016036   -0.012736   -0.009636
O     3.453545   -3.301958    1.203478   -0.130346    0.087304    0.021640
O     5.115116    1.081506    0.652210   -0.008762    0.002706    0.005336
C     3.344748    3.795340    1.781004   -0.001852    0.008162    0.004082
C    -1.311659    2.493148    2.252779   -0.003506   -0.021866   -0.011670
C    -5.181606    0.644180    2.179292    0.001682   -0.000452    0.000062
C    -3.345560   -3.757802    1.625190    0.003188    0.001078    0.002518
C     1.302815   -2.960001    2.160094   -0.392104    0.449810   -0.175886
C     5.187149   -0.840414    2.001043    0.003944   -0.000336    0.009224
O     4.276929    4.802374    1.476414    0.003790    0.002996   -0.003438
O    -1.723853    1.309943    2.666637    0.039758   -0.053010   -0.084660
O    -6.566335    0.875154    2.197290    0.000802   -0.002144   -0.000842
O    -4.290271   -4.761462    1.352974    0.002208   -0.000596    0.003852
O     1.751333   -1.905954    2.829647    0.069480   -0.003486    0.103822
O     6.562133   -1.113611    1.907511    0.002414   -0.008064    0.007362
H     0.083333    5.862813   -0.258972   -0.006748    0.004398   -0.010268
H    -5.373129    3.369937    0.892581   -0.006700    0.001998   -0.004066
H    -5.445516   -2.757174   -0.460164    0.006148   -0.001774   -0.000010
H    -0.248024   -5.831470   -0.630296    0.008990    0.009194    0.008682
H     5.314616   -3.431382    0.468195   -0.094802    0.016222    0.108844
H     5.326286    2.781573   -0.351578   -0.016672   -0.001812   -0.005620
H     1.918979    5.548641   -1.914746   -0.004110   -0.000660   -0.004496
H    -4.115747    5.440203    0.373143   -0.003038    0.001032   -0.002060
H    -6.695309   -0.925643   -1.547219    0.001428   -0.002344    0.003450
H    -2.097143   -5.392677   -2.215615   -0.011100   -0.007928   -0.007442
H     4.066147   -5.471677   -0.213649   -0.048486    0.017840    0.058342
H     6.518142    1.031625   -1.613026   -0.008660    0.002516    0.006866
H    -0.565618    5.256841   -2.476662    0.000412    0.009008   -0.006958
H    -5.029800    4.019518   -1.877135   -0.003084   -0.001590    0.000786
H    -4.517013   -1.944033   -3.028204   -0.003336   -0.010722    0.004560
H     0.397847   -5.055608   -2.820183   -0.001384    0.017044    0.013614
H     4.871742   -3.795354   -2.328622   -0.020220    0.016630    0.061960
H     4.309379    2.169471   -2.961193   -0.010084   -0.010826   -0.007966
H     1.125828    2.613670   -1.667935   -0.008970    0.000036   -0.019512
H    -2.504203    3.678148   -1.542913   -0.001090    0.000350   -0.000070
H    -3.958011    0.369011   -1.968645   -0.000276   -0.005170   -0.003076
H    -1.284864   -2.473019   -1.844752    0.007020   -0.015402   -0.003792
H     2.370454   -3.529812   -1.865172   -0.008100   -0.000784    0.008612
H     3.754521   -0.207613   -2.045454   -0.001090   -0.017310   -0.000478
H     1.979094    3.391045   -3.750926    0.008984   -0.008134   -0.003788
H    -2.929430    6.062614   -1.911125    0.001928   -0.000034    0.000352
H    -5.787271    0.756040   -3.476294   -0.005260   -0.002778    0.002816
H    -2.190484   -3.173072   -3.941322   -0.009990   -0.012036   -0.000574
H     2.780574   -5.843625   -2.530560   -0.008356    0.002312    0.060036
H     5.523497   -0.466374   -3.655646   -0.002898   -0.000452    0.001042
H     3.726438    4.020884   -0.879751   -0.005310   -0.009974   -0.006150
H    -1.546075    5.007146    1.045049   -0.007616    0.006508    0.000712
H    -6.175425    1.420771   -0.170212    0.002214   -0.002772    0.000868
H    -3.839869   -3.939119   -1.032564    0.003738    0.003292    0.012368
H     1.478237   -5.173236    0.554875   -0.036198    0.160038    0.123150
H     6.045018   -1.418776   -0.452141    0.005418   -0.011956    0.000286
H     1.580385    2.846793    0.970953   -0.025192    0.028366    0.006444
H    -2.114398    2.084676    0.334072   -0.022966    0.005074    0.001036
H    -3.587408    0.129224    0.812191    0.001392   -0.011810    0.004376
H    -1.624570   -2.796241    0.756186    0.023318   -0.029142    0.029614
H     1.972414   -2.174873    0.297863    0.067292    0.095090   -0.268810
H     3.519027   -0.239515    0.759685    0.010492   -0.020796   -0.006494
H     3.914499    2.868976    1.873642    0.004556    0.011246    0.004398
H     2.828322    4.007009    2.723170    0.003642    0.024848    0.006558
H    -4.905013   -0.131752    2.902038    0.005284    0.001730    0.001258
H    -4.697324    1.577788    2.461495   -0.002394    0.001760   -0.000180
H    -3.903040   -2.830711    1.767720    0.002538    0.000470    0.002672
H    -2.779140   -3.984222    2.535100    0.012222    0.006224   -0.001924
H     4.993166   -0.119370    2.802635    0.019668    0.005646    0.008258
H     4.691459   -1.781833    2.238582   -0.004560    0.004274    0.017294
H     3.810400    5.649908    1.452168    0.012502    0.007676   -0.004208
H    -7.018369    0.031402    2.051839    0.002078   -0.003240    0.004156
H    -3.817851   -5.603306    1.273900    0.006420    0.002212    0.004502
H     7.036905   -0.274311    1.822735    0.005322   -0.009062    0.008384
C     0.845180   -1.279672    3.734875    0.142388    0.134536    0.019776
H     1.430175   -0.711009    4.453011    0.178228   -0.033390    0.145522
H     0.217652   -2.023553    4.229768   -0.095300    0.249116   -0.145118
O     0.439200   -3.710566    2.540987   -0.022322    0.059162   -0.057830
C    -0.930232    0.592808    3.609554    0.083146   -0.127014   -0.159990
H    -1.621224    0.033538    4.238187    0.183176   -0.475458   -0.409606
H    -0.319218    1.284338    4.191547   -0.217714   -0.126962    0.073726
O    -0.408807    3.130190    2.734941    0.016412   -0.052358   -0.000628
C    -0.049538   -0.401823    2.807262    0.660960    0.415142   -0.194272
O    -0.587575   -1.035160    1.849287    0.456012   -0.323814   -0.044556
H    -1.127946   -0.295720    0.451292    0.117368   -0.209100   -0.002202
O    -1.286729    0.093532   -0.444212    0.094212   -0.057890    0.093020
H     0.451576    0.122742   -0.592750   -0.020802    0.029810    0.203140
O     1.376835    0.070851   -0.245053   -0.027778    0.056354    0.238526
H     1.194492    0.336685    1.013168   -0.405818   -0.366584   -0.394810
O     1.061568    0.631630    2.156132   -0.442708   -0.552432   -0.084040
H     1.923048    0.460634    2.568719   -0.262212   -0.394242   -0.239612
H     1.901029    0.813577   -0.596610   -0.016878    0.151926    0.362768
H    -1.901857   -0.518561   -0.863793    0.076032    0.011772    0.026710
139
* Frequency(6) -217.0100
C     0.574831    4.889238   -0.360892   -0.003370    0.005776   -0.001398
C    -4.380046    3.296658    0.432281   -0.004288    0.001408    0.001500
C    -4.974477   -1.770359   -0.553481    0.003024   -0.000354    0.001226
C    -0.699681   -4.831768   -0.672980   -0.009940   -0.000516   -0.003866
C     4.288348   -3.336605    0.075749   -0.071882    0.023316    0.057850
C     4.839089    1.809646   -0.503130   -0.011866   -0.004150    0.001390
O    -0.336307    3.835043   -0.164256    0.002070   -0.001724    0.015430
O    -4.313251    2.263047   -0.498951    0.003490   -0.002390    0.003718
O    -3.594784   -1.897905   -0.806344    0.004200    0.004554    0.000118
O     0.262043   -3.832621   -0.475332   -0.035832    0.020318   -0.043336
O     4.151273   -2.211859   -0.733640   -0.004934   -0.000702    0.013314
O     3.446589    1.975471   -0.684772   -0.021640   -0.014070    0.028404
C     1.186158    4.739734   -1.765708   -0.003736   -0.000896   -0.002108
C    -4.020023    4.595344   -0.317137   -0.000758   -0.000290   -0.000706
C    -5.613638   -0.983475   -1.710207    0.001244   -0.000704    0.001082
C    -1.351498   -4.601733   -2.048394   -0.011990   -0.008240   -0.005484
C     3.931001   -4.556384   -0.796282   -0.038250    0.014774    0.053570
C     5.432191    1.112966   -1.739592   -0.008562   -0.000930    0.002628
O     0.220694    4.771234   -2.783561   -0.004758   -0.005084   -0.001614
O    -4.889744    4.845257   -1.384749    0.000934   -0.000456   -0.002614
O    -5.432525   -1.614366   -2.948432    0.000332    0.001286   -0.000322
O    -0.417941   -4.595625   -3.095731   -0.006566   -0.007606   -0.001926
O     4.771037   -4.669217   -1.910739   -0.020518    0.014976    0.060622
O     5.229372    1.846162   -2.915971   -0.005292   -0.001370    0.002378
C     1.898617    3.381869   -1.811139   -0.004678   -0.003178   -0.003376
C    -2.567971    4.501254   -0.815031    0.000582   -0.000616    0.000864
C    -5.027804    0.434139   -1.718448    0.001020   -0.000702   -0.000044
C    -2.055748   -3.240308   -2.006966   -0.003464   -0.004132   -0.001618
C     2.464307   -4.426066   -1.232874   -0.027406    0.016392    0.036686
C     4.833214   -0.296090   -1.847397   -0.000596   -0.006556    0.002488
O     2.578766    3.166445   -3.022720    0.003392   -0.002744    0.001420
O    -2.163776    5.707206   -1.428139    0.000532    0.000024    0.001030
O    -5.688861    1.254681   -2.649343    0.002070    0.000182   -0.000144
O    -2.769181   -2.971130   -3.188768   -0.003548    0.004506    0.000154
O     2.040133   -5.560594   -1.959408   -0.021674    0.008816    0.038724
O     5.447183   -1.036544   -2.874029    0.003554   -0.001402    0.001094
C     2.925262    3.298433   -0.676221   -0.008986   -0.002712    0.001220
C    -1.613479    4.167821    0.343111   -0.001712    0.002790    0.004466
C    -5.134880    1.111939   -0.344733    0.002430   -0.001178    0.000180
C    -3.044665   -3.206071   -0.838370    0.004816    0.004822    0.004534
C     1.541413   -4.232362   -0.018946   -0.045448    0.089402    0.018838
C     5.003078   -1.086582   -0.541650    0.007456   -0.006132    0.005854
C     2.284296    3.637022    0.683157   -0.006272    0.011766    0.003018
C    -2.151671    2.920515    1.051256   -0.009666    0.002942    0.004534
C    -4.682376    0.181589    0.799680    0.001756   -0.002528    0.000492
C    -2.343430   -3.576912    0.480315    0.003878   -0.002478    0.004806
C     2.079924   -3.092149    0.849140   -0.100672    0.188926   -0.083764
C     4.612595   -0.257554    0.697661    0.009718   -0.003742    0.004274
O     1.583429    4.877497    0.608942   -0.003776    0.012360   -0.000330
O    -3.480595    3.111331    1.505312   -0.007220    0.006516    0.004772
O    -5.225526   -1.133848    0.661979   -0.002568   -0.000728    0.000008
O    -1.671809   -4.828031    0.334346   -0.016036   -0.012736   -0.009636
O     3.438732   -3.292036    1.205937   -0.130346    0.087304    0.021640
O     5.114120    1.081814    0.652816   -0.008762    0.002706    0.005336
C     3.344538    3.796268    1.781468   -0.001852    0.008162    0.004082
C    -1.312057    2.490663    2.251453   -0.003506   -0.021866   -0.011670
C    -5.181415    0.644129    2.179299    0.001682   -0.000452    0.000062
C    -3.345198   -3.757679    1.625476    0.003188    0.001078    0.002518
C     1.258254   -2.908882    2.140105   -0.392104    0.449810   -0.175886
C     5.187597   -0.840452    2.002091    0.003944   -0.000336    0.009224
O     4.277360    4.802714    1.476023    0.003790    0.002996   -0.003438
O    -1.719335    1.303919    2.657016    0.039758   -0.053010   -0.084660
O    -6.566244    0.874910    2.197194    0.000802   -0.002144   -0.000842
O    -4.290020   -4.761530    1.353412    0.002208   -0.000596    0.003852
O     1.759229   -1.906350    2.841446    0.069480   -0.003486    0.103822
O     6.562407   -1.114527    1.908348    0.002414   -0.008064    0.007362
H     0.082566    5.863313   -0.260139   -0.006748    0.004398   -0.010268
H    -5.373890    3.370164    0.892119   -0.006700    0.001998   -0.004066
H    -5.444817   -2.757376   -0.460165    0.006148   -0.001774   -0.000010
H    -0.247002   -5.830425   -0.629309    0.008990    0.009194    0.008682
H     5.303842   -3.429538    0.480565   -0.094802    0.016222    0.108844
H     5.324391    2.781367   -0.352217   -0.016672   -0.001812   -0.005620
H     1.918512    5.548566   -1.915257   -0.004110   -0.000660   -0.004496
H    -4.116092    5.440320    0.372909   -0.003038    0.001032   -0.002060
H    -6.695147   -0.925909   -1.546827    0.001428   -0.002344    0.003450
H    -2.098404   -5.393578   -2.216461   -0.011100   -0.007928   -0.007442
H     4.060637   -5.469650   -0.207019   -0.048486    0.017840    0.058342
H     6.517158    1.031911   -1.612246   -0.008660    0.002516    0.006866
H    -0.565571    5.257865   -2.477453    0.000412    0.009008   -0.006958
H    -5.030150    4.019337   -1.877046   -0.003084   -0.001590    0.000786
H    -4.517392   -1.945251   -3.027686   -0.003336   -0.010722    0.004560
H     0.397690   -5.053671   -2.818636   -0.001384    0.017044    0.013614
H     4.869444   -3.793464   -2.321581   -0.020220    0.016630    0.061960
H     4.308233    2.168241   -2.962098   -0.010084   -0.010826   -0.007966
H     1.124809    2.613674   -1.670152   -0.008970    0.000036   -0.019512
H    -2.504327    3.678188   -1.542921   -0.001090    0.000350   -0.000070
H    -3.958042    0.368423   -1.968995   -0.000276   -0.005170   -0.003076
H    -1.284066   -2.474769   -1.845183    0.007020   -0.015402   -0.003792
H     2.369533   -3.529901   -1.864193   -0.008100   -0.000784    0.008612
H     3.754397   -0.209580   -2.045508   -0.001090   -0.017310   -0.000478
H     1.980115    3.390121   -3.751356    0.008984   -0.008134   -0.003788
H    -2.929211    6.062610   -1.911085    0.001928   -0.000034    0.000352
H    -5.787869    0.755724   -3.475974   -0.005260   -0.002778    0.002816
H    -2.191619   -3.174440   -3.941387   -0.009990   -0.012036   -0.000574
H     2.779624   -5.843362   -2.523737   -0.008356    0.002312    0.060036
H     5.523168   -0.466425   -3.655528   -0.002898   -0.000452    0.001042
H     3.725835    4.019751   -0.880450   -0.005310   -0.009974   -0.006150
H    -1.546941    5.007886    1.045130   -0.007616    0.006508    0.000712
H    -6.175173    1.420456   -0.170113    0.002214   -0.002772    0.000868
H    -3.839444   -3.938745   -1.031158    0.003738    0.003292    0.012368
H     1.474123   -5.155049    0.568870   -0.036198    0.160038    0.123150
H     6.045634   -1.420135   -0.452108    0.005418   -0.011956    0.000286
H     1.577522    2.850017    0.971685   -0.025192    0.028366    0.006444
H    -2.117008    2.085253    0.334190   -0.022966    0.005074    0.001036
H    -3.587250    0.127882    0.812688    0.001392   -0.011810    0.004376
H    -1.621920   -2.799553    0.759551    0.023318   -0.029142    0.029614
H     1.980061   -2.164067    0.267314    0.067292    0.095090   -0.268810
H     3.520219   -0.241878    0.758947    0.010492   -0.020796   -0.006494
H     3.915017    2.870254    1.874142    0.004556    0.011246    0.004398
H     2.828736    4.009833    2.723915    0.003642    0.024848    0.006558
H    -4.904413   -0.131555    2.902181    0.005284    0.001730    0.001258
H    -4.697596    1.577988    2.461475   -0.002394    0.001760   -0.000180
H    -3.902752   -2.830658    1.768024    0.002538    0.000470    0.002672
H    -2.777751   -3.983515    2.534881    0.012222    0.006224   -0.001924
H     4.995401   -0.118728    2.803573    0.019668    0.005646    0.008258
H     4.690941   -1.781347    2.240547   -0.004560    0.004274    0.017294
H     3.811821    5.650780    1.451690    0.012502    0.007676   -0.004208
H    -7.018133    0.031034    2.052311    0.002078   -0.003240    0.004156
H    -3.817121   -5.603055    1.274412    0.006420    0.002212    0.004502
H     7.037510   -0.275341    1.823688    0.005322   -0.009062    0.008384
C     0.861362   -1.264383    3.737122    0.142388    0.134536    0.019776
H     1.450430   -0.714804    4.469549    0.178228   -0.033390    0.145522
H     0.206822   -1.995242    4.213276   -0.095300    0.249116   -0.145118
O     0.436663   -3.703843    2.534415   -0.022322    0.059162   -0.057830
C    -0.920783    0.578374    3.591372    0.083146   -0.127014   -0.159990
H    -1.600407   -0.020495    4.191637    0.183176   -0.475458   -0.409606
H    -0.343960    1.269909    4.199926   -0.217714   -0.126962    0.073726
O    -0.406942    3.124240    2.734870    0.016412   -0.052358   -0.000628
C     0.025577   -0.354644    2.785184    0.660960    0.415142   -0.194272
O    -0.535752   -1.071960    1.844223    0.456012   -0.323814   -0.044556
H    -1.114608   -0.319483    0.451042    0.117368   -0.209100   -0.002202
O    -1.276022    0.086953   -0.433641    0.094212   -0.057890    0.093020
H     0.449212    0.126130   -0.569664   -0.020802    0.029810    0.203140
O     1.373678    0.077255   -0.217946   -0.027778    0.056354    0.238526
H     1.148373    0.295025    0.968300   -0.405818   -0.366584   -0.394810
O     1.011257    0.568849    2.146581   -0.442708   -0.552432   -0.084040
H     1.893249    0.415830    2.541488   -0.262212   -0.394242   -0.239612
H     1.899111    0.830843   -0.555383   -0.016878    0.151926    0.362768
H    -1.893216   -0.517223   -0.860758    0.076032    0.011772    0.026710
139
* Frequency(6) -217.0100
C     0.574490    4.889824   -0.361034   -0.003370    0.005776   -0.001398
C    -4.380481    3.296801    0.432433   -0.004288    0.001408    0.001500
C    -4.974171   -1.770395   -0.553356    0.003024   -0.000354    0.001226
C    -0.700688   -4.831820   -0.673372   -0.009940   -0.000516   -0.003866
C     4.281064   -3.334243    0.081611   -0.071882    0.023316    0.057850
C     4.837887    1.809226   -0.502989   -0.011866   -0.004150    0.001390
O    -0.336097    3.834868   -0.162693    0.002070   -0.001724    0.015430
O    -4.312898    2.262805   -0.498575    0.003490   -0.002390    0.003718
O    -3.594358   -1.897444   -0.806332    0.004200    0.004554    0.000118
O     0.258412   -3.830562   -0.479723   -0.035832    0.020318   -0.043336
O     4.150773   -2.211930   -0.732291   -0.004934   -0.000702    0.013314
O     3.444396    1.974045   -0.681894   -0.021640   -0.014070    0.028404
C     1.185780    4.739643   -1.765921   -0.003736   -0.000896   -0.002108
C    -4.020100    4.595315   -0.317209   -0.000758   -0.000290   -0.000706
C    -5.613512   -0.983546   -1.710097    0.001244   -0.000704    0.001082
C    -1.352713   -4.602568   -2.048950   -0.011990   -0.008240   -0.005484
C     3.927125   -4.554887   -0.790854   -0.038250    0.014774    0.053570
C     5.431323    1.112872   -1.739326   -0.008562   -0.000930    0.002628
O     0.220212    4.770719   -2.783725   -0.004758   -0.005084   -0.001614
O    -4.889649    4.845211   -1.385014    0.000934   -0.000456   -0.002614
O    -5.432492   -1.614236   -2.948464    0.000332    0.001286   -0.000322
O    -0.418607   -4.596396   -3.095926   -0.006566   -0.007606   -0.001926
O     4.768958   -4.667700   -1.904596   -0.020518    0.014976    0.060622
O     5.228835    1.846023   -2.915730   -0.005292   -0.001370    0.002378
C     1.898143    3.381547   -1.811481   -0.004678   -0.003178   -0.003376
C    -2.567912    4.501192   -0.814943    0.000582   -0.000616    0.000864
C    -5.027701    0.434068   -1.718452    0.001020   -0.000702   -0.000044
C    -2.056099   -3.240726   -2.007130   -0.003464   -0.004132   -0.001618
C     2.461530   -4.424405   -1.229156   -0.027406    0.016392    0.036686
C     4.833154   -0.296754   -1.847145   -0.000596   -0.006556    0.002488
O     2.579110    3.166167   -3.022576    0.003392   -0.002744    0.001420
O    -2.163722    5.707208   -1.428035    0.000532    0.000024    0.001030
O    -5.688651    1.254699   -2.649358    0.002070    0.000182   -0.000144
O    -2.769541   -2.970673   -3.188753   -0.003548    0.004506    0.000154
O     2.037937   -5.559701   -1.955484   -0.021674    0.008816    0.038724
O     5.447543   -1.036686   -2.873918    0.003554   -0.001402    0.001094
C     2.924351    3.298158   -0.676098   -0.008986   -0.002712    0.001220
C    -1.613652    4.168104    0.343563   -0.001712    0.002790    0.004466
C    -5.134634    1.111820   -0.344714    0.002430   -0.001178    0.000180
C    -3.044177   -3.205582   -0.837910    0.004816    0.004822    0.004534
C     1.536808   -4.223303   -0.017037   -0.045448    0.089402    0.018838
C     5.003834   -1.087203   -0.541057    0.007456   -0.006132    0.005854
C     2.283661    3.638214    0.683463   -0.006272    0.011766    0.003018
C    -2.152651    2.920813    1.051716   -0.009666    0.002942    0.004534
C    -4.682199    0.181333    0.799730    0.001756   -0.002528    0.000492
C    -2.343037   -3.577163    0.480802    0.003878   -0.002478    0.004806
C     2.069723   -3.073005    0.840652   -0.100672    0.188926   -0.083764
C     4.613580   -0.257933    0.698094    0.009718   -0.003742    0.004274
O     1.583046    4.878749    0.608909   -0.003776    0.012360   -0.000330
O    -3.481326    3.111991    1.505796   -0.007220    0.006516    0.004772
O    -5.225786   -1.133922    0.661980   -0.002568   -0.000728    0.000008
O    -1.673434   -4.829322    0.333370   -0.016036   -0.012736   -0.009636
O     3.425524   -3.283190    1.208130   -0.130346    0.087304    0.021640
O     5.113232    1.082088    0.653357   -0.008762    0.002706    0.005336
C     3.344350    3.797095    1.781882   -0.001852    0.008162    0.004082
C    -1.312413    2.488447    2.250270   -0.003506   -0.021866   -0.011670
C    -5.181244    0.644083    2.179305    0.001682   -0.000452    0.000062
C    -3.344875   -3.757570    1.625731    0.003188    0.001078    0.002518
C     1.218523   -2.863303    2.122283   -0.392104    0.449810   -0.175886
C     5.187997   -0.840486    2.003026    0.003944   -0.000336    0.009224
O     4.277744    4.803018    1.475675    0.003790    0.002996   -0.003438
O    -1.715306    1.298547    2.648437    0.039758   -0.053010   -0.084660
O    -6.566163    0.874693    2.197109    0.000802   -0.002144   -0.000842
O    -4.289796   -4.761590    1.353802    0.002208   -0.000596    0.003852
O     1.766269   -1.906703    2.851966    0.069480   -0.003486    0.103822
O     6.562652   -1.115345    1.909094    0.002414   -0.008064    0.007362
H     0.081882    5.863758   -0.261179   -0.006748    0.004398   -0.010268
H    -5.374569    3.370367    0.891707   -0.006700    0.001998   -0.004066
H    -5.444194   -2.757555   -0.460166    0.006148   -0.001774   -0.000010
H    -0.246091   -5.829494   -0.628430    0.008990    0.009194    0.008682
H     5.294236   -3.427895    0.491594   -0.094802    0.016222    0.108844
H     5.322702    2.781183   -0.352786   -0.016672   -0.001812   -0.005620
H     1.918095    5.548499   -1.915713   -0.004110   -0.000660   -0.004496
H    -4.116400    5.440425    0.372700   -0.003038    0.001032   -0.002060
H    -6.695002   -0.926147   -1.546477    0.001428   -0.002344    0.003450
H    -2.099529   -5.394381   -2.217215   -0.011100   -0.007928   -0.007442
H     4.055724   -5.467842   -0.201107   -0.048486    0.017840    0.058342
H     6.516280    1.032166   -1.611550   -0.008660    0.002516    0.006866
H    -0.565529    5.258777   -2.478158    0.000412    0.009008   -0.006958
H    -5.030463    4.019176   -1.876966   -0.003084   -0.001590    0.000786
H    -4.517730   -1.946338   -3.027224   -0.003336   -0.010722    0.004560
H     0.397549   -5.051944   -2.817256   -0.001384    0.017044    0.013614
H     4.867395   -3.791779   -2.315302   -0.020220    0.016630    0.061960
H     4.307211    2.167144   -2.962905   -0.010084   -0.010826   -0.007966
H     1.123900    2.613678   -1.672130   -0.008970    0.000036   -0.019512
H    -2.504437    3.678223   -1.542928   -0.001090    0.000350   -0.000070
H    -3.958070    0.367900   -1.969306   -0.000276   -0.005170   -0.003076
H    -1.283355   -2.476330   -1.845567    0.007020   -0.015402   -0.003792
H     2.368713   -3.529981   -1.863321   -0.008100   -0.000784    0.008612
H     3.754287   -0.211334   -2.045557   -0.001090   -0.017310   -0.000478
H     1.981025    3.389296   -3.751740    0.008984   -0.008134   -0.003788
H    -2.929016    6.062607   -1.911049    0.001928   -0.000034    0.000352
H    -5.788402    0.755443   -3.475689   -0.005260   -0.002778    0.002816
H    -2.192632   -3.175659   -3.941445   -0.009990   -0.012036   -0.000574
H     2.778778   -5.843128   -2.517654   -0.008356    0.002312    0.060036
H     5.522874   -0.466471   -3.655422   -0.002898   -0.000452    0.001042
H     3.725296    4.018740   -0.881073   -0.005310   -0.009974   -0.006150
H    -1.547712    5.008545    1.045202   -0.007616    0.006508    0.000712
H    -6.174949    1.420175   -0.170025    0.002214   -0.002772    0.000868
H    -3.839065   -3.938411   -1.029905    0.003738    0.003292    0.012368
H     1.470455   -5.138832    0.581349   -0.036198    0.160038    0.123150
H     6.046183   -1.421346   -0.452080    0.005418   -0.011956    0.000286
H     1.574969    2.852891    0.972338   -0.025192    0.028366    0.006444
H    -2.119335    2.085767    0.334295   -0.022966    0.005074    0.001036
H    -3.587109    0.126685    0.813132    0.001392   -0.011810    0.004376
H    -1.619557   -2.802506    0.762552    0.023318   -0.029142    0.029614
H     1.986880   -2.154431    0.240076    0.067292    0.095090   -0.268810
H     3.521283   -0.243986    0.758289    0.010492   -0.020796   -0.006494
H     3.915478    2.871394    1.874587    0.004556    0.011246    0.004398
H     2.829105    4.012351    2.724580    0.003642    0.024848    0.006558
H    -4.903877   -0.131380    2.902308    0.005284    0.001730    0.001258
H    -4.697839    1.578166    2.461456   -0.002394    0.001760   -0.000180
H    -3.902494   -2.830610    1.768294    0.002538    0.000470    0.002672
H    -2.776513   -3.982884    2.534686    0.012222    0.006224   -0.001924
H     4.997394   -0.118156    2.804410    0.019668    0.005646    0.008258
H     4.690479   -1.780914    2.242300   -0.004560    0.004274    0.017294
H     3.813088    5.651558    1.451263    0.012502    0.007676   -0.004208
H    -7.017922    0.030705    2.052732    0.002078   -0.003240    0.004156
H    -3.816471   -5.602830    1.274868    0.006420    0.002212    0.004502
H     7.038049   -0.276259    1.824537    0.005322   -0.009062    0.008384
C     0.875790   -1.250750    3.739126    0.142388    0.134536    0.019776
H     1.468489   -0.718187    4.484295    0.178228   -0.033390    0.145522
H     0.197165   -1.969999    4.198571   -0.095300    0.249116   -0.145118
O     0.434401   -3.697848    2.528555   -0.022322    0.059162   -0.057830
C    -0.912358    0.565503    3.575160    0.083146   -0.127014   -0.159990
H    -1.581846   -0.068673    4.150132    0.183176   -0.475458   -0.409606
H    -0.366021    1.257044    4.207396   -0.217714   -0.126962    0.073726
O    -0.405279    3.118934    2.734806    0.016412   -0.052358   -0.000628
C     0.092552   -0.312578    2.765498    0.660960    0.415142   -0.194272
O    -0.489544   -1.104772    1.839709    0.456012   -0.323814   -0.044556
H    -1.102715   -0.340671    0.450819    0.117368   -0.209100   -0.002202
O    -1.266476    0.081087   -0.424215    0.094212   -0.057890    0.093020
H     0.447104    0.129150   -0.549080   -0.020802    0.029810    0.203140
O     1.370863    0.082966   -0.193776   -0.027778    0.056354    0.238526
H     1.107251    0.257879    0.928294   -0.405818   -0.366584   -0.394810
O     0.966397    0.512871    2.138066   -0.442708   -0.552432   -0.084040
H     1.866679    0.375882    2.517209   -0.262212   -0.394242   -0.239612
H     1.897401    0.846237   -0.518624   -0.016878    0.151926    0.362768
H    -1.885512   -0.516030   -0.858051    0.076032    0.011772    0.026710
139
* Frequency(6) -217.0100
C     0.574227    4.890274   -0.361143   -0.003370    0.005776   -0.001398
C    -4.380815    3.296911    0.432551   -0.004288    0.001408    0.001500
C    -4.973935   -1.770423   -0.553261    0.003024   -0.000354    0.001226
C    -0.701464   -4.831860   -0.673674   -0.009940   -0.000516   -0.003866
C     4.275455   -3.332423    0.086126   -0.071882    0.023316    0.057850
C     4.836961    1.808902   -0.502881   -0.011866   -0.004150    0.001390
O    -0.335935    3.834734   -0.161489    0.002070   -0.001724    0.015430
O    -4.312625    2.262619   -0.498285    0.003490   -0.002390    0.003718
O    -3.594030   -1.897089   -0.806322    0.004200    0.004554    0.000118
O     0.255616   -3.828977   -0.483105   -0.035832    0.020318   -0.043336
O     4.150388   -2.211985   -0.731252   -0.004934   -0.000702    0.013314
O     3.442707    1.972947   -0.679677   -0.021640   -0.014070    0.028404
C     1.185488    4.739573   -1.766086   -0.003736   -0.000896   -0.002108
C    -4.020159    4.595292   -0.317264   -0.000758   -0.000290   -0.000706
C    -5.613414   -0.983601   -1.710013    0.001244   -0.000704    0.001082
C    -1.353648   -4.603211   -2.049378   -0.011990   -0.008240   -0.005484
C     3.924140   -4.553734   -0.786674   -0.038250    0.014774    0.053570
C     5.430655    1.112800   -1.739121   -0.008562   -0.000930    0.002628
O     0.219841    4.770322   -2.783851   -0.004758   -0.005084   -0.001614
O    -4.889576    4.845175   -1.385218    0.000934   -0.000456   -0.002614
O    -5.432466   -1.614135   -2.948489    0.000332    0.001286   -0.000322
O    -0.419119   -4.596990   -3.096076   -0.006566   -0.007606   -0.001926
O     4.767357   -4.666531   -1.899865   -0.020518    0.014976    0.060622
O     5.228422    1.845917   -2.915544   -0.005292   -0.001370    0.002378
C     1.897778    3.381299   -1.811744   -0.004678   -0.003178   -0.003376
C    -2.567866    4.501144   -0.814876    0.000582   -0.000616    0.000864
C    -5.027621    0.434013   -1.718456    0.001020   -0.000702   -0.000044
C    -2.056369   -3.241049   -2.007256   -0.003464   -0.004132   -0.001618
C     2.459392   -4.423126   -1.226294   -0.027406    0.016392    0.036686
C     4.833107   -0.297266   -1.846951   -0.000596   -0.006556    0.002488
O     2.579375    3.165953   -3.022465    0.003392   -0.002744    0.001420
O    -2.163680    5.707210   -1.427954    0.000532    0.000024    0.001030
O    -5.688489    1.254713   -2.649369    0.002070    0.000182   -0.000144
O    -2.769818   -2.970322   -3.188741   -0.003548    0.004506    0.000154
O     2.036245   -5.559013   -1.952463   -0.021674    0.008816    0.038724
O     5.447820   -1.036796   -2.873832    0.003554   -0.001402    0.001094
C     2.923650    3.297946   -0.676003   -0.008986   -0.002712    0.001220
C    -1.613786    4.168321    0.343912   -0.001712    0.002790    0.004466
C    -5.134444    1.111728   -0.344700    0.002430   -0.001178    0.000180
C    -3.043801   -3.205206   -0.837557    0.004816    0.004822    0.004534
C     1.533261   -4.216326   -0.015567   -0.045448    0.089402    0.018838
C     5.004416   -1.087682   -0.540600    0.007456   -0.006132    0.005854
C     2.283171    3.639133    0.683698   -0.006272    0.011766    0.003018
C    -2.153405    2.921043    1.052069   -0.009666    0.002942    0.004534
C    -4.682061    0.181135    0.799768    0.001756   -0.002528    0.000492
C    -2.342735   -3.577356    0.481177    0.003878   -0.002478    0.004806
C     2.061867   -3.058262    0.834115   -0.100672    0.188926   -0.083764
C     4.614338   -0.258225    0.698427    0.009718   -0.003742    0.004274
O     1.582752    4.879714    0.608883   -0.003776    0.012360   -0.000330
O    -3.481890    3.112499    1.506168   -0.007220    0.006516    0.004772
O    -5.225986   -1.133978    0.661980   -0.002568   -0.000728    0.000008
O    -1.674686   -4.830316    0.332618   -0.016036   -0.012736   -0.009636
O     3.415353   -3.276377    1.209819   -0.130346    0.087304    0.021640
O     5.112549    1.082299    0.653773   -0.008762    0.002706    0.005336
C     3.344205    3.797732    1.782200   -0.001852    0.008162    0.004082
C    -1.312686    2.486741    2.249360   -0.003506   -0.021866   -0.011670
C    -5.181113    0.644048    2.179310    0.001682   -0.000452    0.000062
C    -3.344626   -3.757486    1.625928    0.003188    0.001078    0.002518
C     1.187925   -2.828203    2.108558   -0.392104    0.449810   -0.175886
C     5.188305   -0.840512    2.003746    0.003944   -0.000336    0.009224
O     4.278040    4.803252    1.475407    0.003790    0.002996   -0.003438
O    -1.712204    1.294411    2.641831    0.039758   -0.053010   -0.084660
O    -6.566100    0.874526    2.197043    0.000802   -0.002144   -0.000842
O    -4.289624   -4.761637    1.354103    0.002208   -0.000596    0.003852
O     1.771691   -1.906975    2.860068    0.069480   -0.003486    0.103822
O     6.562840   -1.115974    1.909668    0.002414   -0.008064    0.007362
H     0.081356    5.864102   -0.261981   -0.006748    0.004398   -0.010268
H    -5.375092    3.370522    0.891390   -0.006700    0.001998   -0.004066
H    -5.443715   -2.757694   -0.460167    0.006148   -0.001774   -0.000010
H    -0.245390   -5.828776   -0.627752    0.008990    0.009194    0.008682
H     5.286838   -3.426629    0.500087   -0.094802    0.016222    0.108844
H     5.321401    2.781042   -0.353225   -0.016672   -0.001812   -0.005620
H     1.917775    5.548448   -1.916063   -0.004110   -0.000660   -0.004496
H    -4.116637    5.440505    0.372539   -0.003038    0.001032   -0.002060
H    -6.694891   -0.926330   -1.546208    0.001428   -0.002344    0.003450
H    -2.100395   -5.395000   -2.217796   -0.011100   -0.007928   -0.007442
H     4.051940   -5.466450   -0.196554   -0.048486    0.017840    0.058342
H     6.515605    1.032362   -1.611014   -0.008660    0.002516    0.006866
H    -0.565497    5.259480   -2.478701    0.000412    0.009008   -0.006958
H    -5.030704    4.019052   -1.876905   -0.003084   -0.001590    0.000786
H    -4.517990   -1.947175   -3.026868   -0.003336   -0.010722    0.004560
H     0.397441   -5.050614   -2.816194   -0.001384    0.017044    0.013614
H     4.865817   -3.790481   -2.310467   -0.020220    0.016630    0.061960
H     4.306424    2.166299   -2.963527   -0.010084   -0.010826   -0.007966
H     1.123200    2.613681   -1.673652   -0.008970    0.000036   -0.019512
H    -2.504522    3.678251   -1.542934   -0.001090    0.000350   -0.000070
H    -3.958092    0.367496   -1.969546   -0.000276   -0.005170   -0.003076
H    -1.282807   -2.477532   -1.845863    0.007020   -0.015402   -0.003792
H     2.368081   -3.530042   -1.862649   -0.008100   -0.000784    0.008612
H     3.754202   -0.212685   -2.045594   -0.001090   -0.017310   -0.000478
H     1.981726    3.388662   -3.752036    0.008984   -0.008134   -0.003788
H    -2.928865    6.062604   -1.911022    0.001928   -0.000034    0.000352
H    -5.788812    0.755226   -3.475469   -0.005260   -0.002778    0.002816
H    -2.193411   -3.176599   -3.941490   -0.009990   -0.012036   -0.000574
H     2.778126   -5.842948   -2.512969   -0.008356    0.002312    0.060036
H     5.522648   -0.466506   -3.655341   -0.002898   -0.000452    0.001042
H     3.724882    4.017962   -0.881553   -0.005310   -0.009974   -0.006150
H    -1.548307    5.009053    1.045258   -0.007616    0.006508    0.000712
H    -6.174776    1.419959   -0.169958    0.002214   -0.002772    0.000868
H    -3.838774   -3.938154   -1.028940    0.003738    0.003292    0.012368
H     1.467631   -5.126344    0.590959   -0.036198    0.160038    0.123150
H     6.046606   -1.422279   -0.452057    0.005418   -0.011956    0.000286
H     1.573004    2.855104    0.972841   -0.025192    0.028366    0.006444
H    -2.121127    2.086163    0.334376   -0.022966    0.005074    0.001036
H    -3.587000    0.125764    0.813473    0.001392   -0.011810    0.004376
H    -1.617738   -2.804780    0.764863    0.023318   -0.029142    0.029614
H     1.992131   -2.147011    0.219099    0.067292    0.095090   -0.268810
H     3.522101   -0.245608    0.757782    0.010492   -0.020796   -0.006494
H     3.915834    2.872271    1.874931    0.004556    0.011246    0.004398
H     2.829389    4.014290    2.725092    0.003642    0.024848    0.006558
H    -4.903465   -0.131245    2.902407    0.005284    0.001730    0.001258
H    -4.698025    1.578304    2.461442   -0.002394    0.001760   -0.000180
H    -3.902296   -2.830573    1.768503    0.002538    0.000470    0.002672
H    -2.775559   -3.982398    2.534536    0.012222    0.006224   -0.001924
H     4.998929   -0.117716    2.805055    0.019668    0.005646    0.008258
H     4.690123   -1.780581    2.243649   -0.004560    0.004274    0.017294
H     3.814063    5.652157    1.450935    0.012502    0.007676   -0.004208
H    -7.017760    0.030453    2.053057    0.002078   -0.003240    0.004156
H    -3.815970   -5.602658    1.275219    0.006420    0.002212    0.004502
H     7.038464   -0.276966    1.825192    0.005322   -0.009062    0.008384
C     0.886901   -1.240252    3.740670    0.142388    0.134536    0.019776
H     1.482397   -0.720793    4.495650    0.178228   -0.033390    0.145522
H     0.189728   -1.950560    4.187247   -0.095300    0.249116   -0.145118
O     0.432659   -3.693231    2.524042   -0.022322    0.059162   -0.057830
C    -0.905870    0.555592    3.562676    0.083146   -0.127014   -0.159990
H    -1.567552   -0.105775    4.118169    0.183176   -0.475458   -0.409606
H    -0.383010    1.247137    4.213149   -0.217714   -0.126962    0.073726
O    -0.403998    3.114849    2.734757    0.016412   -0.052358   -0.000628
C     0.144129   -0.280183    2.750339    0.660960    0.415142   -0.194272
O    -0.453960   -1.130040    1.836232    0.456012   -0.323814   -0.044556
H    -1.093556   -0.356988    0.450647    0.117368   -0.209100   -0.002202
O    -1.259124    0.076570   -0.416956    0.094212   -0.057890    0.093020
H     0.445481    0.131477   -0.533228   -0.020802    0.029810    0.203140
O     1.368696    0.087363   -0.175163   -0.027778    0.056354    0.238526
H     1.075584    0.229273    0.897485   -0.405818   -0.366584   -0.394810
O     0.931851    0.469763    2.131508   -0.442708   -0.552432   -0.084040
H     1.846218    0.345118    2.498511   -0.262212   -0.394242   -0.239612
H     1.896084    0.858093   -0.490316   -0.016878    0.151926    0.362768
H    -1.879579   -0.515112   -0.855967    0.076032    0.011772    0.026710
139
* Frequency(6) -217.0100
C     0.574071    4.890542   -0.361207   -0.003370    0.005776   -0.001398
C    -4.381014    3.296976    0.432620   -0.004288    0.001408    0.001500
C    -4.973795   -1.770439   -0.553204    0.003024   -0.000354    0.001226
C    -0.701924   -4.831884   -0.673853   -0.009940   -0.000516   -0.003866
C     4.272128   -3.331344    0.088803   -0.071882    0.023316    0.057850
C     4.836412    1.808710   -0.502816   -0.011866   -0.004150    0.001390
O    -0.335840    3.834654   -0.160775    0.002070   -0.001724    0.015430
O    -4.312464    2.262508   -0.498113    0.003490   -0.002390    0.003718
O    -3.593836   -1.896878   -0.806317    0.004200    0.004554    0.000118
O     0.253958   -3.828036   -0.485110   -0.035832    0.020318   -0.043336
O     4.150160   -2.212017   -0.730636   -0.004934   -0.000702    0.013314
O     3.441706    1.972296   -0.678363   -0.021640   -0.014070    0.028404
C     1.185315    4.739532   -1.766183   -0.003736   -0.000896   -0.002108
C    -4.020194    4.595279   -0.317297   -0.000758   -0.000290   -0.000706
C    -5.613357   -0.983634   -1.709963    0.001244   -0.000704    0.001082
C    -1.354203   -4.603593   -2.049632   -0.011990   -0.008240   -0.005484
C     3.922370   -4.553050   -0.784194   -0.038250    0.014774    0.053570
C     5.430259    1.112756   -1.738999   -0.008562   -0.000930    0.002628
O     0.219621    4.770087   -2.783926   -0.004758   -0.005084   -0.001614
O    -4.889533    4.845154   -1.385339    0.000934   -0.000456   -0.002614
O    -5.432450   -1.614076   -2.948504    0.000332    0.001286   -0.000322
O    -0.419423   -4.597342   -3.096165   -0.006566   -0.007606   -0.001926
O     4.766407   -4.665838   -1.897060   -0.020518    0.014976    0.060622
O     5.228177    1.845853   -2.915434   -0.005292   -0.001370    0.002378
C     1.897562    3.381152   -1.811900   -0.004678   -0.003178   -0.003376
C    -2.567840    4.501115   -0.814836    0.000582   -0.000616    0.000864
C    -5.027574    0.433981   -1.718458    0.001020   -0.000702   -0.000044
C    -2.056529   -3.241240   -2.007331   -0.003464   -0.004132   -0.001618
C     2.458123   -4.422367   -1.224596   -0.027406    0.016392    0.036686
C     4.833080   -0.297569   -1.846836   -0.000596   -0.006556    0.002488
O     2.579532    3.165826   -3.022399    0.003392   -0.002744    0.001420
O    -2.163655    5.707211   -1.427907    0.000532    0.000024    0.001030
O    -5.688394    1.254722   -2.649376    0.002070    0.000182   -0.000144
O    -2.769982   -2.970113   -3.188734   -0.003548    0.004506    0.000154
O     2.035242   -5.558605   -1.950670   -0.021674    0.008816    0.038724
O     5.447985   -1.036861   -2.873782    0.003554   -0.001402    0.001094
C     2.923234    3.297821   -0.675946   -0.008986   -0.002712    0.001220
C    -1.613865    4.168451    0.344118   -0.001712    0.002790    0.004466
C    -5.134332    1.111673   -0.344692    0.002430   -0.001178    0.000180
C    -3.043578   -3.204983   -0.837347    0.004816    0.004822    0.004534
C     1.531158   -4.212189   -0.014695   -0.045448    0.089402    0.018838
C     5.004761   -1.087966   -0.540329    0.007456   -0.006132    0.005854
C     2.282881    3.639677    0.683838   -0.006272    0.011766    0.003018
C    -2.153853    2.921179    1.052279   -0.009666    0.002942    0.004534
C    -4.681980    0.181018    0.799791    0.001756   -0.002528    0.000492
C    -2.342555   -3.577471    0.481400    0.003878   -0.002478    0.004806
C     2.057208   -3.049518    0.830239   -0.100672    0.188926   -0.083764
C     4.614788   -0.258399    0.698625    0.009718   -0.003742    0.004274
O     1.582577    4.880286    0.608868   -0.003776    0.012360   -0.000330
O    -3.482224    3.112801    1.506389   -0.007220    0.006516    0.004772
O    -5.226105   -1.134012    0.661981   -0.002568   -0.000728    0.000008
O    -1.675428   -4.830905    0.332172   -0.016036   -0.012736   -0.009636
O     3.409320   -3.272337    1.210820   -0.130346    0.087304    0.021640
O     5.112143    1.082424    0.654020   -0.008762    0.002706    0.005336
C     3.344120    3.798109    1.782389   -0.001852    0.008162    0.004082
C    -1.312849    2.485729    2.248819   -0.003506   -0.021866   -0.011670
C    -5.181035    0.644027    2.179313    0.001682   -0.000452    0.000062
C    -3.344478   -3.757436    1.626044    0.003188    0.001078    0.002518
C     1.169778   -2.807385    2.100418   -0.392104    0.449810   -0.175886
C     5.188487   -0.840528    2.004173    0.003944   -0.000336    0.009224
O     4.278215    4.803391    1.475248    0.003790    0.002996   -0.003438
O    -1.710364    1.291957    2.637913    0.039758   -0.053010   -0.084660
O    -6.566063    0.874427    2.197004    0.000802   -0.002144   -0.000842
O    -4.289522   -4.761664    1.354281    0.002208   -0.000596    0.003852
O     1.774907   -1.907137    2.864873    0.069480   -0.003486    0.103822
O     6.562952   -1.116347    1.910009    0.002414   -0.008064    0.007362
H     0.081043    5.864305   -0.262456   -0.006748    0.004398   -0.010268
H    -5.375402    3.370615    0.891201   -0.006700    0.001998   -0.004066
H    -5.443430   -2.757776   -0.460167    0.006148   -0.001774   -0.000010
H    -0.244974   -5.828351   -0.627350    0.008990    0.009194    0.008682
H     5.282451   -3.425878    0.505125   -0.094802    0.016222    0.108844
H     5.320629    2.780958   -0.353485   -0.016672   -0.001812   -0.005620
H     1.917585    5.548417   -1.916271   -0.004110   -0.000660   -0.004496
H    -4.116778    5.440553    0.372444   -0.003038    0.001032   -0.002060
H    -6.694824   -0.926438   -1.546048    0.001428   -0.002344    0.003450
H    -2.100909   -5.395367   -2.218140   -0.011100   -0.007928   -0.007442
H     4.049696   -5.465624   -0.193854   -0.048486    0.017840    0.058342
H     6.515204    1.032479   -1.610696   -0.008660    0.002516    0.006866
H    -0.565478    5.259897   -2.479023    0.000412    0.009008   -0.006958
H    -5.030846    4.018979   -1.876868   -0.003084   -0.001590    0.000786
H    -4.518145   -1.947671   -3.026657   -0.003336   -0.010722    0.004560
H     0.397377   -5.049825   -2.815564   -0.001384    0.017044    0.013614
H     4.864882   -3.789712   -2.307600   -0.020220    0.016630    0.061960
H     4.305958    2.165798   -2.963896   -0.010084   -0.010826   -0.007966
H     1.122785    2.613682   -1.674555   -0.008970    0.000036   -0.019512
H    -2.504573    3.678267   -1.542937   -0.001090    0.000350   -0.000070
H    -3.958105    0.367257   -1.969689   -0.000276   -0.005170   -0.003076
H    -1.282482   -2.478245   -1.846039    0.007020   -0.015402   -0.003792
H     2.367706   -3.530078   -1.862250   -0.008100   -0.000784    0.008612
H     3.754151   -0.213486   -2.045616   -0.001090   -0.017310   -0.000478
H     1.982142    3.388285   -3.752211    0.008984   -0.008134   -0.003788
H    -2.928776    6.062602   -1.911006    0.001928   -0.000034    0.000352
H    -5.789056    0.755097   -3.475339   -0.005260   -0.002778    0.002816
H    -2.193874   -3.177156   -3.941517   -0.009990   -0.012036   -0.000574
H     2.777739   -5.842841   -2.510190   -0.008356    0.002312    0.060036
H     5.522514   -0.466527   -3.655292   -0.002898   -0.000452    0.001042
H     3.724636    4.017500   -0.881838   -0.005310   -0.009974   -0.006150
H    -1.548659    5.009354    1.045291   -0.007616    0.006508    0.000712
H    -6.174674    1.419830   -0.169917    0.002214   -0.002772    0.000868
H    -3.838601   -3.938002   -1.028368    0.003738    0.003292    0.012368
H     1.465955   -5.118937    0.596659   -0.036198    0.160038    0.123150
H     6.046856   -1.422833   -0.452044    0.005418   -0.011956    0.000286
H     1.571838    2.856417    0.973139   -0.025192    0.028366    0.006444
H    -2.122190    2.086398    0.334424   -0.022966    0.005074    0.001036
H    -3.586936    0.125217    0.813676    0.001392   -0.011810    0.004376
H    -1.616658   -2.806129    0.766234    0.023318   -0.029142    0.029614
H     1.995246   -2.142610    0.206658    0.067292    0.095090   -0.268810
H     3.522587   -0.246571    0.757482    0.010492   -0.020796   -0.006494
H     3.916045    2.872792    1.875134    0.004556    0.011246    0.004398
H     2.829558    4.015440    2.725395    0.003642    0.024848    0.006558
H    -4.903220   -0.131165    2.902465    0.005284    0.001730    0.001258
H    -4.698136    1.578385    2.461434   -0.002394    0.001760   -0.000180
H    -3.902179   -2.830552    1.768627    0.002538    0.000470    0.002672
H    -2.774993   -3.982110    2.534447    0.012222    0.006224   -0.001924
H     4.999839   -0.117454    2.805437    0.019668    0.005646    0.008258
H     4.689912   -1.780383    2.244450   -0.004560    0.004274    0.017294
H     3.814642    5.652512    1.450740    0.012502    0.007676   -0.004208
H    -7.017664    0.030303    2.053249    0.002078   -0.003240    0.004156
H    -3.815673   -5.602555    1.275427    0.006420    0.002212    0.004502
H     7.038711   -0.277386    1.825580    0.005322   -0.009062    0.008384
C     0.893491   -1.234025    3.741585    0.142388    0.134536    0.019776
H     1.490646   -0.722338    4.502385    0.178228   -0.033390    0.145522
H     0.185318   -1.939030    4.180531   -0.095300    0.249116   -0.145118
O     0.431626   -3.690493    2.521366   -0.022322    0.059162   -0.057830
C    -0.902021    0.549713    3.555271    0.083146   -0.127014   -0.159990
H    -1.559074   -0.127780    4.099212    0.183176   -0.475458   -0.409606
H    -0.393086    1.241261    4.216562   -0.217714   -0.126962    0.073726
O    -0.403239    3.112425    2.734728    0.016412   -0.052358   -0.000628
C     0.174719   -0.260969    2.741347    0.660960    0.415142   -0.194272
O    -0.432855   -1.145027    1.834170    0.456012   -0.323814   -0.044556
H    -1.088124   -0.366666    0.450545    0.117368   -0.209100   -0.002202
O    -1.254764    0.073890   -0.412651    0.094212   -0.057890    0.093020
H     0.444518    0.132856   -0.523827   -0.020802    0.029810    0.203140
O     1.367410    0.089971   -0.164123   -0.027778    0.056354    0.238526
H     1.056802    0.212307    0.879213   -0.405818   -0.366584   -0.394810
O     0.911362    0.444195    2.127618   -0.442708   -0.552432   -0.084040
H     1.834082    0.326872    2.487421   -0.262212   -0.394242   -0.239612
H     1.895302    0.865124   -0.473526   -0.016878    0.151926    0.362768
H    -1.876060   -0.514567   -0.854731    0.076032    0.011772    0.026710
139
* Frequency(6) -217.0100
C     0.574039    4.890597   -0.361221   -0.003370    0.005776   -0.001398
C    -4.381055    3.296989    0.432634   -0.004288    0.001408    0.001500
C    -4.973766   -1.770442   -0.553192    0.003024   -0.000354    0.001226
C    -0.702018   -4.831889   -0.673889   -0.009940   -0.000516   -0.003866
C     4.271444   -3.331122    0.089353   -0.071882    0.023316    0.057850
C     4.836299    1.808670   -0.502803   -0.011866   -0.004150    0.001390
O    -0.335820    3.834638   -0.160628    0.002070   -0.001724    0.015430
O    -4.312431    2.262485   -0.498077    0.003490   -0.002390    0.003718
O    -3.593796   -1.896835   -0.806316    0.004200    0.004554    0.000118
O     0.253617   -3.827843   -0.485523   -0.035832    0.020318   -0.043336
O     4.150113   -2.212024   -0.730509   -0.004934   -0.000702    0.013314
O     3.441500    1.972162   -0.678093   -0.021640   -0.014070    0.028404
C     1.185280    4.739523   -1.766203   -0.003736   -0.000896   -0.002108
C    -4.020201    4.595276   -0.317303   -0.000758   -0.000290   -0.000706
C    -5.613345   -0.983641   -1.709953    0.001244   -0.000704    0.001082
C    -1.354317   -4.603671   -2.049684   -0.011990   -0.008240   -0.005484
C     3.922006   -4.552910   -0.783685   -0.038250    0.014774    0.053570
C     5.430178    1.112748   -1.738974   -0.008562   -0.000930    0.002628
O     0.219575    4.770039   -2.783941   -0.004758   -0.005084   -0.001614
O    -4.889524    4.845150   -1.385364    0.000934   -0.000456   -0.002614
O    -5.432447   -1.614063   -2.948507    0.000332    0.001286   -0.000322
O    -0.419485   -4.597414   -3.096184   -0.006566   -0.007606   -0.001926
O     4.766212   -4.665695   -1.896483   -0.020518    0.014976    0.060622
O     5.228127    1.845840   -2.915412   -0.005292   -0.001370    0.002378
C     1.897517    3.381121   -1.811933   -0.004678   -0.003178   -0.003376
C    -2.567834    4.501109   -0.814828    0.000582   -0.000616    0.000864
C    -5.027564    0.433974   -1.718458    0.001020   -0.000702   -0.000044
C    -2.056562   -3.241279   -2.007346   -0.003464   -0.004132   -0.001618
C     2.457863   -4.422211   -1.224247   -0.027406    0.016392    0.036686
C     4.833074   -0.297632   -1.846812   -0.000596   -0.006556    0.002488
O     2.579564    3.165800   -3.022386    0.003392   -0.002744    0.001420
O    -2.163650    5.707211   -1.427897    0.000532    0.000024    0.001030
O    -5.688374    1.254723   -2.649377    0.002070    0.000182   -0.000144
O    -2.770016   -2.970070   -3.188732   -0.003548    0.004506    0.000154
O     2.035036   -5.558521   -1.950302   -0.021674    0.008816    0.038724
O     5.448019   -1.036874   -2.873771    0.003554   -0.001402    0.001094
C     2.923149    3.297795   -0.675934   -0.008986   -0.002712    0.001220
C    -1.613881    4.168477    0.344161   -0.001712    0.002790    0.004466
C    -5.134308    1.111662   -0.344690    0.002430   -0.001178    0.000180
C    -3.043532   -3.204937   -0.837304    0.004816    0.004822    0.004534
C     1.530726   -4.211338   -0.014516   -0.045448    0.089402    0.018838
C     5.004832   -1.088024   -0.540273    0.007456   -0.006132    0.005854
C     2.282821    3.639789    0.683867   -0.006272    0.011766    0.003018
C    -2.153945    2.921207    1.052322   -0.009666    0.002942    0.004534
C    -4.681963    0.180994    0.799796    0.001756   -0.002528    0.000492
C    -2.342518   -3.577494    0.481445    0.003878   -0.002478    0.004806
C     2.056250   -3.047721    0.829442   -0.100672    0.188926   -0.083764
C     4.614881   -0.258434    0.698666    0.009718   -0.003742    0.004274
O     1.582541    4.880403    0.608865   -0.003776    0.012360   -0.000330
O    -3.482292    3.112863    1.506434   -0.007220    0.006516    0.004772
O    -5.226130   -1.134019    0.661981   -0.002568   -0.000728    0.000008
O    -1.675580   -4.831026    0.332080   -0.016036   -0.012736   -0.009636
O     3.408080   -3.271506    1.211026   -0.130346    0.087304    0.021640
O     5.112060    1.082450    0.654071   -0.008762    0.002706    0.005336
C     3.344102    3.798187    1.782428   -0.001852    0.008162    0.004082
C    -1.312882    2.485521    2.248708   -0.003506   -0.021866   -0.011670
C    -5.181019    0.644022    2.179314    0.001682   -0.000452    0.000062
C    -3.344448   -3.757426    1.626068    0.003188    0.001078    0.002518
C     1.166047   -2.803105    2.098744   -0.392104    0.449810   -0.175886
C     5.188525   -0.840531    2.004260    0.003944   -0.000336    0.009224
O     4.278251    4.803419    1.475215    0.003790    0.002996   -0.003438
O    -1.709985    1.291453    2.637107    0.039758   -0.053010   -0.084660
O    -6.566055    0.874406    2.196996    0.000802   -0.002144   -0.000842
O    -4.289501   -4.761670    1.354318    0.002208   -0.000596    0.003852
O     1.775568   -1.907170    2.865861    0.069480   -0.003486    0.103822
O     6.562975   -1.116424    1.910079    0.002414   -0.008064    0.007362
H     0.080979    5.864347   -0.262554   -0.006748    0.004398   -0.010268
H    -5.375466    3.370634    0.891163   -0.006700    0.001998   -0.004066
H    -5.443372   -2.757793   -0.460167    0.006148   -0.001774   -0.000010
H    -0.244888   -5.828263   -0.627268    0.008990    0.009194    0.008682
H     5.281549   -3.425724    0.506160   -0.094802    0.016222    0.108844
H     5.320471    2.780941   -0.353538   -0.016672   -0.001812   -0.005620
H     1.917545    5.548411   -1.916314   -0.004110   -0.000660   -0.004496
H    -4.116807    5.440563    0.372424   -0.003038    0.001032   -0.002060
H    -6.694811   -0.926461   -1.546016    0.001428   -0.002344    0.003450
H    -2.101015   -5.395442   -2.218211   -0.011100   -0.007928   -0.007442
H     4.049235   -5.465454   -0.193299   -0.048486    0.017840    0.058342
H     6.515121    1.032503   -1.610631   -0.008660    0.002516    0.006866
H    -0.565474    5.259983   -2.479089    0.000412    0.009008   -0.006958
H    -5.030876    4.018963   -1.876861   -0.003084   -0.001590    0.000786
H    -4.518177   -1.947773   -3.026613   -0.003336   -0.010722    0.004560
H     0.397364   -5.049663   -2.815434   -0.001384    0.017044    0.013614
H     4.864689   -3.789553   -2.307010   -0.020220    0.016630    0.061960
H     4.305862    2.165695   -2.963972   -0.010084   -0.010826   -0.007966
H     1.122699    2.613683   -1.674741   -0.008970    0.000036   -0.019512
H    -2.504583    3.678270   -1.542937   -0.001090    0.000350   -0.000070
H    -3.958107    0.367208   -1.969718   -0.000276   -0.005170   -0.003076
H    -1.282415   -2.478391   -1.846075    0.007020   -0.015402   -0.003792
H     2.367629   -3.530085   -1.862168   -0.008100   -0.000784    0.008612
H     3.754141   -0.213651   -2.045621   -0.001090   -0.017310   -0.000478
H     1.982228    3.388208   -3.752247    0.008984   -0.008134   -0.003788
H    -2.928758    6.062602   -1.911002    0.001928   -0.000034    0.000352
H    -5.789106    0.755071   -3.475312   -0.005260   -0.002778    0.002816
H    -2.193969   -3.177270   -3.941522   -0.009990   -0.012036   -0.000574
H     2.777659   -5.842819   -2.509619   -0.008356    0.002312    0.060036
H     5.522486   -0.466532   -3.655283   -0.002898   -0.000452    0.001042
H     3.724586    4.017405   -0.881896   -0.005310   -0.009974   -0.006150
H    -1.548731    5.009416    1.045297   -0.007616    0.006508    0.000712
H    -6.174653    1.419804   -0.169909    0.002214   -0.002772    0.000868
H    -3.838565   -3.937971   -1.028250    0.003738    0.003292    0.012368
H     1.465611   -5.117414    0.597830   -0.036198    0.160038    0.123150
H     6.046908   -1.422946   -0.452041    0.005418   -0.011956    0.000286
H     1.571598    2.856687    0.973201   -0.025192    0.028366    0.006444
H    -2.122409    2.086446    0.334433   -0.022966    0.005074    0.001036
H    -3.586922    0.125105    0.813717    0.001392   -0.011810    0.004376
H    -1.616437   -2.806406    0.766515    0.023318   -0.029142    0.029614
H     1.995886   -2.141705    0.204101    0.067292    0.095090   -0.268810
H     3.522687   -0.246769    0.757420    0.010492   -0.020796   -0.006494
H     3.916088    2.872899    1.875176    0.004556    0.011246    0.004398
H     2.829592    4.015676    2.725457    0.003642    0.024848    0.006558
H    -4.903170   -0.131149    2.902477    0.005284    0.001730    0.001258
H    -4.698159    1.578402    2.461432   -0.002394    0.001760   -0.000180
H    -3.902155   -2.830547    1.768652    0.002538    0.000470    0.002672
H    -2.774877   -3.982051    2.534429    0.012222    0.006224   -0.001924
H     5.000026   -0.117401    2.805515    0.019668    0.005646    0.008258
H     4.689868   -1.780342    2.244614   -0.004560    0.004274    0.017294
H     3.814761    5.652585    1.450700    0.012502    0.007676   -0.004208
H    -7.017644    0.030272    2.053289    0.002078   -0.003240    0.004156
H    -3.815612   -5.602534    1.275470    0.006420    0.002212    0.004502
H     7.038761   -0.277472    1.825659    0.005322   -0.009062    0.008384
C     0.894846   -1.232745    3.741773    0.142388    0.134536    0.019776
H     1.492342   -0.722656    4.503770    0.178228   -0.033390    0.145522
H     0.184411   -1.936660    4.179150   -0.095300    0.249116   -0.145118
O     0.431414   -3.689930    2.520816   -0.022322    0.059162   -0.057830
C    -0.901230    0.548505    3.553749    0.083146   -0.127014   -0.159990
H    -1.557331   -0.132304    4.095315    0.183176   -0.475458   -0.409606
H    -0.395158    1.240053    4.217263   -0.217714   -0.126962    0.073726
O    -0.403082    3.111927    2.734722    0.016412   -0.052358   -0.000628
C     0.181008   -0.257020    2.739499    0.660960    0.415142   -0.194272
O    -0.428516   -1.148108    1.833746    0.456012   -0.323814   -0.044556
H    -1.087008   -0.368655    0.450524    0.117368   -0.209100   -0.002202
O    -1.253867    0.073340   -0.411766    0.094212   -0.057890    0.093020
H     0.444320    0.133140   -0.521894   -0.020802    0.029810    0.203140
O     1.367146    0.090508   -0.161854   -0.027778    0.056354    0.238526
H     1.052941    0.208819    0.875456   -0.405818   -0.366584   -0.394810
O     0.907149    0.438939    2.126818   -0.442708   -0.552432   -0.084040
H     1.831587    0.323121    2.485141   -0.262212   -0.394242   -0.239612
H     1.895142    0.866569   -0.470075   -0.016878    0.151926    0.362768
H    -1.875337   -0.514455   -0.854476    0.076032    0.011772    0.026710
139
* Frequency(6) -217.0100
C     0.574134    4.890433   -0.361181   -0.003370    0.005776   -0.001398
C    -4.380933    3.296949    0.432592   -0.004288    0.001408    0.001500
C    -4.973852   -1.770432   -0.553227    0.003024   -0.000354    0.001226
C    -0.701737   -4.831874   -0.673780   -0.009940   -0.000516   -0.003866
C     4.273477   -3.331782    0.087717   -0.071882    0.023316    0.057850
C     4.836635    1.808788   -0.502842   -0.011866   -0.004150    0.001390
O    -0.335879    3.834686   -0.161064    0.002070   -0.001724    0.015430
O    -4.312529    2.262553   -0.498182    0.003490   -0.002390    0.003718
O    -3.593915   -1.896963   -0.806319    0.004200    0.004554    0.000118
O     0.254630   -3.828418   -0.484297   -0.035832    0.020318   -0.043336
O     4.150253   -2.212004   -0.730886   -0.004934   -0.000702    0.013314
O     3.442112    1.972560   -0.678896   -0.021640   -0.014070    0.028404
C     1.185386    4.739549   -1.766144   -0.003736   -0.000896   -0.002108
C    -4.020180    4.595284   -0.317283   -0.000758   -0.000290   -0.000706
C    -5.613380   -0.983621   -1.709983    0.001244   -0.000704    0.001082
C    -1.353978   -4.603438   -2.049529   -0.011990   -0.008240   -0.005484
C     3.923088   -4.553328   -0.785200   -0.038250    0.014774    0.053570
C     5.430420    1.112774   -1.739049   -0.008562   -0.000930    0.002628
O     0.219710    4.770182   -2.783895   -0.004758   -0.005084   -0.001614
O    -4.889551    4.845163   -1.385290    0.000934   -0.000456   -0.002614
O    -5.432457   -1.614100   -2.948498    0.000332    0.001286   -0.000322
O    -0.419300   -4.597199   -3.096129   -0.006566   -0.007606   -0.001926
O     4.766793   -4.666119   -1.898197   -0.020518    0.014976    0.060622
O     5.228277    1.845879   -2.915479   -0.005292   -0.001370    0.002378
C     1.897650    3.381211   -1.811837   -0.004678   -0.003178   -0.003376
C    -2.567850    4.501127   -0.814852    0.000582   -0.000616    0.000864
C    -5.027593    0.433994   -1.718457    0.001020   -0.000702   -0.000044
C    -2.056464   -3.241162   -2.007301   -0.003464   -0.004132   -0.001618
C     2.458638   -4.422675   -1.225284   -0.027406    0.016392    0.036686
C     4.833091   -0.297446   -1.846883   -0.000596   -0.006556    0.002488
O     2.579468    3.165877   -3.022426    0.003392   -0.002744    0.001420
O    -2.163665    5.707211   -1.427926    0.000532    0.000024    0.001030
O    -5.688433    1.254718   -2.649373    0.002070    0.000182   -0.000144
O    -2.769915   -2.970198   -3.188737   -0.003548    0.004506    0.000154
O     2.035649   -5.558770   -1.951397   -0.021674    0.008816    0.038724
O     5.447918   -1.036834   -2.873802    0.003554   -0.001402    0.001094
C     2.923403    3.297872   -0.675969   -0.008986   -0.002712    0.001220
C    -1.613833    4.168398    0.344034   -0.001712    0.002790    0.004466
C    -5.134377    1.111695   -0.344695    0.002430   -0.001178    0.000180
C    -3.043668   -3.205073   -0.837432    0.004816    0.004822    0.004534
C     1.532011   -4.213867   -0.015049   -0.045448    0.089402    0.018838
C     5.004621   -1.087850   -0.540439    0.007456   -0.006132    0.005854
C     2.282999    3.639456    0.683781   -0.006272    0.011766    0.003018
C    -2.153671    2.921124    1.052194   -0.009666    0.002942    0.004534
C    -4.682013    0.181066    0.799782    0.001756   -0.002528    0.000492
C    -2.342628   -3.577424    0.481309    0.003878   -0.002478    0.004806
C     2.059098   -3.053064    0.831811   -0.100672    0.188926   -0.083764
C     4.614606   -0.258328    0.698545    0.009718   -0.003742    0.004274
O     1.582648    4.880054    0.608874   -0.003776    0.012360   -0.000330
O    -3.482088    3.112679    1.506300   -0.007220    0.006516    0.004772
O    -5.226057   -1.133998    0.661981   -0.002568   -0.000728    0.000008
O    -1.675127   -4.830666    0.332352   -0.016036   -0.012736   -0.009636
O     3.411766   -3.273975    1.210414   -0.130346    0.087304    0.021640
O     5.112308    1.082373    0.653920   -0.008762    0.002706    0.005336
C     3.344154    3.797956    1.782312   -0.001852    0.008162    0.004082
C    -1.312783    2.486139    2.249039   -0.003506   -0.021866   -0.011670
C    -5.181067    0.644035    2.179312    0.001682   -0.000452    0.000062
C    -3.344538   -3.757456    1.625997    0.003188    0.001078    0.002518
C     1.177138   -2.815828    2.103719   -0.392104    0.449810   -0.175886
C     5.188413   -0.840522    2.003999    0.003944   -0.000336    0.009224
O     4.278144    4.803334    1.475312    0.003790    0.002996   -0.003438
O    -1.711110    1.292952    2.639502    0.039758   -0.053010   -0.084660
O    -6.566078    0.874467    2.197020    0.000802   -0.002144   -0.000842
O    -4.289563   -4.761653    1.354209    0.002208   -0.000596    0.003852
O     1.773603   -1.907071    2.862924    0.069480   -0.003486    0.103822
O     6.562907   -1.116196    1.909871    0.002414   -0.008064    0.007362
H     0.081170    5.864223   -0.262263   -0.006748    0.004398   -0.010268
H    -5.375276    3.370577    0.891278   -0.006700    0.001998   -0.004066
H    -5.443545   -2.757743   -0.460167    0.006148   -0.001774   -0.000010
H    -0.245143   -5.828523   -0.627513    0.008990    0.009194    0.008682
H     5.284230   -3.426183    0.503082   -0.094802    0.016222    0.108844
H     5.320942    2.780992   -0.353379   -0.016672   -0.001812   -0.005620
H     1.917662    5.548429   -1.916187   -0.004110   -0.000660   -0.004496
H    -4.116721    5.440534    0.372483   -0.003038    0.001032   -0.002060
H    -6.694851   -0.926394   -1.546113    0.001428   -0.002344    0.003450
H    -2.100701   -5.395218   -2.218000   -0.011100   -0.007928   -0.007442
H     4.050606   -5.465959   -0.194949   -0.048486    0.017840    0.058342
H     6.515366    1.032431   -1.610825   -0.008660    0.002516    0.006866
H    -0.565486    5.259728   -2.478892    0.000412    0.009008   -0.006958
H    -5.030788    4.019008   -1.876883   -0.003084   -0.001590    0.000786
H    -4.518082   -1.947470   -3.026742   -0.003336   -0.010722    0.004560
H     0.397403   -5.050145   -2.815819   -0.001384    0.017044    0.013614
H     4.865261   -3.790024   -2.308763   -0.020220    0.016630    0.061960
H     4.306147    2.166001   -2.963746   -0.010084   -0.010826   -0.007966
H     1.122953    2.613682   -1.674189   -0.008970    0.000036   -0.019512
H    -2.504552    3.678260   -1.542935   -0.001090    0.000350   -0.000070
H    -3.958099    0.367354   -1.969631   -0.000276   -0.005170   -0.003076
H    -1.282614   -2.477956   -1.845967    0.007020   -0.015402   -0.003792
H     2.367858   -3.530063   -1.862412   -0.008100   -0.000784    0.008612
H     3.754172   -0.213161   -2.045607   -0.001090   -0.017310   -0.000478
H     1.981974    3.388438   -3.752140    0.008984   -0.008134   -0.003788
H    -2.928812    6.062603   -1.911012    0.001928   -0.000034    0.000352
H    -5.788957    0.755150   -3.475391   -0.005260   -0.002778    0.002816
H    -2.193686   -3.176930   -3.941506   -0.009990   -0.012036   -0.000574
H     2.777896   -5.842884   -2.511317   -0.008356    0.002312    0.060036
H     5.522568   -0.466519   -3.655312   -0.002898   -0.000452    0.001042
H     3.724736    4.017687   -0.881722   -0.005310   -0.009974   -0.006150
H    -1.548516    5.009232    1.045277   -0.007616    0.006508    0.000712
H    -6.174715    1.419883   -0.169934    0.002214   -0.002772    0.000868
H    -3.838671   -3.938064   -1.028600    0.003738    0.003292    0.012368
H     1.466635   -5.121941    0.594347   -0.036198    0.160038    0.123150
H     6.046755   -1.422608   -0.452049    0.005418   -0.011956    0.000286
H     1.572310    2.855885    0.973018   -0.025192    0.028366    0.006444
H    -2.121759    2.086302    0.334404   -0.022966    0.005074    0.001036
H    -3.586962    0.125439    0.813594    0.001392   -0.011810    0.004376
H    -1.617096   -2.805582    0.765678    0.023318   -0.029142    0.029614
H     1.993982   -2.144395    0.211704    0.067292    0.095090   -0.268810
H     3.522390   -0.246181    0.757604    0.010492   -0.020796   -0.006494
H     3.915959    2.872581    1.875052    0.004556    0.011246    0.004398
H     2.829489    4.014973    2.725272    0.003642    0.024848    0.006558
H    -4.903319   -0.131197    2.902441    0.005284    0.001730    0.001258
H    -4.698091    1.578352    2.461437   -0.002394    0.001760   -0.000180
H    -3.902227   -2.830560    1.768576    0.002538    0.000470    0.002672
H    -2.775223   -3.982227    2.534483    0.012222    0.006224   -0.001924
H     4.999470   -0.117560    2.805282    0.019668    0.005646    0.008258
H     4.689997   -1.780463    2.244125   -0.004560    0.004274    0.017294
H     3.814407    5.652368    1.450819    0.012502    0.007676   -0.004208
H    -7.017703    0.030364    2.053171    0.002078   -0.003240    0.004156
H    -3.815793   -5.602597    1.275343    0.006420    0.002212    0.004502
H     7.038611   -0.277216    1.825422    0.005322   -0.009062    0.008384
C     0.890818   -1.236550    3.741214    0.142388    0.134536    0.019776
H     1.487301   -0.721711    4.499654    0.178228   -0.033390    0.145522
H     0.187106   -1.943706    4.183255   -0.095300    0.249116   -0.145118
O     0.432045   -3.691603    2.522451   -0.022322    0.059162   -0.057830
C    -0.903582    0.552097    3.558274    0.083146   -0.127014   -0.159990
H    -1.562512   -0.118856    4.106900    0.183176   -0.475458   -0.409606
H    -0.389000    1.243644    4.215178   -0.217714   -0.126962    0.073726
O    -0.403547    3.113408    2.734740    0.016412   -0.052358   -0.000628
C     0.162313   -0.268761    2.744994    0.660960    0.415142   -0.194272
O    -0.441414   -1.138949    1.835006    0.456012   -0.323814   -0.044556
H    -1.090327   -0.362741    0.450586    0.117368   -0.209100   -0.002202
O    -1.256532    0.074977   -0.414397    0.094212   -0.057890    0.093020
H     0.444909    0.132297   -0.527639   -0.020802    0.029810    0.203140
O     1.367932    0.088914   -0.168600   -0.027778    0.056354    0.238526
H     1.064419    0.219187    0.886623   -0.405818   -0.366584   -0.394810
O     0.919671    0.454564    2.129195   -0.442708   -0.552432   -0.084040
H     1.839004    0.334271    2.491918   -0.262212   -0.394242   -0.239612
H     1.895619    0.862272   -0.480335   -0.016878    0.151926    0.362768
H    -1.877487   -0.514788   -0.855232    0.076032    0.011772    0.026710
139
* Frequency(6) -217.0100
C     0.574346    4.890069   -0.361093   -0.003370    0.005776   -0.001398
C    -4.380663    3.296861    0.432497   -0.004288    0.001408    0.001500
C    -4.974042   -1.770410   -0.553304    0.003024   -0.000354    0.001226
C    -0.701111   -4.831842   -0.673537   -0.009940   -0.000516   -0.003866
C     4.278007   -3.333251    0.084072   -0.071882    0.023316    0.057850
C     4.837382    1.809049   -0.502930   -0.011866   -0.004150    0.001390
O    -0.336009    3.834795   -0.162037    0.002070   -0.001724    0.015430
O    -4.312749    2.262704   -0.498417    0.003490   -0.002390    0.003718
O    -3.594179   -1.897250   -0.806327    0.004200    0.004554    0.000118
O     0.256888   -3.829698   -0.481566   -0.035832    0.020318   -0.043336
O     4.150563   -2.211960   -0.731725   -0.004934   -0.000702    0.013314
O     3.443476    1.973447   -0.680686   -0.021640   -0.014070    0.028404
C     1.185621    4.739605   -1.766011   -0.003736   -0.000896   -0.002108
C    -4.020132    4.595302   -0.317239   -0.000758   -0.000290   -0.000706
C    -5.613459   -0.983576   -1.710051    0.001244   -0.000704    0.001082
C    -1.353222   -4.602919   -2.049183   -0.011990   -0.008240   -0.005484
C     3.925498   -4.554259   -0.788576   -0.038250    0.014774    0.053570
C     5.430959    1.112833   -1.739214   -0.008562   -0.000930    0.002628
O     0.220010    4.770503   -2.783794   -0.004758   -0.005084   -0.001614
O    -4.889609    4.845192   -1.385125    0.000934   -0.000456   -0.002614
O    -5.432478   -1.614181   -2.948478    0.000332    0.001286   -0.000322
O    -0.418886   -4.596720   -3.096008   -0.006566   -0.007606   -0.001926
O     4.768086   -4.667063   -1.902018   -0.020518    0.014976    0.060622
O     5.228610    1.845965   -2.915629   -0.005292   -0.001370    0.002378
C     1.897944    3.381412   -1.811624   -0.004678   -0.003178   -0.003376
C    -2.567887    4.501165   -0.814907    0.000582   -0.000616    0.000864
C    -5.027657    0.434038   -1.718454    0.001020   -0.000702   -0.000044
C    -2.056246   -3.240902   -2.007199   -0.003464   -0.004132   -0.001618
C     2.460365   -4.423708   -1.227596   -0.027406    0.016392    0.036686
C     4.833129   -0.297033   -1.847039   -0.000596   -0.006556    0.002488
O     2.579254    3.166050   -3.022515    0.003392   -0.002744    0.001420
O    -2.163699    5.707209   -1.427991    0.000532    0.000024    0.001030
O    -5.688563    1.254707   -2.649364    0.002070    0.000182   -0.000144
O    -2.769692   -2.970482   -3.188746   -0.003548    0.004506    0.000154
O     2.037015   -5.559326   -1.953837   -0.021674    0.008816    0.038724
O     5.447694   -1.036746   -2.873871    0.003554   -0.001402    0.001094
C     2.923969    3.298043   -0.676046   -0.008986   -0.002712    0.001220
C    -1.613725    4.168222    0.343753   -0.001712    0.002790    0.004466
C    -5.134530    1.111770   -0.344707    0.002430   -0.001178    0.000180
C    -3.043972   -3.205377   -0.837717    0.004816    0.004822    0.004534
C     1.534875   -4.219501   -0.016236   -0.045448    0.089402    0.018838
C     5.004151   -1.087464   -0.540808    0.007456   -0.006132    0.005854
C     2.283394    3.638715    0.683591   -0.006272    0.011766    0.003018
C    -2.153062    2.920939    1.051909   -0.009666    0.002942    0.004534
C    -4.682124    0.181225    0.799751    0.001756   -0.002528    0.000492
C    -2.342872   -3.577268    0.481007    0.003878   -0.002478    0.004806
C     2.065442   -3.064970    0.837089   -0.100672    0.188926   -0.083764
C     4.613993   -0.258093    0.698276    0.009718   -0.003742    0.004274
O     1.582886    4.879275    0.608895   -0.003776    0.012360   -0.000330
O    -3.481633    3.112268    1.505999   -0.007220    0.006516    0.004772
O    -5.225895   -1.133952    0.661980   -0.002568   -0.000728    0.000008
O    -1.674116   -4.829864    0.332960   -0.016036   -0.012736   -0.009636
O     3.419980   -3.279477    1.209050   -0.130346    0.087304    0.021640
O     5.112860    1.082203    0.653584   -0.008762    0.002706    0.005336
C     3.344271    3.797442    1.782055   -0.001852    0.008162    0.004082
C    -1.312562    2.487517    2.249774   -0.003506   -0.021866   -0.011670
C    -5.181173    0.644064    2.179308    0.001682   -0.000452    0.000062
C    -3.344739   -3.757524    1.625838    0.003188    0.001078    0.002518
C     1.201847   -2.844173    2.114803   -0.392104    0.449810   -0.175886
C     5.188165   -0.840501    2.003418    0.003944   -0.000336    0.009224
O     4.277905    4.803145    1.475529    0.003790    0.002996   -0.003438
O    -1.713615    1.296293    2.644837    0.039758   -0.053010   -0.084660
O    -6.566128    0.874602    2.197073    0.000802   -0.002144   -0.000842
O    -4.289702   -4.761615    1.353966    0.002208   -0.000596    0.003852
O     1.769224   -1.906852    2.856382    0.069480   -0.003486    0.103822
O     6.562755   -1.115688    1.909407    0.002414   -0.008064    0.007362
H     0.081595    5.863945   -0.261616   -0.006748    0.004398   -0.010268
H    -5.374854    3.370451    0.891534   -0.006700    0.001998   -0.004066
H    -5.443933   -2.757631   -0.460167    0.006148   -0.001774   -0.000010
H    -0.245709   -5.829103   -0.628060    0.008990    0.009194    0.008682
H     5.290204   -3.427205    0.496223   -0.094802    0.016222    0.108844
H     5.321993    2.781106   -0.353025   -0.016672   -0.001812   -0.005620
H     1.917921    5.548471   -1.915904   -0.004110   -0.000660   -0.004496
H    -4.116529    5.440469    0.372613   -0.003038    0.001032   -0.002060
H    -6.694941   -0.926247   -1.546331    0.001428   -0.002344    0.003450
H    -2.100001   -5.394718   -2.217531   -0.011100   -0.007928   -0.007442
H     4.053662   -5.467083   -0.198626   -0.048486    0.017840    0.058342
H     6.515912    1.032273   -1.611258   -0.008660    0.002516    0.006866
H    -0.565512    5.259161   -2.478454    0.000412    0.009008   -0.006958
H    -5.030594    4.019109   -1.876933   -0.003084   -0.001590    0.000786
H    -4.517872   -1.946794   -3.027030   -0.003336   -0.010722    0.004560
H     0.397491   -5.051219   -2.816677   -0.001384    0.017044    0.013614
H     4.866535   -3.791072   -2.312667   -0.020220    0.016630    0.061960
H     4.306782    2.166683   -2.963244   -0.010084   -0.010826   -0.007966
H     1.123518    2.613679   -1.672959   -0.008970    0.000036   -0.019512
H    -2.504484    3.678238   -1.542931   -0.001090    0.000350   -0.000070
H    -3.958082    0.367680   -1.969437   -0.000276   -0.005170   -0.003076
H    -1.283056   -2.476985   -1.845728    0.007020   -0.015402   -0.003792
H     2.368368   -3.530014   -1.862954   -0.008100   -0.000784    0.008612
H     3.754240   -0.212070   -2.045577   -0.001090   -0.017310   -0.000478
H     1.981407    3.388950   -3.751901    0.008984   -0.008134   -0.003788
H    -2.928934    6.062605   -1.911034    0.001928   -0.000034    0.000352
H    -5.788625    0.755325   -3.475569   -0.005260   -0.002778    0.002816
H    -2.193056   -3.176171   -3.941470   -0.009990   -0.012036   -0.000574
H     2.778422   -5.843030   -2.515101   -0.008356    0.002312    0.060036
H     5.522751   -0.466490   -3.655378   -0.002898   -0.000452    0.001042
H     3.725071    4.018316   -0.881335   -0.005310   -0.009974   -0.006150
H    -1.548036    5.008822    1.045232   -0.007616    0.006508    0.000712
H    -6.174855    1.420057   -0.169988    0.002214   -0.002772    0.000868
H    -3.838906   -3.938271   -1.029379    0.003738    0.003292    0.012368
H     1.468916   -5.132026    0.586587   -0.036198    0.160038    0.123150
H     6.046413   -1.421855   -0.452067    0.005418   -0.011956    0.000286
H     1.573898    2.854097    0.972612   -0.025192    0.028366    0.006444
H    -2.120312    2.085983    0.334339   -0.022966    0.005074    0.001036
H    -3.587050    0.126183    0.813318    0.001392   -0.011810    0.004376
H    -1.618566   -2.803745    0.763812    0.023318   -0.029142    0.029614
H     1.989742   -2.150387    0.228644    0.067292    0.095090   -0.268810
H     3.521729   -0.244870    0.758013    0.010492   -0.020796   -0.006494
H     3.915672    2.871872    1.874774    0.004556    0.011246    0.004398
H     2.829260    4.013407    2.724859    0.003642    0.024848    0.006558
H    -4.903652   -0.131307    2.902362    0.005284    0.001730    0.001258
H    -4.697940    1.578241    2.461449   -0.002394    0.001760   -0.000180
H    -3.902386   -2.830590    1.768408    0.002538    0.000470    0.002672
H    -2.775993   -3.982619    2.534605    0.012222    0.006224   -0.001924
H     4.998231   -0.117916    2.804761    0.019668    0.005646    0.008258
H     4.690285   -1.780732    2.243035   -0.004560    0.004274    0.017294
H     3.813619    5.651885    1.451084    0.012502    0.007676   -0.004208
H    -7.017834    0.030568    2.052909    0.002078   -0.003240    0.004156
H    -3.816198   -5.602736    1.275059    0.006420    0.002212    0.004502
H     7.038275   -0.276644    1.824894    0.005322   -0.009062    0.008384
C     0.881845   -1.245029    3.739967    0.142388    0.134536    0.019776
H     1.476069   -0.719607    4.490483    0.178228   -0.033390    0.145522
H     0.193112   -1.959405    4.192400   -0.095300    0.249116   -0.145118
O     0.433452   -3.695332    2.526096   -0.022322    0.059162   -0.057830
C    -0.908822    0.560101    3.568356    0.083146   -0.127014   -0.159990
H    -1.574056   -0.088894    4.132712    0.183176   -0.475458   -0.409606
H    -0.375280    1.251645    4.210532   -0.217714   -0.126962    0.073726
O    -0.404581    3.116708    2.734779    0.016412   -0.052358   -0.000628
C     0.120661   -0.294923    2.757236    0.660960    0.415142   -0.194272
O    -0.470150   -1.118543    1.837814    0.456012   -0.323814   -0.044556
H    -1.097723   -0.349564    0.450725    0.117368   -0.209100   -0.002202
O    -1.262469    0.078625   -0.420259    0.094212   -0.057890    0.093020
H     0.446219    0.130418   -0.540441   -0.020802    0.029810    0.203140
O     1.369682    0.085362   -0.183632   -0.027778    0.056354    0.238526
H     1.089992    0.242288    0.911503   -0.405818   -0.366584   -0.394810
O     0.947569    0.489377    2.134491   -0.442708   -0.552432   -0.084040
H     1.855528    0.359115    2.507018   -0.262212   -0.394242   -0.239612
H     1.896683    0.852698   -0.503196   -0.016878    0.151926    0.362768
H    -1.882279   -0.515530   -0.856915    0.076032    0.011772    0.026710
139
* Frequency(6) -217.0100
C     0.574653    4.889544   -0.360966   -0.003370    0.005776   -0.001398
C    -4.380273    3.296733    0.432361   -0.004288    0.001408    0.001500
C    -4.974317   -1.770378   -0.553416    0.003024   -0.000354    0.001226
C    -0.700207   -4.831795   -0.673185   -0.009940   -0.000516   -0.003866
C     4.284543   -3.335371    0.078812   -0.071882    0.023316    0.057850
C     4.838461    1.809427   -0.503056   -0.011866   -0.004150    0.001390
O    -0.336197    3.834952   -0.163440    0.002070   -0.001724    0.015430
O    -4.313067    2.262921   -0.498755    0.003490   -0.002390    0.003718
O    -3.594561   -1.897664   -0.806337    0.004200    0.004554    0.000118
O     0.260146   -3.831545   -0.477626   -0.035832    0.020318   -0.043336
O     4.151012   -2.211896   -0.732935   -0.004934   -0.000702    0.013314
O     3.445443    1.974726   -0.683268   -0.021640   -0.014070    0.028404
C     1.185961    4.739687   -1.765819   -0.003736   -0.000896   -0.002108
C    -4.020063    4.595329   -0.317175   -0.000758   -0.000290   -0.000706
C    -5.613572   -0.983512   -1.710150    0.001244   -0.000704    0.001082
C    -1.352132   -4.602170   -2.048685   -0.011990   -0.008240   -0.005484
C     3.928976   -4.555602   -0.793446   -0.038250    0.014774    0.053570
C     5.431738    1.112917   -1.739453   -0.008562   -0.000930    0.002628
O     0.220442    4.770965   -2.783647   -0.004758   -0.005084   -0.001614
O    -4.889694    4.845233   -1.384887    0.000934   -0.000456   -0.002614
O    -5.432508   -1.614298   -2.948449    0.000332    0.001286   -0.000322
O    -0.418289   -4.596028   -3.095833   -0.006566   -0.007606   -0.001926
O     4.769951   -4.668424   -1.907529   -0.020518    0.014976    0.060622
O     5.229091    1.846090   -2.915845   -0.005292   -0.001370    0.002378
C     1.898370    3.381701   -1.811317   -0.004678   -0.003178   -0.003376
C    -2.567940    4.501221   -0.814985    0.000582   -0.000616    0.000864
C    -5.027750    0.434102   -1.718450    0.001020   -0.000702   -0.000044
C    -2.055931   -3.240526   -2.007052   -0.003464   -0.004132   -0.001618
C     2.462857   -4.425198   -1.230932   -0.027406    0.016392    0.036686
C     4.833183   -0.296437   -1.847266   -0.000596   -0.006556    0.002488
O     2.578946    3.166300   -3.022644    0.003392   -0.002744    0.001420
O    -2.163747    5.707207   -1.428084    0.000532    0.000024    0.001030
O    -5.688751    1.254690   -2.649351    0.002070    0.000182   -0.000144
O    -2.769369   -2.970891   -3.188760   -0.003548    0.004506    0.000154
O     2.038986   -5.560127   -1.957358   -0.021674    0.008816    0.038724
O     5.447371   -1.036619   -2.873971    0.003554   -0.001402    0.001094
C     2.924786    3.298289   -0.676157   -0.008986   -0.002712    0.001220
C    -1.613569    4.167969    0.343347   -0.001712    0.002790    0.004466
C    -5.134751    1.111877   -0.344723    0.002430   -0.001178    0.000180
C    -3.044410   -3.205816   -0.838130    0.004816    0.004822    0.004534
C     1.539007   -4.227629   -0.017949   -0.045448    0.089402    0.018838
C     5.003473   -1.086906   -0.541340    0.007456   -0.006132    0.005854
C     2.283964    3.637645    0.683317   -0.006272    0.011766    0.003018
C    -2.152183    2.920671    1.051496   -0.009666    0.002942    0.004534
C    -4.682283    0.181455    0.799706    0.001756   -0.002528    0.000492
C    -2.343225   -3.577043    0.480570    0.003878   -0.002478    0.004806
C     2.074595   -3.082147    0.844705   -0.100672    0.188926   -0.083764
C     4.613110   -0.257752    0.697887    0.009718   -0.003742    0.004274
O     1.583229    4.878151    0.608925   -0.003776    0.012360   -0.000330
O    -3.480977    3.111675    1.505565   -0.007220    0.006516    0.004772
O    -5.225662   -1.133886    0.661979   -0.002568   -0.000728    0.000008
O    -1.672658   -4.828706    0.333836   -0.016036   -0.012736   -0.009636
O     3.431832   -3.287415    1.207083   -0.130346    0.087304    0.021640
O     5.113656    1.081957    0.653099   -0.008762    0.002706    0.005336
C     3.344439    3.796700    1.781684   -0.001852    0.008162    0.004082
C    -1.312243    2.489506    2.250835   -0.003506   -0.021866   -0.011670
C    -5.181326    0.644105    2.179302    0.001682   -0.000452    0.000062
C    -3.345029   -3.757622    1.625609    0.003188    0.001078    0.002518
C     1.237498   -2.885071    2.130795   -0.392104    0.449810   -0.175886
C     5.187806   -0.840470    2.002580    0.003944   -0.000336    0.009224
O     4.277560    4.802873    1.475841    0.003790    0.002996   -0.003438
O    -1.717230    1.301113    2.652534    0.039758   -0.053010   -0.084660
O    -6.566201    0.874797    2.197150    0.000802   -0.002144   -0.000842
O    -4.289903   -4.761561    1.353616    0.002208   -0.000596    0.003852
O     1.762907   -1.906535    2.846942    0.069480   -0.003486    0.103822
O     6.562535   -1.114954    1.908737    0.002414   -0.008064    0.007362
H     0.082209    5.863546   -0.260682   -0.006748    0.004398   -0.010268
H    -5.374245    3.370270    0.891904   -0.006700    0.001998   -0.004066
H    -5.444492   -2.757470   -0.460166    0.006148   -0.001774   -0.000010
H    -0.246526   -5.829938   -0.628850    0.008990    0.009194    0.008682
H     5.298824   -3.428680    0.486326   -0.094802    0.016222    0.108844
H     5.323509    2.781271   -0.352514   -0.016672   -0.001812   -0.005620
H     1.918294    5.548531   -1.915495   -0.004110   -0.000660   -0.004496
H    -4.116253    5.440375    0.372800   -0.003038    0.001032   -0.002060
H    -6.695071   -0.926033   -1.546644    0.001428   -0.002344    0.003450
H    -2.098992   -5.393998   -2.216855   -0.011100   -0.007928   -0.007442
H     4.058070   -5.468705   -0.203930   -0.048486    0.017840    0.058342
H     6.516699    1.032044   -1.611882   -0.008660    0.002516    0.006866
H    -0.565549    5.258342   -2.477821    0.000412    0.009008   -0.006958
H    -5.030314    4.019253   -1.877004   -0.003084   -0.001590    0.000786
H    -4.517569   -1.945819   -3.027444   -0.003336   -0.010722    0.004560
H     0.397616   -5.052769   -2.817915   -0.001384    0.017044    0.013614
H     4.868374   -3.792584   -2.318301   -0.020220    0.016630    0.061960
H     4.307699    2.167668   -2.962520   -0.010084   -0.010826   -0.007966
H     1.124334    2.613676   -1.671185   -0.008970    0.000036   -0.019512
H    -2.504385    3.678206   -1.542925   -0.001090    0.000350   -0.000070
H    -3.958057    0.368150   -1.969157   -0.000276   -0.005170   -0.003076
H    -1.283695   -2.475585   -1.845384    0.007020   -0.015402   -0.003792
H     2.369105   -3.529943   -1.863737   -0.008100   -0.000784    0.008612
H     3.754339   -0.210497   -2.045534   -0.001090   -0.017310   -0.000478
H     1.980591    3.389690   -3.751557    0.008984   -0.008134   -0.003788
H    -2.929109    6.062608   -1.911066    0.001928   -0.000034    0.000352
H    -5.788147    0.755577   -3.475825   -0.005260   -0.002778    0.002816
H    -2.192148   -3.175077   -3.941418   -0.009990   -0.012036   -0.000574
H     2.779182   -5.843240   -2.520559   -0.008356    0.002312    0.060036
H     5.523014   -0.466449   -3.655472   -0.002898   -0.000452    0.001042
H     3.725553    4.019223   -0.880775   -0.005310   -0.009974   -0.006150
H    -1.547344    5.008230    1.045168   -0.007616    0.006508    0.000712
H    -6.175056    1.420309   -0.170067    0.002214   -0.002772    0.000868
H    -3.839246   -3.938571   -1.030504    0.003738    0.003292    0.012368
H     1.472207   -5.146577    0.575390   -0.036198    0.160038    0.123150
H     6.045921   -1.420768   -0.452093    0.005418   -0.011956    0.000286
H     1.576188    2.851518    0.972026   -0.025192    0.028366    0.006444
H    -2.118224    2.085521    0.334245   -0.022966    0.005074    0.001036
H    -3.587176    0.127257    0.812920    0.001392   -0.011810    0.004376
H    -1.620686   -2.801096    0.761119    0.023318   -0.029142    0.029614
H     1.983624   -2.159033    0.253084    0.067292    0.095090   -0.268810
H     3.520775   -0.242979    0.758603    0.010492   -0.020796   -0.006494
H     3.915258    2.870849    1.874375    0.004556    0.011246    0.004398
H     2.828929    4.011148    2.724262    0.003642    0.024848    0.006558
H    -4.904133   -0.131464    2.902248    0.005284    0.001730    0.001258
H    -4.697723    1.578081    2.461465   -0.002394    0.001760   -0.000180
H    -3.902617   -2.830633    1.768165    0.002538    0.000470    0.002672
H    -2.777104   -3.983185    2.534779    0.012222    0.006224   -0.001924
H     4.996442   -0.118429    2.804011    0.019668    0.005646    0.008258
H     4.690699   -1.781121    2.241463   -0.004560    0.004274    0.017294
H     3.812483    5.651187    1.451467    0.012502    0.007676   -0.004208
H    -7.018023    0.030862    2.052531    0.002078   -0.003240    0.004156
H    -3.816782   -5.602938    1.274650    0.006420    0.002212    0.004502
H     7.037792   -0.275821    1.824132    0.005322   -0.009062    0.008384
C     0.868899   -1.257261    3.738169    0.142388    0.134536    0.019776
H     1.459865   -0.716571    4.477252    0.178228   -0.033390    0.145522
H     0.201777   -1.982055    4.205594   -0.095300    0.249116   -0.145118
O     0.435482   -3.700711    2.531354   -0.022322    0.059162   -0.057830
C    -0.916381    0.571650    3.582903    0.083146   -0.127014   -0.159990
H    -1.590710   -0.045665    4.169954    0.183176   -0.475458   -0.409606
H    -0.355485    1.263188    4.203828   -0.217714   -0.126962    0.073726
O    -0.406073    3.121468    2.734836    0.016412   -0.052358   -0.000628
C     0.060566   -0.332668    2.774900    0.660960    0.415142   -0.194272
O    -0.511612   -1.089101    1.841865    0.456012   -0.323814   -0.044556
H    -1.108395   -0.330552    0.450925    0.117368   -0.209100   -0.002202
O    -1.271035    0.083889   -0.428717    0.094212   -0.057890    0.093020
H     0.448111    0.127708   -0.558911   -0.020802    0.029810    0.203140
O     1.372208    0.080239   -0.205319   -0.027778    0.056354    0.238526
H     1.126890    0.275619    0.947400   -0.405818   -0.366584   -0.394810
O     0.987821    0.539605    2.142132   -0.442708   -0.552432   -0.084040
H     1.879368    0.394961    2.528804   -0.262212   -0.394242   -0.239612
H     1.898217    0.838885   -0.536180   -0.016878    0.151926    0.362768
H    -1.889191   -0.516600   -0.859344    0.076032    0.011772    0.026710
139
* Frequency(6) -217.0100
C     0.575020    4.888915   -0.360814   -0.003370    0.005776   -0.001398
C    -4.379806    3.296579    0.432197   -0.004288    0.001408    0.001500
C    -4.974647   -1.770339   -0.553549    0.003024   -0.000354    0.001226
C    -0.699124   -4.831739   -0.672764   -0.009940   -0.000516   -0.003866
C     4.292376   -3.337912    0.072508   -0.071882    0.023316    0.057850
C     4.839754    1.809879   -0.503208   -0.011866   -0.004150    0.001390
O    -0.336423    3.835140   -0.165121    0.002070   -0.001724    0.015430
O    -4.313447    2.263181   -0.499160    0.003490   -0.002390    0.003718
O    -3.595019   -1.898161   -0.806350    0.004200    0.004554    0.000118
O     0.264051   -3.833760   -0.472904   -0.035832    0.020318   -0.043336
O     4.151550   -2.211819   -0.734386   -0.004934   -0.000702    0.013314
O     3.447801    1.976259   -0.686364   -0.021640   -0.014070    0.028404
C     1.186368    4.739784   -1.765589   -0.003736   -0.000896   -0.002108
C    -4.019981    4.595360   -0.317098   -0.000758   -0.000290   -0.000706
C    -5.613707   -0.983436   -1.710268    0.001244   -0.000704    0.001082
C    -1.350826   -4.601272   -2.048087   -0.011990   -0.008240   -0.005484
C     3.933144   -4.557212   -0.799284   -0.038250    0.014774    0.053570
C     5.432671    1.113018   -1.739740   -0.008562   -0.000930    0.002628
O     0.220961    4.771519   -2.783471   -0.004758   -0.005084   -0.001614
O    -4.889796    4.845283   -1.384603    0.000934   -0.000456   -0.002614
O    -5.432544   -1.614438   -2.948414    0.000332    0.001286   -0.000322
O    -0.417573   -4.595199   -3.095623   -0.006566   -0.007606   -0.001926
O     4.772187   -4.670056   -1.914136   -0.020518    0.014976    0.060622
O     5.229668    1.846239   -2.916104   -0.005292   -0.001370    0.002378
C     1.898880    3.382047   -1.810949   -0.004678   -0.003178   -0.003376
C    -2.568003    4.501289   -0.815079    0.000582   -0.000616    0.000864
C    -5.027861    0.434179   -1.718446    0.001020   -0.000702   -0.000044
C    -2.055554   -3.240076   -2.006875   -0.003464   -0.004132   -0.001618
C     2.465843   -4.426985   -1.234930   -0.027406    0.016392    0.036686
C     4.833248   -0.295723   -1.847537   -0.000596   -0.006556    0.002488
O     2.578576    3.166599   -3.022799    0.003392   -0.002744    0.001420
O    -2.163805    5.707204   -1.428197    0.000532    0.000024    0.001030
O    -5.688977    1.254670   -2.649335    0.002070    0.000182   -0.000144
O    -2.768982   -2.971382   -3.188777   -0.003548    0.004506    0.000154
O     2.041347   -5.561088   -1.961578   -0.021674    0.008816    0.038724
O     5.446984   -1.036466   -2.874090    0.003554   -0.001402    0.001094
C     2.925765    3.298585   -0.676290   -0.008986   -0.002712    0.001220
C    -1.613383    4.167665    0.342860   -0.001712    0.002790    0.004466
C    -5.135016    1.112005   -0.344743    0.002430   -0.001178    0.000180
C    -3.044935   -3.206341   -0.838624    0.004816    0.004822    0.004534
C     1.543960   -4.237372   -0.020002   -0.045448    0.089402    0.018838
C     5.002661   -1.086238   -0.541978    0.007456   -0.006132    0.005854
C     2.284648    3.636363    0.682988   -0.006272    0.011766    0.003018
C    -2.151130    2.920350    1.051002   -0.009666    0.002942    0.004534
C    -4.682475    0.181730    0.799652    0.001756   -0.002528    0.000492
C    -2.343648   -3.576773    0.480046    0.003878   -0.002478    0.004806
C     2.085565   -3.102735    0.853834   -0.100672    0.188926   -0.083764
C     4.612051   -0.257345    0.697421    0.009718   -0.003742    0.004274
O     1.583640    4.876804    0.608961   -0.003776    0.012360   -0.000330
O    -3.480190    3.110965    1.505045   -0.007220    0.006516    0.004772
O    -5.225382   -1.133807    0.661978   -0.002568   -0.000728    0.000008
O    -1.670911   -4.827318    0.334886   -0.016036   -0.012736   -0.009636
O     3.446036   -3.296929    1.204725   -0.130346    0.087304    0.021640
O     5.114611    1.081662    0.652517   -0.008762    0.002706    0.005336
C     3.344641    3.795810    1.781239   -0.001852    0.008162    0.004082
C    -1.311861    2.491888    2.252107   -0.003506   -0.021866   -0.011670
C    -5.181509    0.644154    2.179296    0.001682   -0.000452    0.000062
C    -3.345376   -3.757740    1.625335    0.003188    0.001078    0.002518
C     1.280227   -2.934088    2.149962   -0.392104    0.449810   -0.175886
C     5.187376   -0.840433    2.001574    0.003944   -0.000336    0.009224
O     4.277147    4.802547    1.476216    0.003790    0.002996   -0.003438
O    -1.721563    1.306889    2.661760    0.039758   -0.053010   -0.084660
O    -6.566289    0.875030    2.197241    0.000802   -0.002144   -0.000842
O    -4.290144   -4.761496    1.353196    0.002208   -0.000596    0.003852
O     1.755336   -1.906155    2.835628    0.069480   -0.003486    0.103822
O     6.562272   -1.114076    1.907935    0.002414   -0.008064    0.007362
H     0.082944    5.863066   -0.259564   -0.006748    0.004398   -0.010268
H    -5.373515    3.370052    0.892347   -0.006700    0.001998   -0.004066
H    -5.445162   -2.757276   -0.460165    0.006148   -0.001774   -0.000010
H    -0.247506   -5.830940   -0.629796    0.008990    0.009194    0.008682
H     5.309155   -3.430447    0.474465   -0.094802    0.016222    0.108844
H     5.325326    2.781469   -0.351902   -0.016672   -0.001812   -0.005620
H     1.918742    5.548603   -1.915005   -0.004110   -0.000660   -0.004496
H    -4.115922    5.440262    0.373024   -0.003038    0.001032   -0.002060
H    -6.695227   -0.925778   -1.547020    0.001428   -0.002344    0.003450
H    -2.097782   -5.393134   -2.216044   -0.011100   -0.007928   -0.007442
H     4.063354   -5.470649   -0.210288   -0.048486    0.017840    0.058342
H     6.517643    1.031770   -1.612630   -0.008660    0.002516    0.006866
H    -0.565594    5.257360   -2.477063    0.000412    0.009008   -0.006958
H    -5.029978    4.019426   -1.877090   -0.003084   -0.001590    0.000786
H    -4.517205   -1.944651   -3.027941   -0.003336   -0.010722    0.004560
H     0.397767   -5.054626   -2.819399   -0.001384    0.017044    0.013614
H     4.870577   -3.794396   -2.325053   -0.020220    0.016630    0.061960
H     4.308798    2.168847   -2.961652   -0.010084   -0.010826   -0.007966
H     1.125311    2.613672   -1.669059   -0.008970    0.000036   -0.019512
H    -2.504266    3.678168   -1.542917   -0.001090    0.000350   -0.000070
H    -3.958027    0.368713   -1.968822   -0.000276   -0.005170   -0.003076
H    -1.284460   -2.473906   -1.844970    0.007020   -0.015402   -0.003792
H     2.369987   -3.529857   -1.864676   -0.008100   -0.000784    0.008612
H     3.754458   -0.208610   -2.045482   -0.001090   -0.017310   -0.000478
H     1.979612    3.390576   -3.751144    0.008984   -0.008134   -0.003788
H    -2.929319    6.062612   -1.911105    0.001928   -0.000034    0.000352
H    -5.787574    0.755880   -3.476132   -0.005260   -0.002778    0.002816
H    -2.191060   -3.173765   -3.941355   -0.009990   -0.012036   -0.000574
H     2.780093   -5.843492   -2.527101   -0.008356    0.002312    0.060036
H     5.523330   -0.466400   -3.655586   -0.002898   -0.000452    0.001042
H     3.726132    4.020309   -0.880105   -0.005310   -0.009974   -0.006150
H    -1.546514    5.007521    1.045090   -0.007616    0.006508    0.000712
H    -6.175297    1.420611   -0.170162    0.002214   -0.002772    0.000868
H    -3.839654   -3.938929   -1.031852    0.003738    0.003292    0.012368
H     1.476152   -5.164017    0.561969   -0.036198    0.160038    0.123150
H     6.045330   -1.419465   -0.452125    0.005418   -0.011956    0.000286
H     1.578934    2.848427    0.971324   -0.025192    0.028366    0.006444
H    -2.115721    2.084968    0.334132   -0.022966    0.005074    0.001036
H    -3.587328    0.128544    0.812443    0.001392   -0.011810    0.004376
H    -1.623227   -2.797920    0.757892    0.023318   -0.029142    0.029614
H     1.976291   -2.169395    0.282377    0.067292    0.095090   -0.268810
H     3.519631   -0.240713    0.759311    0.010492   -0.020796   -0.006494
H     3.914761    2.869624    1.873895    0.004556    0.011246    0.004398
H     2.828532    4.008440    2.723548    0.003642    0.024848    0.006558
H    -4.904709   -0.131652    2.902110    0.005284    0.001730    0.001258
H    -4.697462    1.577889    2.461485   -0.002394    0.001760   -0.000180
H    -3.902894   -2.830684    1.767874    0.002538    0.000470    0.002672
H    -2.778436   -3.983863    2.534989    0.012222    0.006224   -0.001924
H     4.994299   -0.119045    2.803111    0.019668    0.005646    0.008258
H     4.691196   -1.781587    2.239578   -0.004560    0.004274    0.017294
H     3.811120    5.650350    1.451926    0.012502    0.007676   -0.004208
H    -7.018249    0.031215    2.052078    0.002078   -0.003240    0.004156
H    -3.817481   -5.603179    1.274159    0.006420    0.002212    0.004502
H     7.037212   -0.274833    1.823218    0.005322   -0.009062    0.008384
C     0.853383   -1.271922    3.736014    0.142388    0.134536    0.019776
H     1.440442   -0.712933    4.461394    0.178228   -0.033390    0.145522
H     0.212162   -2.009202    4.221408   -0.095300    0.249116   -0.145118
O     0.437914   -3.707158    2.537656   -0.022322    0.059162   -0.057830
C    -0.925442    0.585491    3.600337    0.083146   -0.127014   -0.159990
H    -1.610672    0.006148    4.214590    0.183176   -0.475458   -0.409606
H    -0.331760    1.277024    4.195794   -0.217714   -0.126962    0.073726
O    -0.407862    3.127174    2.734905    0.016412   -0.052358   -0.000628
C    -0.011461   -0.377907    2.796070    0.660960    0.415142   -0.194272
O    -0.561305   -1.053814    1.846720    0.456012   -0.323814   -0.044556
H    -1.121185   -0.307766    0.451165    0.117368   -0.209100   -0.002202
O    -1.281302    0.090197   -0.438853    0.094212   -0.057890    0.093020
H     0.450378    0.124459   -0.581047   -0.020802    0.029810    0.203140
O     1.375235    0.074097   -0.231312   -0.027778    0.056354    0.238526
H     1.171114    0.315567    0.990424   -0.405818   -0.366584   -0.394810
O     1.036064    0.599805    2.151291   -0.442708   -0.552432   -0.084040
H     1.907942    0.437922    2.554915   -0.262212   -0.394242   -0.239612
H     1.900057    0.822329   -0.575712   -0.016878    0.151926    0.362768
H    -1.897477   -0.517883   -0.862254    0.076032    0.011772    0.026710
139
* Frequency(6) -217.0100
C     0.575408    4.888249   -0.360652   -0.003370    0.005776   -0.001398
C    -4.379312    3.296417    0.432025   -0.004288    0.001408    0.001500
C    -4.974995   -1.770299   -0.553691    0.003024   -0.000354    0.001226
C    -0.697978   -4.831679   -0.672318   -0.009940   -0.000516   -0.003866
C     4.300658   -3.340598    0.065842   -0.071882    0.023316    0.057850
C     4.841122    1.810357   -0.503368   -0.011866   -0.004150    0.001390
O    -0.336661    3.835338   -0.166899    0.002070   -0.001724    0.015430
O    -4.313849    2.263457   -0.499588    0.003490   -0.002390    0.003718
O    -3.595503   -1.898685   -0.806364    0.004200    0.004554    0.000118
O     0.268179   -3.836100   -0.467910   -0.035832    0.020318   -0.043336
O     4.152118   -2.211739   -0.735920   -0.004934   -0.000702    0.013314
O     3.450295    1.977881   -0.689636   -0.021640   -0.014070    0.028404
C     1.186798    4.739888   -1.765347   -0.003736   -0.000896   -0.002108
C    -4.019893    4.595394   -0.317016   -0.000758   -0.000290   -0.000706
C    -5.613851   -0.983354   -1.710392    0.001244   -0.000704    0.001082
C    -1.349444   -4.600322   -2.047455   -0.011990   -0.008240   -0.005484
C     3.937552   -4.558914   -0.805456   -0.038250    0.014774    0.053570
C     5.433657    1.113126   -1.740042   -0.008562   -0.000930    0.002628
O     0.221509    4.772105   -2.783285   -0.004758   -0.005084   -0.001614
O    -4.889904    4.845335   -1.384301    0.000934   -0.000456   -0.002614
O    -5.432582   -1.614586   -2.948376    0.000332    0.001286   -0.000322
O    -0.416817   -4.594323   -3.095401   -0.006566   -0.007606   -0.001926
O     4.774551   -4.671782   -1.921120   -0.020518    0.014976    0.060622
O     5.230278    1.846397   -2.916378   -0.005292   -0.001370    0.002378
C     1.899418    3.382413   -1.810561   -0.004678   -0.003178   -0.003376
C    -2.568071    4.501359   -0.815179    0.000582   -0.000616    0.000864
C    -5.027979    0.434259   -1.718440    0.001020   -0.000702   -0.000044
C    -2.055154   -3.239600   -2.006689   -0.003464   -0.004132   -0.001618
C     2.469001   -4.428873   -1.239156   -0.027406    0.016392    0.036686
C     4.833316   -0.294967   -1.847823   -0.000596   -0.006556    0.002488
O     2.578186    3.166915   -3.022963    0.003392   -0.002744    0.001420
O    -2.163867    5.707202   -1.428315    0.000532    0.000024    0.001030
O    -5.689215    1.254650   -2.649319    0.002070    0.000182   -0.000144
O    -2.768574   -2.971902   -3.188795   -0.003548    0.004506    0.000154
O     2.043845   -5.562104   -1.966040   -0.021674    0.008816    0.038724
O     5.446574   -1.036304   -2.874216    0.003554   -0.001402    0.001094
C     2.926801    3.298897   -0.676430   -0.008986   -0.002712    0.001220
C    -1.613185    4.167343    0.342346   -0.001712    0.002790    0.004466
C    -5.135296    1.112141   -0.344763    0.002430   -0.001178    0.000180
C    -3.045489   -3.206897   -0.839146    0.004816    0.004822    0.004534
C     1.549196   -4.247672   -0.022172   -0.045448    0.089402    0.018838
C     5.001801   -1.085532   -0.542652    0.007456   -0.006132    0.005854
C     2.285370    3.635007    0.682640   -0.006272    0.011766    0.003018
C    -2.150016    2.920012    1.050480   -0.009666    0.002942    0.004534
C    -4.682677    0.182022    0.799596    0.001756   -0.002528    0.000492
C    -2.344094   -3.576487    0.479492    0.003878   -0.002478    0.004806
C     2.097165   -3.124503    0.863484   -0.100672    0.188926   -0.083764
C     4.610931   -0.256913    0.696929    0.009718   -0.003742    0.004274
O     1.584076    4.875380    0.608999   -0.003776    0.012360   -0.000330
O    -3.479358    3.110215    1.504495   -0.007220    0.006516    0.004772
O    -5.225086   -1.133723    0.661978   -0.002568   -0.000728    0.000008
O    -1.669063   -4.825850    0.335996   -0.016036   -0.012736   -0.009636
O     3.461054   -3.306987    1.202231   -0.130346    0.087304    0.021640
O     5.115621    1.081350    0.651903   -0.008762    0.002706    0.005336
C     3.344855    3.794870    1.780769   -0.001852    0.008162    0.004082
C    -1.311457    2.494408    2.253451   -0.003506   -0.021866   -0.011670
C    -5.181703    0.644206    2.179288    0.001682   -0.000452    0.000062
C    -3.345744   -3.757864    1.625045    0.003188    0.001078    0.002518
C     1.325403   -2.985914    2.170226   -0.392104    0.449810   -0.175886
C     5.186922   -0.840395    2.000512    0.003944   -0.000336    0.009224
O     4.276711    4.802201    1.476612    0.003790    0.002996   -0.003438
O    -1.726143    1.312997    2.671514    0.039758   -0.053010   -0.084660
O    -6.566381    0.875278    2.197339    0.000802   -0.002144   -0.000842
O    -4.290398   -4.761428    1.352752    0.002208   -0.000596    0.003852
O     1.747330   -1.905753    2.823666    0.069480   -0.003486    0.103822
O     6.561994   -1.113146    1.907087    0.002414   -0.008064    0.007362
H     0.083722    5.862560   -0.258380   -0.006748    0.004398   -0.010268
H    -5.372743    3.369822    0.892815   -0.006700    0.001998   -0.004066
H    -5.445870   -2.757072   -0.460163    0.006148   -0.001774   -0.000010
H    -0.248542   -5.832000   -0.630796    0.008990    0.009194    0.008682
H     5.320077   -3.432317    0.461925   -0.094802    0.016222    0.108844
H     5.327246    2.781677   -0.351254   -0.016672   -0.001812   -0.005620
H     1.919216    5.548679   -1.914487   -0.004110   -0.000660   -0.004496
H    -4.115572    5.440144    0.373262   -0.003038    0.001032   -0.002060
H    -6.695391   -0.925508   -1.547418    0.001428   -0.002344    0.003450
H    -2.096504   -5.392220   -2.215186   -0.011100   -0.007928   -0.007442
H     4.068940   -5.472705   -0.217010   -0.048486    0.017840    0.058342
H     6.518641    1.031480   -1.613422   -0.008660    0.002516    0.006866
H    -0.565642    5.256322   -2.476261    0.000412    0.009008   -0.006958
H    -5.029622    4.019610   -1.877180   -0.003084   -0.001590    0.000786
H    -4.516821   -1.943415   -3.028467   -0.003336   -0.010722    0.004560
H     0.397927   -5.056590   -2.820967   -0.001384    0.017044    0.013614
H     4.872907   -3.796312   -2.332191   -0.020220    0.016630    0.061960
H     4.309960    2.170095   -2.960734   -0.010084   -0.010826   -0.007966
H     1.126345    2.613668   -1.666811   -0.008970    0.000036   -0.019512
H    -2.504140    3.678128   -1.542909   -0.001090    0.000350   -0.000070
H    -3.957995    0.369309   -1.968468   -0.000276   -0.005170   -0.003076
H    -1.285268   -2.472132   -1.844534    0.007020   -0.015402   -0.003792
H     2.370921   -3.529767   -1.865668   -0.008100   -0.000784    0.008612
H     3.754584   -0.206616   -2.045426   -0.001090   -0.017310   -0.000478
H     1.978576    3.391514   -3.750708    0.008984   -0.008134   -0.003788
H    -2.929541    6.062616   -1.911145    0.001928   -0.000034    0.000352
H    -5.786968    0.756200   -3.476456   -0.005260   -0.002778    0.002816
H    -2.189908   -3.172379   -3.941289   -0.009990   -0.012036   -0.000574
H     2.781055   -5.843758   -2.534019   -0.008356    0.002312    0.060036
H     5.523664   -0.466348   -3.655706   -0.002898   -0.000452    0.001042
H     3.726744    4.021459   -0.879397   -0.005310   -0.009974   -0.006150
H    -1.545636    5.006771    1.045008   -0.007616    0.006508    0.000712
H    -6.175553    1.420931   -0.170262    0.002214   -0.002772    0.000868
H    -3.840084   -3.939309   -1.033276    0.003738    0.003292    0.012368
H     1.480322   -5.182455    0.547781   -0.036198    0.160038    0.123150
H     6.044706   -1.418087   -0.452157    0.005418   -0.011956    0.000286
H     1.581836    2.845159    0.970582   -0.025192    0.028366    0.006444
H    -2.113075    2.084384    0.334012   -0.022966    0.005074    0.001036
H    -3.587488    0.129904    0.811939    0.001392   -0.011810    0.004376
H    -1.625913   -2.794562    0.754480    0.023318   -0.029142    0.029614
H     1.968537   -2.180351    0.313349    0.067292    0.095090   -0.268810
H     3.518423   -0.238317    0.760059    0.010492   -0.020796   -0.006494
H     3.914237    2.868328    1.873389    0.004556    0.011246    0.004398
H     2.828112    4.005578    2.722792    0.003642    0.024848    0.006558
H    -4.905317   -0.131852    2.901966    0.005284    0.001730    0.001258
H    -4.697186    1.577687    2.461505   -0.002394    0.001760   -0.000180
H    -3.903186   -2.830738    1.767566    0.002538    0.000470    0.002672
H    -2.779844   -3.984581    2.535211    0.012222    0.006224   -0.001924
H     4.992033   -0.119695    2.802159    0.019668    0.005646    0.008258
H     4.691722   -1.782079    2.237586   -0.004560    0.004274    0.017294
H     3.809680    5.649466    1.452410    0.012502    0.007676   -0.004208
H    -7.018489    0.031589    2.051600    0.002078   -0.003240    0.004156
H    -3.818221   -5.603433    1.273641    0.006420    0.002212    0.004502
H     7.036598   -0.273789    1.822252    0.005322   -0.009062    0.008384
C     0.836977   -1.287422    3.733736    0.142388    0.134536    0.019776
H     1.419908   -0.709085    4.444628    0.178228   -0.033390    0.145522
H     0.223142   -2.037904    4.238128   -0.095300    0.249116   -0.145118
O     0.440486   -3.713974    2.544318   -0.022322    0.059162   -0.057830
C    -0.935022    0.600125    3.618771    0.083146   -0.127014   -0.159990
H    -1.631776    0.060928    4.261784    0.183176   -0.475458   -0.409606
H    -0.306676    1.291652    4.187300   -0.217714   -0.126962    0.073726
O    -0.409752    3.133206    2.734977    0.016412   -0.052358   -0.000628
C    -0.087615   -0.425739    2.818454    0.660960    0.415142   -0.194272
O    -0.613845   -1.016506    1.851854    0.456012   -0.323814   -0.044556
H    -1.134707   -0.283674    0.451419    0.117368   -0.209100   -0.002202
O    -1.292156    0.096867   -0.449571    0.094212   -0.057890    0.093020
H     0.452774    0.121025   -0.604453   -0.020802    0.029810    0.203140
O     1.378435    0.067605   -0.258794   -0.027778    0.056354    0.238526
H     1.217870    0.357803    1.035912   -0.405818   -0.366584   -0.394810
O     1.087072    0.663455    2.160973   -0.442708   -0.552432   -0.084040
H     1.938154    0.483346    2.582523   -0.262212   -0.394242   -0.239612
H     1.902001    0.804825   -0.617508   -0.016878    0.151926    0.362768
H    -1.906237   -0.519239   -0.865332    0.076032    0.011772    0.026710
139
* Frequency(6) -217.0100
C     0.575775    4.887620   -0.360500   -0.003370    0.005776   -0.001398
C    -4.378845    3.296263    0.431861   -0.004288    0.001408    0.001500
C    -4.975325   -1.770260   -0.553824    0.003024   -0.000354    0.001226
C    -0.696895   -4.831623   -0.671897   -0.009940   -0.000516   -0.003866
C     4.308491   -3.343139    0.059538   -0.071882    0.023316    0.057850
C     4.842415    1.810809   -0.503520   -0.011866   -0.004150    0.001390
O    -0.336887    3.835526   -0.168580    0.002070   -0.001724    0.015430
O    -4.314229    2.263717   -0.499993    0.003490   -0.002390    0.003718
O    -3.595961   -1.899182   -0.806377    0.004200    0.004554    0.000118
O     0.272084   -3.838315   -0.463188   -0.035832    0.020318   -0.043336
O     4.152656   -2.211662   -0.737371   -0.004934   -0.000702    0.013314
O     3.452653    1.979414   -0.692732   -0.021640   -0.014070    0.028404
C     1.187205    4.739985   -1.765117   -0.003736   -0.000896   -0.002108
C    -4.019811    4.595425   -0.316939   -0.000758   -0.000290   -0.000706
C    -5.613986   -0.983278   -1.710510    0.001244   -0.000704    0.001082
C    -1.348138   -4.599424   -2.046857   -0.011990   -0.008240   -0.005484
C     3.941720   -4.560524   -0.811294   -0.038250    0.014774    0.053570
C     5.434590    1.113227   -1.740329   -0.008562   -0.000930    0.002628
O     0.222028    4.772659   -2.783109   -0.004758   -0.005084   -0.001614
O    -4.890006    4.845385   -1.384017    0.000934   -0.000456   -0.002614
O    -5.432618   -1.614726   -2.948341    0.000332    0.001286   -0.000322
O    -0.416101   -4.593494   -3.095191   -0.006566   -0.007606   -0.001926
O     4.776787   -4.673414   -1.927727   -0.020518    0.014976    0.060622
O     5.230855    1.846546   -2.916637   -0.005292   -0.001370    0.002378
C     1.899928    3.382759   -1.810193   -0.004678   -0.003178   -0.003376
C    -2.568134    4.501427   -0.815273    0.000582   -0.000616    0.000864
C    -5.028090    0.434336   -1.718436    0.001020   -0.000702   -0.000044
C    -2.054777   -3.239150   -2.006512   -0.003464   -0.004132   -0.001618
C     2.471987   -4.430660   -1.243154   -0.027406    0.016392    0.036686
C     4.833381   -0.294253   -1.848094   -0.000596   -0.006556    0.002488
O     2.577816    3.167214   -3.023118    0.003392   -0.002744    0.001420
O    -2.163925    5.707199   -1.428428    0.000532    0.000024    0.001030
O    -5.689441    1.254630   -2.649303    0.002070    0.000182   -0.000144
O    -2.768187   -2.972393   -3.188812   -0.003548    0.004506    0.000154
O     2.046206   -5.563065   -1.970260   -0.021674    0.008816    0.038724
O     5.446187   -1.036151   -2.874335    0.003554   -0.001402    0.001094
C     2.927780    3.299193   -0.676563   -0.008986   -0.002712    0.001220
C    -1.612999    4.167039    0.341859   -0.001712    0.002790    0.004466
C    -5.135561    1.112269   -0.344783    0.002430   -0.001178    0.000180
C    -3.046014   -3.207422   -0.839640    0.004816    0.004822    0.004534
C     1.554149   -4.257415   -0.024225   -0.045448    0.089402    0.018838
C     5.000989   -1.084864   -0.543290    0.007456   -0.006132    0.005854
C     2.286054    3.633725    0.682311   -0.006272    0.011766    0.003018
C    -2.148963    2.919691    1.049986   -0.009666    0.002942    0.004534
C    -4.682869    0.182297    0.799542    0.001756   -0.002528    0.000492
C    -2.344517   -3.576217    0.478968    0.003878   -0.002478    0.004806
C     2.108135   -3.145091    0.872613   -0.100672    0.188926   -0.083764
C     4.609872   -0.256506    0.696463    0.009718   -0.003742    0.004274
O     1.584487    4.874033    0.609035   -0.003776    0.012360   -0.000330
O    -3.478571    3.109505    1.503975   -0.007220    0.006516    0.004772
O    -5.224806   -1.133644    0.661977   -0.002568   -0.000728    0.000008
O    -1.667316   -4.824462    0.337046   -0.016036   -0.012736   -0.009636
O     3.475258   -3.316501    1.199873   -0.130346    0.087304    0.021640
O     5.116576    1.081055    0.651321   -0.008762    0.002706    0.005336
C     3.345057    3.793980    1.780324   -0.001852    0.008162    0.004082
C    -1.311075    2.496790    2.254723   -0.003506   -0.021866   -0.011670
C    -5.181886    0.644255    2.179282    0.001682   -0.000452    0.000062
C    -3.346091   -3.757982    1.624771    0.003188    0.001078    0.002518
C     1.368132   -3.034931    2.189393   -0.392104    0.449810   -0.175886
C     5.186492   -0.840358    1.999506    0.003944   -0.000336    0.009224
O     4.276298    4.801875    1.476987    0.003790    0.002996   -0.003438
O    -1.730476    1.318773    2.680740    0.039758   -0.053010   -0.084660
O    -6.566469    0.875511    2.197430    0.000802   -0.002144   -0.000842
O    -4.290639   -4.761363    1.352332    0.002208   -0.000596    0.003852
O     1.739759   -1.905373    2.812352    0.069480   -0.003486    0.103822
O     6.561731   -1.112268    1.906285    0.002414   -0.008064    0.007362
H     0.084457    5.862080   -0.257262   -0.006748    0.004398   -0.010268
H    -5.372013    3.369604    0.893258   -0.006700    0.001998   -0.004066
H    -5.446540   -2.756878   -0.460162    0.006148   -0.001774   -0.000010
H    -0.249522   -5.833002   -0.631742    0.008990    0.009194    0.008682
H     5.330408   -3.434084    0.450064   -0.094802    0.016222    0.108844
H     5.329063    2.781875   -0.350642   -0.016672   -0.001812   -0.005620
H     1.919664    5.548751   -1.913997   -0.004110   -0.000660   -0.004496
H    -4.115241    5.440031    0.373486   -0.003038    0.001032   -0.002060
H    -6.695547   -0.925253   -1.547794    0.001428   -0.002344    0.003450
H    -2.095294   -5.391356   -2.214375   -0.011100   -0.007928   -0.007442
H     4.074224   -5.474649   -0.223368   -0.048486    0.017840    0.058342
H     6.519585    1.031206   -1.614170   -0.008660    0.002516    0.006866
H    -0.565687    5.255340   -2.475503    0.000412    0.009008   -0.006958
H    -5.029286    4.019783   -1.877266   -0.003084   -0.001590    0.000786
H    -4.516457   -1.942247   -3.028964   -0.003336   -0.010722    0.004560
H     0.398078   -5.058447   -2.822451   -0.001384    0.017044    0.013614
H     4.875110   -3.798124   -2.338943   -0.020220    0.016630    0.061960
H     4.311059    2.171274   -2.959866   -0.010084   -0.010826   -0.007966
H     1.127322    2.613664   -1.664685   -0.008970    0.000036   -0.019512
H    -2.504021    3.678090   -1.542901   -0.001090    0.000350   -0.000070
H    -3.957965    0.369872   -1.968133   -0.000276   -0.005170   -0.003076
H    -1.286033   -2.470453   -1.844120    0.007020   -0.015402   -0.003792
H     2.371803   -3.529681   -1.866607   -0.008100   -0.000784    0.008612
H     3.754703   -0.204729   -2.045374   -0.001090   -0.017310   -0.000478
H     1.977597    3.392400   -3.750295    0.008984   -0.008134   -0.003788
H    -2.929751    6.062620   -1.911184    0.001928   -0.000034    0.000352
H    -5.786395    0.756503   -3.476763   -0.005260   -0.002778    0.002816
H    -2.188820   -3.171067   -3.941226   -0.009990   -0.012036   -0.000574
H     2.781966   -5.844010   -2.540561   -0.008356    0.002312    0.060036
H     5.523980   -0.466299   -3.655820   -0.002898   -0.000452    0.001042
H     3.727323    4.022545   -0.878727   -0.005310   -0.009974   -0.006150
H    -1.544806    5.006062    1.044930   -0.007616    0.006508    0.000712
H    -6.175794    1.421233   -0.170357    0.002214   -0.002772    0.000868
H    -3.840492   -3.939667   -1.034624    0.003738    0.003292    0.012368
H     1.484267   -5.199895    0.534360   -0.036198    0.160038    0.123150
H     6.044115   -1.416784   -0.452189    0.005418   -0.011956    0.000286
H     1.584582    2.842068    0.969880   -0.025192    0.028366    0.006444
H    -2.110572    2.083831    0.333899   -0.022966    0.005074    0.001036
H    -3.587640    0.131191    0.811462    0.001392   -0.011810    0.004376
H    -1.628454   -2.791386    0.751253    0.023318   -0.029142    0.029614
H     1.961204   -2.190713    0.342642    0.067292    0.095090   -0.268810
H     3.517279   -0.236051    0.760767    0.010492   -0.020796   -0.006494
H     3.913740    2.867103    1.872909    0.004556    0.011246    0.004398
H     2.827715    4.002870    2.722078    0.003642    0.024848    0.006558
H    -4.905893   -0.132040    2.901828    0.005284    0.001730    0.001258
H    -4.696925    1.577495    2.461525   -0.002394    0.001760   -0.000180
H    -3.903463   -2.830789    1.767275    0.002538    0.000470    0.002672
H    -2.781176   -3.985259    2.535421    0.012222    0.006224   -0.001924
H     4.989890   -0.120311    2.801259    0.019668    0.005646    0.008258
H     4.692219   -1.782545    2.235701   -0.004560    0.004274    0.017294
H     3.808317    5.648629    1.452869    0.012502    0.007676   -0.004208
H    -7.018715    0.031942    2.051147    0.002078   -0.003240    0.004156
H    -3.818920   -5.603674    1.273150    0.006420    0.002212    0.004502
H     7.036018   -0.272801    1.821338    0.005322   -0.009062    0.008384
C     0.821461   -1.302083    3.731581    0.142388    0.134536    0.019776
H     1.400485   -0.705447    4.428770    0.178228   -0.033390    0.145522
H     0.233527   -2.065051    4.253942   -0.095300    0.249116   -0.145118
O     0.442918   -3.720421    2.550620   -0.022322    0.059162   -0.057830
C    -0.944083    0.613966    3.636205    0.083146   -0.127014   -0.159990
H    -1.651738    0.112741    4.306420    0.183176   -0.475458   -0.409606
H    -0.282951    1.305488    4.179266   -0.217714   -0.126962    0.073726
O    -0.411541    3.138912    2.735046    0.016412   -0.052358   -0.000628
C    -0.159642   -0.470978    2.839624    0.660960    0.415142   -0.194272
O    -0.663538   -0.981219    1.856709    0.456012   -0.323814   -0.044556
H    -1.147497   -0.260888    0.451659    0.117368   -0.209100   -0.002202
O    -1.302423    0.103175   -0.459707    0.094212   -0.057890    0.093020
H     0.455041    0.117776   -0.626589   -0.020802    0.029810    0.203140
O     1.381462    0.061463   -0.284787   -0.027778    0.056354    0.238526
H     1.262094    0.397751    1.078936   -0.405818   -0.366584   -0.394810
O     1.135315    0.723655    2.170132   -0.442708   -0.552432   -0.084040
H     1.966728    0.526307    2.608634   -0.262212   -0.394242   -0.239612
H     1.903841    0.788269   -0.657040   -0.016878    0.151926    0.362768
H    -1.914523   -0.520522   -0.868242    0.076032    0.011772    0.026710
139
* Frequency(6) -217.0100
C     0.576082    4.887095   -0.360373   -0.003370    0.005776   -0.001398
C    -4.378455    3.296135    0.431725   -0.004288    0.001408    0.001500
C    -4.975600   -1.770228   -0.553936    0.003024   -0.000354    0.001226
C    -0.695991   -4.831576   -0.671545   -0.009940   -0.000516   -0.003866
C     4.315027   -3.345259    0.054278   -0.071882    0.023316    0.057850
C     4.843494    1.811187   -0.503646   -0.011866   -0.004150    0.001390
O    -0.337075    3.835683   -0.169983    0.002070   -0.001724    0.015430
O    -4.314547    2.263934   -0.500331    0.003490   -0.002390    0.003718
O    -3.596343   -1.899596   -0.806387    0.004200    0.004554    0.000118
O     0.275342   -3.840162   -0.459248   -0.035832    0.020318   -0.043336
O     4.153105   -2.211598   -0.738581   -0.004934   -0.000702    0.013314
O     3.454620    1.980693   -0.695314   -0.021640   -0.014070    0.028404
C     1.187545    4.740067   -1.764925   -0.003736   -0.000896   -0.002108
C    -4.019742    4.595452   -0.316875   -0.000758   -0.000290   -0.000706
C    -5.614099   -0.983214   -1.710609    0.001244   -0.000704    0.001082
C    -1.347048   -4.598675   -2.046359   -0.011990   -0.008240   -0.005484
C     3.945198   -4.561867   -0.816164   -0.038250    0.014774    0.053570
C     5.435369    1.113311   -1.740568   -0.008562   -0.000930    0.002628
O     0.222460    4.773121   -2.782962   -0.004758   -0.005084   -0.001614
O    -4.890091    4.845426   -1.383779    0.000934   -0.000456   -0.002614
O    -5.432648   -1.614843   -2.948312    0.000332    0.001286   -0.000322
O    -0.415504   -4.592802   -3.095016   -0.006566   -0.007606   -0.001926
O     4.778652   -4.674775   -1.933238   -0.020518    0.014976    0.060622
O     5.231336    1.846671   -2.916853   -0.005292   -0.001370    0.002378
C     1.900354    3.383048   -1.809886   -0.004678   -0.003178   -0.003376
C    -2.568187    4.501483   -0.815351    0.000582   -0.000616    0.000864
C    -5.028183    0.434400   -1.718432    0.001020   -0.000702   -0.000044
C    -2.054462   -3.238774   -2.006365   -0.003464   -0.004132   -0.001618
C     2.474479   -4.432150   -1.246490   -0.027406    0.016392    0.036686
C     4.833435   -0.293657   -1.848321   -0.000596   -0.006556    0.002488
O     2.577508    3.167464   -3.023247    0.003392   -0.002744    0.001420
O    -2.163973    5.707197   -1.428521    0.000532    0.000024    0.001030
O    -5.689629    1.254613   -2.649290    0.002070    0.000182   -0.000144
O    -2.767864   -2.972802   -3.188826   -0.003548    0.004506    0.000154
O     2.048177   -5.563866   -1.973781   -0.021674    0.008816    0.038724
O     5.445864   -1.036024   -2.874435    0.003554   -0.001402    0.001094
C     2.928597    3.299439   -0.676674   -0.008986   -0.002712    0.001220
C    -1.612843    4.166786    0.341453   -0.001712    0.002790    0.004466
C    -5.135782    1.112376   -0.344799    0.002430   -0.001178    0.000180
C    -3.046452   -3.207861   -0.840053    0.004816    0.004822    0.004534
C     1.558281   -4.265543   -0.025938   -0.045448    0.089402    0.018838
C     5.000311   -1.084306   -0.543822    0.007456   -0.006132    0.005854
C     2.286624    3.632655    0.682037   -0.006272    0.011766    0.003018
C    -2.148084    2.919423    1.049573   -0.009666    0.002942    0.004534
C    -4.683028    0.182527    0.799497    0.001756   -0.002528    0.000492
C    -2.344870   -3.575992    0.478531    0.003878   -0.002478    0.004806
C     2.117288   -3.162268    0.880229   -0.100672    0.188926   -0.083764
C     4.608989   -0.256165    0.696074    0.009718   -0.003742    0.004274
O     1.584830    4.872909    0.609065   -0.003776    0.012360   -0.000330
O    -3.477915    3.108912    1.503541   -0.007220    0.006516    0.004772
O    -5.224573   -1.133578    0.661976   -0.002568   -0.000728    0.000008
O    -1.665858   -4.823304    0.337922   -0.016036   -0.012736   -0.009636
O     3.487110   -3.324439    1.197906   -0.130346    0.087304    0.021640
O     5.117372    1.080809    0.650836   -0.008762    0.002706    0.005336
C     3.345225    3.793238    1.779953   -0.001852    0.008162    0.004082
C    -1.310756    2.498779    2.255784   -0.003506   -0.021866   -0.011670
C    -5.182039    0.644296    2.179276    0.001682   -0.000452    0.000062
C    -3.346381   -3.758080    1.624542    0.003188    0.001078    0.002518
C     1.403783   -3.075829    2.205385   -0.392104    0.449810   -0.175886
C     5.186133   -0.840327    1.998668    0.003944   -0.000336    0.009224
O     4.275953    4.801603    1.477299    0.003790    0.002996   -0.003438
O    -1.734091    1.323593    2.688437    0.039758   -0.053010   -0.084660
O    -6.566542    0.875706    2.197507    0.000802   -0.002144   -0.000842
O    -4.290840   -4.761309    1.351982    0.002208   -0.000596    0.003852
O     1.733442   -1.905056    2.802912    0.069480   -0.003486    0.103822
O     6.561511   -1.111534    1.905615    0.002414   -0.008064    0.007362
H     0.085071    5.861681   -0.256328   -0.006748    0.004398   -0.010268
H    -5.371404    3.369423    0.893628   -0.006700    0.001998   -0.004066
H    -5.447099   -2.756717   -0.460161    0.006148   -0.001774   -0.000010
H    -0.250339   -5.833837   -0.632532    0.008990    0.009194    0.008682
H     5.339028   -3.435559    0.440167   -0.094802    0.016222    0.108844
H     5.330579    2.782040   -0.350131   -0.016672   -0.001812   -0.005620
H     1.920037    5.548811   -1.913588   -0.004110   -0.000660   -0.004496
H    -4.114965    5.439937    0.373673   -0.003038    0.001032   -0.002060
H    -6.695677   -0.925039   -1.548107    0.001428   -0.002344    0.003450
H    -2.094285   -5.390636   -2.213699   -0.011100   -0.007928   -0.007442
H     4.078632   -5.476271   -0.228672   -0.048486    0.017840    0.058342
H     6.520372    1.030977   -1.614794   -0.008660    0.002516    0.006866
H    -0.565724    5.254521   -2.474870    0.000412    0.009008   -0.006958
H    -5.029006    4.019927   -1.877337   -0.003084   -0.001590    0.000786
H    -4.516154   -1.941272   -3.029378   -0.003336   -0.010722    0.004560
H     0.398203   -5.059997   -2.823689   -0.001384    0.017044    0.013614
H     4.876949   -3.799636   -2.344577   -0.020220    0.016630    0.061960
H     4.311976    2.172259   -2.959142   -0.010084   -0.010826   -0.007966
H     1.128138    2.613661   -1.662911   -0.008970    0.000036   -0.019512
H    -2.503922    3.678058   -1.542895   -0.001090    0.000350   -0.000070
H    -3.957940    0.370342   -1.967853   -0.000276   -0.005170   -0.003076
H    -1.286672   -2.469053   -1.843776    0.007020   -0.015402   -0.003792
H     2.372540   -3.529610   -1.867390   -0.008100   -0.000784    0.008612
H     3.754802   -0.203156   -2.045331   -0.001090   -0.017310   -0.000478
H     1.976781    3.393140   -3.749951    0.008984   -0.008134   -0.003788
H    -2.929926    6.062623   -1.911216    0.001928   -0.000034    0.000352
H    -5.785917    0.756755   -3.477019   -0.005260   -0.002778    0.002816
H    -2.187912   -3.169973   -3.941174   -0.009990   -0.012036   -0.000574
H     2.782726   -5.844220   -2.546019   -0.008356    0.002312    0.060036
H     5.524243   -0.466258   -3.655914   -0.002898   -0.000452    0.001042
H     3.727805    4.023452   -0.878167   -0.005310   -0.009974   -0.006150
H    -1.544114    5.005470    1.044866   -0.007616    0.006508    0.000712
H    -6.175995    1.421485   -0.170436    0.002214   -0.002772    0.000868
H    -3.840832   -3.939967   -1.035749    0.003738    0.003292    0.012368
H     1.487558   -5.214446    0.523163   -0.036198    0.160038    0.123150
H     6.043623   -1.415697   -0.452215    0.005418   -0.011956    0.000286
H     1.586872    2.839489    0.969294   -0.025192    0.028366    0.006444
H    -2.108484    2.083369    0.333805   -0.022966    0.005074    0.001036
H    -3.587766    0.132265    0.811064    0.001392   -0.011810    0.004376
H    -1.630574   -2.788737    0.748560    0.023318   -0.029142    0.029614
H     1.955086   -2.199359    0.367082    0.067292    0.095090   -0.268810
H     3.516325   -0.234160    0.761357    0.010492   -0.020796   -0.006494
H     3.913326    2.866080    1.872510    0.004556    0.011246    0.004398
H     2.827384    4.000611    2.721481    0.003642    0.024848    0.006558
H    -4.906374   -0.132197    2.901714    0.005284    0.001730    0.001258
H    -4.696708    1.577335    2.461541   -0.002394    0.001760   -0.000180
H    -3.903694   -2.830832    1.767032    0.002538    0.000470    0.002672
H    -2.782287   -3.985825    2.535595    0.012222    0.006224   -0.001924
H     4.988101   -0.120824    2.800509    0.019668    0.005646    0.008258
H     4.692633   -1.782934    2.234129   -0.004560    0.004274    0.017294
H     3.807181    5.647931    1.453252    0.012502    0.007676   -0.004208
H    -7.018904    0.032236    2.050769    0.002078   -0.003240    0.004156
H    -3.819504   -5.603876    1.272741    0.006420    0.002212    0.004502
H     7.035535   -0.271978    1.820576    0.005322   -0.009062    0.008384
C     0.808515   -1.314315    3.729783    0.142388    0.134536    0.019776
H     1.384281   -0.702411    4.415539    0.178228   -0.033390    0.145522
H     0.242192   -2.087701    4.267136   -0.095300    0.249116   -0.145118
O     0.444948   -3.725800    2.555878   -0.022322    0.059162   -0.057830
C    -0.951642    0.625515    3.650752    0.083146   -0.127014   -0.159990
H    -1.668392    0.155970    4.343662    0.183176   -0.475458   -0.409606
H    -0.263156    1.317031    4.172562   -0.217714   -0.126962    0.073726
O    -0.413033    3.143672    2.735103    0.016412   -0.052358   -0.000628
C    -0.219737   -0.508723    2.857288    0.660960    0.415142   -0.194272
O    -0.705000   -0.951777    1.860760    0.456012   -0.323814   -0.044556
H    -1.158169   -0.241876    0.451859    0.117368   -0.209100   -0.002202
O    -1.310989    0.108439   -0.468165    0.094212   -0.057890    0.093020
H     0.456933    0.115066   -0.645059   -0.020802    0.029810    0.203140
O     1.383988    0.056340   -0.306474   -0.027778    0.056354    0.238526
H     1.298992    0.431082    1.114833   -0.405818   -0.366584   -0.394810
O     1.175567    0.773883    2.177773   -0.442708   -0.552432   -0.084040
H     1.990568    0.562153    2.630420   -0.262212   -0.394242   -0.239612
H     1.905375    0.774456   -0.690024   -0.016878    0.151926    0.362768
H    -1.921435   -0.521592   -0.870671    0.076032    0.011772    0.026710
139
* Frequency(6) -217.0100
C     0.576294    4.886731   -0.360285   -0.003370    0.005776   -0.001398
C    -4.378185    3.296047    0.431630   -0.004288    0.001408    0.001500
C    -4.975790   -1.770206   -0.554013    0.003024   -0.000354    0.001226
C    -0.695365   -4.831544   -0.671302   -0.009940   -0.000516   -0.003866
C     4.319557   -3.346728    0.050633   -0.071882    0.023316    0.057850
C     4.844241    1.811448   -0.503734   -0.011866   -0.004150    0.001390
O    -0.337205    3.835792   -0.170956    0.002070   -0.001724    0.015430
O    -4.314767    2.264085   -0.500566    0.003490   -0.002390    0.003718
O    -3.596607   -1.899883   -0.806395    0.004200    0.004554    0.000118
O     0.277600   -3.841442   -0.456517   -0.035832    0.020318   -0.043336
O     4.153415   -2.211554   -0.739420   -0.004934   -0.000702    0.013314
O     3.455984    1.981580   -0.697104   -0.021640   -0.014070    0.028404
C     1.187780    4.740123   -1.764792   -0.003736   -0.000896   -0.002108
C    -4.019694    4.595470   -0.316831   -0.000758   -0.000290   -0.000706
C    -5.614178   -0.983169   -1.710677    0.001244   -0.000704    0.001082
C    -1.346292   -4.598156   -2.046013   -0.011990   -0.008240   -0.005484
C     3.947608   -4.562798   -0.819540   -0.038250    0.014774    0.053570
C     5.435908    1.113370   -1.740733   -0.008562   -0.000930    0.002628
O     0.222760    4.773442   -2.782861   -0.004758   -0.005084   -0.001614
O    -4.890149    4.845455   -1.383614    0.000934   -0.000456   -0.002614
O    -5.432669   -1.614924   -2.948292    0.000332    0.001286   -0.000322
O    -0.415090   -4.592323   -3.094895   -0.006566   -0.007606   -0.001926
O     4.779945   -4.675719   -1.937059   -0.020518    0.014976    0.060622
O     5.231669    1.846757   -2.917003   -0.005292   -0.001370    0.002378
C     1.900648    3.383249   -1.809673   -0.004678   -0.003178   -0.003376
C    -2.568224    4.501521   -0.815406    0.000582   -0.000616    0.000864
C    -5.028247    0.434444   -1.718429    0.001020   -0.000702   -0.000044
C    -2.054244   -3.238514   -2.006263   -0.003464   -0.004132   -0.001618
C     2.476206   -4.433183   -1.248802   -0.027406    0.016392    0.036686
C     4.833473   -0.293244   -1.848477   -0.000596   -0.006556    0.002488
O     2.577294    3.167637   -3.023336    0.003392   -0.002744    0.001420
O    -2.164007    5.707195   -1.428586    0.000532    0.000024    0.001030
O    -5.689759    1.254602   -2.649281    0.002070    0.000182   -0.000144
O    -2.767641   -2.973086   -3.188835   -0.003548    0.004506    0.000154
O     2.049543   -5.564422   -1.976221   -0.021674    0.008816    0.038724
O     5.445640   -1.035936   -2.874504    0.003554   -0.001402    0.001094
C     2.929163    3.299610   -0.676751   -0.008986   -0.002712    0.001220
C    -1.612735    4.166610    0.341172   -0.001712    0.002790    0.004466
C    -5.135935    1.112451   -0.344811    0.002430   -0.001178    0.000180
C    -3.046756   -3.208165   -0.840338    0.004816    0.004822    0.004534
C     1.561145   -4.271177   -0.027125   -0.045448    0.089402    0.018838
C     4.999841   -1.083920   -0.544191    0.007456   -0.006132    0.005854
C     2.287019    3.631914    0.681847   -0.006272    0.011766    0.003018
C    -2.147475    2.919238    1.049288   -0.009666    0.002942    0.004534
C    -4.683139    0.182686    0.799466    0.001756   -0.002528    0.000492
C    -2.345114   -3.575836    0.478229    0.003878   -0.002478    0.004806
C     2.123632   -3.174174    0.885507   -0.100672    0.188926   -0.083764
C     4.608376   -0.255930    0.695805    0.009718   -0.003742    0.004274
O     1.585068    4.872130    0.609086   -0.003776    0.012360   -0.000330
O    -3.477460    3.108501    1.503240   -0.007220    0.006516    0.004772
O    -5.224411   -1.133532    0.661975   -0.002568   -0.000728    0.000008
O    -1.664847   -4.822502    0.338530   -0.016036   -0.012736   -0.009636
O     3.495324   -3.329941    1.196542   -0.130346    0.087304    0.021640
O     5.117924    1.080639    0.650500   -0.008762    0.002706    0.005336
C     3.345342    3.792724    1.779696   -0.001852    0.008162    0.004082
C    -1.310535    2.500157    2.256519   -0.003506   -0.021866   -0.011670
C    -5.182145    0.644325    2.179272    0.001682   -0.000452    0.000062
C    -3.346582   -3.758148    1.624383    0.003188    0.001078    0.002518
C     1.428492   -3.104174    2.216469   -0.392104    0.449810   -0.175886
C     5.185885   -0.840306    1.998087    0.003944   -0.000336    0.009224
O     4.275714    4.801414    1.477516    0.003790    0.002996   -0.003438
O    -1.736596    1.326934    2.693772    0.039758   -0.053010   -0.084660
O    -6.566592    0.875841    2.197560    0.000802   -0.002144   -0.000842
O    -4.290979   -4.761271    1.351739    0.002208   -0.000596    0.003852
O     1.729063   -1.904837    2.796370    0.069480   -0.003486    0.103822
O     6.561359   -1.111026    1.905151    0.002414   -0.008064    0.007362
H     0.085496    5.861403   -0.255681   -0.006748    0.004398   -0.010268
H    -5.370982    3.369297    0.893884   -0.006700    0.001998   -0.004066
H    -5.447487   -2.756605   -0.460161    0.006148   -0.001774   -0.000010
H    -0.250905   -5.834417   -0.633079    0.008990    0.009194    0.008682
H     5.345002   -3.436581    0.433308   -0.094802    0.016222    0.108844
H     5.331630    2.782154   -0.349777   -0.016672   -0.001812   -0.005620
H     1.920296    5.548853   -1.913305   -0.004110   -0.000660   -0.004496
H    -4.114773    5.439872    0.373803   -0.003038    0.001032   -0.002060
H    -6.695767   -0.924892   -1.548325    0.001428   -0.002344    0.003450
H    -2.093585   -5.390136   -2.213230   -0.011100   -0.007928   -0.007442
H     4.081688   -5.477395   -0.232349   -0.048486    0.017840    0.058342
H     6.520918    1.030819   -1.615227   -0.008660    0.002516    0.006866
H    -0.565750    5.253954   -2.474432    0.000412    0.009008   -0.006958
H    -5.028812    4.020028   -1.877387   -0.003084   -0.001590    0.000786
H    -4.515944   -1.940596   -3.029666   -0.003336   -0.010722    0.004560
H     0.398291   -5.061071   -2.824547   -0.001384    0.017044    0.013614
H     4.878223   -3.800684   -2.348481   -0.020220    0.016630    0.061960
H     4.312611    2.172941   -2.958640   -0.010084   -0.010826   -0.007966
H     1.128703    2.613658   -1.661681   -0.008970    0.000036   -0.019512
H    -2.503854    3.678036   -1.542891   -0.001090    0.000350   -0.000070
H    -3.957923    0.370668   -1.967659   -0.000276   -0.005170   -0.003076
H    -1.287114   -2.468082   -1.843537    0.007020   -0.015402   -0.003792
H     2.373050   -3.529561   -1.867932   -0.008100   -0.000784    0.008612
H     3.754870   -0.202065   -2.045301   -0.001090   -0.017310   -0.000478
H     1.976214    3.393652   -3.749712    0.008984   -0.008134   -0.003788
H    -2.930048    6.062625   -1.911238    0.001928   -0.000034    0.000352
H    -5.785585    0.756930   -3.477197   -0.005260   -0.002778    0.002816
H    -2.187282   -3.169214   -3.941138   -0.009990   -0.012036   -0.000574
H     2.783252   -5.844366   -2.549803   -0.008356    0.002312    0.060036
H     5.524426   -0.466229   -3.655980   -0.002898   -0.000452    0.001042
H     3.728140    4.024081   -0.877780   -0.005310   -0.009974   -0.006150
H    -1.543634    5.005060    1.044821   -0.007616    0.006508    0.000712
H    -6.176135    1.421659   -0.170490    0.002214   -0.002772    0.000868
H    -3.841067   -3.940174   -1.036528    0.003738    0.003292    0.012368
H     1.489839   -5.224531    0.515403   -0.036198    0.160038    0.123150
H     6.043281   -1.414944   -0.452233    0.005418   -0.011956    0.000286
H     1.588460    2.837701    0.968888   -0.025192    0.028366    0.006444
H    -2.107037    2.083050    0.333740   -0.022966    0.005074    0.001036
H    -3.587854    0.133009    0.810788    0.001392   -0.011810    0.004376
H    -1.632044   -2.786900    0.746694    0.023318   -0.029142    0.029614
H     1.950846   -2.205351    0.384022    0.067292    0.095090   -0.268810
H     3.515664   -0.232849    0.761766    0.010492   -0.020796   -0.006494
H     3.913039    2.865371    1.872232    0.004556    0.011246    0.004398
H     2.827155    3.999045    2.721068    0.003642    0.024848    0.006558
H    -4.906707   -0.132307    2.901635    0.005284    0.001730    0.001258
H    -4.696557    1.577224    2.461553   -0.002394    0.001760   -0.000180
H    -3.903853   -2.830862    1.766864    0.002538    0.000470    0.002672
H    -2.783057   -3.986217    2.535717    0.012222    0.006224   -0.001924
H     4.986862   -0.121180    2.799988    0.019668    0.005646    0.008258
H     4.692921   -1.783203    2.233039   -0.004560    0.004274    0.017294
H     3.806393    5.647448    1.453517    0.012502    0.007676   -0.004208
H    -7.019035    0.032440    2.050507    0.002078   -0.003240    0.004156
H    -3.819909   -5.604015    1.272457    0.006420    0.002212    0.004502
H     7.035199   -0.271406    1.820048    0.005322   -0.009062    0.008384
C     0.799542   -1.322794    3.728536    0.142388    0.134536    0.019776
H     1.373049   -0.700307    4.406368    0.178228   -0.033390    0.145522
H     0.248198   -2.103400    4.276281   -0.095300    0.249116   -0.145118
O     0.446355   -3.729529    2.559523   -0.022322    0.059162   -0.057830
C    -0.956882    0.633519    3.660834    0.083146   -0.127014   -0.159990
H    -1.679936    0.185932    4.369474    0.183176   -0.475458   -0.409606
H    -0.249436    1.325032    4.167916   -0.217714   -0.126962    0.073726
O    -0.414067    3.146972    2.735142    0.016412   -0.052358   -0.000628
C    -0.261389   -0.534885    2.869530    0.660960    0.415142   -0.194272
O    -0.733736   -0.931371    1.863568    0.456012   -0.323814   -0.044556
H    -1.165565   -0.228699    0.451998    0.117368   -0.209100   -0.002202
O    -1.316926    0.112087   -0.474027    0.094212   -0.057890    0.093020
H     0.458243    0.113187   -0.657861   -0.020802    0.029810    0.203140
O     1.385738    0.052788   -0.321506   -0.027778    0.056354    0.238526
H     1.324565    0.454183    1.139713   -0.405818   -0.366584   -0.394810
O     1.203465    0.808696    2.183069   -0.442708   -0.552432   -0.084040
H     2.007092    0.586997    2.645520   -0.262212   -0.394242   -0.239612
H     1.906439    0.764882   -0.712885   -0.016878    0.151926    0.362768
H    -1.926227   -0.522334   -0.872354    0.076032    0.011772    0.026710
139
* Frequency(6) -217.0100
C     0.576389    4.886567   -0.360245   -0.003370    0.005776   -0.001398
C    -4.378063    3.296007    0.431588   -0.004288    0.001408    0.001500
C    -4.975876   -1.770196   -0.554048    0.003024   -0.000354    0.001226
C    -0.695084   -4.831529   -0.671193   -0.009940   -0.000516   -0.003866
C     4.321590   -3.347388    0.048997   -0.071882    0.023316    0.057850
C     4.844577    1.811566   -0.503773   -0.011866   -0.004150    0.001390
O    -0.337264    3.835840   -0.171392    0.002070   -0.001724    0.015430
O    -4.314865    2.264153   -0.500671    0.003490   -0.002390    0.003718
O    -3.596726   -1.900011   -0.806398    0.004200    0.004554    0.000118
O     0.278613   -3.842017   -0.455291   -0.035832    0.020318   -0.043336
O     4.153555   -2.211534   -0.739797   -0.004934   -0.000702    0.013314
O     3.456596    1.981978   -0.697907   -0.021640   -0.014070    0.028404
C     1.187886    4.740149   -1.764733   -0.003736   -0.000896   -0.002108
C    -4.019673    4.595478   -0.316811   -0.000758   -0.000290   -0.000706
C    -5.614213   -0.983149   -1.710707    0.001244   -0.000704    0.001082
C    -1.345953   -4.597923   -2.045858   -0.011990   -0.008240   -0.005484
C     3.948690   -4.563216   -0.821055   -0.038250    0.014774    0.053570
C     5.436150    1.113396   -1.740808   -0.008562   -0.000930    0.002628
O     0.222895    4.773585   -2.782815   -0.004758   -0.005084   -0.001614
O    -4.890176    4.845468   -1.383540    0.000934   -0.000456   -0.002614
O    -5.432679   -1.614961   -2.948283    0.000332    0.001286   -0.000322
O    -0.414905   -4.592108   -3.094840   -0.006566   -0.007606   -0.001926
O     4.780526   -4.676143   -1.938773   -0.020518    0.014976    0.060622
O     5.231819    1.846796   -2.917070   -0.005292   -0.001370    0.002378
C     1.900781    3.383339   -1.809577   -0.004678   -0.003178   -0.003376
C    -2.568240    4.501539   -0.815430    0.000582   -0.000616    0.000864
C    -5.028276    0.434464   -1.718428    0.001020   -0.000702   -0.000044
C    -2.054146   -3.238397   -2.006218   -0.003464   -0.004132   -0.001618
C     2.476981   -4.433647   -1.249839   -0.027406    0.016392    0.036686
C     4.833490   -0.293058   -1.848548   -0.000596   -0.006556    0.002488
O     2.577198    3.167714   -3.023376    0.003392   -0.002744    0.001420
O    -2.164022    5.707195   -1.428615    0.000532    0.000024    0.001030
O    -5.689818    1.254597   -2.649277    0.002070    0.000182   -0.000144
O    -2.767540   -2.973214   -3.188840   -0.003548    0.004506    0.000154
O     2.050156   -5.564671   -1.977316   -0.021674    0.008816    0.038724
O     5.445539   -1.035896   -2.874535    0.003554   -0.001402    0.001094
C     2.929417    3.299687   -0.676786   -0.008986   -0.002712    0.001220
C    -1.612687    4.166531    0.341045   -0.001712    0.002790    0.004466
C    -5.136004    1.112484   -0.344816    0.002430   -0.001178    0.000180
C    -3.046892   -3.208301   -0.840466    0.004816    0.004822    0.004534
C     1.562430   -4.273706   -0.027658   -0.045448    0.089402    0.018838
C     4.999630   -1.083746   -0.544357    0.007456   -0.006132    0.005854
C     2.287197    3.631581    0.681761   -0.006272    0.011766    0.003018
C    -2.147201    2.919155    1.049160   -0.009666    0.002942    0.004534
C    -4.683189    0.182758    0.799452    0.001756   -0.002528    0.000492
C    -2.345224   -3.575766    0.478093    0.003878   -0.002478    0.004806
C     2.126480   -3.179517    0.887876   -0.100672    0.188926   -0.083764
C     4.608101   -0.255824    0.695684    0.009718   -0.003742    0.004274
O     1.585175    4.871781    0.609095   -0.003776    0.012360   -0.000330
O    -3.477256    3.108317    1.503106   -0.007220    0.006516    0.004772
O    -5.224338   -1.133511    0.661975   -0.002568   -0.000728    0.000008
O    -1.664394   -4.822142    0.338802   -0.016036   -0.012736   -0.009636
O     3.499010   -3.332410    1.195930   -0.130346    0.087304    0.021640
O     5.118172    1.080562    0.650349   -0.008762    0.002706    0.005336
C     3.345394    3.792493    1.779580   -0.001852    0.008162    0.004082
C    -1.310436    2.500775    2.256850   -0.003506   -0.021866   -0.011670
C    -5.182193    0.644338    2.179270    0.001682   -0.000452    0.000062
C    -3.346672   -3.758178    1.624312    0.003188    0.001078    0.002518
C     1.439583   -3.116897    2.221444   -0.392104    0.449810   -0.175886
C     5.185773   -0.840297    1.997826    0.003944   -0.000336    0.009224
O     4.275607    4.801329    1.477613    0.003790    0.002996   -0.003438
O    -1.737721    1.328433    2.696167    0.039758   -0.053010   -0.084660
O    -6.566615    0.875902    2.197584    0.000802   -0.002144   -0.000842
O    -4.291041   -4.761254    1.351630    0.002208   -0.000596    0.003852
O     1.727098   -1.904738    2.793433    0.069480   -0.003486    0.103822
O     6.561291   -1.110798    1.904943    0.002414   -0.008064    0.007362
H     0.085687    5.861279   -0.255390   -0.006748    0.004398   -0.010268
H    -5.370792    3.369240    0.893999   -0.006700    0.001998   -0.004066
H    -5.447660   -2.756555   -0.460161    0.006148   -0.001774   -0.000010
H    -0.251160   -5.834677   -0.633324    0.008990    0.009194    0.008682
H     5.347683   -3.437040    0.430230   -0.094802    0.016222    0.108844
H     5.332101    2.782205   -0.349618   -0.016672   -0.001812   -0.005620
H     1.920413    5.548871   -1.913178   -0.004110   -0.000660   -0.004496
H    -4.114687    5.439843    0.373862   -0.003038    0.001032   -0.002060
H    -6.695807   -0.924825   -1.548422    0.001428   -0.002344    0.003450
H    -2.093271   -5.389912   -2.213019   -0.011100   -0.007928   -0.007442
H     4.083059   -5.477900   -0.233999   -0.048486    0.017840    0.058342
H     6.521163    1.030747   -1.615421   -0.008660    0.002516    0.006866
H    -0.565762    5.253699   -2.474235    0.000412    0.009008   -0.006958
H    -5.028724    4.020073   -1.877409   -0.003084   -0.001590    0.000786
H    -4.515849   -1.940293   -3.029795   -0.003336   -0.010722    0.004560
H     0.398330   -5.061553   -2.824932   -0.001384    0.017044    0.013614
H     4.878795   -3.801155   -2.350234   -0.020220    0.016630    0.061960
H     4.312896    2.173247   -2.958414   -0.010084   -0.010826   -0.007966
H     1.128957    2.613657   -1.661129   -0.008970    0.000036   -0.019512
H    -2.503823    3.678026   -1.542889   -0.001090    0.000350   -0.000070
H    -3.957915    0.370814   -1.967572   -0.000276   -0.005170   -0.003076
H    -1.287313   -2.467647   -1.843429    0.007020   -0.015402   -0.003792
H     2.373279   -3.529539   -1.868176   -0.008100   -0.000784    0.008612
H     3.754901   -0.201575   -2.045287   -0.001090   -0.017310   -0.000478
H     1.975960    3.393882   -3.749605    0.008984   -0.008134   -0.003788
H    -2.930102    6.062626   -1.911248    0.001928   -0.000034    0.000352
H    -5.785436    0.757009   -3.477276   -0.005260   -0.002778    0.002816
H    -2.186999   -3.168874   -3.941122   -0.009990   -0.012036   -0.000574
H     2.783489   -5.844431   -2.551501   -0.008356    0.002312    0.060036
H     5.524508   -0.466216   -3.656009   -0.002898   -0.000452    0.001042
H     3.728290    4.024363   -0.877606   -0.005310   -0.009974   -0.006150
H    -1.543419    5.004876    1.044801   -0.007616    0.006508    0.000712
H    -6.176197    1.421738   -0.170515    0.002214   -0.002772    0.000868
H    -3.841173   -3.940267   -1.036878    0.003738    0.003292    0.012368
H     1.490863   -5.229058    0.511920   -0.036198    0.160038    0.123150
H     6.043128   -1.414606   -0.452241    0.005418   -0.011956    0.000286
H     1.589172    2.836899    0.968705   -0.025192    0.028366    0.006444
H    -2.106387    2.082906    0.333711   -0.022966    0.005074    0.001036
H    -3.587894    0.133343    0.810665    0.001392   -0.011810    0.004376
H    -1.632703   -2.786076    0.745857    0.023318   -0.029142    0.029614
H     1.948942   -2.208041    0.391625    0.067292    0.095090   -0.268810
H     3.515367   -0.232261    0.761950    0.010492   -0.020796   -0.006494
H     3.912910    2.865053    1.872108    0.004556    0.011246    0.004398
H     2.827052    3.998342    2.720883    0.003642    0.024848    0.006558
H    -4.906856   -0.132355    2.901599    0.005284    0.001730    0.001258
H    -4.696489    1.577174    2.461558   -0.002394    0.001760   -0.000180
H    -3.903925   -2.830875    1.766788    0.002538    0.000470    0.002672
H    -2.783403   -3.986393    2.535771    0.012222    0.006224   -0.001924
H     4.986306   -0.121339    2.799755    0.019668    0.005646    0.008258
H     4.693050   -1.783324    2.232550   -0.004560    0.004274    0.017294
H     3.806039    5.647231    1.453636    0.012502    0.007676   -0.004208
H    -7.019094    0.032532    2.050389    0.002078   -0.003240    0.004156
H    -3.820090   -5.604078    1.272330    0.006420    0.002212    0.004502
H     7.035049   -0.271150    1.819811    0.005322   -0.009062    0.008384
C     0.795514   -1.326599    3.727977    0.142388    0.134536    0.019776
H     1.368008   -0.699362    4.402252    0.178228   -0.033390    0.145522
H     0.250893   -2.110446    4.280386   -0.095300    0.249116   -0.145118
O     0.446986   -3.731202    2.561158   -0.022322    0.059162   -0.057830
C    -0.959234    0.637111    3.665359    0.083146   -0.127014   -0.159990
H    -1.685117    0.199380    4.381059    0.183176   -0.475458   -0.409606
H    -0.243278    1.328623    4.165831   -0.217714   -0.126962    0.073726
O    -0.414532    3.148453    2.735160    0.016412   -0.052358   -0.000628
C    -0.280084   -0.546626    2.875025    0.660960    0.415142   -0.194272
O    -0.746634   -0.922212    1.864828    0.456012   -0.323814   -0.044556
H    -1.168884   -0.222785    0.452060    0.117368   -0.209100   -0.002202
O    -1.319591    0.113724   -0.476658    0.094212   -0.057890    0.093020
H     0.458832    0.112344   -0.663606   -0.020802    0.029810    0.203140
O     1.386524    0.051194   -0.328252   -0.027778    0.056354    0.238526
H     1.336043    0.464551    1.150880   -0.405818   -0.366584   -0.394810
O     1.215987    0.824321    2.185446   -0.442708   -0.552432   -0.084040
H     2.014509    0.598147    2.652297   -0.262212   -0.394242   -0.239612
H     1.906916    0.760585   -0.723145   -0.016878    0.151926    0.362768
H    -1.928377   -0.522667   -0.873110    0.076032    0.011772    0.026710
139
* Frequency(6) -217.0100
C     0.576357    4.886622   -0.360259   -0.003370    0.005776   -0.001398
C    -4.378104    3.296020    0.431602   -0.004288    0.001408    0.001500
C    -4.975847   -1.770199   -0.554036    0.003024   -0.000354    0.001226
C    -0.695178   -4.831534   -0.671229   -0.009940   -0.000516   -0.003866
C     4.320906   -3.347166    0.049547   -0.071882    0.023316    0.057850
C     4.844464    1.811526   -0.503760   -0.011866   -0.004150    0.001390
O    -0.337244    3.835824   -0.171245    0.002070   -0.001724    0.015430
O    -4.314832    2.264130   -0.500635    0.003490   -0.002390    0.003718
O    -3.596686   -1.899968   -0.806397    0.004200    0.004554    0.000118
O     0.278272   -3.841824   -0.455704   -0.035832    0.020318   -0.043336
O     4.153508   -2.211541   -0.739670   -0.004934   -0.000702    0.013314
O     3.456390    1.981844   -0.697637   -0.021640   -0.014070    0.028404
C     1.187851    4.740140   -1.764753   -0.003736   -0.000896   -0.002108
C    -4.019680    4.595475   -0.316817   -0.000758   -0.000290   -0.000706
C    -5.614201   -0.983156   -1.710697    0.001244   -0.000704    0.001082
C    -1.346067   -4.598001   -2.045910   -0.011990   -0.008240   -0.005484
C     3.948326   -4.563076   -0.820546   -0.038250    0.014774    0.053570
C     5.436069    1.113388   -1.740783   -0.008562   -0.000930    0.002628
O     0.222849    4.773537   -2.782830   -0.004758   -0.005084   -0.001614
O    -4.890167    4.845464   -1.383565    0.000934   -0.000456   -0.002614
O    -5.432676   -1.614948   -2.948286    0.000332    0.001286   -0.000322
O    -0.414967   -4.592180   -3.094859   -0.006566   -0.007606   -0.001926
O     4.780331   -4.676000   -1.938196   -0.020518    0.014976    0.060622
O     5.231769    1.846783   -2.917048   -0.005292   -0.001370    0.002378
C     1.900736    3.383308   -1.809610   -0.004678   -0.003178   -0.003376
C    -2.568234    4.501533   -0.815422    0.000582   -0.000616    0.000864
C    -5.028266    0.434457   -1.718428    0.001020   -0.000702   -0.000044
C    -2.054179   -3.238436   -2.006233   -0.003464   -0.004132   -0.001618
C     2.476721   -4.433491   -1.249490   -0.027406    0.016392    0.036686
C     4.833484   -0.293121   -1.848524   -0.000596   -0.006556    0.002488
O     2.577230    3.167688   -3.023363    0.003392   -0.002744    0.001420
O    -2.164017    5.707195   -1.428605    0.000532    0.000024    0.001030
O    -5.689798    1.254598   -2.649278    0.002070    0.000182   -0.000144
O    -2.767574   -2.973171   -3.188838   -0.003548    0.004506    0.000154
O     2.049950   -5.564587   -1.976948   -0.021674    0.008816    0.038724
O     5.445573   -1.035909   -2.874524    0.003554   -0.001402    0.001094
C     2.929332    3.299661   -0.676774   -0.008986   -0.002712    0.001220
C    -1.612703    4.166557    0.341088   -0.001712    0.002790    0.004466
C    -5.135980    1.112473   -0.344814    0.002430   -0.001178    0.000180
C    -3.046846   -3.208255   -0.840423    0.004816    0.004822    0.004534
C     1.561998   -4.272855   -0.027479   -0.045448    0.089402    0.018838
C     4.999701   -1.083804   -0.544301    0.007456   -0.006132    0.005854
C     2.287137    3.631693    0.681790   -0.006272    0.011766    0.003018
C    -2.147293    2.919183    1.049203   -0.009666    0.002942    0.004534
C    -4.683172    0.182734    0.799457    0.001756   -0.002528    0.000492
C    -2.345187   -3.575789    0.478138    0.003878   -0.002478    0.004806
C     2.125522   -3.177720    0.887079   -0.100672    0.188926   -0.083764
C     4.608194   -0.255859    0.695725    0.009718   -0.003742    0.004274
O     1.585139    4.871898    0.609092   -0.003776    0.012360   -0.000330
O    -3.477324    3.108379    1.503151   -0.007220    0.006516    0.004772
O    -5.224363   -1.133518    0.661975   -0.002568   -0.000728    0.000008
O    -1.664546   -4.822263    0.338710   -0.016036   -0.012736   -0.009636
O     3.497770   -3.331579    1.196136   -0.130346    0.087304    0.021640
O     5.118089    1.080588    0.650400   -0.008762    0.002706    0.005336
C     3.345376    3.792571    1.779619   -0.001852    0.008162    0.004082
C    -1.310469    2.500567    2.256739   -0.003506   -0.021866   -0.011670
C    -5.182177    0.644333    2.179271    0.001682   -0.000452    0.000062
C    -3.346642   -3.758168    1.624336    0.003188    0.001078    0.002518
C     1.435852   -3.112617    2.219770   -0.392104    0.449810   -0.175886
C     5.185811   -0.840300    1.997913    0.003944   -0.000336    0.009224
O     4.275643    4.801357    1.477580    0.003790    0.002996   -0.003438
O    -1.737342    1.327929    2.695361    0.039758   -0.053010   -0.084660
O    -6.566607    0.875881    2.197576    0.000802   -0.002144   -0.000842
O    -4.291020   -4.761260    1.351667    0.002208   -0.000596    0.003852
O     1.727759   -1.904771    2.794421    0.069480   -0.003486    0.103822
O     6.561314   -1.110875    1.905013    0.002414   -0.008064    0.007362
H     0.085623    5.861321   -0.255488   -0.006748    0.004398   -0.010268
H    -5.370856    3.369259    0.893961   -0.006700    0.001998   -0.004066
H    -5.447602   -2.756572   -0.460161    0.006148   -0.001774   -0.000010
H    -0.251074   -5.834589   -0.633242    0.008990    0.009194    0.008682
H     5.346781   -3.436886    0.431265   -0.094802    0.016222    0.108844
H     5.331943    2.782188   -0.349671   -0.016672   -0.001812   -0.005620
H     1.920373    5.548865   -1.913221   -0.004110   -0.000660   -0.004496
H    -4.114716    5.439853    0.373842   -0.003038    0.001032   -0.002060
H    -6.695794   -0.924848   -1.548390    0.001428   -0.002344    0.003450
H    -2.093377   -5.389987   -2.213090   -0.011100   -0.007928   -0.007442
H     4.082598   -5.477730   -0.233444   -0.048486    0.017840    0.058342
H     6.521080    1.030771   -1.615356   -0.008660    0.002516    0.006866
H    -0.565758    5.253785   -2.474301    0.000412    0.009008   -0.006958
H    -5.028754    4.020057   -1.877402   -0.003084   -0.001590    0.000786
H    -4.515881   -1.940395   -3.029751   -0.003336   -0.010722    0.004560
H     0.398317   -5.061391   -2.824802   -0.001384    0.017044    0.013614
H     4.878602   -3.800996   -2.349644   -0.020220    0.016630    0.061960
H     4.312800    2.173144   -2.958490   -0.010084   -0.010826   -0.007966
H     1.128871    2.613658   -1.661315   -0.008970    0.000036   -0.019512
H    -2.503833    3.678029   -1.542889   -0.001090    0.000350   -0.000070
H    -3.957917    0.370765   -1.967601   -0.000276   -0.005170   -0.003076
H    -1.287246   -2.467793   -1.843465    0.007020   -0.015402   -0.003792
H     2.373202   -3.529546   -1.868094   -0.008100   -0.000784    0.008612
H     3.754891   -0.201740   -2.045292   -0.001090   -0.017310   -0.000478
H     1.976046    3.393805   -3.749641    0.008984   -0.008134   -0.003788
H    -2.930084    6.062626   -1.911244    0.001928   -0.000034    0.000352
H    -5.785486    0.756983   -3.477249   -0.005260   -0.002778    0.002816
H    -2.187094   -3.168988   -3.941127   -0.009990   -0.012036   -0.000574
H     2.783409   -5.844409   -2.550930   -0.008356    0.002312    0.060036
H     5.524480   -0.466221   -3.656000   -0.002898   -0.000452    0.001042
H     3.728240    4.024268   -0.877664   -0.005310   -0.009974   -0.006150
H    -1.543491    5.004938    1.044807   -0.007616    0.006508    0.000712
H    -6.176176    1.421712   -0.170507    0.002214   -0.002772    0.000868
H    -3.841137   -3.940236   -1.036760    0.003738    0.003292    0.012368
H     1.490519   -5.227535    0.513091   -0.036198    0.160038    0.123150
H     6.043180   -1.414719   -0.452238    0.005418   -0.011956    0.000286
H     1.588932    2.837169    0.968767   -0.025192    0.028366    0.006444
H    -2.106606    2.082954    0.333720   -0.022966    0.005074    0.001036
H    -3.587880    0.133231    0.810706    0.001392   -0.011810    0.004376
H    -1.632482   -2.786353    0.746138    0.023318   -0.029142    0.029614
H     1.949582   -2.207136    0.389068    0.067292    0.095090   -0.268810
H     3.515467   -0.232459    0.761888    0.010492   -0.020796   -0.006494
H     3.912953    2.865160    1.872150    0.004556    0.011246    0.004398
H     2.827086    3.998578    2.720945    0.003642    0.024848    0.006558
H    -4.906806   -0.132339    2.901611    0.005284    0.001730    0.001258
H    -4.696512    1.577191    2.461556   -0.002394    0.001760   -0.000180
H    -3.903901   -2.830870    1.766813    0.002538    0.000470    0.002672
H    -2.783287   -3.986334    2.535753    0.012222    0.006224   -0.001924
H     4.986493   -0.121286    2.799833    0.019668    0.005646    0.008258
H     4.693006   -1.783283    2.232714   -0.004560    0.004274    0.017294
H     3.806158    5.647304    1.453596    0.012502    0.007676   -0.004208
H    -7.019074    0.032501    2.050429    0.002078   -0.003240    0.004156
H    -3.820029   -5.604057    1.272373    0.006420    0.002212    0.004502
H     7.035099   -0.271236    1.819890    0.005322   -0.009062    0.008384
C     0.796869   -1.325319    3.728165    0.142388    0.134536    0.019776
H     1.369704   -0.699680    4.403637    0.178228   -0.033390    0.145522
H     0.249986   -2.108076    4.279005   -0.095300    0.249116   -0.145118
O     0.446774   -3.730639    2.560608   -0.022322    0.059162   -0.057830
C    -0.958443    0.635903    3.663837    0.083146   -0.127014   -0.159990
H    -1.683374    0.194856    4.377162    0.183176   -0.475458   -0.409606
H    -0.245350    1.327415    4.166532   -0.217714   -0.126962    0.073726
O    -0.414375    3.147955    2.735154    0.016412   -0.052358   -0.000628
C    -0.273795   -0.542677    2.873177    0.660960    0.415142   -0.194272
O    -0.742295   -0.925293    1.864404    0.456012   -0.323814   -0.044556
H    -1.167768   -0.224774    0.452039    0.117368   -0.209100   -0.002202
O    -1.318694    0.113174   -0.475773    0.094212   -0.057890    0.093020
H     0.458634    0.112628   -0.661673   -0.020802    0.029810    0.203140
O     1.386260    0.051731   -0.325983   -0.027778    0.056354    0.238526
H     1.332182    0.461063    1.147123   -0.405818   -0.366584   -0.394810
O     1.211774    0.819065    2.184646   -0.442708   -0.552432   -0.084040
H     2.012014    0.594396    2.650017   -0.262212   -0.394242   -0.239612
H     1.906756    0.762030   -0.719694   -0.016878    0.151926    0.362768
H    -1.927654   -0.522555   -0.872855    0.076032    0.011772    0.026710
139
* Frequency(6) -217.0100
C     0.576201    4.886890   -0.360323   -0.003370    0.005776   -0.001398
C    -4.378303    3.296085    0.431671   -0.004288    0.001408    0.001500
C    -4.975707   -1.770215   -0.553979    0.003024   -0.000354    0.001226
C    -0.695638   -4.831558   -0.671408   -0.009940   -0.000516   -0.003866
C     4.317579   -3.346087    0.052224   -0.071882    0.023316    0.057850
C     4.843915    1.811334   -0.503695   -0.011866   -0.004150    0.001390
O    -0.337149    3.835744   -0.170531    0.002070   -0.001724    0.015430
O    -4.314671    2.264019   -0.500463    0.003490   -0.002390    0.003718
O    -3.596492   -1.899757   -0.806392    0.004200    0.004554    0.000118
O     0.276614   -3.840883   -0.457709   -0.035832    0.020318   -0.043336
O     4.153280   -2.211573   -0.739054   -0.004934   -0.000702    0.013314
O     3.455389    1.981193   -0.696323   -0.021640   -0.014070    0.028404
C     1.187678    4.740099   -1.764850   -0.003736   -0.000896   -0.002108
C    -4.019715    4.595462   -0.316850   -0.000758   -0.000290   -0.000706
C    -5.614144   -0.983189   -1.710647    0.001244   -0.000704    0.001082
C    -1.346622   -4.598383   -2.046164   -0.011990   -0.008240   -0.005484
C     3.946556   -4.562392   -0.818066   -0.038250    0.014774    0.053570
C     5.435673    1.113344   -1.740661   -0.008562   -0.000930    0.002628
O     0.222629    4.773302   -2.782905   -0.004758   -0.005084   -0.001614
O    -4.890124    4.845443   -1.383686    0.000934   -0.000456   -0.002614
O    -5.432660   -1.614889   -2.948301    0.000332    0.001286   -0.000322
O    -0.415271   -4.592532   -3.094948   -0.006566   -0.007606   -0.001926
O     4.779381   -4.675307   -1.935391   -0.020518    0.014976    0.060622
O     5.231524    1.846719   -2.916938   -0.005292   -0.001370    0.002378
C     1.900520    3.383161   -1.809766   -0.004678   -0.003178   -0.003376
C    -2.568208    4.501504   -0.815382    0.000582   -0.000616    0.000864
C    -5.028219    0.434425   -1.718430    0.001020   -0.000702   -0.000044
C    -2.054339   -3.238627   -2.006308   -0.003464   -0.004132   -0.001618
C     2.475452   -4.432732   -1.247792   -0.027406    0.016392    0.036686
C     4.833457   -0.293424   -1.848409   -0.000596   -0.006556    0.002488
O     2.577387    3.167561   -3.023297    0.003392   -0.002744    0.001420
O    -2.163992    5.707196   -1.428558    0.000532    0.000024    0.001030
O    -5.689703    1.254607   -2.649285    0.002070    0.000182   -0.000144
O    -2.767738   -2.972962   -3.188831   -0.003548    0.004506    0.000154
O     2.048947   -5.564179   -1.975155   -0.021674    0.008816    0.038724
O     5.445738   -1.035974   -2.874474    0.003554   -0.001402    0.001094
C     2.928916    3.299536   -0.676717   -0.008986   -0.002712    0.001220
C    -1.612782    4.166687    0.341294   -0.001712    0.002790    0.004466
C    -5.135868    1.112418   -0.344806    0.002430   -0.001178    0.000180
C    -3.046623   -3.208032   -0.840213    0.004816    0.004822    0.004534
C     1.559895   -4.268718   -0.026607   -0.045448    0.089402    0.018838
C     5.000046   -1.084088   -0.544030    0.007456   -0.006132    0.005854
C     2.286847    3.632237    0.681930   -0.006272    0.011766    0.003018
C    -2.147741    2.919319    1.049413   -0.009666    0.002942    0.004534
C    -4.683091    0.182617    0.799480    0.001756   -0.002528    0.000492
C    -2.345007   -3.575904    0.478361    0.003878   -0.002478    0.004806
C     2.120863   -3.168976    0.883203   -0.100672    0.188926   -0.083764
C     4.608644   -0.256033    0.695923    0.009718   -0.003742    0.004274
O     1.584964    4.872470    0.609077   -0.003776    0.012360   -0.000330
O    -3.477658    3.108681    1.503372   -0.007220    0.006516    0.004772
O    -5.224482   -1.133552    0.661976   -0.002568   -0.000728    0.000008
O    -1.665288   -4.822852    0.338264   -0.016036   -0.012736   -0.009636
O     3.491737   -3.327539    1.197137   -0.130346    0.087304    0.021640
O     5.117683    1.080713    0.650647   -0.008762    0.002706    0.005336
C     3.345291    3.792948    1.779808   -0.001852    0.008162    0.004082
C    -1.310632    2.499555    2.256198   -0.003506   -0.021866   -0.011670
C    -5.182099    0.644312    2.179274    0.001682   -0.000452    0.000062
C    -3.346494   -3.758118    1.624452    0.003188    0.001078    0.002518
C     1.417705   -3.091799    2.211630   -0.392104    0.449810   -0.175886
C     5.185993   -0.840316    1.998340    0.003944   -0.000336    0.009224
O     4.275818    4.801496    1.477421    0.003790    0.002996   -0.003438
O    -1.735502    1.325475    2.691443    0.039758   -0.053010   -0.084660
O    -6.566570    0.875782    2.197537    0.000802   -0.002144   -0.000842
O    -4.290918   -4.761287    1.351845    0.002208   -0.000596    0.003852
O     1.730975   -1.904933    2.799226    0.069480   -0.003486    0.103822
O     6.561426   -1.111248    1.905354    0.002414   -0.008064    0.007362
H     0.085310    5.861524   -0.255963   -0.006748    0.004398   -0.010268
H    -5.371166    3.369352    0.893772   -0.006700    0.001998   -0.004066
H    -5.447317   -2.756654   -0.460161    0.006148   -0.001774   -0.000010
H    -0.250658   -5.834164   -0.632840    0.008990    0.009194    0.008682
H     5.342394   -3.436135    0.436303   -0.094802    0.016222    0.108844
H     5.331171    2.782104   -0.349931   -0.016672   -0.001812   -0.005620
H     1.920183    5.548834   -1.913429   -0.004110   -0.000660   -0.004496
H    -4.114857    5.439901    0.373747   -0.003038    0.001032   -0.002060
H    -6.695727   -0.924956   -1.548230    0.001428   -0.002344    0.003450
H    -2.093891   -5.390354   -2.213434   -0.011100   -0.007928   -0.007442
H     4.080354   -5.476904   -0.230744   -0.048486    0.017840    0.058342
H     6.520679    1.030888   -1.615038   -0.008660    0.002516    0.006866
H    -0.565739    5.254202   -2.474623    0.000412    0.009008   -0.006958
H    -5.028896    4.019984   -1.877365   -0.003084   -0.001590    0.000786
H    -4.516036   -1.940891   -3.029540   -0.003336   -0.010722    0.004560
H     0.398253   -5.060602   -2.824172   -0.001384    0.017044    0.013614
H     4.877667   -3.800227   -2.346777   -0.020220    0.016630    0.061960
H     4.312334    2.172643   -2.958859   -0.010084   -0.010826   -0.007966
H     1.128456    2.613659   -1.662218   -0.008970    0.000036   -0.019512
H    -2.503884    3.678045   -1.542892   -0.001090    0.000350   -0.000070
H    -3.957930    0.370526   -1.967744   -0.000276   -0.005170   -0.003076
H    -1.286921   -2.468506   -1.843641    0.007020   -0.015402   -0.003792
H     2.372827   -3.529582   -1.867695   -0.008100   -0.000784    0.008612
H     3.754840   -0.202541   -2.045314   -0.001090   -0.017310   -0.000478
H     1.976462    3.393428   -3.749816    0.008984   -0.008134   -0.003788
H    -2.929995    6.062624   -1.911228    0.001928   -0.000034    0.000352
H    -5.785730    0.756854   -3.477119   -0.005260   -0.002778    0.002816
H    -2.187557   -3.169545   -3.941154   -0.009990   -0.012036   -0.000574
H     2.783022   -5.844302   -2.548151   -0.008356    0.002312    0.060036
H     5.524346   -0.466242   -3.655951   -0.002898   -0.000452    0.001042
H     3.727994    4.023806   -0.877949   -0.005310   -0.009974   -0.006150
H    -1.543843    5.005239    1.044840   -0.007616    0.006508    0.000712
H    -6.176074    1.421583   -0.170466    0.002214   -0.002772    0.000868
H    -3.840964   -3.940084   -1.036188    0.003738    0.003292    0.012368
H     1.488843   -5.220128    0.518791   -0.036198    0.160038    0.123150
H     6.043430   -1.415273   -0.452225    0.005418   -0.011956    0.000286
H     1.587766    2.838482    0.969065   -0.025192    0.028366    0.006444
H    -2.107669    2.083189    0.333768   -0.022966    0.005074    0.001036
H    -3.587816    0.132684    0.810909    0.001392   -0.011810    0.004376
H    -1.631402   -2.787702    0.747509    0.023318   -0.029142    0.029614
H     1.952697   -2.202735    0.376627    0.067292    0.095090   -0.268810
H     3.515953   -0.233422    0.761588    0.010492   -0.020796   -0.006494
H     3.913164    2.865681    1.872353    0.004556    0.011246    0.004398
H     2.827255    3.999728    2.721248    0.003642    0.024848    0.006558
H    -4.906561   -0.132259    2.901669    0.005284    0.001730    0.001258
H    -4.696623    1.577272    2.461548   -0.002394    0.001760   -0.000180
H    -3.903784   -2.830849    1.766937    0.002538    0.000470    0.002672
H    -2.782721   -3.986046    2.535664    0.012222    0.006224   -0.001924
H     4.987403   -0.121024    2.800215    0.019668    0.005646    0.008258
H     4.692795   -1.783085    2.233515   -0.004560    0.004274    0.017294
H     3.806737    5.647659    1.453401    0.012502    0.007676   -0.004208
H    -7.018978    0.032351    2.050621    0.002078   -0.003240    0.004156
H    -3.819732   -5.603954    1.272581    0.006420    0.002212    0.004502
H     7.035346   -0.271656    1.820278    0.005322   -0.009062    0.008384
C     0.803459   -1.319092    3.729080    0.142388    0.134536    0.019776
H     1.377953   -0.701225    4.410372    0.178228   -0.033390    0.145522
H     0.245576   -2.096546    4.272289   -0.095300    0.249116   -0.145118
O     0.445741   -3.727901    2.557932   -0.022322    0.059162   -0.057830
C    -0.954594    0.630024    3.656432    0.083146   -0.127014   -0.159990
H    -1.674896    0.172851    4.358205    0.183176   -0.475458   -0.409606
H    -0.255426    1.321539    4.169945   -0.217714   -0.126962    0.073726
O    -0.413616    3.145531    2.735125    0.016412   -0.052358   -0.000628
C    -0.243205   -0.523463    2.864185    0.660960    0.415142   -0.194272
O    -0.721190   -0.940280    1.862342    0.456012   -0.323814   -0.044556
H    -1.162336   -0.234452    0.451937    0.117368   -0.209100   -0.002202
O    -1.314334    0.110494   -0.471468    0.094212   -0.057890    0.093020
H     0.457671    0.114007   -0.652272   -0.020802    0.029810    0.203140
O     1.384974    0.054339   -0.314943   -0.027778    0.056354    0.238526
H     1.313400    0.444097    1.128851   -0.405818   -0.366584   -0.394810
O     1.191285    0.793497    2.180756   -0.442708   -0.552432   -0.084040
H     1.999878    0.576150    2.638927   -0.262212   -0.394242   -0.239612
H     1.905974    0.769061   -0.702904   -0.016878    0.151926    0.362768
H    -1.924135   -0.522010   -0.871619    0.076032    0.011772    0.026710
139
* Frequency(6) -217.0100
C     0.575938    4.887340   -0.360432   -0.003370    0.005776   -0.001398
C    -4.378637    3.296195    0.431789   -0.004288    0.001408    0.001500
C    -4.975471   -1.770243   -0.553884    0.003024   -0.000354    0.001226
C    -0.696414   -4.831598   -0.671710   -0.009940   -0.000516   -0.003866
C     4.311970   -3.344267    0.056739   -0.071882    0.023316    0.057850
C     4.842989    1.811010   -0.503587   -0.011866   -0.004150    0.001390
O    -0.336987    3.835610   -0.169327    0.002070   -0.001724    0.015430
O    -4.314398    2.263833   -0.500173    0.003490   -0.002390    0.003718
O    -3.596164   -1.899402   -0.806382    0.004200    0.004554    0.000118
O     0.273818   -3.839298   -0.461091   -0.035832    0.020318   -0.043336
O     4.152895   -2.211628   -0.738015   -0.004934   -0.000702    0.013314
O     3.453700    1.980095   -0.694106   -0.021640   -0.014070    0.028404
C     1.187386    4.740029   -1.765015   -0.003736   -0.000896   -0.002108
C    -4.019774    4.595439   -0.316905   -0.000758   -0.000290   -0.000706
C    -5.614046   -0.983244   -1.710563    0.001244   -0.000704    0.001082
C    -1.347557   -4.599026   -2.046592   -0.011990   -0.008240   -0.005484
C     3.943571   -4.561239   -0.813886   -0.038250    0.014774    0.053570
C     5.435005    1.113272   -1.740456   -0.008562   -0.000930    0.002628
O     0.222258    4.772905   -2.783031   -0.004758   -0.005084   -0.001614
O    -4.890051    4.845407   -1.383890    0.000934   -0.000456   -0.002614
O    -5.432634   -1.614788   -2.948326    0.000332    0.001286   -0.000322
O    -0.415783   -4.593126   -3.095098   -0.006566   -0.007606   -0.001926
O     4.777780   -4.674138   -1.930660   -0.020518    0.014976    0.060622
O     5.231111    1.846613   -2.916752   -0.005292   -0.001370    0.002378
C     1.900155    3.382913   -1.810029   -0.004678   -0.003178   -0.003376
C    -2.568162    4.501456   -0.815315    0.000582   -0.000616    0.000864
C    -5.028139    0.434370   -1.718434    0.001020   -0.000702   -0.000044
C    -2.054609   -3.238950   -2.006434   -0.003464   -0.004132   -0.001618
C     2.473314   -4.431453   -1.244930   -0.027406    0.016392    0.036686
C     4.833410   -0.293936   -1.848215   -0.000596   -0.006556    0.002488
O     2.577652    3.167347   -3.023186    0.003392   -0.002744    0.001420
O    -2.163950    5.707198   -1.428477    0.000532    0.000024    0.001030
O    -5.689541    1.254621   -2.649296    0.002070    0.000182   -0.000144
O    -2.768015   -2.972611   -3.188819   -0.003548    0.004506    0.000154
O     2.047255   -5.563491   -1.972134   -0.021674    0.008816    0.038724
O     5.446015   -1.036084   -2.874388    0.003554   -0.001402    0.001094
C     2.928215    3.299324   -0.676622   -0.008986   -0.002712    0.001220
C    -1.612916    4.166904    0.341643   -0.001712    0.002790    0.004466
C    -5.135678    1.112326   -0.344792    0.002430   -0.001178    0.000180
C    -3.046247   -3.207656   -0.839860    0.004816    0.004822    0.004534
C     1.556348   -4.261741   -0.025137   -0.045448    0.089402    0.018838
C     5.000628   -1.084567   -0.543573    0.007456   -0.006132    0.005854
C     2.286357    3.633156    0.682165   -0.006272    0.011766    0.003018
C    -2.148495    2.919549    1.049766   -0.009666    0.002942    0.004534
C    -4.682953    0.182419    0.799518    0.001756   -0.002528    0.000492
C    -2.344705   -3.576097    0.478736    0.003878   -0.002478    0.004806
C     2.113007   -3.154233    0.876666   -0.100672    0.188926   -0.083764
C     4.609402   -0.256325    0.696256    0.009718   -0.003742    0.004274
O     1.584670    4.873435    0.609051   -0.003776    0.012360   -0.000330
O    -3.478222    3.109189    1.503744   -0.007220    0.006516    0.004772
O    -5.224682   -1.133608    0.661976   -0.002568   -0.000728    0.000008
O    -1.666540   -4.823846    0.337512   -0.016036   -0.012736   -0.009636
O     3.481566   -3.320726    1.198826   -0.130346    0.087304    0.021640
O     5.117000    1.080924    0.651063   -0.008762    0.002706    0.005336
C     3.345146    3.793585    1.780126   -0.001852    0.008162    0.004082
C    -1.310905    2.497849    2.255288   -0.003506   -0.021866   -0.011670
C    -5.181968    0.644277    2.179279    0.001682   -0.000452    0.000062
C    -3.346245   -3.758034    1.624649    0.003188    0.001078    0.002518
C     1.387107   -3.056699    2.197905   -0.392104    0.449810   -0.175886
C     5.186301   -0.840342    1.999060    0.003944   -0.000336    0.009224
O     4.276114    4.801730    1.477153    0.003790    0.002996   -0.003438
O    -1.732400    1.321339    2.684837    0.039758   -0.053010   -0.084660
O    -6.566507    0.875615    2.197471    0.000802   -0.002144   -0.000842
O    -4.290746   -4.761334    1.352146    0.002208   -0.000596    0.003852
O     1.736397   -1.905205    2.807328    0.069480   -0.003486    0.103822
O     6.561614   -1.111877    1.905928    0.002414   -0.008064    0.007362
H     0.084784    5.861868   -0.256765   -0.006748    0.004398   -0.010268
H    -5.371689    3.369507    0.893455   -0.006700    0.001998   -0.004066
H    -5.446838   -2.756793   -0.460162    0.006148   -0.001774   -0.000010
H    -0.249957   -5.833446   -0.632162    0.008990    0.009194    0.008682
H     5.334996   -3.434869    0.444796   -0.094802    0.016222    0.108844
H     5.329870    2.781963   -0.350370   -0.016672   -0.001812   -0.005620
H     1.919863    5.548783   -1.913779   -0.004110   -0.000660   -0.004496
H    -4.115094    5.439981    0.373586   -0.003038    0.001032   -0.002060
H    -6.695616   -0.925139   -1.547961    0.001428   -0.002344    0.003450
H    -2.094757   -5.390973   -2.214015   -0.011100   -0.007928   -0.007442
H     4.076570   -5.475512   -0.226191   -0.048486    0.017840    0.058342
H     6.520004    1.031084   -1.614502   -0.008660    0.002516    0.006866
H    -0.565707    5.254905   -2.475166    0.000412    0.009008   -0.006958
H    -5.029137    4.019860   -1.877304   -0.003084   -0.001590    0.000786
H    -4.516296   -1.941728   -3.029184   -0.003336   -0.010722    0.004560
H     0.398145   -5.059272   -2.823110   -0.001384    0.017044    0.013614
H     4.876089   -3.798929   -2.341942   -0.020220    0.016630    0.061960
H     4.311547    2.171798   -2.959481   -0.010084   -0.010826   -0.007966
H     1.127756    2.613662   -1.663740   -0.008970    0.000036   -0.019512
H    -2.503969    3.678073   -1.542898   -0.001090    0.000350   -0.000070
H    -3.957952    0.370122   -1.967984   -0.000276   -0.005170   -0.003076
H    -1.286373   -2.469708   -1.843937    0.007020   -0.015402   -0.003792
H     2.372195   -3.529643   -1.867023   -0.008100   -0.000784    0.008612
H     3.754755   -0.203892   -2.045351   -0.001090   -0.017310   -0.000478
H     1.977163    3.392794   -3.750112    0.008984   -0.008134   -0.003788
H    -2.929844    6.062621   -1.911201    0.001928   -0.000034    0.000352
H    -5.786140    0.756637   -3.476899   -0.005260   -0.002778    0.002816
H    -2.188336   -3.170485   -3.941199   -0.009990   -0.012036   -0.000574
H     2.782370   -5.844122   -2.543466   -0.008356    0.002312    0.060036
H     5.524120   -0.466277   -3.655870   -0.002898   -0.000452    0.001042
H     3.727580    4.023028   -0.878429   -0.005310   -0.009974   -0.006150
H    -1.544438    5.005747    1.044896   -0.007616    0.006508    0.000712
H    -6.175901    1.421367   -0.170399    0.002214   -0.002772    0.000868
H    -3.840673   -3.939827   -1.035223    0.003738    0.003292    0.012368
H     1.486019   -5.207640    0.528401   -0.036198    0.160038    0.123150
H     6.043853   -1.416206   -0.452202    0.005418   -0.011956    0.000286
H     1.585801    2.840695    0.969568   -0.025192    0.028366    0.006444
H    -2.109461    2.083585    0.333849   -0.022966    0.005074    0.001036
H    -3.587707    0.131763    0.811250    0.001392   -0.011810    0.004376
H    -1.629583   -2.789976    0.749820    0.023318   -0.029142    0.029614
H     1.957948   -2.195315    0.355650    0.067292    0.095090   -0.268810
H     3.516771   -0.235044    0.761081    0.010492   -0.020796   -0.006494
H     3.913520    2.866558    1.872697    0.004556    0.011246    0.004398
H     2.827539    4.001667    2.721760    0.003642    0.024848    0.006558
H    -4.906149   -0.132124    2.901768    0.005284    0.001730    0.001258
H    -4.696809    1.577410    2.461534   -0.002394    0.001760   -0.000180
H    -3.903586   -2.830812    1.767146    0.002538    0.000470    0.002672
H    -2.781767   -3.985560    2.535514    0.012222    0.006224   -0.001924
H     4.988938   -0.120584    2.800860    0.019668    0.005646    0.008258
H     4.692439   -1.782752    2.234864   -0.004560    0.004274    0.017294
H     3.807712    5.648258    1.453073    0.012502    0.007676   -0.004208
H    -7.018816    0.032099    2.050946    0.002078   -0.003240    0.004156
H    -3.819231   -5.603782    1.272932    0.006420    0.002212    0.004502
H     7.035761   -0.272363    1.820933    0.005322   -0.009062    0.008384
C     0.814570   -1.308594    3.730624    0.142388    0.134536    0.019776
H     1.391861   -0.703831    4.421727    0.178228   -0.033390    0.145522
H     0.238139   -2.077107    4.260965   -0.095300    0.249116   -0.145118
O     0.443999   -3.723284    2.553419   -0.022322    0.059162   -0.057830
C    -0.948106    0.620113    3.643948    0.083146   -0.127014   -0.159990
H    -1.660602    0.135749    4.326242    0.183176   -0.475458   -0.409606
H    -0.272415    1.311632    4.175698   -0.217714   -0.126962    0.073726
O    -0.412335    3.141446    2.735076    0.016412   -0.052358   -0.000628
C    -0.191628   -0.491068    2.849026    0.660960    0.415142   -0.194272
O    -0.685606   -0.965548    1.858865    0.456012   -0.323814   -0.044556
H    -1.153177   -0.250769    0.451765    0.117368   -0.209100   -0.002202
O    -1.306982    0.105977   -0.464209    0.094212   -0.057890    0.093020
H     0.456048    0.116334   -0.636420   -0.020802    0.029810    0.203140
O     1.382807    0.058736   -0.296330   -0.027778    0.056354    0.238526
H     1.281733    0.415491    1.098042   -0.405818   -0.366584   -0.394810
O     1.156739    0.750389    2.174198   -0.442708   -0.552432   -0.084040
H     1.979417    0.545386    2.620229   -0.262212   -0.394242   -0.239612
H     1.904657    0.780917   -0.674596   -0.016878    0.151926    0.362768
H    -1.918202   -0.521092   -0.869535    0.076032    0.011772    0.026710
139
* Frequency(6) -217.0100
C     0.575597    4.887926   -0.360574   -0.003370    0.005776   -0.001398
C    -4.379072    3.296338    0.431941   -0.004288    0.001408    0.001500
C    -4.975165   -1.770279   -0.553759    0.003024   -0.000354    0.001226
C    -0.697421   -4.831650   -0.672102   -0.009940   -0.000516   -0.003866
C     4.304686   -3.341905    0.062601   -0.071882    0.023316    0.057850
C     4.841787    1.810590   -0.503446   -0.011866   -0.004150    0.001390
O    -0.336777    3.835435   -0.167764    0.002070   -0.001724    0.015430
O    -4.314045    2.263591   -0.499797    0.003490   -0.002390    0.003718
O    -3.595738   -1.898941   -0.806370    0.004200    0.004554    0.000118
O     0.270187   -3.837239   -0.465482   -0.035832    0.020318   -0.043336
O     4.152395   -2.211699   -0.736666   -0.004934   -0.000702    0.013314
O     3.451507    1.978669   -0.691228   -0.021640   -0.014070    0.028404
C     1.187008    4.739938   -1.765228   -0.003736   -0.000896   -0.002108
C    -4.019851    4.595410   -0.316977   -0.000758   -0.000290   -0.000706
C    -5.613920   -0.983315   -1.710453    0.001244   -0.000704    0.001082
C    -1.348772   -4.599861   -2.047148   -0.011990   -0.008240   -0.005484
C     3.939695   -4.559742   -0.808458   -0.038250    0.014774    0.053570
C     5.434137    1.113178   -1.740190   -0.008562   -0.000930    0.002628
O     0.221776    4.772390   -2.783195   -0.004758   -0.005084   -0.001614
O    -4.889956    4.845361   -1.384155    0.000934   -0.000456   -0.002614
O    -5.432601   -1.614658   -2.948358    0.000332    0.001286   -0.000322
O    -0.416449   -4.593897   -3.095293   -0.006566   -0.007606   -0.001926
O     4.775701   -4.672621   -1.924517   -0.020518    0.014976    0.060622
O     5.230574    1.846474   -2.916511   -0.005292   -0.001370    0.002378
C     1.899681    3.382591   -1.810371   -0.004678   -0.003178   -0.003376
C    -2.568103    4.501394   -0.815227    0.000582   -0.000616    0.000864
C    -5.028036    0.434299   -1.718438    0.001020   -0.000702   -0.000044
C    -2.054960   -3.239368   -2.006598   -0.003464   -0.004132   -0.001618
C     2.470537   -4.429792   -1.241212   -0.027406    0.016392    0.036686
C     4.833350   -0.294600   -1.847963   -0.000596   -0.006556    0.002488
O     2.577996    3.167069   -3.023042    0.003392   -0.002744    0.001420
O    -2.163896    5.707200   -1.428373    0.000532    0.000024    0.001030
O    -5.689331    1.254639   -2.649311    0.002070    0.000182   -0.000144
O    -2.768375   -2.972154   -3.188804   -0.003548    0.004506    0.000154
O     2.045059   -5.562598   -1.968210   -0.021674    0.008816    0.038724
O     5.446375   -1.036226   -2.874277    0.003554   -0.001402    0.001094
C     2.927304    3.299049   -0.676499   -0.008986   -0.002712    0.001220
C    -1.613089    4.167187    0.342095   -0.001712    0.002790    0.004466
C    -5.135432    1.112207   -0.344773    0.002430   -0.001178    0.000180
C    -3.045759   -3.207167   -0.839400    0.004816    0.004822    0.004534
C     1.551743   -4.252682   -0.023228   -0.045448    0.089402    0.018838
C     5.001384   -1.085188   -0.542980    0.007456   -0.006132    0.005854
C     2.285722    3.634348    0.682471   -0.006272    0.011766    0.003018
C    -2.149475    2.919847    1.050226   -0.009666    0.002942    0.004534
C    -4.682776    0.182163    0.799568    0.001756   -0.002528    0.000492
C    -2.344312   -3.576348    0.479223    0.003878   -0.002478    0.004806
C     2.102806   -3.135089    0.868178   -0.100672    0.188926   -0.083764
C     4.610387   -0.256704    0.696689    0.009718   -0.003742    0.004274
O     1.584287    4.874687    0.609018   -0.003776    0.012360   -0.000330
O    -3.478953    3.109849    1.504228   -0.007220    0.006516    0.004772
O    -5.224942   -1.133682    0.661977   -0.002568   -0.000728    0.000008
O    -1.668165   -4.825137    0.336536   -0.016036   -0.012736   -0.009636
O     3.468358   -3.311880    1.201019   -0.130346    0.087304    0.021640
O     5.116112    1.081198    0.651604   -0.008762    0.002706    0.005336
C     3.344958    3.794412    1.780540   -0.001852    0.008162    0.004082
C    -1.311261    2.495633    2.254105   -0.003506   -0.021866   -0.011670
C    -5.181797    0.644231    2.179285    0.001682   -0.000452    0.000062
C    -3.345922   -3.757925    1.624904    0.003188    0.001078    0.002518
C     1.347376   -3.011120    2.180083   -0.392104    0.449810   -0.175886
C     5.186701   -0.840376    1.999995    0.003944   -0.000336    0.009224
O     4.276498    4.802034    1.476805    0.003790    0.002996   -0.003438
O    -1.728371    1.315967    2.676258    0.039758   -0.053010   -0.084660
O    -6.566426    0.875398    2.197386    0.000802   -0.002144   -0.000842
O    -4.290522   -4.761394    1.352536    0.002208   -0.000596    0.003852
O     1.743437   -1.905558    2.817848    0.069480   -0.003486    0.103822
O     6.561859   -1.112695    1.906674    0.002414   -0.008064    0.007362
H     0.084100    5.862313   -0.257805   -0.006748    0.004398   -0.010268
H    -5.372368    3.369710    0.893043   -0.006700    0.001998   -0.004066
H    -5.446215   -2.756972   -0.460163    0.006148   -0.001774   -0.000010
H    -0.249046   -5.832515   -0.631283    0.008990    0.009194    0.008682
H     5.325390   -3.433226    0.455825   -0.094802    0.016222    0.108844
H     5.328181    2.781779   -0.350939   -0.016672   -0.001812   -0.005620
H     1.919446    5.548716   -1.914235   -0.004110   -0.000660   -0.004496
H    -4.115402    5.440086    0.373377   -0.003038    0.001032   -0.002060
H    -6.695471   -0.925377   -1.547611    0.001428   -0.002344    0.003450
H    -2.095882   -5.391776   -2.214769   -0.011100   -0.007928   -0.007442
H     4.071657   -5.473704   -0.220279   -0.048486    0.017840    0.058342
H     6.519126    1.031339   -1.613806   -0.008660    0.002516    0.006866
H    -0.565665    5.255817   -2.475871    0.000412    0.009008   -0.006958
H    -5.029450    4.019699   -1.877224   -0.003084   -0.001590    0.000786
H    -4.516634   -1.942815   -3.028722   -0.003336   -0.010722    0.004560
H     0.398004   -5.057545   -2.821730   -0.001384    0.017044    0.013614
H     4.874040   -3.797244   -2.335663   -0.020220    0.016630    0.061960
H     4.310525    2.170701   -2.960288   -0.010084   -0.010826   -0.007966
H     1.126847    2.613666   -1.665718   -0.008970    0.000036   -0.019512
H    -2.504079    3.678108   -1.542905   -0.001090    0.000350   -0.000070
H    -3.957980    0.369599   -1.968295   -0.000276   -0.005170   -0.003076
H    -1.285662   -2.471269   -1.844321    0.007020   -0.015402   -0.003792
H     2.371375   -3.529723   -1.866151   -0.008100   -0.000784    0.008612
H     3.754645   -0.205646   -2.045400   -0.001090   -0.017310   -0.000478
H     1.978073    3.391969   -3.750496    0.008984   -0.008134   -0.003788
H    -2.929649    6.062618   -1.911165    0.001928   -0.000034    0.000352
H    -5.786673    0.756356   -3.476614   -0.005260   -0.002778    0.002816
H    -2.189349   -3.171704   -3.941257   -0.009990   -0.012036   -0.000574
H     2.781524   -5.843888   -2.537383   -0.008356    0.002312    0.060036
H     5.523826   -0.466323   -3.655764   -0.002898   -0.000452    0.001042
H     3.727041    4.022017   -0.879052   -0.005310   -0.009974   -0.006150
H    -1.545209    5.006406    1.044968   -0.007616    0.006508    0.000712
H    -6.175677    1.421086   -0.170311    0.002214   -0.002772    0.000868
H    -3.840294   -3.939493   -1.033970    0.003738    0.003292    0.012368
H     1.482351   -5.191423    0.540880   -0.036198    0.160038    0.123150
H     6.044402   -1.417417   -0.452174    0.005418   -0.011956    0.000286
H     1.583248    2.843569    0.970221   -0.025192    0.028366    0.006444
H    -2.111788    2.084099    0.333954   -0.022966    0.005074    0.001036
H    -3.587566    0.130566    0.811694    0.001392   -0.011810    0.004376
H    -1.627220   -2.792929    0.752821    0.023318   -0.029142    0.029614
H     1.964767   -2.185679    0.328412    0.067292    0.095090   -0.268810
H     3.517835   -0.237152    0.760423    0.010492   -0.020796   -0.006494
H     3.913981    2.867698    1.873142    0.004556    0.011246    0.004398
H     2.827908    4.004185    2.722425    0.003642    0.024848    0.006558
H    -4.905613   -0.131949    2.901895    0.005284    0.001730    0.001258
H    -4.697052    1.577588    2.461515   -0.002394    0.001760   -0.000180
H    -3.903328   -2.830764    1.767416    0.002538    0.000470    0.002672
H    -2.780529   -3.984929    2.535319    0.012222    0.006224   -0.001924
H     4.990931   -0.120012    2.801697    0.019668    0.005646    0.008258
H     4.691977   -1.782319    2.236617   -0.004560    0.004274    0.017294
H     3.808979    5.649036    1.452646    0.012502    0.007676   -0.004208
H    -7.018605    0.031770    2.051367    0.002078   -0.003240    0.004156
H    -3.818581   -5.603557    1.273388    0.006420    0.002212    0.004502
H     7.036300   -0.273281    1.821782    0.005322   -0.009062    0.008384
C     0.828998   -1.294961    3.732628    0.142388    0.134536    0.019776
H     1.409920   -0.707214    4.436473    0.178228   -0.033390    0.145522
H     0.228482   -2.051864    4.246260   -0.095300    0.249116   -0.145118
O     0.441737   -3.717289    2.547559   -0.022322    0.059162   -0.057830
C    -0.939681    0.607242    3.627736    0.083146   -0.127014   -0.159990
H    -1.642041    0.087571    4.284737    0.183176   -0.475458   -0.409606
H    -0.294476    1.298767    4.183168   -0.217714   -0.126962    0.073726
O    -0.410672    3.136140    2.735012    0.016412   -0.052358   -0.000628
C    -0.124653   -0.449002    2.829340    0.660960    0.415142   -0.194272
O    -0.639398   -0.998360    1.854351    0.456012   -0.323814   -0.044556
H    -1.141284   -0.271957    0.451542    0.117368   -0.209100   -0.002202
O    -1.297436    0.100111   -0.454783    0.094212   -0.057890    0.093020
H     0.453940    0.119354   -0.615836   -0.020802    0.029810    0.203140
O     1.379992    0.064447   -0.272160   -0.027778    0.056354    0.238526
H     1.240611    0.378345    1.058036   -0.405818   -0.366584   -0.394810
O     1.111879    0.694411    2.165683   -0.442708   -0.552432   -0.084040
H     1.952847    0.505438    2.595950   -0.262212   -0.394242   -0.239612
H     1.902947    0.796311   -0.637837   -0.016878    0.151926    0.362768
H    -1.910498   -0.519899   -0.866828    0.076032    0.011772    0.026710
139
* Frequency(6) -217.0100
C     0.575214    4.888582   -0.360733   -0.003370    0.005776   -0.001398
C    -4.379559    3.296498    0.432111   -0.004288    0.001408    0.001500
C    -4.974821   -1.770319   -0.553620    0.003024   -0.000354    0.001226
C    -0.698551   -4.831709   -0.672541   -0.009940   -0.000516   -0.003866
C     4.296517   -3.339255    0.069175   -0.071882    0.023316    0.057850
C     4.840438    1.810118   -0.503288   -0.011866   -0.004150    0.001390
O    -0.336542    3.835239   -0.166010    0.002070   -0.001724    0.015430
O    -4.313648    2.263319   -0.499374    0.003490   -0.002390    0.003718
O    -3.595261   -1.898423   -0.806357    0.004200    0.004554    0.000118
O     0.266115   -3.834930   -0.470407   -0.035832    0.020318   -0.043336
O     4.151834   -2.211779   -0.735153   -0.004934   -0.000702    0.013314
O     3.449048    1.977070   -0.688000   -0.021640   -0.014070    0.028404
C     1.186583    4.739836   -1.765468   -0.003736   -0.000896   -0.002108
C    -4.019937    4.595377   -0.317057   -0.000758   -0.000290   -0.000706
C    -5.613779   -0.983395   -1.710330    0.001244   -0.000704    0.001082
C    -1.350135   -4.600797   -2.047771   -0.011990   -0.008240   -0.005484
C     3.935348   -4.558063   -0.802370   -0.038250    0.014774    0.053570
C     5.433164    1.113072   -1.739891   -0.008562   -0.000930    0.002628
O     0.221235    4.771812   -2.783378   -0.004758   -0.005084   -0.001614
O    -4.889850    4.845309   -1.384452    0.000934   -0.000456   -0.002614
O    -5.432563   -1.614512   -2.948395    0.000332    0.001286   -0.000322
O    -0.417195   -4.594761   -3.095512   -0.006566   -0.007606   -0.001926
O     4.773369   -4.670919   -1.917628   -0.020518    0.014976    0.060622
O     5.229973    1.846318   -2.916241   -0.005292   -0.001370    0.002378
C     1.899149    3.382230   -1.810755   -0.004678   -0.003178   -0.003376
C    -2.568037    4.501324   -0.815129    0.000582   -0.000616    0.000864
C    -5.027920    0.434219   -1.718443    0.001020   -0.000702   -0.000044
C    -2.055354   -3.239838   -2.006782   -0.003464   -0.004132   -0.001618
C     2.467422   -4.427929   -1.237043   -0.027406    0.016392    0.036686
C     4.833282   -0.295345   -1.847680   -0.000596   -0.006556    0.002488
O     2.578381    3.166757   -3.022881    0.003392   -0.002744    0.001420
O    -2.163836    5.707203   -1.428256    0.000532    0.000024    0.001030
O    -5.689096    1.254660   -2.649327    0.002070    0.000182   -0.000144
O    -2.768778   -2.971642   -3.188786   -0.003548    0.004506    0.000154
O     2.042596   -5.561596   -1.963809   -0.021674    0.008816    0.038724
O     5.446779   -1.036385   -2.874153    0.003554   -0.001402    0.001094
C     2.926283    3.298741   -0.676360   -0.008986   -0.002712    0.001220
C    -1.613284    4.167504    0.342603   -0.001712    0.002790    0.004466
C    -5.135156    1.112073   -0.344753    0.002430   -0.001178    0.000180
C    -3.045212   -3.206619   -0.838885    0.004816    0.004822    0.004534
C     1.546578   -4.242522   -0.021087   -0.045448    0.089402    0.018838
C     5.002231   -1.085885   -0.542315    0.007456   -0.006132    0.005854
C     2.285009    3.635685    0.682814   -0.006272    0.011766    0.003018
C    -2.150573    2.920181    1.050741   -0.009666    0.002942    0.004534
C    -4.682576    0.181876    0.799624    0.001756   -0.002528    0.000492
C    -2.343871   -3.576630    0.479769    0.003878   -0.002478    0.004806
C     2.091365   -3.113619    0.858659   -0.100672    0.188926   -0.083764
C     4.611491   -0.257129    0.697175    0.009718   -0.003742    0.004274
O     1.583858    4.876092    0.608980   -0.003776    0.012360   -0.000330
O    -3.479774    3.110590    1.504770   -0.007220    0.006516    0.004772
O    -5.225234   -1.133765    0.661978   -0.002568   -0.000728    0.000008
O    -1.669987   -4.826584    0.335441   -0.016036   -0.012736   -0.009636
O     3.453545   -3.301958    1.203478   -0.130346    0.087304    0.021640
O     5.115116    1.081506    0.652210   -0.008762    0.002706    0.005336
C     3.344748    3.795340    1.781004   -0.001852    0.008162    0.004082
C    -1.311659    2.493148    2.252779   -0.003506   -0.021866   -0.011670
C    -5.181606    0.644180    2.179292    0.001682   -0.000452    0.000062
C    -3.345560   -3.757802    1.625190    0.003188    0.001078    0.002518
C     1.302815   -2.960001    2.160094   -0.392104    0.449810   -0.175886
C     5.187149   -0.840414    2.001043    0.003944   -0.000336    0.009224
O     4.276929    4.802374    1.476414    0.003790    0.002996   -0.003438
O    -1.723853    1.309943    2.666637    0.039758   -0.053010   -0.084660
O    -6.566335    0.875154    2.197290    0.000802   -0.002144   -0.000842
O    -4.290271   -4.761462    1.352974    0.002208   -0.000596    0.003852
O     1.751333   -1.905954    2.829647    0.069480   -0.003486    0.103822
O     6.562133   -1.113611    1.907511    0.002414   -0.008064    0.007362
H     0.083333    5.862813   -0.258972   -0.006748    0.004398   -0.010268
H    -5.373129    3.369937    0.892581   -0.006700    0.001998   -0.004066
H    -5.445516   -2.757174   -0.460164    0.006148   -0.001774   -0.000010
H    -0.248024   -5.831470   -0.630296    0.008990    0.009194    0.008682
H     5.314616   -3.431382    0.468195   -0.094802    0.016222    0.108844
H     5.326286    2.781573   -0.351578   -0.016672   -0.001812   -0.005620
H     1.918979    5.548641   -1.914746   -0.004110   -0.000660   -0.004496
H    -4.115747    5.440203    0.373143   -0.003038    0.001032   -0.002060
H    -6.695309   -0.925643   -1.547219    0.001428   -0.002344    0.003450
H    -2.097143   -5.392677   -2.215615   -0.011100   -0.007928   -0.007442
H     4.066147   -5.471677   -0.213649   -0.048486    0.017840    0.058342
H     6.518142    1.031625   -1.613026   -0.008660    0.002516    0.006866
H    -0.565618    5.256841   -2.476662    0.000412    0.009008   -0.006958
H    -5.029800    4.019518   -1.877135   -0.003084   -0.001590    0.000786
H    -4.517013   -1.944033   -3.028204   -0.003336   -0.010722    0.004560
H     0.397847   -5.055608   -2.820183   -0.001384    0.017044    0.013614
H     4.871742   -3.795354   -2.328622   -0.020220    0.016630    0.061960
H     4.309379    2.169471   -2.961193   -0.010084   -0.010826   -0.007966
H     1.125828    2.613670   -1.667935   -0.008970    0.000036   -0.019512
H    -2.504203    3.678148   -1.542913   -0.001090    0.000350   -0.000070
H    -3.958011    0.369011   -1.968645   -0.000276   -0.005170   -0.003076
H    -1.284864   -2.473019   -1.844752    0.007020   -0.015402   -0.003792
H     2.370454   -3.529812   -1.865172   -0.008100   -0.000784    0.008612
H     3.754521   -0.207613   -2.045454   -0.001090   -0.017310   -0.000478
H     1.979094    3.391045   -3.750926    0.008984   -0.008134   -0.003788
H    -2.929430    6.062614   -1.911125    0.001928   -0.000034    0.000352
H    -5.787271    0.756040   -3.476294   -0.005260   -0.002778    0.002816
H    -2.190484   -3.173072   -3.941322   -0.009990   -0.012036   -0.000574
H     2.780574   -5.843625   -2.530560   -0.008356    0.002312    0.060036
H     5.523497   -0.466374   -3.655646   -0.002898   -0.000452    0.001042
H     3.726438    4.020884   -0.879751   -0.005310   -0.009974   -0.006150
H    -1.546075    5.007146    1.045049   -0.007616    0.006508    0.000712
H    -6.175425    1.420771   -0.170212    0.002214   -0.002772    0.000868
H    -3.839869   -3.939119   -1.032564    0.003738    0.003292    0.012368
H     1.478237   -5.173236    0.554875   -0.036198    0.160038    0.123150
H     6.045018   -1.418776   -0.452141    0.005418   -0.011956    0.000286
H     1.580385    2.846793    0.970953   -0.025192    0.028366    0.006444
H    -2.114398    2.084676    0.334072   -0.022966    0.005074    0.001036
H    -3.587408    0.129224    0.812191    0.001392   -0.011810    0.004376
H    -1.624570   -2.796241    0.756186    0.023318   -0.029142    0.029614
H     1.972414   -2.174873    0.297863    0.067292    0.095090   -0.268810
H     3.519027   -0.239515    0.759685    0.010492   -0.020796   -0.006494
H     3.914499    2.868976    1.873642    0.004556    0.011246    0.004398
H     2.828322    4.007009    2.723170    0.003642    0.024848    0.006558
H    -4.905013   -0.131752    2.902038    0.005284    0.001730    0.001258
H    -4.697324    1.577788    2.461495   -0.002394    0.001760   -0.000180
H    -3.903040   -2.830711    1.767720    0.002538    0.000470    0.002672
H    -2.779140   -3.984222    2.535100    0.012222    0.006224   -0.001924
H     4.993166   -0.119370    2.802635    0.019668    0.005646    0.008258
H     4.691459   -1.781833    2.238582   -0.004560    0.004274    0.017294
H     3.810400    5.649908    1.452168    0.012502    0.007676   -0.004208
H    -7.018369    0.031402    2.051839    0.002078   -0.003240    0.004156
H    -3.817851   -5.603306    1.273900    0.006420    0.002212    0.004502
H     7.036905   -0.274311    1.822735    0.005322   -0.009062    0.008384
C     0.845180   -1.279672    3.734875    0.142388    0.134536    0.019776
H     1.430175   -0.711009    4.453011    0.178228   -0.033390    0.145522
H     0.217652   -2.023553    4.229768   -0.095300    0.249116   -0.145118
O     0.439200   -3.710566    2.540987   -0.022322    0.059162   -0.057830
C    -0.930232    0.592808    3.609554    0.083146   -0.127014   -0.159990
H    -1.621224    0.033538    4.238187    0.183176   -0.475458   -0.409606
H    -0.319218    1.284338    4.191547   -0.217714   -0.126962    0.073726
O    -0.408807    3.130190    2.734941    0.016412   -0.052358   -0.000628
C    -0.049538   -0.401823    2.807262    0.660960    0.415142   -0.194272
O    -0.587575   -1.035160    1.849287    0.456012   -0.323814   -0.044556
H    -1.127946   -0.295720    0.451292    0.117368   -0.209100   -0.002202
O    -1.286729    0.093532   -0.444212    0.094212   -0.057890    0.093020
H     0.451576    0.122742   -0.592750   -0.020802    0.029810    0.203140
O     1.376835    0.070851   -0.245053   -0.027778    0.056354    0.238526
H     1.194492    0.336685    1.013168   -0.405818   -0.366584   -0.394810
O     1.061568    0.631630    2.156132   -0.442708   -0.552432   -0.084040
H     1.923048    0.460634    2.568719   -0.262212   -0.394242   -0.239612
H     1.901029    0.813577   -0.596610   -0.016878    0.151926    0.362768
H    -1.901857   -0.518561   -0.863793    0.076032    0.011772    0.026710
