139
 xtb: 6.7.1 (edcfbbe)
C            0.57513826947938        4.88874328057642       -0.36031434943976
C           -4.37934996967851        3.29630840437874        0.43185945648190
C           -4.97399362941126       -1.77041270320200       -0.55369648661443
C           -0.69823075910392       -4.83112307268662       -0.67213953369631
C            4.29660739716115       -3.33929476281183        0.06861321392226
C            4.83923863558422        1.80926389624790       -0.50287776231357
O           -0.33732498972498        3.83499878304175       -0.16706331933731
O           -4.31363706394360        2.26334847578391       -0.49918411092433
O           -3.59563358375018       -1.89825997634880       -0.80702060385008
O            0.26650092039862       -3.83497739307583       -0.47178570990936
O            4.15036499527371       -2.21147893829606       -0.73386144446447
O            3.44409054272732        1.97339122071514       -0.68759916437471
C            1.18692409137002        4.74045309578185       -1.76549729102784
C           -4.01971084770101        4.59531888159309       -0.31711235906777
C           -5.61370231090505       -0.98346336060142       -1.71041297636413
C           -1.35018465371551       -4.60093674308524       -2.04785876666396
C            3.93542401842294       -4.55819770430375       -0.80251840120583
C            5.43273116562694        1.11349827811399       -1.74024191542566
O            0.22122624582992        4.77141454295545       -2.78319732116530
O           -4.88971161183050        4.84534945141203       -1.38447564064112
O           -5.43246764346704       -1.61430186042410       -2.94829864375725
O           -0.41718696900466       -4.59431025886331       -3.09518762158351
O            4.77338119510523       -4.67103246076355       -1.91773853386796
O            5.22992773495275        1.84621180751264       -2.91626750081289
C            1.89904804078637        3.38229907679037       -1.81154029339689
C           -2.56792093874047        4.50129661704838       -0.81520916411096
C           -5.02788697381207        0.43430847476356       -1.71865301545973
C           -2.05575223915708       -3.23998709721542       -2.00707543027346
C            2.46735653943743       -4.42806424788952       -1.23733676287481
C            4.83323269004082       -0.29571872660163       -1.84873230801247
O            2.57829188255781        3.16564745353151       -3.02278332941500
O           -2.16381147898256        5.70726770829360       -1.42828006972959
O           -5.68909230359369        1.25480479477622       -2.64934927682192
O           -2.76889707019756       -2.97130502017691       -3.18890525269274
O            2.04240208385823       -5.56190895392781       -1.96407636417154
O            5.44716468658393       -1.03691048943493       -2.87448833823819
C            2.92523258339395        3.29816519068077       -0.67595425817436
C           -1.61265335563842        4.16694038869822        0.34272966341570
C           -5.13497442114745        1.11197157878536       -0.34478667662585
C           -3.04489381162631       -3.20669588571897       -0.83851694221878
C            1.54630036649761       -4.24323398520035       -0.02058581451388
C            5.00194753355474       -1.08583362738243       -0.54245064987543
C            2.28420171689154        3.63464125382340        0.68412970486318
C           -2.14990740018946        2.91927471260160        1.05017628836143
C           -4.68260153540311        0.18159769449689        0.79973958659836
C           -2.34343461069455       -3.57624621839545        0.48036453005922
C            2.09135081770846       -3.11462132184850        0.85914665542977
C            4.61297950760627       -0.25688331639587        0.69807810981636
O            1.58430092164008        4.87652002176216        0.60945264959962
O           -3.47916046858372        3.11085391413340        1.50569706884774
O           -5.22587915288582       -1.13351249346561        0.66247359196140
O           -1.67058915901725       -4.82700370046709        0.33581155937480
O            3.45338193628642       -3.30234371946361        1.20464120366797
O            5.11530659467783        1.08170130816349        0.65295710834499
C            3.34498369973369        3.79541812096957        1.78074825868539
C           -1.30984852046111        2.49001455576363        2.25375664984479
C           -5.18161197749942        0.64427056279966        2.17896986985011
C           -3.34547191364931       -3.75766779317320        1.62481119845881
C            1.29933905945877       -2.95651220134170        2.16043963438443
C            5.18823541044249       -0.84069792197433        2.00089387806793
O            4.27718901439772        4.80238646238846        1.47609169774512
O           -1.72313067847595        1.30926530268406        2.66877201964887
O           -6.56637085005320        0.87515868684908        2.19736582976245
O           -4.29051742943793       -4.76166680115408        1.35302745006420
O            1.75234286444605       -1.90603170631718        2.83309746758535
O            6.56304687530074       -1.11389171274614        1.90778407182277
H            0.08350283484907        5.86291106199236       -0.25876967289820
H           -5.37298426109070        3.36996141148384        0.89269153078247
H           -5.44548278636201       -2.75709077628868       -0.45992432956104
H           -0.24824197695236       -5.83145263793420       -0.63004005889478
H            5.31449122596558       -3.43169399807064        0.46809210059825
H            5.32561837826913        2.78122208570062       -0.35153464621643
H            1.91858427786961        5.54936472374226       -1.91430844192158
H           -4.11571618437666        5.44001221379020        0.37338663615027
H           -6.69526247950266       -0.92569246153179       -1.54690244468260
H           -2.09712144589384       -5.39287816525308       -2.21517872950403
H            4.06604095290457       -5.47157821634920       -0.21344178897097
H            6.51793799733250        1.03187633319872       -1.61254203395600
H           -0.56548474449481        5.25680407495738       -2.47712809366782
H           -5.02977552575474        4.01944878727798       -1.87710948960934
H           -4.51692269081010       -1.94424007270496       -3.02808948113104
H            0.39777572315262       -5.05575169622711       -2.82029189561564
H            4.87152991829945       -3.79530911284572       -2.32883083778192
H            4.30932763007047        2.16988265631623       -2.96173213386434
H            1.12366651403656        2.61574221644224       -1.66914629425705
H           -2.50453420373486        3.67834041031704       -1.54310635493031
H           -3.95814288388544        0.36911871170493       -1.96874375761276
H           -1.28518662820282       -2.47332676706557       -1.84456524542101
H            2.37051929231536       -3.53046080146932       -1.86595075360771
H            3.75505083786978       -0.20825797085122       -2.04782072484517
H            1.97972386426989        3.39116846359350       -3.75123252482090
H           -2.92933611628771        6.06257497355271       -1.91124056277008
H           -5.78707515851893        0.75602726732539       -3.47633321769404
H           -2.19032340674021       -3.17310280684560       -3.94128009658104
H            2.78045863475251       -5.84350586533116       -2.53073248036948
H            5.52344048202216       -0.46667877742291       -3.65584098390665
H            3.72606578734949        4.02069057885529       -0.87888339749487
H           -1.54622504954925        5.00667603470417        1.04548506204190
H           -6.17536703205453        1.42062084094507       -0.16992651719800
H           -3.83986448230573       -3.93920673855323       -1.03198646169231
H            1.47825387915120       -5.17328788770919        0.55511821980624
H            6.04492297476939       -1.41834074483183       -0.45179549913045
H            1.58124320712130        2.84662683718991        0.97657018310925
H           -2.11542474522793        2.08417480950578        0.33431117358238
H           -3.58740830439197        0.12893792469653        0.81374644257881
H           -1.62511535525041       -2.79603559109968        0.75888415398292
H            1.97411342677423       -2.17654600269928        0.29743832537340
H            3.52034541754773       -0.23995821649014        0.76757255771024
H            3.91395518566974        2.86872444307291        1.87469065592120
H            2.82849512480145        4.00595443771246        2.72342618679779
H           -4.90445875230343       -0.13139009035462        2.90219390864449
H           -4.69705176780851        1.57765085475258        2.46160147363792
H           -3.90266893729287       -2.83053367914935        1.76801514864081
H           -2.77910402415174       -3.98351128048353        2.53519684657221
H            4.99206910408912       -0.12001089290897        2.80287769887007
H            4.69135007438816       -1.78165766905372        2.23880060847839
H            3.81047392276362        5.64986915743392        1.45203204689472
H           -7.01824999621187        0.03136063726170        2.05165276988597
H           -3.81760699720712       -5.60316831625688        1.27367667611200
H            7.03702671678107       -0.27432440107589        1.82283486090276
C            0.84530559888096       -1.27629443108330        3.73216869332290
H            1.43091975544075       -0.71413079409083        4.45527477757566
H            0.21134501825481       -2.02019801300764        4.22333568135234
O            0.43907168317747       -3.71385212723212        2.54154891443169
C           -0.92937197973118        0.59155223931519        3.60958382726985
H           -1.61987716946964        0.02669932540335        4.23297850986669
H           -0.32370643707262        1.28509602406202        4.19545488700085
O           -0.40956064719837        3.13353689764295        2.73606687918214
C            0.02367442224000       -0.33477381487453        2.77497736276478
O           -0.58517956809926       -1.03359412745718        1.83790291377306
H           -1.12399140064118       -0.29541677063917        0.45721872127058
O           -1.26776998085818        0.09114187653737       -0.44102277323732
H            0.43198826469806        0.11609716116521       -0.58893187391419
O            1.35648854649590        0.08758280517647       -0.20403536562425
H            1.21817114102343        0.28447603453175        0.80232426095027
O            1.00244119654837        0.58363794981319        2.18544514200083
H            1.90532870678655        0.44883766679344        2.56990566393135
H            1.90949244626485        0.82053792184457       -0.58300327224642
H           -1.89756381981354       -0.51907905553610       -0.86182905877745
