139
* (null), Energy   -1000.0000000
C     0.523358    4.841423   -0.019667   -0.000006    0.000118   -0.000254
C    -4.509075    3.327732    0.319519    0.000428   -0.000160    0.001464
C    -4.883044   -1.727008   -0.739828   -0.001376   -0.000140   -0.000394
C    -0.648877   -4.848448   -0.485534    0.000550    0.000840   -0.000814
C     4.329113   -3.346264    0.141958    0.000398   -0.000164    0.000824
C     4.746549    1.766568   -0.889371    0.000936   -0.000100    0.000098
O    -0.440707    3.820928    0.120659    0.000390   -0.000186    0.000972
O    -4.327933    2.332715   -0.640821   -0.001148   -0.000372   -0.000824
O    -3.479322   -1.849448   -0.814256   -0.002510   -0.001134   -0.000874
O     0.322046   -3.885080   -0.180700   -0.001360    0.000062    0.000158
O     4.063226   -2.276678   -0.710350    0.000024    0.000390    0.000010
O     3.346768    1.942507   -0.887404   -0.000308    0.000186    0.000380
C     1.084388    4.850090   -1.456150    0.000136   -0.000102    0.000302
C    -4.087787    4.662402   -0.315640    0.000256   -0.000138    0.000028
C    -5.390619   -0.955036   -1.968219   -0.000180    0.000458    0.000424
C    -1.191018   -4.585298   -1.903295    0.000290   -0.000172    0.000088
C     3.975774   -4.630701   -0.631529    0.000126   -0.000012    0.000270
C     5.145580    0.970386   -2.143305    0.000104   -0.000266    0.000352
O     0.113717    5.047832   -2.447324    0.000030    0.000206   -0.000382
O    -4.830813    4.974100   -1.459346   -0.000018   -0.000066   -0.000084
O    -5.080321   -1.591151   -3.176485    0.000106   -0.000186   -0.000126
O    -0.191100   -4.595021   -2.884251   -0.000292   -0.000026   -0.000160
O     4.766105   -4.790286   -1.775341    0.000200   -0.000000    0.000152
O     4.751210    1.606782   -3.329277   -0.000064    0.000212   -0.000330
C     1.746665    3.491964   -1.708338   -0.000080    0.000080    0.000588
C    -2.590186    4.609036   -0.650688    0.000006   -0.000304    0.000208
C    -4.813372    0.464353   -1.918822   -0.000450   -0.000230    0.000392
C    -1.852188   -3.202475   -1.902613    0.000360   -0.000646   -0.000096
C     2.487792   -4.570048   -1.011121    0.000098    0.000130    0.000146
C     4.563975   -0.450829   -2.054286    0.000092    0.000068    0.000310
O     2.348672    3.413272   -2.976726   -0.000030    0.000228   -0.000358
O    -2.154206    5.877223   -1.097190   -0.000086   -0.000198    0.000074
O    -5.335684    1.259636   -2.951935    0.000150   -0.000388    0.000172
O    -2.450564   -2.900852   -3.138510   -0.000206   -0.000050   -0.000072
O     2.078836   -5.758926   -1.655379   -0.000212   -0.000072   -0.000024
O     5.057961   -1.266577   -3.089160    0.000054    0.000052   -0.000110
C     2.829202    3.245583   -0.653911    0.000316   -0.000274   -0.000058
C    -1.732281    4.185541    0.556805   -0.000096   -0.000850   -0.001058
C    -5.127436    1.157496   -0.585441    0.000506   -0.000080    0.000322
C    -2.936866   -3.162590   -0.823531    0.000588   -0.000354    0.000546
C     1.603714   -4.338687    0.224629    0.000820   -0.000250    0.000080
C     4.909862   -1.131347   -0.721027    0.000112   -0.000028    0.000096
C     2.236209    3.392699    0.760921    0.000168   -0.000076   -0.000010
C    -2.360173    2.935241    1.207245    0.001734   -0.000646    0.000894
C    -4.811052    0.250760    0.621839    0.000028    0.000372    0.000562
C    -2.347515   -3.553907    0.542702   -0.000014   -0.000402    0.000352
C     2.171240   -3.190634    1.070667   -0.000080   -0.000274    0.000950
C     4.631198   -0.188603    0.463298   -0.000058   -0.000072    0.000140
O     1.566609    4.652643    0.890963   -0.000366   -0.000274   -0.000292
O    -3.733893    3.113682    1.475214   -0.000088    0.000074   -0.000734
O    -5.283596   -1.085490    0.430440   -0.000092    0.000194   -0.000810
O    -1.695773   -4.817511    0.445491   -0.000154    0.000400   -0.000196
O     3.554996   -3.290672    1.327447    0.000142    0.000238   -0.000578
O     5.190995    1.110631    0.257695   -0.000430    0.000418   -0.000534
C     3.335064    3.377198    1.832658    0.000134   -0.000010    0.000264
C    -1.764803    2.534202    2.542672   -0.004636    0.003904   -0.003192
C    -5.517232    0.695324    1.915931   -0.000372   -0.000022    0.000242
C    -3.441815   -3.710405    1.604922    0.000168   -0.000684    0.000314
C     1.442278   -3.064105    2.400644    0.000630   -0.005430   -0.001964
C     5.237047   -0.679306    1.790290   -0.000060    0.000010    0.000408
O     4.243851    4.437754    1.670484    0.000064    0.000112   -0.000036
O    -0.590526    1.904248    2.408984    0.001704   -0.000778    0.000156
O    -6.891524    0.904542    1.725905    0.000132   -0.000206   -0.000020
O    -4.384097   -4.689775    1.252937   -0.000100   -0.000224    0.000132
O     1.925788   -1.993459    3.089160   -0.002404    0.002346    0.000268
O     6.601973   -0.995751    1.667407    0.000052    0.000064    0.000036
H     0.092837    5.820617    0.222686   -0.001316   -0.000016   -0.001134
H    -5.549650    3.368790    0.667795   -0.000834   -0.001566   -0.000414
H    -5.352739   -2.718033   -0.692339    0.000732   -0.002732   -0.000576
H    -0.233999   -5.861700   -0.417624    0.000254    0.000168   -0.001116
H     5.372894   -3.360757    0.477348    0.000704   -0.000248   -0.000508
H     5.257576    2.737092   -0.882782   -0.000396    0.000382   -0.001340
H     1.844811    5.646368   -1.511242   -0.000060   -0.000194   -0.002370
H    -4.270809    5.463772    0.408439   -0.000274    0.000668   -0.000652
H    -6.483998   -0.898968   -1.922248   -0.000346    0.001326   -0.001532
H    -1.953062   -5.349404   -2.127187   -0.002062    0.002644   -0.002130
H     4.163587   -5.500465    0.005719    0.000284   -0.001102   -0.001144
H     6.238913    0.898458   -2.177370   -0.000062   -0.000060   -0.001476
H    -0.636882    5.552906   -2.079839    0.000578    0.001104    0.001390
H    -4.902399    4.182340   -2.016635   -0.000974    0.001196    0.000714
H    -4.160187   -1.918170   -3.166919   -0.001530    0.000158    0.000466
H     0.525998   -5.203713   -2.620501    0.001232   -0.001680    0.003332
H     4.791859   -3.949599   -2.262991   -0.000344   -0.000564    0.000656
H     3.889939    2.046670   -3.207639    0.001190   -0.001076   -0.000170
H     0.957366    2.730653   -1.615021   -0.002516   -0.000960   -0.000822
H    -2.437389    3.858238   -1.440694   -0.000220   -0.003816    0.002108
H    -3.716962    0.402608   -2.006125    0.002476   -0.004062    0.006854
H    -1.082278   -2.455148   -1.661582   -0.008010    0.007922    0.003286
H     2.339396   -3.714065   -1.687067   -0.000964    0.000492    0.000246
H     3.467131   -0.392705   -2.116374   -0.000848    0.001212   -0.000600
H     1.733163    3.781471   -3.628775    0.001308   -0.000164   -0.000264
H    -2.872992    6.268633   -1.623605   -0.000306    0.000776    0.000342
H    -5.353403    0.727401   -3.764445   -0.001516   -0.000064   -0.000796
H    -1.817281   -3.123002   -3.840715    0.002336   -0.002416    0.000702
H     2.822437   -6.068260   -2.200709    0.000062    0.000112    0.000630
H     4.990935   -0.773868   -3.921495    0.000732   -0.001000    0.000274
H     3.622963    3.991304   -0.785789   -0.000610   -0.000048   -0.002024
H    -1.687839    5.010749    1.280677    0.000700    0.000256   -0.000974
H    -6.190148    1.438626   -0.559601   -0.000020    0.001664   -0.001654
H    -3.720793   -3.884276   -1.088635   -0.002570    0.001940   -0.003608
H     1.522158   -5.260215    0.814232   -0.000654   -0.001866   -0.002482
H     5.962463   -1.440663   -0.724566    0.000048   -0.000056   -0.001490
H     1.512709    2.591806    0.947282   -0.003048    0.000152   -0.005902
H    -2.187758    2.084634    0.517591    0.018808   -0.028912    0.004848
H    -3.724616    0.239585    0.777482    0.007478   -0.000376   -0.017064
H    -1.632533   -2.787609    0.867351   -0.001928    0.007138   -0.015228
H     1.959876   -2.267869    0.495549   -0.004072   -0.000858   -0.000942
H     3.545524   -0.094221    0.547775   -0.001032   -0.000040   -0.005226
H     3.917288    2.459460    1.741256    0.000946    0.000514   -0.001792
H     2.860929    3.418786    2.818670   -0.000240    0.002568   -0.000974
H    -5.339922   -0.084603    2.665034   -0.000930   -0.001392   -0.002380
H    -5.096378    1.631804    2.279895   -0.000266    0.001018   -0.001892
H    -3.986076   -2.769108    1.700808    0.001606    0.000794   -0.003146
H    -2.960823   -3.950820    2.559192   -0.000128   -0.004070   -0.001074
H     5.091058    0.110638    2.535582    0.001508    0.001176   -0.001256
H     4.736718   -1.589893    2.122073    0.001456   -0.001502   -0.001380
H     3.759777    5.268307    1.777763    0.000730    0.000044    0.000244
H    -7.311765    0.051167    1.544233   -0.000420   -0.000004    0.000668
H    -3.932174   -5.546833    1.228820    0.000700   -0.001506    0.001620
H     7.090849   -0.178470    1.496148    0.000254   -0.000968    0.000180
C     1.003630   -1.188344    3.865385   -0.011428   -0.001770   -0.009850
H     1.610678   -0.701444    4.620657   -0.016396    0.022872   -0.021632
H     0.232682   -1.799917    4.320086   -0.011560    0.002806    0.006924
O     0.575848   -3.795940    2.812823   -0.000206    0.001590   -0.000144
C    -0.139472    1.081636    3.504483   -0.002948   -0.003182   -0.008118
H    -0.960458    0.872882    4.184953    0.004220   -0.013168    0.003140
H     0.651061    1.603506    4.036342    0.004158   -0.016424    0.007824
O    -2.331968    2.695501    3.604823    0.001762   -0.001196    0.000174
C     0.365741   -0.205827    2.867112    0.002388    0.029248    0.005038
O    -0.471996   -0.857515    2.064539   -0.003658   -0.016256   -0.043114
H    -0.940948   -0.299649    1.166694    0.612334   -0.318706    1.872162
O    -1.405152    0.190003    0.068638   -0.014568    0.024216   -0.059994
H     0.263157    0.184303   -0.475427   -0.039088   -0.019232    0.044122
O     1.246644    0.049597   -0.383412   -0.001538   -0.000338    0.000076
H     1.425659    0.247688    1.014436    0.015942    0.004262   -0.015496
O     1.625923    0.310553    2.064728   -0.003962   -0.001240    0.001084
H     2.284155   -0.404895    2.200398    0.006746    0.000712   -0.002992
H     1.705320    0.784342   -0.821597   -0.006152    0.001560    0.002790
H    -1.947055   -0.500845   -0.337451    0.006348    0.020320   -0.035686
139
* Frequency(6) -1771.3800
C     0.523357    4.841436   -0.019696   -0.000006    0.000118   -0.000254
C    -4.509026    3.327714    0.319685    0.000428   -0.000160    0.001464
C    -4.883200   -1.727024   -0.739873   -0.001376   -0.000140   -0.000394
C    -0.648814   -4.848353   -0.485627    0.000550    0.000840   -0.000814
C     4.329158   -3.346283    0.142052    0.000398   -0.000164    0.000824
C     4.746655    1.766557   -0.889360    0.000936   -0.000100    0.000098
O    -0.440663    3.820907    0.120769    0.000390   -0.000186    0.000972
O    -4.328063    2.332673   -0.640915   -0.001148   -0.000372   -0.000824
O    -3.479607   -1.849577   -0.814355   -0.002510   -0.001134   -0.000874
O     0.321891   -3.885073   -0.180682   -0.001360    0.000062    0.000158
O     4.063229   -2.276634   -0.710349    0.000024    0.000390    0.000010
O     3.346733    1.942528   -0.887361   -0.000308    0.000186    0.000380
C     1.084403    4.850078   -1.456116    0.000136   -0.000102    0.000302
C    -4.087758    4.662386   -0.315637    0.000256   -0.000138    0.000028
C    -5.390639   -0.954984   -1.968171   -0.000180    0.000458    0.000424
C    -1.190985   -4.585318   -1.903285    0.000290   -0.000172    0.000088
C     3.975788   -4.630702   -0.631498    0.000126   -0.000012    0.000270
C     5.145592    0.970356   -2.143265    0.000104   -0.000266    0.000352
O     0.113720    5.047855   -2.447367    0.000030    0.000206   -0.000382
O    -4.830815    4.974092   -1.459356   -0.000018   -0.000066   -0.000084
O    -5.080309   -1.591172   -3.176499    0.000106   -0.000186   -0.000126
O    -0.191133   -4.595024   -2.884269   -0.000292   -0.000026   -0.000160
O     4.766128   -4.790286   -1.775324    0.000200   -0.000000    0.000152
O     4.751203    1.606806   -3.329315   -0.000064    0.000212   -0.000330
C     1.746656    3.491973   -1.708271   -0.000080    0.000080    0.000588
C    -2.590185    4.609001   -0.650664    0.000006   -0.000304    0.000208
C    -4.813423    0.464327   -1.918777   -0.000450   -0.000230    0.000392
C    -1.852147   -3.202548   -1.902624    0.000360   -0.000646   -0.000096
C     2.487803   -4.570033   -1.011104    0.000098    0.000130    0.000146
C     4.563985   -0.450821   -2.054251    0.000092    0.000068    0.000310
O     2.348669    3.413298   -2.976767   -0.000030    0.000228   -0.000358
O    -2.154216    5.877200   -1.097182   -0.000086   -0.000198    0.000074
O    -5.335667    1.259592   -2.951915    0.000150   -0.000388    0.000172
O    -2.450587   -2.900858   -3.138518   -0.000206   -0.000050   -0.000072
O     2.078812   -5.758934   -1.655382   -0.000212   -0.000072   -0.000024
O     5.057967   -1.266571   -3.089173    0.000054    0.000052   -0.000110
C     2.829238    3.245552   -0.653918    0.000316   -0.000274   -0.000058
C    -1.732292    4.185444    0.556685   -0.000096   -0.000850   -0.001058
C    -5.127378    1.157487   -0.585404    0.000506   -0.000080    0.000322
C    -2.936799   -3.162630   -0.823469    0.000588   -0.000354    0.000546
C     1.603807   -4.338715    0.224638    0.000820   -0.000250    0.000080
C     4.909875   -1.131350   -0.721016    0.000112   -0.000028    0.000096
C     2.236228    3.392690    0.760920    0.000168   -0.000076   -0.000010
C    -2.359976    2.935168    1.207347    0.001734   -0.000646    0.000894
C    -4.811049    0.250802    0.621903    0.000028    0.000372    0.000562
C    -2.347517   -3.553953    0.542742   -0.000014   -0.000402    0.000352
C     2.171231   -3.190665    1.070775   -0.000080   -0.000274    0.000950
C     4.631191   -0.188611    0.463314   -0.000058   -0.000072    0.000140
O     1.566567    4.652612    0.890930   -0.000366   -0.000274   -0.000292
O    -3.733903    3.113690    1.475131   -0.000088    0.000074   -0.000734
O    -5.283606   -1.085468    0.430348   -0.000092    0.000194   -0.000810
O    -1.695791   -4.817466    0.445469   -0.000154    0.000400   -0.000196
O     3.555012   -3.290645    1.327381    0.000142    0.000238   -0.000578
O     5.190946    1.110679    0.257634   -0.000430    0.000418   -0.000534
C     3.335079    3.377197    1.832688    0.000134   -0.000010    0.000264
C    -1.765330    2.534646    2.542309   -0.004636    0.003904   -0.003192
C    -5.517274    0.695321    1.915959   -0.000372   -0.000022    0.000242
C    -3.441796   -3.710483    1.604958    0.000168   -0.000684    0.000314
C     1.442350   -3.064722    2.400421    0.000630   -0.005430   -0.001964
C     5.237040   -0.679305    1.790336   -0.000060    0.000010    0.000408
O     4.243858    4.437767    1.670480    0.000064    0.000112   -0.000036
O    -0.590332    1.904160    2.409002    0.001704   -0.000778    0.000156
O    -6.891509    0.904519    1.725903    0.000132   -0.000206   -0.000020
O    -4.384108   -4.689800    1.252952   -0.000100   -0.000224    0.000132
O     1.925515   -1.993192    3.089190   -0.002404    0.002346    0.000268
O     6.601979   -0.995744    1.667411    0.000052    0.000064    0.000036
H     0.092687    5.820615    0.222557   -0.001316   -0.000016   -0.001134
H    -5.549745    3.368612    0.667748   -0.000834   -0.001566   -0.000414
H    -5.352656   -2.718343   -0.692404    0.000732   -0.002732   -0.000576
H    -0.233970   -5.861681   -0.417751    0.000254    0.000168   -0.001116
H     5.372974   -3.360785    0.477290    0.000704   -0.000248   -0.000508
H     5.257531    2.737135   -0.882934   -0.000396    0.000382   -0.001340
H     1.844804    5.646346   -1.511511   -0.000060   -0.000194   -0.002370
H    -4.270840    5.463848    0.408365   -0.000274    0.000668   -0.000652
H    -6.484037   -0.898817   -1.922422   -0.000346    0.001326   -0.001532
H    -1.953296   -5.349104   -2.127429   -0.002062    0.002644   -0.002130
H     4.163619   -5.500590    0.005589    0.000284   -0.001102   -0.001144
H     6.238906    0.898451   -2.177538   -0.000062   -0.000060   -0.001476
H    -0.636816    5.553031   -2.079681    0.000578    0.001104    0.001390
H    -4.902510    4.182476   -2.016554   -0.000974    0.001196    0.000714
H    -4.160361   -1.918152   -3.166866   -0.001530    0.000158    0.000466
H     0.526138   -5.203904   -2.620122    0.001232   -0.001680    0.003332
H     4.791820   -3.949663   -2.262916   -0.000344   -0.000564    0.000656
H     3.890074    2.046548   -3.207658    0.001190   -0.001076   -0.000170
H     0.957080    2.730544   -1.615114   -0.002516   -0.000960   -0.000822
H    -2.437414    3.857804   -1.440454   -0.000220   -0.003816    0.002108
H    -3.716681    0.402146   -2.005346    0.002476   -0.004062    0.006854
H    -1.083188   -2.454248   -1.661209   -0.008010    0.007922    0.003286
H     2.339286   -3.714009   -1.687039   -0.000964    0.000492    0.000246
H     3.467035   -0.392567   -2.116442   -0.000848    0.001212   -0.000600
H     1.733312    3.781452   -3.628805    0.001308   -0.000164   -0.000264
H    -2.873027    6.268721   -1.623566   -0.000306    0.000776    0.000342
H    -5.353575    0.727394   -3.764535   -0.001516   -0.000064   -0.000796
H    -1.817016   -3.123277   -3.840635    0.002336   -0.002416    0.000702
H     2.822444   -6.068247   -2.200637    0.000062    0.000112    0.000630
H     4.991018   -0.773982   -3.921464    0.000732   -0.001000    0.000274
H     3.622894    3.991299   -0.786019   -0.000610   -0.000048   -0.002024
H    -1.687759    5.010778    1.280566    0.000700    0.000256   -0.000974
H    -6.190150    1.438815   -0.559789   -0.000020    0.001664   -0.001654
H    -3.721085   -3.884056   -1.089045   -0.002570    0.001940   -0.003608
H     1.522084   -5.260427    0.813950   -0.000654   -0.001866   -0.002482
H     5.962468   -1.440669   -0.724735    0.000048   -0.000056   -0.001490
H     1.512363    2.591823    0.946611   -0.003048    0.000152   -0.005902
H    -2.185621    2.081348    0.518142    0.018808   -0.028912    0.004848
H    -3.723766    0.239542    0.775543    0.007478   -0.000376   -0.017064
H    -1.632752   -2.786798    0.865620   -0.001928    0.007138   -0.015228
H     1.959413   -2.267967    0.495442   -0.004072   -0.000858   -0.000942
H     3.545407   -0.094226    0.547181   -0.001032   -0.000040   -0.005226
H     3.917396    2.459518    1.741052    0.000946    0.000514   -0.001792
H     2.860902    3.419078    2.818559   -0.000240    0.002568   -0.000974
H    -5.340028   -0.084761    2.664764   -0.000930   -0.001392   -0.002380
H    -5.096408    1.631920    2.279680   -0.000266    0.001018   -0.001892
H    -3.985893   -2.769018    1.700450    0.001606    0.000794   -0.003146
H    -2.960838   -3.951283    2.559070   -0.000128   -0.004070   -0.001074
H     5.091229    0.110772    2.535439    0.001508    0.001176   -0.001256
H     4.736883   -1.590064    2.121916    0.001456   -0.001502   -0.001380
H     3.759860    5.268312    1.777791    0.000730    0.000044    0.000244
H    -7.311813    0.051167    1.544309   -0.000420   -0.000004    0.000668
H    -3.932094   -5.547004    1.229004    0.000700   -0.001506    0.001620
H     7.090878   -0.178580    1.496168    0.000254   -0.000968    0.000180
C     1.002331   -1.188545    3.864266   -0.011428   -0.001770   -0.009850
H     1.608815   -0.698845    4.618199   -0.016396    0.022872   -0.021632
H     0.231368   -1.799598    4.320873   -0.011560    0.002806    0.006924
O     0.575825   -3.795759    2.812807   -0.000206    0.001590   -0.000144
C    -0.139807    1.081274    3.503560   -0.002948   -0.003182   -0.008118
H    -0.959978    0.871386    4.185310    0.004220   -0.013168    0.003140
H     0.651534    1.601639    4.037231    0.004158   -0.016424    0.007824
O    -2.331768    2.695365    3.604843    0.001762   -0.001196    0.000174
C     0.366012   -0.202503    2.867685    0.002388    0.029248    0.005038
O    -0.472412   -0.859362    2.059639   -0.003658   -0.016256   -0.043114
H    -0.871359   -0.335868    1.379456    0.612334   -0.318706    1.872162
O    -1.406808    0.192755    0.061820   -0.014568    0.024216   -0.059994
H     0.258715    0.182117   -0.470413   -0.039088   -0.019232    0.044122
O     1.246469    0.049559   -0.383403   -0.001538   -0.000338    0.000076
H     1.427471    0.248172    1.012675    0.015942    0.004262   -0.015496
O     1.625473    0.310412    2.064851   -0.003962   -0.001240    0.001084
H     2.284922   -0.404814    2.200058    0.006746    0.000712   -0.002992
H     1.704621    0.784519   -0.821280   -0.006152    0.001560    0.002790
H    -1.946334   -0.498536   -0.341507    0.006348    0.020320   -0.035686
139
* Frequency(6) -1771.3800
C     0.523357    4.841448   -0.019722   -0.000006    0.000118   -0.000254
C    -4.508983    3.327698    0.319834    0.000428   -0.000160    0.001464
C    -4.883340   -1.727038   -0.739913   -0.001376   -0.000140   -0.000394
C    -0.648759   -4.848267   -0.485709    0.000550    0.000840   -0.000814
C     4.329199   -3.346299    0.142135    0.000398   -0.000164    0.000824
C     4.746750    1.766547   -0.889350    0.000936   -0.000100    0.000098
O    -0.440623    3.820888    0.120868    0.000390   -0.000186    0.000972
O    -4.328180    2.332635   -0.640998   -0.001148   -0.000372   -0.000824
O    -3.479862   -1.849692   -0.814444   -0.002510   -0.001134   -0.000874
O     0.321754   -3.885067   -0.180666   -0.001360    0.000062    0.000158
O     4.063231   -2.276594   -0.710348    0.000024    0.000390    0.000010
O     3.346702    1.942547   -0.887322   -0.000308    0.000186    0.000380
C     1.084417    4.850068   -1.456085    0.000136   -0.000102    0.000302
C    -4.087732    4.662372   -0.315634    0.000256   -0.000138    0.000028
C    -5.390658   -0.954938   -1.968128   -0.000180    0.000458    0.000424
C    -1.190956   -4.585335   -1.903276    0.000290   -0.000172    0.000088
C     3.975801   -4.630704   -0.631471    0.000126   -0.000012    0.000270
C     5.145602    0.970329   -2.143229    0.000104   -0.000266    0.000352
O     0.113723    5.047876   -2.447406    0.000030    0.000206   -0.000382
O    -4.830817    4.974086   -1.459364   -0.000018   -0.000066   -0.000084
O    -5.080298   -1.591191   -3.176512    0.000106   -0.000186   -0.000126
O    -0.191163   -4.595027   -2.884285   -0.000292   -0.000026   -0.000160
O     4.766148   -4.790286   -1.775308    0.000200   -0.000000    0.000152
O     4.751196    1.606828   -3.329348   -0.000064    0.000212   -0.000330
C     1.746648    3.491981   -1.708212   -0.000080    0.000080    0.000588
C    -2.590185    4.608971   -0.650643    0.000006   -0.000304    0.000208
C    -4.813469    0.464304   -1.918738   -0.000450   -0.000230    0.000392
C    -1.852111   -3.202614   -1.902634    0.000360   -0.000646   -0.000096
C     2.487813   -4.570020   -1.011090    0.000098    0.000130    0.000146
C     4.563995   -0.450814   -2.054219    0.000092    0.000068    0.000310
O     2.348666    3.413321   -2.976803   -0.000030    0.000228   -0.000358
O    -2.154224    5.877180   -1.097174   -0.000086   -0.000198    0.000074
O    -5.335652    1.259553   -2.951898    0.000150   -0.000388    0.000172
O    -2.450608   -2.900863   -3.138525   -0.000206   -0.000050   -0.000072
O     2.078790   -5.758941   -1.655384   -0.000212   -0.000072   -0.000024
O     5.057973   -1.266566   -3.089184    0.000054    0.000052   -0.000110
C     2.829270    3.245524   -0.653923    0.000316   -0.000274   -0.000058
C    -1.732302    4.185358    0.556578   -0.000096   -0.000850   -0.001058
C    -5.127327    1.157479   -0.585372    0.000506   -0.000080    0.000322
C    -2.936740   -3.162666   -0.823414    0.000588   -0.000354    0.000546
C     1.603890   -4.338741    0.224646    0.000820   -0.000250    0.000080
C     4.909886   -1.131353   -0.721006    0.000112   -0.000028    0.000096
C     2.236245    3.392683    0.760919    0.000168   -0.000076   -0.000010
C    -2.359800    2.935102    1.207437    0.001734   -0.000646    0.000894
C    -4.811046    0.250840    0.621960    0.000028    0.000372    0.000562
C    -2.347518   -3.553993    0.542778   -0.000014   -0.000402    0.000352
C     2.171223   -3.190693    1.070871   -0.000080   -0.000274    0.000950
C     4.631186   -0.188618    0.463328   -0.000058   -0.000072    0.000140
O     1.566530    4.652584    0.890900   -0.000366   -0.000274   -0.000292
O    -3.733912    3.113698    1.475056   -0.000088    0.000074   -0.000734
O    -5.283616   -1.085448    0.430266   -0.000092    0.000194   -0.000810
O    -1.695806   -4.817425    0.445449   -0.000154    0.000400   -0.000196
O     3.555027   -3.290621    1.327323    0.000142    0.000238   -0.000578
O     5.190903    1.110721    0.257580   -0.000430    0.000418   -0.000534
C     3.335093    3.377196    1.832715    0.000134   -0.000010    0.000264
C    -1.765800    2.535041    2.541986   -0.004636    0.003904   -0.003192
C    -5.517312    0.695319    1.915983   -0.000372   -0.000022    0.000242
C    -3.441779   -3.710552    1.604990    0.000168   -0.000684    0.000314
C     1.442413   -3.065272    2.400222    0.000630   -0.005430   -0.001964
C     5.237034   -0.679304    1.790378   -0.000060    0.000010    0.000408
O     4.243865    4.437778    1.670476    0.000064    0.000112   -0.000036
O    -0.590160    1.904081    2.409018    0.001704   -0.000778    0.000156
O    -6.891496    0.904498    1.725901    0.000132   -0.000206   -0.000020
O    -4.384118   -4.689823    1.252965   -0.000100   -0.000224    0.000132
O     1.925271   -1.992955    3.089218   -0.002404    0.002346    0.000268
O     6.601984   -0.995737    1.667415    0.000052    0.000064    0.000036
H     0.092554    5.820614    0.222442   -0.001316   -0.000016   -0.001134
H    -5.549829    3.368453    0.667706   -0.000834   -0.001566   -0.000414
H    -5.352582   -2.718620   -0.692463    0.000732   -0.002732   -0.000576
H    -0.233944   -5.861664   -0.417864    0.000254    0.000168   -0.001116
H     5.373045   -3.360810    0.477239    0.000704   -0.000248   -0.000508
H     5.257491    2.737174   -0.883070   -0.000396    0.000382   -0.001340
H     1.844798    5.646326   -1.511751   -0.000060   -0.000194   -0.002370
H    -4.270868    5.463916    0.408299   -0.000274    0.000668   -0.000652
H    -6.484072   -0.898683   -1.922577   -0.000346    0.001326   -0.001532
H    -1.953505   -5.348836   -2.127645   -0.002062    0.002644   -0.002130
H     4.163648   -5.500702    0.005473    0.000284   -0.001102   -0.001144
H     6.238900    0.898445   -2.177687   -0.000062   -0.000060   -0.001476
H    -0.636758    5.553143   -2.079540    0.000578    0.001104    0.001390
H    -4.902608    4.182597   -2.016482   -0.000974    0.001196    0.000714
H    -4.160516   -1.918136   -3.166819   -0.001530    0.000158    0.000466
H     0.526263   -5.204074   -2.619785    0.001232   -0.001680    0.003332
H     4.791785   -3.949720   -2.262850   -0.000344   -0.000564    0.000656
H     3.890195    2.046439   -3.207676    0.001190   -0.001076   -0.000170
H     0.956825    2.730447   -1.615198   -0.002516   -0.000960   -0.000822
H    -2.437436    3.857418   -1.440241   -0.000220   -0.003816    0.002108
H    -3.716430    0.401735   -2.004652    0.002476   -0.004062    0.006854
H    -1.084000   -2.453445   -1.660876   -0.008010    0.007922    0.003286
H     2.339189   -3.713959   -1.687014   -0.000964    0.000492    0.000246
H     3.466949   -0.392444   -2.116503   -0.000848    0.001212   -0.000600
H     1.733444    3.781436   -3.628832    0.001308   -0.000164   -0.000264
H    -2.873058    6.268800   -1.623531   -0.000306    0.000776    0.000342
H    -5.353729    0.727387   -3.764616   -0.001516   -0.000064   -0.000796
H    -1.816779   -3.123521   -3.840564    0.002336   -0.002416    0.000702
H     2.822450   -6.068236   -2.200574    0.000062    0.000112    0.000630
H     4.991092   -0.774083   -3.921436    0.000732   -0.001000    0.000274
H     3.622832    3.991294   -0.786224   -0.000610   -0.000048   -0.002024
H    -1.687689    5.010804    1.280468    0.000700    0.000256   -0.000974
H    -6.190152    1.438984   -0.559957   -0.000020    0.001664   -0.001654
H    -3.721345   -3.883859   -1.089411   -0.002570    0.001940   -0.003608
H     1.522017   -5.260616    0.813698   -0.000654   -0.001866   -0.002482
H     5.962473   -1.440675   -0.724886    0.000048   -0.000056   -0.001490
H     1.512054    2.591839    0.946013   -0.003048    0.000152   -0.005902
H    -2.183715    2.078419    0.518633    0.018808   -0.028912    0.004848
H    -3.723008    0.239504    0.773814    0.007478   -0.000376   -0.017064
H    -1.632947   -2.786075    0.864077   -0.001928    0.007138   -0.015228
H     1.959001   -2.268053    0.495346   -0.004072   -0.000858   -0.000942
H     3.545302   -0.094230    0.546652   -0.001032   -0.000040   -0.005226
H     3.917491    2.459570    1.740871    0.000946    0.000514   -0.001792
H     2.860877    3.419338    2.818461   -0.000240    0.002568   -0.000974
H    -5.340122   -0.084902    2.664522   -0.000930   -0.001392   -0.002380
H    -5.096435    1.632023    2.279488   -0.000266    0.001018   -0.001892
H    -3.985731   -2.768937    1.700132    0.001606    0.000794   -0.003146
H    -2.960851   -3.951695    2.558961   -0.000128   -0.004070   -0.001074
H     5.091382    0.110891    2.535312    0.001508    0.001176   -0.001256
H     4.737031   -1.590216    2.121776    0.001456   -0.001502   -0.001380
H     3.759934    5.268316    1.777815    0.000730    0.000044    0.000244
H    -7.311855    0.051166    1.544377   -0.000420   -0.000004    0.000668
H    -3.932024   -5.547157    1.229168    0.000700   -0.001506    0.001620
H     7.090904   -0.178678    1.496187    0.000254   -0.000968    0.000180
C     1.001173   -1.188725    3.863268   -0.011428   -0.001770   -0.009850
H     1.607153   -0.696527    4.616007   -0.016396    0.022872   -0.021632
H     0.230197   -1.799314    4.321574   -0.011560    0.002806    0.006924
O     0.575804   -3.795598    2.812792   -0.000206    0.001590   -0.000144
C    -0.140106    1.080952    3.502738   -0.002948   -0.003182   -0.008118
H    -0.959551    0.870051    4.185628    0.004220   -0.013168    0.003140
H     0.651955    1.599975    4.038024    0.004158   -0.016424    0.007824
O    -2.331589    2.695244    3.604860    0.001762   -0.001196    0.000174
C     0.366254   -0.199539    2.868195    0.002388    0.029248    0.005038
O    -0.472782   -0.861010    2.055271   -0.003658   -0.016256   -0.043114
H    -0.809312   -0.368163    1.569161    0.612334   -0.318706    1.872162
O    -1.408284    0.195209    0.055741   -0.014568    0.024216   -0.059994
H     0.254754    0.180169   -0.465942   -0.039088   -0.019232    0.044122
O     1.246313    0.049524   -0.383396   -0.001538   -0.000338    0.000076
H     1.429086    0.248604    1.011105    0.015942    0.004262   -0.015496
O     1.625071    0.310286    2.064961   -0.003962   -0.001240    0.001084
H     2.285605   -0.404742    2.199755    0.006746    0.000712   -0.002992
H     1.703997    0.784677   -0.820997   -0.006152    0.001560    0.002790
H    -1.945690   -0.496477   -0.345123    0.006348    0.020320   -0.035686
139
* Frequency(6) -1771.3800
C     0.523356    4.841458   -0.019741   -0.000006    0.000118   -0.000254
C    -4.508950    3.327685    0.319948    0.000428   -0.000160    0.001464
C    -4.883447   -1.727049   -0.739943   -0.001376   -0.000140   -0.000394
C    -0.648716   -4.848202   -0.485773    0.000550    0.000840   -0.000814
C     4.329230   -3.346312    0.142199    0.000398   -0.000164    0.000824
C     4.746823    1.766539   -0.889342    0.000936   -0.000100    0.000098
O    -0.440593    3.820874    0.120944    0.000390   -0.000186    0.000972
O    -4.328269    2.332606   -0.641062   -0.001148   -0.000372   -0.000824
O    -3.480057   -1.849780   -0.814512   -0.002510   -0.001134   -0.000874
O     0.321648   -3.885062   -0.180654   -0.001360    0.000062    0.000158
O     4.063233   -2.276564   -0.710347    0.000024    0.000390    0.000010
O     3.346678    1.942561   -0.887293   -0.000308    0.000186    0.000380
C     1.084428    4.850060   -1.456062    0.000136   -0.000102    0.000302
C    -4.087712    4.662362   -0.315632    0.000256   -0.000138    0.000028
C    -5.390672   -0.954902   -1.968095   -0.000180    0.000458    0.000424
C    -1.190933   -4.585348   -1.903269    0.000290   -0.000172    0.000088
C     3.975811   -4.630705   -0.631450    0.000126   -0.000012    0.000270
C     5.145610    0.970308   -2.143202    0.000104   -0.000266    0.000352
O     0.113726    5.047892   -2.447436    0.000030    0.000206   -0.000382
O    -4.830818    4.974081   -1.459371   -0.000018   -0.000066   -0.000084
O    -5.080290   -1.591205   -3.176522    0.000106   -0.000186   -0.000126
O    -0.191186   -4.595029   -2.884298   -0.000292   -0.000026   -0.000160
O     4.766164   -4.790286   -1.775296    0.000200   -0.000000    0.000152
O     4.751191    1.606844   -3.329374   -0.000064    0.000212   -0.000330
C     1.746642    3.491987   -1.708166   -0.000080    0.000080    0.000588
C    -2.590184    4.608947   -0.650627    0.000006   -0.000304    0.000208
C    -4.813504    0.464286   -1.918707   -0.000450   -0.000230    0.000392
C    -1.852083   -3.202664   -1.902641    0.000360   -0.000646   -0.000096
C     2.487821   -4.570010   -1.011078    0.000098    0.000130    0.000146
C     4.564002   -0.450809   -2.054195    0.000092    0.000068    0.000310
O     2.348663    3.413339   -2.976831   -0.000030    0.000228   -0.000358
O    -2.154231    5.877165   -1.097168   -0.000086   -0.000198    0.000074
O    -5.335640    1.259522   -2.951885    0.000150   -0.000388    0.000172
O    -2.450624   -2.900867   -3.138531   -0.000206   -0.000050   -0.000072
O     2.078774   -5.758947   -1.655386   -0.000212   -0.000072   -0.000024
O     5.057977   -1.266562   -3.089192    0.000054    0.000052   -0.000110
C     2.829295    3.245503   -0.653928    0.000316   -0.000274   -0.000058
C    -1.732309    4.185292    0.556495   -0.000096   -0.000850   -0.001058
C    -5.127288    1.157473   -0.585347    0.000506   -0.000080    0.000322
C    -2.936694   -3.162694   -0.823371    0.000588   -0.000354    0.000546
C     1.603954   -4.338760    0.224652    0.000820   -0.000250    0.000080
C     4.909895   -1.131355   -0.720999    0.000112   -0.000028    0.000096
C     2.236258    3.392677    0.760918    0.000168   -0.000076   -0.000010
C    -2.359665    2.935052    1.207507    0.001734   -0.000646    0.000894
C    -4.811044    0.250869    0.622004    0.000028    0.000372    0.000562
C    -2.347519   -3.554025    0.542805   -0.000014   -0.000402    0.000352
C     2.171217   -3.190714    1.070945   -0.000080   -0.000274    0.000950
C     4.631181   -0.188624    0.463339   -0.000058   -0.000072    0.000140
O     1.566502    4.652563    0.890877   -0.000366   -0.000274   -0.000292
O    -3.733919    3.113704    1.474999   -0.000088    0.000074   -0.000734
O    -5.283623   -1.085433    0.430203   -0.000092    0.000194   -0.000810
O    -1.695818   -4.817394    0.445434   -0.000154    0.000400   -0.000196
O     3.555038   -3.290602    1.327278    0.000142    0.000238   -0.000578
O     5.190869    1.110753    0.257539   -0.000430    0.000418   -0.000534
C     3.335103    3.377195    1.832735    0.000134   -0.000010    0.000264
C    -1.766161    2.535346    2.541737   -0.004636    0.003904   -0.003192
C    -5.517341    0.695318    1.916002   -0.000372   -0.000022    0.000242
C    -3.441766   -3.710605    1.605014    0.000168   -0.000684    0.000314
C     1.442463   -3.065696    2.400069    0.000630   -0.005430   -0.001964
C     5.237029   -0.679303    1.790410   -0.000060    0.000010    0.000408
O     4.243870    4.437787    1.670473    0.000064    0.000112   -0.000036
O    -0.590027    1.904020    2.409030    0.001704   -0.000778    0.000156
O    -6.891485    0.904482    1.725899    0.000132   -0.000206   -0.000020
O    -4.384126   -4.689841    1.252976   -0.000100   -0.000224    0.000132
O     1.925084   -1.992772    3.089239   -0.002404    0.002346    0.000268
O     6.601988   -0.995732    1.667418    0.000052    0.000064    0.000036
H     0.092451    5.820612    0.222354   -0.001316   -0.000016   -0.001134
H    -5.549894    3.368331    0.667674   -0.000834   -0.001566   -0.000414
H    -5.352525   -2.718833   -0.692508    0.000732   -0.002732   -0.000576
H    -0.233925   -5.861651   -0.417951    0.000254    0.000168   -0.001116
H     5.373100   -3.360830    0.477199    0.000704   -0.000248   -0.000508
H     5.257460    2.737204   -0.883175   -0.000396    0.000382   -0.001340
H     1.844793    5.646311   -1.511936   -0.000060   -0.000194   -0.002370
H    -4.270889    5.463968    0.408248   -0.000274    0.000668   -0.000652
H    -6.484099   -0.898579   -1.922697   -0.000346    0.001326   -0.001532
H    -1.953666   -5.348629   -2.127811   -0.002062    0.002644   -0.002130
H     4.163670   -5.500788    0.005384    0.000284   -0.001102   -0.001144
H     6.238895    0.898440   -2.177802   -0.000062   -0.000060   -0.001476
H    -0.636713    5.553229   -2.079432    0.000578    0.001104    0.001390
H    -4.902684    4.182690   -2.016426   -0.000974    0.001196    0.000714
H    -4.160635   -1.918124   -3.166782   -0.001530    0.000158    0.000466
H     0.526359   -5.204205   -2.619525    0.001232   -0.001680    0.003332
H     4.791758   -3.949764   -2.262799   -0.000344   -0.000564    0.000656
H     3.890288    2.046355   -3.207689    0.001190   -0.001076   -0.000170
H     0.956629    2.730372   -1.615262   -0.002516   -0.000960   -0.000822
H    -2.437453    3.857120   -1.440076   -0.000220   -0.003816    0.002108
H    -3.716237    0.401418   -2.004117    0.002476   -0.004062    0.006854
H    -1.084625   -2.452827   -1.660619   -0.008010    0.007922    0.003286
H     2.339114   -3.713921   -1.686995   -0.000964    0.000492    0.000246
H     3.466883   -0.392350   -2.116550   -0.000848    0.001212   -0.000600
H     1.733546    3.781423   -3.628852    0.001308   -0.000164   -0.000264
H    -2.873082    6.268860   -1.623505   -0.000306    0.000776    0.000342
H    -5.353847    0.727382   -3.764678   -0.001516   -0.000064   -0.000796
H    -1.816597   -3.123710   -3.840509    0.002336   -0.002416    0.000702
H     2.822455   -6.068227   -2.200524    0.000062    0.000112    0.000630
H     4.991149   -0.774161   -3.921415    0.000732   -0.001000    0.000274
H     3.622784    3.991290   -0.786382   -0.000610   -0.000048   -0.002024
H    -1.687634    5.010824    1.280392    0.000700    0.000256   -0.000974
H    -6.190154    1.439114   -0.560086   -0.000020    0.001664   -0.001654
H    -3.721546   -3.883708   -1.089692   -0.002570    0.001940   -0.003608
H     1.521966   -5.260762    0.813505   -0.000654   -0.001866   -0.002482
H     5.962477   -1.440679   -0.725003    0.000048   -0.000056   -0.001490
H     1.511816    2.591851    0.945553   -0.003048    0.000152   -0.005902
H    -2.182247    2.076163    0.519012    0.018808   -0.028912    0.004848
H    -3.722425    0.239475    0.772482    0.007478   -0.000376   -0.017064
H    -1.633098   -2.785518    0.862889   -0.001928    0.007138   -0.015228
H     1.958683   -2.268120    0.495273   -0.004072   -0.000858   -0.000942
H     3.545222   -0.094233    0.546244   -0.001032   -0.000040   -0.005226
H     3.917565    2.459611    1.740731    0.000946    0.000514   -0.001792
H     2.860859    3.419538    2.818385   -0.000240    0.002568   -0.000974
H    -5.340194   -0.085011    2.664337   -0.000930   -0.001392   -0.002380
H    -5.096456    1.632102    2.279341   -0.000266    0.001018   -0.001892
H    -3.985605   -2.768875    1.699886    0.001606    0.000794   -0.003146
H    -2.960861   -3.952013    2.558877   -0.000128   -0.004070   -0.001074
H     5.091500    0.110983    2.535214    0.001508    0.001176   -0.001256
H     4.737145   -1.590333    2.121669    0.001456   -0.001502   -0.001380
H     3.759991    5.268320    1.777834    0.000730    0.000044    0.000244
H    -7.311888    0.051166    1.544429   -0.000420   -0.000004    0.000668
H    -3.931969   -5.547274    1.229295    0.000700   -0.001506    0.001620
H     7.090923   -0.178754    1.496201    0.000254   -0.000968    0.000180
C     1.000282   -1.188863    3.862499   -0.011428   -0.001770   -0.009850
H     1.605874   -0.694742    4.614319   -0.016396    0.022872   -0.021632
H     0.229295   -1.799095    4.322115   -0.011560    0.002806    0.006924
O     0.575788   -3.795474    2.812781   -0.000206    0.001590   -0.000144
C    -0.140336    1.080704    3.502104   -0.002948   -0.003182   -0.008118
H    -0.959222    0.869024    4.185873    0.004220   -0.013168    0.003140
H     0.652279    1.598694    4.038634    0.004158   -0.016424    0.007824
O    -2.331452    2.695151    3.604874    0.001762   -0.001196    0.000174
C     0.366441   -0.197257    2.868588    0.002388    0.029248    0.005038
O    -0.473068   -0.862278    2.051906   -0.003658   -0.016256   -0.043114
H    -0.761529   -0.393032    1.715253    0.612334   -0.318706    1.872162
O    -1.409421    0.197098    0.051059   -0.014568    0.024216   -0.059994
H     0.251704    0.178668   -0.462499   -0.039088   -0.019232    0.044122
O     1.246193    0.049498   -0.383390   -0.001538   -0.000338    0.000076
H     1.430330    0.248937    1.009896    0.015942    0.004262   -0.015496
O     1.624762    0.310190    2.065046   -0.003962   -0.001240    0.001084
H     2.286132   -0.404686    2.199521    0.006746    0.000712   -0.002992
H     1.703517    0.784799   -0.820780   -0.006152    0.001560    0.002790
H    -1.945195   -0.494891   -0.347907    0.006348    0.020320   -0.035686
139
* Frequency(6) -1771.3800
C     0.523356    4.841463   -0.019753   -0.000006    0.000118   -0.000254
C    -4.508930    3.327678    0.320016    0.000428   -0.000160    0.001464
C    -4.883511   -1.727056   -0.739962   -0.001376   -0.000140   -0.000394
C    -0.648690   -4.848163   -0.485810    0.000550    0.000840   -0.000814
C     4.329248   -3.346320    0.142238    0.000398   -0.000164    0.000824
C     4.746867    1.766534   -0.889338    0.000936   -0.000100    0.000098
O    -0.440575    3.820865    0.120989    0.000390   -0.000186    0.000972
O    -4.328323    2.332589   -0.641101   -0.001148   -0.000372   -0.000824
O    -3.480174   -1.849833   -0.814553   -0.002510   -0.001134   -0.000874
O     0.321585   -3.885059   -0.180646   -0.001360    0.000062    0.000158
O     4.063234   -2.276546   -0.710347    0.000024    0.000390    0.000010
O     3.346663    1.942570   -0.887275   -0.000308    0.000186    0.000380
C     1.084434    4.850055   -1.456048    0.000136   -0.000102    0.000302
C    -4.087700    4.662355   -0.315630    0.000256   -0.000138    0.000028
C    -5.390680   -0.954881   -1.968075   -0.000180    0.000458    0.000424
C    -1.190920   -4.585356   -1.903265    0.000290   -0.000172    0.000088
C     3.975817   -4.630705   -0.631437    0.000126   -0.000012    0.000270
C     5.145615    0.970296   -2.143186    0.000104   -0.000266    0.000352
O     0.113727    5.047902   -2.447454    0.000030    0.000206   -0.000382
O    -4.830819    4.974078   -1.459375   -0.000018   -0.000066   -0.000084
O    -5.080285   -1.591214   -3.176528    0.000106   -0.000186   -0.000126
O    -0.191199   -4.595030   -2.884305   -0.000292   -0.000026   -0.000160
O     4.766173   -4.790286   -1.775289    0.000200   -0.000000    0.000152
O     4.751188    1.606854   -3.329389   -0.000064    0.000212   -0.000330
C     1.746638    3.491991   -1.708138   -0.000080    0.000080    0.000588
C    -2.590184    4.608933   -0.650617    0.000006   -0.000304    0.000208
C    -4.813525    0.464275   -1.918689   -0.000450   -0.000230    0.000392
C    -1.852066   -3.202694   -1.902646    0.000360   -0.000646   -0.000096
C     2.487825   -4.570004   -1.011071    0.000098    0.000130    0.000146
C     4.564006   -0.450806   -2.054181    0.000092    0.000068    0.000310
O     2.348662    3.413349   -2.976847   -0.000030    0.000228   -0.000358
O    -2.154235    5.877156   -1.097165   -0.000086   -0.000198    0.000074
O    -5.335633    1.259504   -2.951877    0.000150   -0.000388    0.000172
O    -2.450634   -2.900869   -3.138534   -0.000206   -0.000050   -0.000072
O     2.078764   -5.758950   -1.655387   -0.000212   -0.000072   -0.000024
O     5.057979   -1.266559   -3.089197    0.000054    0.000052   -0.000110
C     2.829309    3.245490   -0.653931    0.000316   -0.000274   -0.000058
C    -1.732314    4.185253    0.556446   -0.000096   -0.000850   -0.001058
C    -5.127264    1.157469   -0.585332    0.000506   -0.000080    0.000322
C    -2.936666   -3.162710   -0.823346    0.000588   -0.000354    0.000546
C     1.603992   -4.338772    0.224656    0.000820   -0.000250    0.000080
C     4.909900   -1.131357   -0.720994    0.000112   -0.000028    0.000096
C     2.236266    3.392673    0.760918    0.000168   -0.000076   -0.000010
C    -2.359585    2.935022    1.207548    0.001734   -0.000646    0.000894
C    -4.811042    0.250886    0.622030    0.000028    0.000372    0.000562
C    -2.347520   -3.554043    0.542821   -0.000014   -0.000402    0.000352
C     2.171213   -3.190727    1.070989   -0.000080   -0.000274    0.000950
C     4.631178   -0.188627    0.463346   -0.000058   -0.000072    0.000140
O     1.566485    4.652550    0.890864   -0.000366   -0.000274   -0.000292
O    -3.733923    3.113707    1.474965   -0.000088    0.000074   -0.000734
O    -5.283627   -1.085424    0.430165   -0.000092    0.000194   -0.000810
O    -1.695825   -4.817375    0.445424   -0.000154    0.000400   -0.000196
O     3.555044   -3.290591    1.327251    0.000142    0.000238   -0.000578
O     5.190849    1.110773    0.257514   -0.000430    0.000418   -0.000534
C     3.335109    3.377195    1.832748    0.000134   -0.000010    0.000264
C    -1.766376    2.535527    2.541589   -0.004636    0.003904   -0.003192
C    -5.517358    0.695317    1.916013   -0.000372   -0.000022    0.000242
C    -3.441758   -3.710637    1.605029    0.000168   -0.000684    0.000314
C     1.442492   -3.065947    2.399978    0.000630   -0.005430   -0.001964
C     5.237027   -0.679303    1.790428   -0.000060    0.000010    0.000408
O     4.243873    4.437792    1.670472    0.000064    0.000112   -0.000036
O    -0.589948    1.903984    2.409037    0.001704   -0.000778    0.000156
O    -6.891479    0.904472    1.725898    0.000132   -0.000206   -0.000020
O    -4.384131   -4.689851    1.252982   -0.000100   -0.000224    0.000132
O     1.924972   -1.992663    3.089251   -0.002404    0.002346    0.000268
O     6.601991   -0.995729    1.667419    0.000052    0.000064    0.000036
H     0.092390    5.820612    0.222301   -0.001316   -0.000016   -0.001134
H    -5.549933    3.368259    0.667655   -0.000834   -0.001566   -0.000414
H    -5.352491   -2.718960   -0.692534    0.000732   -0.002732   -0.000576
H    -0.233913   -5.861643   -0.418003    0.000254    0.000168   -0.001116
H     5.373133   -3.360841    0.477176    0.000704   -0.000248   -0.000508
H     5.257442    2.737222   -0.883237   -0.000396    0.000382   -0.001340
H     1.844791    5.646302   -1.512046   -0.000060   -0.000194   -0.002370
H    -4.270902    5.463999    0.408218   -0.000274    0.000668   -0.000652
H    -6.484115   -0.898518   -1.922768   -0.000346    0.001326   -0.001532
H    -1.953762   -5.348507   -2.127910   -0.002062    0.002644   -0.002130
H     4.163683   -5.500839    0.005331    0.000284   -0.001102   -0.001144
H     6.238892    0.898438   -2.177871   -0.000062   -0.000060   -0.001476
H    -0.636686    5.553281   -2.079367    0.000578    0.001104    0.001390
H    -4.902729    4.182746   -2.016393   -0.000974    0.001196    0.000714
H    -4.160706   -1.918116   -3.166761   -0.001530    0.000158    0.000466
H     0.526416   -5.204283   -2.619370    0.001232   -0.001680    0.003332
H     4.791742   -3.949790   -2.262768   -0.000344   -0.000564    0.000656
H     3.890343    2.046305   -3.207697    0.001190   -0.001076   -0.000170
H     0.956512    2.730327   -1.615300   -0.002516   -0.000960   -0.000822
H    -2.437464    3.856943   -1.439979   -0.000220   -0.003816    0.002108
H    -3.716122    0.401230   -2.003800    0.002476   -0.004062    0.006854
H    -1.084996   -2.452460   -1.660467   -0.008010    0.007922    0.003286
H     2.339069   -3.713898   -1.686984   -0.000964    0.000492    0.000246
H     3.466843   -0.392294   -2.116578   -0.000848    0.001212   -0.000600
H     1.733607    3.781415   -3.628865    0.001308   -0.000164   -0.000264
H    -2.873096    6.268896   -1.623489   -0.000306    0.000776    0.000342
H    -5.353917    0.727379   -3.764715   -0.001516   -0.000064   -0.000796
H    -1.816488   -3.123822   -3.840477    0.002336   -0.002416    0.000702
H     2.822458   -6.068222   -2.200495    0.000062    0.000112    0.000630
H     4.991183   -0.774207   -3.921402    0.000732   -0.001000    0.000274
H     3.622756    3.991288   -0.786476   -0.000610   -0.000048   -0.002024
H    -1.687601    5.010836    1.280347    0.000700    0.000256   -0.000974
H    -6.190155    1.439191   -0.560162   -0.000020    0.001664   -0.001654
H    -3.721665   -3.883618   -1.089859   -0.002570    0.001940   -0.003608
H     1.521936   -5.260848    0.813390   -0.000654   -0.001866   -0.002482
H     5.962479   -1.440682   -0.725072    0.000048   -0.000056   -0.001490
H     1.511675    2.591858    0.945280   -0.003048    0.000152   -0.005902
H    -2.181377    2.074824    0.519236    0.018808   -0.028912    0.004848
H    -3.722079    0.239457    0.771692    0.007478   -0.000376   -0.017064
H    -1.633187   -2.785187    0.862184   -0.001928    0.007138   -0.015228
H     1.958494   -2.268160    0.495229   -0.004072   -0.000858   -0.000942
H     3.545174   -0.094235    0.546002   -0.001032   -0.000040   -0.005226
H     3.917609    2.459634    1.740648    0.000946    0.000514   -0.001792
H     2.860848    3.419657    2.818340   -0.000240    0.002568   -0.000974
H    -5.340238   -0.085075    2.664226   -0.000930   -0.001392   -0.002380
H    -5.096468    1.632149    2.279253   -0.000266    0.001018   -0.001892
H    -3.985531   -2.768839    1.699741    0.001606    0.000794   -0.003146
H    -2.960866   -3.952201    2.558828   -0.000128   -0.004070   -0.001074
H     5.091570    0.111037    2.535156    0.001508    0.001176   -0.001256
H     4.737212   -1.590403    2.121605    0.001456   -0.001502   -0.001380
H     3.760025    5.268322    1.777846    0.000730    0.000044    0.000244
H    -7.311908    0.051166    1.544460   -0.000420   -0.000004    0.000668
H    -3.931936   -5.547344    1.229370    0.000700   -0.001506    0.001620
H     7.090935   -0.178798    1.496209    0.000254   -0.000968    0.000180
C     0.999753   -1.188945    3.862043   -0.011428   -0.001770   -0.009850
H     1.605115   -0.693684    4.613317   -0.016396    0.022872   -0.021632
H     0.228760   -1.798965    4.322435   -0.011560    0.002806    0.006924
O     0.575778   -3.795401    2.812774   -0.000206    0.001590   -0.000144
C    -0.140472    1.080556    3.501729   -0.002948   -0.003182   -0.008118
H    -0.959026    0.868414    4.186018    0.004220   -0.013168    0.003140
H     0.652472    1.597933    4.038997    0.004158   -0.016424    0.007824
O    -2.331370    2.695095    3.604882    0.001762   -0.001196    0.000174
C     0.366551   -0.195903    2.868821    0.002388    0.029248    0.005038
O    -0.473237   -0.863030    2.049911   -0.003658   -0.016256   -0.043114
H    -0.733189   -0.407783    1.801900    0.612334   -0.318706    1.872162
O    -1.410095    0.198219    0.048283   -0.014568    0.024216   -0.059994
H     0.249895    0.177778   -0.460457   -0.039088   -0.019232    0.044122
O     1.246122    0.049482   -0.383386   -0.001538   -0.000338    0.000076
H     1.431068    0.249134    1.009178    0.015942    0.004262   -0.015496
O     1.624579    0.310132    2.065096   -0.003962   -0.001240    0.001084
H     2.286444   -0.404653    2.199383    0.006746    0.000712   -0.002992
H     1.703233    0.784871   -0.820650   -0.006152    0.001560    0.002790
H    -1.944901   -0.493951   -0.349559    0.006348    0.020320   -0.035686
139
* Frequency(6) -1771.3800
C     0.523356    4.841464   -0.019756   -0.000006    0.000118   -0.000254
C    -4.508926    3.327676    0.320030    0.000428   -0.000160    0.001464
C    -4.883524   -1.727057   -0.739965   -0.001376   -0.000140   -0.000394
C    -0.648685   -4.848155   -0.485818    0.000550    0.000840   -0.000814
C     4.329252   -3.346321    0.142245    0.000398   -0.000164    0.000824
C     4.746875    1.766533   -0.889337    0.000936   -0.000100    0.000098
O    -0.440571    3.820863    0.120998    0.000390   -0.000186    0.000972
O    -4.328333    2.332585   -0.641108   -0.001148   -0.000372   -0.000824
O    -3.480197   -1.849844   -0.814561   -0.002510   -0.001134   -0.000874
O     0.321572   -3.885058   -0.180645   -0.001360    0.000062    0.000158
O     4.063234   -2.276542   -0.710347    0.000024    0.000390    0.000010
O     3.346661    1.942572   -0.887271   -0.000308    0.000186    0.000380
C     1.084435    4.850054   -1.456045    0.000136   -0.000102    0.000302
C    -4.087698    4.662354   -0.315630    0.000256   -0.000138    0.000028
C    -5.390682   -0.954876   -1.968071   -0.000180    0.000458    0.000424
C    -1.190917   -4.585358   -1.903264    0.000290   -0.000172    0.000088
C     3.975818   -4.630705   -0.631435    0.000126   -0.000012    0.000270
C     5.145616    0.970293   -2.143182    0.000104   -0.000266    0.000352
O     0.113727    5.047904   -2.447457    0.000030    0.000206   -0.000382
O    -4.830819    4.974077   -1.459375   -0.000018   -0.000066   -0.000084
O    -5.080284   -1.591216   -3.176529    0.000106   -0.000186   -0.000126
O    -0.191202   -4.595030   -2.884307   -0.000292   -0.000026   -0.000160
O     4.766175   -4.790286   -1.775288    0.000200   -0.000000    0.000152
O     4.751188    1.606856   -3.329392   -0.000064    0.000212   -0.000330
C     1.746637    3.491992   -1.708133   -0.000080    0.000080    0.000588
C    -2.590184    4.608930   -0.650615    0.000006   -0.000304    0.000208
C    -4.813529    0.464273   -1.918685   -0.000450   -0.000230    0.000392
C    -1.852062   -3.202700   -1.902646    0.000360   -0.000646   -0.000096
C     2.487826   -4.570003   -1.011070    0.000098    0.000130    0.000146
C     4.564007   -0.450805   -2.054178    0.000092    0.000068    0.000310
O     2.348662    3.413352   -2.976851   -0.000030    0.000228   -0.000358
O    -2.154236    5.877154   -1.097164   -0.000086   -0.000198    0.000074
O    -5.335632    1.259501   -2.951875    0.000150   -0.000388    0.000172
O    -2.450636   -2.900869   -3.138535   -0.000206   -0.000050   -0.000072
O     2.078762   -5.758951   -1.655387   -0.000212   -0.000072   -0.000024
O     5.057980   -1.266559   -3.089198    0.000054    0.000052   -0.000110
C     2.829312    3.245487   -0.653931    0.000316   -0.000274   -0.000058
C    -1.732314    4.185245    0.556436   -0.000096   -0.000850   -0.001058
C    -5.127260    1.157468   -0.585329    0.000506   -0.000080    0.000322
C    -2.936661   -3.162713   -0.823341    0.000588   -0.000354    0.000546
C     1.604000   -4.338774    0.224657    0.000820   -0.000250    0.000080
C     4.909901   -1.131357   -0.720994    0.000112   -0.000028    0.000096
C     2.236268    3.392672    0.760918    0.000168   -0.000076   -0.000010
C    -2.359568    2.935016    1.207557    0.001734   -0.000646    0.000894
C    -4.811042    0.250890    0.622035    0.000028    0.000372    0.000562
C    -2.347520   -3.554047    0.542825   -0.000014   -0.000402    0.000352
C     2.171212   -3.190730    1.070998   -0.000080   -0.000274    0.000950
C     4.631178   -0.188628    0.463347   -0.000058   -0.000072    0.000140
O     1.566481    4.652547    0.890861   -0.000366   -0.000274   -0.000292
O    -3.733924    3.113708    1.474958   -0.000088    0.000074   -0.000734
O    -5.283628   -1.085422    0.430157   -0.000092    0.000194   -0.000810
O    -1.695827   -4.817371    0.445423   -0.000154    0.000400   -0.000196
O     3.555046   -3.290589    1.327245    0.000142    0.000238   -0.000578
O     5.190845    1.110777    0.257509   -0.000430    0.000418   -0.000534
C     3.335111    3.377195    1.832750    0.000134   -0.000010    0.000264
C    -1.766420    2.535564    2.541559   -0.004636    0.003904   -0.003192
C    -5.517362    0.695316    1.916015   -0.000372   -0.000022    0.000242
C    -3.441756   -3.710644    1.605032    0.000168   -0.000684    0.000314
C     1.442498   -3.065999    2.399959    0.000630   -0.005430   -0.001964
C     5.237026   -0.679303    1.790432   -0.000060    0.000010    0.000408
O     4.243873    4.437793    1.670471    0.000064    0.000112   -0.000036
O    -0.589932    1.903977    2.409038    0.001704   -0.000778    0.000156
O    -6.891478    0.904470    1.725898    0.000132   -0.000206   -0.000020
O    -4.384132   -4.689853    1.252983   -0.000100   -0.000224    0.000132
O     1.924949   -1.992641    3.089253   -0.002404    0.002346    0.000268
O     6.601991   -0.995729    1.667420    0.000052    0.000064    0.000036
H     0.092378    5.820611    0.222290   -0.001316   -0.000016   -0.001134
H    -5.549941    3.368244    0.667651   -0.000834   -0.001566   -0.000414
H    -5.352484   -2.718986   -0.692540    0.000732   -0.002732   -0.000576
H    -0.233910   -5.861641   -0.418013    0.000254    0.000168   -0.001116
H     5.373140   -3.360844    0.477171    0.000704   -0.000248   -0.000508
H     5.257438    2.737225   -0.883249   -0.000396    0.000382   -0.001340
H     1.844790    5.646300   -1.512069   -0.000060   -0.000194   -0.002370
H    -4.270905    5.464005    0.408212   -0.000274    0.000668   -0.000652
H    -6.484119   -0.898505   -1.922782   -0.000346    0.001326   -0.001532
H    -1.953781   -5.348482   -2.127930   -0.002062    0.002644   -0.002130
H     4.163686   -5.500849    0.005320    0.000284   -0.001102   -0.001144
H     6.238891    0.898437   -2.177885   -0.000062   -0.000060   -0.001476
H    -0.636680    5.553291   -2.079354    0.000578    0.001104    0.001390
H    -4.902739    4.182757   -2.016386   -0.000974    0.001196    0.000714
H    -4.160721   -1.918115   -3.166756   -0.001530    0.000158    0.000466
H     0.526428   -5.204299   -2.619339    0.001232   -0.001680    0.003332
H     4.791739   -3.949796   -2.262762   -0.000344   -0.000564    0.000656
H     3.890354    2.046295   -3.207698    0.001190   -0.001076   -0.000170
H     0.956488    2.730318   -1.615308   -0.002516   -0.000960   -0.000822
H    -2.437466    3.856907   -1.439959   -0.000220   -0.003816    0.002108
H    -3.716098    0.401191   -2.003734    0.002476   -0.004062    0.006854
H    -1.085072   -2.452385   -1.660436   -0.008010    0.007922    0.003286
H     2.339060   -3.713893   -1.686981   -0.000964    0.000492    0.000246
H     3.466835   -0.392282   -2.116583   -0.000848    0.001212   -0.000600
H     1.733619    3.781414   -3.628867    0.001308   -0.000164   -0.000264
H    -2.873099    6.268904   -1.623486   -0.000306    0.000776    0.000342
H    -5.353932    0.727379   -3.764723   -0.001516   -0.000064   -0.000796
H    -1.816466   -3.123845   -3.840470    0.002336   -0.002416    0.000702
H     2.822459   -6.068221   -2.200489    0.000062    0.000112    0.000630
H     4.991190   -0.774217   -3.921399    0.000732   -0.001000    0.000274
H     3.622750    3.991287   -0.786495   -0.000610   -0.000048   -0.002024
H    -1.687595    5.010838    1.280337    0.000700    0.000256   -0.000974
H    -6.190155    1.439206   -0.560178   -0.000020    0.001664   -0.001654
H    -3.721689   -3.883599   -1.089893   -0.002570    0.001940   -0.003608
H     1.521930   -5.260866    0.813366   -0.000654   -0.001866   -0.002482
H     5.962480   -1.440683   -0.725086    0.000048   -0.000056   -0.001490
H     1.511646    2.591859    0.945223   -0.003048    0.000152   -0.005902
H    -2.181198    2.074549    0.519282    0.018808   -0.028912    0.004848
H    -3.722008    0.239454    0.771530    0.007478   -0.000376   -0.017064
H    -1.633205   -2.785119    0.862039   -0.001928    0.007138   -0.015228
H     1.958456   -2.268168    0.495220   -0.004072   -0.000858   -0.000942
H     3.545164   -0.094235    0.545952   -0.001032   -0.000040   -0.005226
H     3.917618    2.459639    1.740631    0.000946    0.000514   -0.001792
H     2.860845    3.419682    2.818330   -0.000240    0.002568   -0.000974
H    -5.340246   -0.085089    2.664204   -0.000930   -0.001392   -0.002380
H    -5.096471    1.632159    2.279235   -0.000266    0.001018   -0.001892
H    -3.985516   -2.768831    1.699711    0.001606    0.000794   -0.003146
H    -2.960868   -3.952240    2.558817   -0.000128   -0.004070   -0.001074
H     5.091584    0.111048    2.535144    0.001508    0.001176   -0.001256
H     4.737226   -1.590417    2.121592    0.001456   -0.001502   -0.001380
H     3.760032    5.268322    1.777848    0.000730    0.000044    0.000244
H    -7.311911    0.051166    1.544466   -0.000420   -0.000004    0.000668
H    -3.931930   -5.547358    1.229385    0.000700   -0.001506    0.001620
H     7.090938   -0.178808    1.496211    0.000254   -0.000968    0.000180
C     0.999644   -1.188961    3.861949   -0.011428   -0.001770   -0.009850
H     1.604959   -0.693466    4.613112   -0.016396    0.022872   -0.021632
H     0.228650   -1.798938    4.322501   -0.011560    0.002806    0.006924
O     0.575776   -3.795385    2.812773   -0.000206    0.001590   -0.000144
C    -0.140500    1.080526    3.501651   -0.002948   -0.003182   -0.008118
H    -0.958986    0.868289    4.186048    0.004220   -0.013168    0.003140
H     0.652511    1.597777    4.039071    0.004158   -0.016424    0.007824
O    -2.331353    2.695084    3.604884    0.001762   -0.001196    0.000174
C     0.366574   -0.195625    2.868869    0.002388    0.029248    0.005038
O    -0.473272   -0.863185    2.049501   -0.003658   -0.016256   -0.043114
H    -0.727363   -0.410815    1.819713    0.612334   -0.318706    1.872162
O    -1.410233    0.198450    0.047712   -0.014568    0.024216   -0.059994
H     0.249523    0.177595   -0.460037   -0.039088   -0.019232    0.044122
O     1.246108    0.049479   -0.383385   -0.001538   -0.000338    0.000076
H     1.431220    0.249175    1.009031    0.015942    0.004262   -0.015496
O     1.624541    0.310120    2.065106   -0.003962   -0.001240    0.001084
H     2.286508   -0.404647    2.199354    0.006746    0.000712   -0.002992
H     1.703174    0.784886   -0.820624   -0.006152    0.001560    0.002790
H    -1.944841   -0.493757   -0.349898    0.006348    0.020320   -0.035686
139
* Frequency(6) -1771.3800
C     0.523356    4.841461   -0.019748   -0.000006    0.000118   -0.000254
C    -4.508938    3.327681    0.319988    0.000428   -0.000160    0.001464
C    -4.883485   -1.727053   -0.739954   -0.001376   -0.000140   -0.000394
C    -0.648701   -4.848179   -0.485795    0.000550    0.000840   -0.000814
C     4.329241   -3.346317    0.142222    0.000398   -0.000164    0.000824
C     4.746849    1.766536   -0.889340    0.000936   -0.000100    0.000098
O    -0.440582    3.820868    0.120971    0.000390   -0.000186    0.000972
O    -4.328301    2.332596   -0.641085   -0.001148   -0.000372   -0.000824
O    -3.480127   -1.849811   -0.814536   -0.002510   -0.001134   -0.000874
O     0.321610   -3.885060   -0.180649   -0.001360    0.000062    0.000158
O     4.063234   -2.276553   -0.710347    0.000024    0.000390    0.000010
O     3.346669    1.942567   -0.887282   -0.000308    0.000186    0.000380
C     1.084432    4.850057   -1.456053    0.000136   -0.000102    0.000302
C    -4.087705    4.662358   -0.315631    0.000256   -0.000138    0.000028
C    -5.390677   -0.954889   -1.968083   -0.000180    0.000458    0.000424
C    -1.190925   -4.585353   -1.903267    0.000290   -0.000172    0.000088
C     3.975814   -4.630705   -0.631442    0.000126   -0.000012    0.000270
C     5.145613    0.970301   -2.143192    0.000104   -0.000266    0.000352
O     0.113727    5.047898   -2.447446    0.000030    0.000206   -0.000382
O    -4.830819    4.974079   -1.459373   -0.000018   -0.000066   -0.000084
O    -5.080287   -1.591211   -3.176525    0.000106   -0.000186   -0.000126
O    -0.191194   -4.595029   -2.884302   -0.000292   -0.000026   -0.000160
O     4.766169   -4.790286   -1.775292    0.000200   -0.000000    0.000152
O     4.751189    1.606850   -3.329383   -0.000064    0.000212   -0.000330
C     1.746639    3.491990   -1.708150   -0.000080    0.000080    0.000588
C    -2.590184    4.608939   -0.650621    0.000006   -0.000304    0.000208
C    -4.813516    0.464279   -1.918696   -0.000450   -0.000230    0.000392
C    -1.852073   -3.202682   -1.902644    0.000360   -0.000646   -0.000096
C     2.487823   -4.570006   -1.011074    0.000098    0.000130    0.000146
C     4.564004   -0.450807   -2.054187    0.000092    0.000068    0.000310
O     2.348662    3.413345   -2.976841   -0.000030    0.000228   -0.000358
O    -2.154234    5.877160   -1.097166   -0.000086   -0.000198    0.000074
O    -5.335636    1.259512   -2.951880    0.000150   -0.000388    0.000172
O    -2.450630   -2.900868   -3.138533   -0.000206   -0.000050   -0.000072
O     2.078768   -5.758949   -1.655387   -0.000212   -0.000072   -0.000024
O     5.057978   -1.266560   -3.089195    0.000054    0.000052   -0.000110
C     2.829303    3.245495   -0.653930    0.000316   -0.000274   -0.000058
C    -1.732312    4.185269    0.556466   -0.000096   -0.000850   -0.001058
C    -5.127274    1.157470   -0.585338    0.000506   -0.000080    0.000322
C    -2.936678   -3.162703   -0.823356    0.000588   -0.000354    0.000546
C     1.603977   -4.338767    0.224655    0.000820   -0.000250    0.000080
C     4.909898   -1.131356   -0.720996    0.000112   -0.000028    0.000096
C     2.236263    3.392675    0.760918    0.000168   -0.000076   -0.000010
C    -2.359617    2.935034    1.207532    0.001734   -0.000646    0.000894
C    -4.811043    0.250879    0.622019    0.000028    0.000372    0.000562
C    -2.347519   -3.554036    0.542815   -0.000014   -0.000402    0.000352
C     2.171214   -3.190722    1.070971   -0.000080   -0.000274    0.000950
C     4.631179   -0.188626    0.463343   -0.000058   -0.000072    0.000140
O     1.566492    4.652555    0.890869   -0.000366   -0.000274   -0.000292
O    -3.733921    3.113706    1.474979   -0.000088    0.000074   -0.000734
O    -5.283625   -1.085428    0.430180   -0.000092    0.000194   -0.000810
O    -1.695822   -4.817383    0.445428   -0.000154    0.000400   -0.000196
O     3.555042   -3.290596    1.327262    0.000142    0.000238   -0.000578
O     5.190857    1.110765    0.257524   -0.000430    0.000418   -0.000534
C     3.335107    3.377195    1.832743    0.000134   -0.000010    0.000264
C    -1.766289    2.535453    2.541649   -0.004636    0.003904   -0.003192
C    -5.517351    0.695317    1.916009   -0.000372   -0.000022    0.000242
C    -3.441761   -3.710624    1.605023    0.000168   -0.000684    0.000314
C     1.442480   -3.065845    2.400014    0.000630   -0.005430   -0.001964
C     5.237028   -0.679303    1.790421   -0.000060    0.000010    0.000408
O     4.243872    4.437790    1.670472    0.000064    0.000112   -0.000036
O    -0.589980    1.903999    2.409034    0.001704   -0.000778    0.000156
O    -6.891482    0.904476    1.725899    0.000132   -0.000206   -0.000020
O    -4.384129   -4.689847    1.252979   -0.000100   -0.000224    0.000132
O     1.925017   -1.992707    3.089246   -0.002404    0.002346    0.000268
O     6.601990   -0.995730    1.667419    0.000052    0.000064    0.000036
H     0.092415    5.820612    0.222323   -0.001316   -0.000016   -0.001134
H    -5.549917    3.368288    0.667662   -0.000834   -0.001566   -0.000414
H    -5.352504   -2.718909   -0.692524    0.000732   -0.002732   -0.000576
H    -0.233918   -5.861646   -0.417982    0.000254    0.000168   -0.001116
H     5.373120   -3.360836    0.477185    0.000704   -0.000248   -0.000508
H     5.257449    2.737214   -0.883211   -0.000396    0.000382   -0.001340
H     1.844792    5.646306   -1.512002   -0.000060   -0.000194   -0.002370
H    -4.270897    5.463986    0.408230   -0.000274    0.000668   -0.000652
H    -6.484109   -0.898543   -1.922739   -0.000346    0.001326   -0.001532
H    -1.953723   -5.348557   -2.127870   -0.002062    0.002644   -0.002130
H     4.163678   -5.500818    0.005352    0.000284   -0.001102   -0.001144
H     6.238893    0.898439   -2.177843   -0.000062   -0.000060   -0.001476
H    -0.636697    5.553260   -2.079393    0.000578    0.001104    0.001390
H    -4.902711    4.182723   -2.016406   -0.000974    0.001196    0.000714
H    -4.160677   -1.918119   -3.166770   -0.001530    0.000158    0.000466
H     0.526393   -5.204251   -2.619433    0.001232   -0.001680    0.003332
H     4.791749   -3.949780   -2.262781   -0.000344   -0.000564    0.000656
H     3.890320    2.046325   -3.207693    0.001190   -0.001076   -0.000170
H     0.956560    2.730345   -1.615284   -0.002516   -0.000960   -0.000822
H    -2.437460    3.857015   -1.440018   -0.000220   -0.003816    0.002108
H    -3.716168    0.401306   -2.003928    0.002476   -0.004062    0.006854
H    -1.084845   -2.452609   -1.660529   -0.008010    0.007922    0.003286
H     2.339087   -3.713907   -1.686988   -0.000964    0.000492    0.000246
H     3.466859   -0.392317   -2.116566   -0.000848    0.001212   -0.000600
H     1.733582    3.781418   -3.628860    0.001308   -0.000164   -0.000264
H    -2.873090    6.268882   -1.623495   -0.000306    0.000776    0.000342
H    -5.353889    0.727380   -3.764700   -0.001516   -0.000064   -0.000796
H    -1.816532   -3.123776   -3.840490    0.002336   -0.002416    0.000702
H     2.822457   -6.068224   -2.200507    0.000062    0.000112    0.000630
H     4.991170   -0.774189   -3.921407    0.000732   -0.001000    0.000274
H     3.622767    3.991289   -0.786438   -0.000610   -0.000048   -0.002024
H    -1.687615    5.010831    1.280365    0.000700    0.000256   -0.000974
H    -6.190154    1.439159   -0.560131   -0.000020    0.001664   -0.001654
H    -3.721617   -3.883654   -1.089791   -0.002570    0.001940   -0.003608
H     1.521948   -5.260813    0.813436   -0.000654   -0.001866   -0.002482
H     5.962478   -1.440681   -0.725044    0.000048   -0.000056   -0.001490
H     1.511732    2.591855    0.945390   -0.003048    0.000152   -0.005902
H    -2.181730    2.075367    0.519145    0.018808   -0.028912    0.004848
H    -3.722219    0.239464    0.772013    0.007478   -0.000376   -0.017064
H    -1.633151   -2.785321    0.862470   -0.001928    0.007138   -0.015228
H     1.958571   -2.268144    0.495247   -0.004072   -0.000858   -0.000942
H     3.545193   -0.094234    0.546100   -0.001032   -0.000040   -0.005226
H     3.917591    2.459625    1.740682    0.000946    0.000514   -0.001792
H     2.860852    3.419609    2.818358   -0.000240    0.002568   -0.000974
H    -5.340220   -0.085049    2.664271   -0.000930   -0.001392   -0.002380
H    -5.096463    1.632130    2.279289   -0.000266    0.001018   -0.001892
H    -3.985561   -2.768854    1.699800    0.001606    0.000794   -0.003146
H    -2.960864   -3.952125    2.558848   -0.000128   -0.004070   -0.001074
H     5.091541    0.111015    2.535179    0.001508    0.001176   -0.001256
H     4.737185   -1.590374    2.121631    0.001456   -0.001502   -0.001380
H     3.760011    5.268321    1.777841    0.000730    0.000044    0.000244
H    -7.311900    0.051166    1.544447   -0.000420   -0.000004    0.000668
H    -3.931950   -5.547316    1.229339    0.000700   -0.001506    0.001620
H     7.090930   -0.178780    1.496206    0.000254   -0.000968    0.000180
C     0.999967   -1.188911    3.862228   -0.011428   -0.001770   -0.009850
H     1.605423   -0.694113    4.613723   -0.016396    0.022872   -0.021632
H     0.228977   -1.799018    4.322305   -0.011560    0.002806    0.006924
O     0.575782   -3.795430    2.812777   -0.000206    0.001590   -0.000144
C    -0.140417    1.080616    3.501881   -0.002948   -0.003182   -0.008118
H    -0.959105    0.868661    4.185959    0.004220   -0.013168    0.003140
H     0.652394    1.598242    4.038850    0.004158   -0.016424    0.007824
O    -2.331403    2.695118    3.604879    0.001762   -0.001196    0.000174
C     0.366506   -0.196452    2.868727    0.002388    0.029248    0.005038
O    -0.473168   -0.862725    2.050720   -0.003658   -0.016256   -0.043114
H    -0.744682   -0.401801    1.766761    0.612334   -0.318706    1.872162
O    -1.409821    0.197765    0.049409   -0.014568    0.024216   -0.059994
H     0.250628    0.178139   -0.461285   -0.039088   -0.019232    0.044122
O     1.246151    0.049489   -0.383388   -0.001538   -0.000338    0.000076
H     1.430769    0.249054    1.009469    0.015942    0.004262   -0.015496
O     1.624653    0.310156    2.065075   -0.003962   -0.001240    0.001084
H     2.286317   -0.404667    2.199439    0.006746    0.000712   -0.002992
H     1.703348    0.784842   -0.820703   -0.006152    0.001560    0.002790
H    -1.945020   -0.494332   -0.348889    0.006348    0.020320   -0.035686
139
* Frequency(6) -1771.3800
C     0.523356    4.841453   -0.019732   -0.000006    0.000118   -0.000254
C    -4.508965    3.327691    0.319896    0.000428   -0.000160    0.001464
C    -4.883398   -1.727044   -0.739929   -0.001376   -0.000140   -0.000394
C    -0.648735   -4.848232   -0.485744    0.000550    0.000840   -0.000814
C     4.329215   -3.346306    0.142170    0.000398   -0.000164    0.000824
C     4.746790    1.766542   -0.889346    0.000936   -0.000100    0.000098
O    -0.440607    3.820880    0.120909    0.000390   -0.000186    0.000972
O    -4.328229    2.332619   -0.641033   -0.001148   -0.000372   -0.000824
O    -3.479968   -1.849740   -0.814481   -0.002510   -0.001134   -0.000874
O     0.321696   -3.885064   -0.180659   -0.001360    0.000062    0.000158
O     4.063232   -2.276578   -0.710347    0.000024    0.000390    0.000010
O     3.346689    1.942555   -0.887306   -0.000308    0.000186    0.000380
C     1.084423    4.850064   -1.456072    0.000136   -0.000102    0.000302
C    -4.087721    4.662366   -0.315633    0.000256   -0.000138    0.000028
C    -5.390665   -0.954918   -1.968110   -0.000180    0.000458    0.000424
C    -1.190943   -4.585342   -1.903272    0.000290   -0.000172    0.000088
C     3.975806   -4.630704   -0.631459    0.000126   -0.000012    0.000270
C     5.145607    0.970318   -2.143214    0.000104   -0.000266    0.000352
O     0.113725    5.047885   -2.447422    0.000030    0.000206   -0.000382
O    -4.830818    4.974083   -1.459368   -0.000018   -0.000066   -0.000084
O    -5.080294   -1.591199   -3.176517    0.000106   -0.000186   -0.000126
O    -0.191175   -4.595028   -2.884292   -0.000292   -0.000026   -0.000160
O     4.766157   -4.790286   -1.775302    0.000200   -0.000000    0.000152
O     4.751194    1.606837   -3.329362   -0.000064    0.000212   -0.000330
C     1.746644    3.491985   -1.708187   -0.000080    0.000080    0.000588
C    -2.590184    4.608958   -0.650634    0.000006   -0.000304    0.000208
C    -4.813488    0.464294   -1.918721   -0.000450   -0.000230    0.000392
C    -1.852095   -3.202641   -1.902638    0.000360   -0.000646   -0.000096
C     2.487817   -4.570015   -1.011083    0.000098    0.000130    0.000146
C     4.563999   -0.450811   -2.054206    0.000092    0.000068    0.000310
O     2.348664    3.413331   -2.976818   -0.000030    0.000228   -0.000358
O    -2.154228    5.877172   -1.097171   -0.000086   -0.000198    0.000074
O    -5.335645    1.259536   -2.951891    0.000150   -0.000388    0.000172
O    -2.450617   -2.900865   -3.138529   -0.000206   -0.000050   -0.000072
O     2.078781   -5.758945   -1.655385   -0.000212   -0.000072   -0.000024
O     5.057975   -1.266564   -3.089188    0.000054    0.000052   -0.000110
C     2.829283    3.245512   -0.653926    0.000316   -0.000274   -0.000058
C    -1.732306    4.185322    0.556533   -0.000096   -0.000850   -0.001058
C    -5.127306    1.157475   -0.585358    0.000506   -0.000080    0.000322
C    -2.936715   -3.162681   -0.823390    0.000588   -0.000354    0.000546
C     1.603925   -4.338751    0.224650    0.000820   -0.000250    0.000080
C     4.909891   -1.131354   -0.721002    0.000112   -0.000028    0.000096
C     2.236252    3.392679    0.760918    0.000168   -0.000076   -0.000010
C    -2.359726    2.935075    1.207475    0.001734   -0.000646    0.000894
C    -4.811045    0.250856    0.621984    0.000028    0.000372    0.000562
C    -2.347519   -3.554011    0.542793   -0.000014   -0.000402    0.000352
C     2.171219   -3.190705    1.070912   -0.000080   -0.000274    0.000950
C     4.631183   -0.188622    0.463334   -0.000058   -0.000072    0.000140
O     1.566515    4.652572    0.890888   -0.000366   -0.000274   -0.000292
O    -3.733916    3.113701    1.475025   -0.000088    0.000074   -0.000734
O    -5.283620   -1.085440    0.430231   -0.000092    0.000194   -0.000810
O    -1.695813   -4.817408    0.445441   -0.000154    0.000400   -0.000196
O     3.555033   -3.290611    1.327298    0.000142    0.000238   -0.000578
O     5.190884    1.110739    0.257557   -0.000430    0.000418   -0.000534
C     3.335099    3.377195    1.832726    0.000134   -0.000010    0.000264
C    -1.765997    2.535207    2.541850   -0.004636    0.003904   -0.003192
C    -5.517328    0.695318    1.915993   -0.000372   -0.000022    0.000242
C    -3.441772   -3.710581    1.605003    0.000168   -0.000684    0.000314
C     1.442440   -3.065503    2.400138    0.000630   -0.005430   -0.001964
C     5.237032   -0.679303    1.790395   -0.000060    0.000010    0.000408
O     4.243867    4.437783    1.670475    0.000064    0.000112   -0.000036
O    -0.590087    1.904048    2.409024    0.001704   -0.000778    0.000156
O    -6.891490    0.904489    1.725900    0.000132   -0.000206   -0.000020
O    -4.384123   -4.689833    1.252971   -0.000100   -0.000224    0.000132
O     1.925169   -1.992855    3.089229   -0.002404    0.002346    0.000268
O     6.601986   -0.995735    1.667416    0.000052    0.000064    0.000036
H     0.092498    5.820613    0.222394   -0.001316   -0.000016   -0.001134
H    -5.549865    3.368387    0.667688   -0.000834   -0.001566   -0.000414
H    -5.352551   -2.718736   -0.692487    0.000732   -0.002732   -0.000576
H    -0.233934   -5.861657   -0.417911    0.000254    0.000168   -0.001116
H     5.373075   -3.360821    0.477217    0.000704   -0.000248   -0.000508
H     5.257474    2.737190   -0.883127   -0.000396    0.000382   -0.001340
H     1.844796    5.646318   -1.511852   -0.000060   -0.000194   -0.002370
H    -4.270880    5.463944    0.408271   -0.000274    0.000668   -0.000652
H    -6.484087   -0.898627   -1.922642   -0.000346    0.001326   -0.001532
H    -1.953593   -5.348723   -2.127735   -0.002062    0.002644   -0.002130
H     4.163660   -5.500749    0.005424    0.000284   -0.001102   -0.001144
H     6.238897    0.898443   -2.177750   -0.000062   -0.000060   -0.001476
H    -0.636733    5.553190   -2.079481    0.000578    0.001104    0.001390
H    -4.902650    4.182648   -2.016451   -0.000974    0.001196    0.000714
H    -4.160581   -1.918129   -3.166799   -0.001530    0.000158    0.000466
H     0.526315   -5.204146   -2.619643    0.001232   -0.001680    0.003332
H     4.791770   -3.949744   -2.262822   -0.000344   -0.000564    0.000656
H     3.890245    2.046393   -3.207683    0.001190   -0.001076   -0.000170
H     0.956718    2.730406   -1.615233   -0.002516   -0.000960   -0.000822
H    -2.437446    3.857255   -1.440151   -0.000220   -0.003816    0.002108
H    -3.716324    0.401562   -2.004360    0.002476   -0.004062    0.006854
H    -1.084341   -2.453108   -1.660736   -0.008010    0.007922    0.003286
H     2.339148   -3.713938   -1.687004   -0.000964    0.000492    0.000246
H     3.466913   -0.392393   -2.116529   -0.000848    0.001212   -0.000600
H     1.733500    3.781429   -3.628843    0.001308   -0.000164   -0.000264
H    -2.873071    6.268833   -1.623517   -0.000306    0.000776    0.000342
H    -5.353793    0.727385   -3.764650   -0.001516   -0.000064   -0.000796
H    -1.816679   -3.123624   -3.840534    0.002336   -0.002416    0.000702
H     2.822453   -6.068231   -2.200547    0.000062    0.000112    0.000630
H     4.991123   -0.774126   -3.921424    0.000732   -0.001000    0.000274
H     3.622806    3.991292   -0.786310   -0.000610   -0.000048   -0.002024
H    -1.687659    5.010815    1.280426    0.000700    0.000256   -0.000974
H    -6.190153    1.439054   -0.560027   -0.000020    0.001664   -0.001654
H    -3.721455   -3.883776   -1.089564   -0.002570    0.001940   -0.003608
H     1.521990   -5.260696    0.813593   -0.000654   -0.001866   -0.002482
H     5.962475   -1.440677   -0.724950    0.000048   -0.000056   -0.001490
H     1.511924    2.591845    0.945762   -0.003048    0.000152   -0.005902
H    -2.182915    2.077189    0.518839    0.018808   -0.028912    0.004848
H    -3.722690    0.239488    0.773088    0.007478   -0.000376   -0.017064
H    -1.633029   -2.785771    0.863430   -0.001928    0.007138   -0.015228
H     1.958827   -2.268090    0.495306   -0.004072   -0.000858   -0.000942
H     3.545258   -0.094231    0.546429   -0.001032   -0.000040   -0.005226
H     3.917532    2.459592    1.740795    0.000946    0.000514   -0.001792
H     2.860867    3.419447    2.818419   -0.000240    0.002568   -0.000974
H    -5.340161   -0.084961    2.664421   -0.000930   -0.001392   -0.002380
H    -5.096446    1.632066    2.279408   -0.000266    0.001018   -0.001892
H    -3.985662   -2.768904    1.699998    0.001606    0.000794   -0.003146
H    -2.960856   -3.951868    2.558915   -0.000128   -0.004070   -0.001074
H     5.091446    0.110941    2.535259    0.001508    0.001176   -0.001256
H     4.737093   -1.590280    2.121718    0.001456   -0.001502   -0.001380
H     3.759965    5.268318    1.777826    0.000730    0.000044    0.000244
H    -7.311873    0.051166    1.544405   -0.000420   -0.000004    0.000668
H    -3.931994   -5.547221    1.229237    0.000700   -0.001506    0.001620
H     7.090914   -0.178719    1.496194    0.000254   -0.000968    0.000180
C     1.000687   -1.188800    3.862849   -0.011428   -0.001770   -0.009850
H     1.606456   -0.695554    4.615087   -0.016396    0.022872   -0.021632
H     0.229705   -1.799194    4.321869   -0.011560    0.002806    0.006924
O     0.575795   -3.795531    2.812786   -0.000206    0.001590   -0.000144
C    -0.140231    1.080817    3.502393   -0.002948   -0.003182   -0.008118
H    -0.959371    0.869491    4.185762    0.004220   -0.013168    0.003140
H     0.652132    1.599277    4.038357    0.004158   -0.016424    0.007824
O    -2.331514    2.695193    3.604868    0.001762   -0.001196    0.000174
C     0.366356   -0.198296    2.868409    0.002388    0.029248    0.005038
O    -0.472938   -0.861701    2.053437   -0.003658   -0.016256   -0.043114
H    -0.783270   -0.381717    1.648782    0.612334   -0.318706    1.872162
O    -1.408903    0.196239    0.053189   -0.014568    0.024216   -0.059994
H     0.253092    0.179351   -0.464065   -0.039088   -0.019232    0.044122
O     1.246248    0.049510   -0.383392   -0.001538   -0.000338    0.000076
H     1.429764    0.248785    1.010446    0.015942    0.004262   -0.015496
O     1.624903    0.310234    2.065007   -0.003962   -0.001240    0.001084
H     2.285892   -0.404712    2.199628    0.006746    0.000712   -0.002992
H     1.703736    0.784744   -0.820879   -0.006152    0.001560    0.002790
H    -1.945420   -0.495613   -0.346640    0.006348    0.020320   -0.035686
139
* Frequency(6) -1771.3800
C     0.523357    4.841443   -0.019709   -0.000006    0.000118   -0.000254
C    -4.509004    3.327705    0.319763    0.000428   -0.000160    0.001464
C    -4.883273   -1.727031   -0.739894   -0.001376   -0.000140   -0.000394
C    -0.648785   -4.848308   -0.485670    0.000550    0.000840   -0.000814
C     4.329179   -3.346291    0.142095    0.000398   -0.000164    0.000824
C     4.746705    1.766551   -0.889355    0.000936   -0.000100    0.000098
O    -0.440642    3.820897    0.120821    0.000390   -0.000186    0.000972
O    -4.328124    2.332653   -0.640958   -0.001148   -0.000372   -0.000824
O    -3.479740   -1.849637   -0.814402   -0.002510   -0.001134   -0.000874
O     0.321819   -3.885070   -0.180674   -0.001360    0.000062    0.000158
O     4.063230   -2.276613   -0.710348    0.000024    0.000390    0.000010
O     3.346717    1.942538   -0.887341   -0.000308    0.000186    0.000380
C     1.084411    4.850073   -1.456100    0.000136   -0.000102    0.000302
C    -4.087744    4.662379   -0.315635    0.000256   -0.000138    0.000028
C    -5.390649   -0.954960   -1.968148   -0.000180    0.000458    0.000424
C    -1.190970   -4.585327   -1.903280    0.000290   -0.000172    0.000088
C     3.975795   -4.630703   -0.631484    0.000126   -0.000012    0.000270
C     5.145597    0.970342   -2.143246    0.000104   -0.000266    0.000352
O     0.113722    5.047866   -2.447388    0.000030    0.000206   -0.000382
O    -4.830816    4.974089   -1.459360   -0.000018   -0.000066   -0.000084
O    -5.080303   -1.591182   -3.176506    0.000106   -0.000186   -0.000126
O    -0.191149   -4.595025   -2.884278   -0.000292   -0.000026   -0.000160
O     4.766138   -4.790286   -1.775316    0.000200   -0.000000    0.000152
O     4.751199    1.606817   -3.329332   -0.000064    0.000212   -0.000330
C     1.746652    3.491977   -1.708240   -0.000080    0.000080    0.000588
C    -2.590185    4.608985   -0.650653    0.000006   -0.000304    0.000208
C    -4.813447    0.464315   -1.918757   -0.000450   -0.000230    0.000392
C    -1.852128   -3.202583   -1.902629    0.000360   -0.000646   -0.000096
C     2.487808   -4.570026   -1.011097    0.000098    0.000130    0.000146
C     4.563990   -0.450818   -2.054234    0.000092    0.000068    0.000310
O     2.348667    3.413310   -2.976786   -0.000030    0.000228   -0.000358
O    -2.154220    5.877190   -1.097178   -0.000086   -0.000198    0.000074
O    -5.335659    1.259571   -2.951906    0.000150   -0.000388    0.000172
O    -2.450598   -2.900860   -3.138522   -0.000206   -0.000050   -0.000072
O     2.078801   -5.758938   -1.655383   -0.000212   -0.000072   -0.000024
O     5.057970   -1.266568   -3.089178    0.000054    0.000052   -0.000110
C     2.829255    3.245537   -0.653921    0.000316   -0.000274   -0.000058
C    -1.732297    4.185399    0.556629   -0.000096   -0.000850   -0.001058
C    -5.127352    1.157483   -0.585387    0.000506   -0.000080    0.000322
C    -2.936768   -3.162649   -0.823440    0.000588   -0.000354    0.000546
C     1.603851   -4.338729    0.224642    0.000820   -0.000250    0.000080
C     4.909881   -1.131352   -0.721011    0.000112   -0.000028    0.000096
C     2.236237    3.392686    0.760919    0.000168   -0.000076   -0.000010
C    -2.359884    2.935133    1.207394    0.001734   -0.000646    0.000894
C    -4.811047    0.250822    0.621933    0.000028    0.000372    0.000562
C    -2.347517   -3.553974    0.542761   -0.000014   -0.000402    0.000352
C     2.171227   -3.190680    1.070825   -0.000080   -0.000274    0.000950
C     4.631188   -0.188615    0.463321   -0.000058   -0.000072    0.000140
O     1.566548    4.652597    0.890914   -0.000366   -0.000274   -0.000292
O    -3.733908    3.113694    1.475092   -0.000088    0.000074   -0.000734
O    -5.283611   -1.085458    0.430305   -0.000092    0.000194   -0.000810
O    -1.695799   -4.817444    0.445458   -0.000154    0.000400   -0.000196
O     3.555020   -3.290632    1.327351    0.000142    0.000238   -0.000578
O     5.190923    1.110701    0.257606   -0.000430    0.000418   -0.000534
C     3.335086    3.377196    1.832702    0.000134   -0.000010    0.000264
C    -1.765575    2.534852    2.542140   -0.004636    0.003904   -0.003192
C    -5.517294    0.695320    1.915971   -0.000372   -0.000022    0.000242
C    -3.441787   -3.710519    1.604974    0.000168   -0.000684    0.000314
C     1.442383   -3.065010    2.400317    0.000630   -0.005430   -0.001964
C     5.237037   -0.679304    1.790358   -0.000060    0.000010    0.000408
O     4.243862    4.437773    1.670478    0.000064    0.000112   -0.000036
O    -0.590242    1.904118    2.409010    0.001704   -0.000778    0.000156
O    -6.891502    0.904508    1.725902    0.000132   -0.000206   -0.000020
O    -4.384114   -4.689812    1.252959   -0.000100   -0.000224    0.000132
O     1.925388   -1.993068    3.089205   -0.002404    0.002346    0.000268
O     6.601982   -0.995740    1.667413    0.000052    0.000064    0.000036
H     0.092618    5.820614    0.222497   -0.001316   -0.000016   -0.001134
H    -5.549789    3.368529    0.667726   -0.000834   -0.001566   -0.000414
H    -5.352617   -2.718488   -0.692435    0.000732   -0.002732   -0.000576
H    -0.233957   -5.861672   -0.417810    0.000254    0.000168   -0.001116
H     5.373011   -3.360798    0.477263    0.000704   -0.000248   -0.000508
H     5.257510    2.737156   -0.883005   -0.000396    0.000382   -0.001340
H     1.844801    5.646336   -1.511637   -0.000060   -0.000194   -0.002370
H    -4.270855    5.463883    0.408330   -0.000274    0.000668   -0.000652
H    -6.484056   -0.898747   -1.922503   -0.000346    0.001326   -0.001532
H    -1.953405   -5.348964   -2.127542   -0.002062    0.002644   -0.002130
H     4.163634   -5.500649    0.005528    0.000284   -0.001102   -0.001144
H     6.238903    0.898448   -2.177616   -0.000062   -0.000060   -0.001476
H    -0.636786    5.553090   -2.079607    0.000578    0.001104    0.001390
H    -4.902561    4.182539   -2.016516   -0.000974    0.001196    0.000714
H    -4.160442   -1.918144   -3.166841   -0.001530    0.000158    0.000466
H     0.526203   -5.203993   -2.619946    0.001232   -0.001680    0.003332
H     4.791802   -3.949693   -2.262882   -0.000344   -0.000564    0.000656
H     3.890137    2.046491   -3.207667    0.001190   -0.001076   -0.000170
H     0.956947    2.730493   -1.615158   -0.002516   -0.000960   -0.000822
H    -2.437426    3.857602   -1.440343   -0.000220   -0.003816    0.002108
H    -3.716550    0.401931   -2.004983    0.002476   -0.004062    0.006854
H    -1.083612   -2.453828   -1.661035   -0.008010    0.007922    0.003286
H     2.339235   -3.713983   -1.687026   -0.000964    0.000492    0.000246
H     3.466990   -0.392503   -2.116474   -0.000848    0.001212   -0.000600
H     1.733381    3.781444   -3.628819    0.001308   -0.000164   -0.000264
H    -2.873043    6.268762   -1.623548   -0.000306    0.000776    0.000342
H    -5.353656    0.727390   -3.764578   -0.001516   -0.000064   -0.000796
H    -1.816892   -3.123404   -3.840598    0.002336   -0.002416    0.000702
H     2.822447   -6.068241   -2.200604    0.000062    0.000112    0.000630
H     4.991057   -0.774035   -3.921449    0.000732   -0.001000    0.000274
H     3.622861    3.991296   -0.786126   -0.000610   -0.000048   -0.002024
H    -1.687722    5.010792    1.280515    0.000700    0.000256   -0.000974
H    -6.190151    1.438903   -0.559877   -0.000020    0.001664   -0.001654
H    -3.721221   -3.883953   -1.089236   -0.002570    0.001940   -0.003608
H     1.522049   -5.260526    0.813819   -0.000654   -0.001866   -0.002482
H     5.962471   -1.440672   -0.724814    0.000048   -0.000056   -0.001490
H     1.512201    2.591831    0.946299   -0.003048    0.000152   -0.005902
H    -2.184625    2.079818    0.518399    0.018808   -0.028912    0.004848
H    -3.723370    0.239522    0.774639    0.007478   -0.000376   -0.017064
H    -1.632854   -2.786420    0.864814   -0.001928    0.007138   -0.015228
H     1.959198   -2.268012    0.495392   -0.004072   -0.000858   -0.000942
H     3.545352   -0.094228    0.546904   -0.001032   -0.000040   -0.005226
H     3.917446    2.459546    1.740957    0.000946    0.000514   -0.001792
H     2.860889    3.419214    2.818508   -0.000240    0.002568   -0.000974
H    -5.340077   -0.084835    2.664638   -0.000930   -0.001392   -0.002380
H    -5.096422    1.631974    2.279580   -0.000266    0.001018   -0.001892
H    -3.985808   -2.768976    1.700284    0.001606    0.000794   -0.003146
H    -2.960844   -3.951498    2.559013   -0.000128   -0.004070   -0.001074
H     5.091309    0.110834    2.535373    0.001508    0.001176   -0.001256
H     4.736961   -1.590143    2.121843    0.001456   -0.001502   -0.001380
H     3.759899    5.268314    1.777804    0.000730    0.000044    0.000244
H    -7.311835    0.051166    1.544344   -0.000420   -0.000004    0.000668
H    -3.932057   -5.547084    1.229090    0.000700   -0.001506    0.001620
H     7.090891   -0.178631    1.496178    0.000254   -0.000968    0.000180
C     1.001726   -1.188639    3.863744   -0.011428   -0.001770   -0.009850
H     1.607947   -0.697634    4.617054   -0.016396    0.022872   -0.021632
H     0.230756   -1.799450    4.321239   -0.011560    0.002806    0.006924
O     0.575814   -3.795675    2.812799   -0.000206    0.001590   -0.000144
C    -0.139963    1.081106    3.503131   -0.002948   -0.003182   -0.008118
H    -0.959755    0.870688    4.185476    0.004220   -0.013168    0.003140
H     0.651754    1.600770    4.037645    0.004158   -0.016424    0.007824
O    -2.331674    2.695302    3.604852    0.001762   -0.001196    0.000174
C     0.366139   -0.200955    2.867951    0.002388    0.029248    0.005038
O    -0.472605   -0.860223    2.057357   -0.003658   -0.016256   -0.043114
H    -0.838944   -0.352740    1.478562    0.612334   -0.318706    1.872162
O    -1.407579    0.194037    0.058644   -0.014568    0.024216   -0.059994
H     0.256646    0.181099   -0.468077   -0.039088   -0.019232    0.044122
O     1.246388    0.049541   -0.383399   -0.001538   -0.000338    0.000076
H     1.428315    0.248398    1.011855    0.015942    0.004262   -0.015496
O     1.625263    0.310346    2.064909   -0.003962   -0.001240    0.001084
H     2.285279   -0.404776    2.199900    0.006746    0.000712   -0.002992
H     1.704295    0.784602   -0.821132   -0.006152    0.001560    0.002790
H    -1.945998   -0.497460   -0.343396    0.006348    0.020320   -0.035686
139
* Frequency(6) -1771.3800
C     0.523358    4.841430   -0.019682   -0.000006    0.000118   -0.000254
C    -4.509050    3.327723    0.319603    0.000428   -0.000160    0.001464
C    -4.883123   -1.727016   -0.739851   -0.001376   -0.000140   -0.000394
C    -0.648845   -4.848400   -0.485581    0.000550    0.000840   -0.000814
C     4.329136   -3.346273    0.142005    0.000398   -0.000164    0.000824
C     4.746603    1.766562   -0.889365    0.000936   -0.000100    0.000098
O    -0.440685    3.820917    0.120715    0.000390   -0.000186    0.000972
O    -4.327999    2.332694   -0.640868   -0.001148   -0.000372   -0.000824
O    -3.479467   -1.849513   -0.814306   -0.002510   -0.001134   -0.000874
O     0.321968   -3.885076   -0.180691   -0.001360    0.000062    0.000158
O     4.063227   -2.276656   -0.710349    0.000024    0.000390    0.000010
O     3.346750    1.942518   -0.887382   -0.000308    0.000186    0.000380
C     1.084396    4.850084   -1.456133    0.000136   -0.000102    0.000302
C    -4.087772    4.662394   -0.315638    0.000256   -0.000138    0.000028
C    -5.390629   -0.955010   -1.968195   -0.000180    0.000458    0.000424
C    -1.191001   -4.585308   -1.903290    0.000290   -0.000172    0.000088
C     3.975781   -4.630702   -0.631513    0.000126   -0.000012    0.000270
C     5.145586    0.970371   -2.143285    0.000104   -0.000266    0.000352
O     0.113719    5.047844   -2.447346    0.000030    0.000206   -0.000382
O    -4.830814    4.974096   -1.459351   -0.000018   -0.000066   -0.000084
O    -5.080315   -1.591162   -3.176492    0.000106   -0.000186   -0.000126
O    -0.191117   -4.595022   -2.884260   -0.000292   -0.000026   -0.000160
O     4.766117   -4.790286   -1.775332    0.000200   -0.000000    0.000152
O     4.751206    1.606794   -3.329296   -0.000064    0.000212   -0.000330
C     1.746660    3.491969   -1.708304   -0.000080    0.000080    0.000588
C    -2.590186    4.609018   -0.650676    0.000006   -0.000304    0.000208
C    -4.813398    0.464340   -1.918799   -0.000450   -0.000230    0.000392
C    -1.852167   -3.202512   -1.902619    0.000360   -0.000646   -0.000096
C     2.487798   -4.570041   -1.011113    0.000098    0.000130    0.000146
C     4.563980   -0.450825   -2.054268    0.000092    0.000068    0.000310
O     2.348670    3.413285   -2.976747   -0.000030    0.000228   -0.000358
O    -2.154211    5.877212   -1.097186   -0.000086   -0.000198    0.000074
O    -5.335675    1.259614   -2.951925    0.000150   -0.000388    0.000172
O    -2.450576   -2.900855   -3.138514   -0.000206   -0.000050   -0.000072
O     2.078824   -5.758930   -1.655380   -0.000212   -0.000072   -0.000024
O     5.057964   -1.266574   -3.089166    0.000054    0.000052   -0.000110
C     2.829220    3.245567   -0.653914    0.000316   -0.000274   -0.000058
C    -1.732287    4.185492    0.556744   -0.000096   -0.000850   -0.001058
C    -5.127407    1.157491   -0.585422    0.000506   -0.000080    0.000322
C    -2.936832   -3.162610   -0.823500    0.000588   -0.000354    0.000546
C     1.603761   -4.338701    0.224634    0.000820   -0.000250    0.000080
C     4.909868   -1.131349   -0.721021    0.000112   -0.000028    0.000096
C     2.236219    3.392695    0.760920    0.000168   -0.000076   -0.000010
C    -2.360073    2.935204    1.207297    0.001734   -0.000646    0.000894
C    -4.811050    0.250781    0.621871    0.000028    0.000372    0.000562
C    -2.347516   -3.553930    0.542722   -0.000014   -0.000402    0.000352
C     2.171235   -3.190650    1.070722   -0.000080   -0.000274    0.000950
C     4.631195   -0.188607    0.463306   -0.000058   -0.000072    0.000140
O     1.566588    4.652627    0.890946   -0.000366   -0.000274   -0.000292
O    -3.733898    3.113686    1.475172   -0.000088    0.000074   -0.000734
O    -5.283601   -1.085479    0.430393   -0.000092    0.000194   -0.000810
O    -1.695782   -4.817488    0.445480   -0.000154    0.000400   -0.000196
O     3.555004   -3.290658    1.327414    0.000142    0.000238   -0.000578
O     5.190970    1.110655    0.257664   -0.000430    0.000418   -0.000534
C     3.335072    3.377197    1.832673    0.000134   -0.000010    0.000264
C    -1.765070    2.534427    2.542488   -0.004636    0.003904   -0.003192
C    -5.517253    0.695323    1.915945   -0.000372   -0.000022    0.000242
C    -3.441805   -3.710444    1.604940    0.000168   -0.000684    0.000314
C     1.442314   -3.064418    2.400531    0.000630   -0.005430   -0.001964
C     5.237044   -0.679305    1.790314   -0.000060    0.000010    0.000408
O     4.243855    4.437760    1.670482    0.000064    0.000112   -0.000036
O    -0.590428    1.904203    2.408993    0.001704   -0.000778    0.000156
O    -6.891516    0.904530    1.725904    0.000132   -0.000206   -0.000020
O    -4.384103   -4.689788    1.252945   -0.000100   -0.000224    0.000132
O     1.925650   -1.993324    3.089175   -0.002404    0.002346    0.000268
O     6.601976   -0.995747    1.667409    0.000052    0.000064    0.000036
H     0.092761    5.820616    0.222621   -0.001316   -0.000016   -0.001134
H    -5.549698    3.368700    0.667771   -0.000834   -0.001566   -0.000414
H    -5.352697   -2.718190   -0.692372    0.000732   -0.002732   -0.000576
H    -0.233984   -5.861690   -0.417688    0.000254    0.000168   -0.001116
H     5.372935   -3.360771    0.477319    0.000704   -0.000248   -0.000508
H     5.257553    2.737114   -0.882859   -0.000396    0.000382   -0.001340
H     1.844808    5.646357   -1.511379   -0.000060   -0.000194   -0.002370
H    -4.270825    5.463810    0.408401   -0.000274    0.000668   -0.000652
H    -6.484018   -0.898892   -1.922336   -0.000346    0.001326   -0.001532
H    -1.953181   -5.349252   -2.127310   -0.002062    0.002644   -0.002130
H     4.163603   -5.500528    0.005653    0.000284   -0.001102   -0.001144
H     6.238909    0.898455   -2.177455   -0.000062   -0.000060   -0.001476
H    -0.636849    5.552970   -2.079759    0.000578    0.001104    0.001390
H    -4.902455    4.182409   -2.016594   -0.000974    0.001196    0.000714
H    -4.160275   -1.918161   -3.166892   -0.001530    0.000158    0.000466
H     0.526069   -5.203810   -2.620309    0.001232   -0.001680    0.003332
H     4.791839   -3.949631   -2.262953   -0.000344   -0.000564    0.000656
H     3.890008    2.046608   -3.207649    0.001190   -0.001076   -0.000170
H     0.957221    2.730598   -1.615068   -0.002516   -0.000960   -0.000822
H    -2.437402    3.858018   -1.440573   -0.000220   -0.003816    0.002108
H    -3.716819    0.402374   -2.005730    0.002476   -0.004062    0.006854
H    -1.082739   -2.454692   -1.661393   -0.008010    0.007922    0.003286
H     2.339340   -3.714037   -1.687053   -0.000964    0.000492    0.000246
H     3.467082   -0.392635   -2.116409   -0.000848    0.001212   -0.000600
H     1.733238    3.781462   -3.628790    0.001308   -0.000164   -0.000264
H    -2.873010    6.268678   -1.623585   -0.000306    0.000776    0.000342
H    -5.353490    0.727397   -3.764491   -0.001516   -0.000064   -0.000796
H    -1.817146   -3.123141   -3.840675    0.002336   -0.002416    0.000702
H     2.822441   -6.068254   -2.200673    0.000062    0.000112    0.000630
H     4.990977   -0.773926   -3.921479    0.000732   -0.001000    0.000274
H     3.622928    3.991301   -0.785906   -0.000610   -0.000048   -0.002024
H    -1.687799    5.010764    1.280621    0.000700    0.000256   -0.000974
H    -6.190149    1.438722   -0.559696   -0.000020    0.001664   -0.001654
H    -3.720941   -3.884164   -1.088843   -0.002570    0.001940   -0.003608
H     1.522120   -5.260322    0.814089   -0.000654   -0.001866   -0.002482
H     5.962466   -1.440666   -0.724652    0.000048   -0.000056   -0.001490
H     1.512533    2.591815    0.946942   -0.003048    0.000152   -0.005902
H    -2.186675    2.082968    0.517870    0.018808   -0.028912    0.004848
H    -3.724185    0.239563    0.776499    0.007478   -0.000376   -0.017064
H    -1.632644   -2.787198    0.866474   -0.001928    0.007138   -0.015228
H     1.959641   -2.267918    0.495495   -0.004072   -0.000858   -0.000942
H     3.545465   -0.094223    0.547474   -0.001032   -0.000040   -0.005226
H     3.917342    2.459490    1.741153    0.000946    0.000514   -0.001792
H     2.860915    3.418934    2.818614   -0.000240    0.002568   -0.000974
H    -5.339976   -0.084683    2.664897   -0.000930   -0.001392   -0.002380
H    -5.096393    1.631863    2.279786   -0.000266    0.001018   -0.001892
H    -3.985983   -2.769062    1.700627    0.001606    0.000794   -0.003146
H    -2.960830   -3.951054    2.559130   -0.000128   -0.004070   -0.001074
H     5.091145    0.110706    2.535510    0.001508    0.001176   -0.001256
H     4.736802   -1.589980    2.121994    0.001456   -0.001502   -0.001380
H     3.759819    5.268310    1.777777    0.000730    0.000044    0.000244
H    -7.311789    0.051167    1.544271   -0.000420   -0.000004    0.000668
H    -3.932134   -5.546920    1.228913    0.000700   -0.001506    0.001620
H     7.090864   -0.178526    1.496158    0.000254   -0.000968    0.000180
C     1.002972   -1.188446    3.864818   -0.011428   -0.001770   -0.009850
H     1.609733   -0.700126    4.619411   -0.016396    0.022872   -0.021632
H     0.232016   -1.799755    4.320485   -0.011560    0.002806    0.006924
O     0.575836   -3.795848    2.812815   -0.000206    0.001590   -0.000144
C    -0.139642    1.081453    3.504015   -0.002948   -0.003182   -0.008118
H    -0.960215    0.872123    4.185134    0.004220   -0.013168    0.003140
H     0.651301    1.602560    4.036793    0.004158   -0.016424    0.007824
O    -2.331866    2.695432    3.604833    0.001762   -0.001196    0.000174
C     0.365879   -0.204142    2.867402    0.002388    0.029248    0.005038
O    -0.472207   -0.858451    2.062055   -0.003658   -0.016256   -0.043114
H    -0.905673   -0.318009    1.274546    0.612334   -0.318706    1.872162
O    -1.405991    0.191398    0.065182   -0.014568    0.024216   -0.059994
H     0.260905    0.183195   -0.472885   -0.039088   -0.019232    0.044122
O     1.246555    0.049578   -0.383408   -0.001538   -0.000338    0.000076
H     1.426577    0.247934    1.013543    0.015942    0.004262   -0.015496
O     1.625695    0.310482    2.064790   -0.003962   -0.001240    0.001084
H     2.284544   -0.404854    2.200226    0.006746    0.000712   -0.002992
H     1.704966    0.784432   -0.821436   -0.006152    0.001560    0.002790
H    -1.946689   -0.499674   -0.339507    0.006348    0.020320   -0.035686
139
* Frequency(6) -1771.3800
C     0.523358    4.841416   -0.019652   -0.000006    0.000118   -0.000254
C    -4.509100    3.327741    0.319435    0.000428   -0.000160    0.001464
C    -4.882965   -1.727000   -0.739805   -0.001376   -0.000140   -0.000394
C    -0.648909   -4.848496   -0.485487    0.000550    0.000840   -0.000814
C     4.329090   -3.346255    0.141911    0.000398   -0.000164    0.000824
C     4.746495    1.766574   -0.889377    0.000936   -0.000100    0.000098
O    -0.440729    3.820939    0.120603    0.000390   -0.000186    0.000972
O    -4.327867    2.332736   -0.640774   -0.001148   -0.000372   -0.000824
O    -3.479177   -1.849383   -0.814206   -0.002510   -0.001134   -0.000874
O     0.322124   -3.885084   -0.180709   -0.001360    0.000062    0.000158
O     4.063225   -2.276700   -0.710351    0.000024    0.000390    0.000010
O     3.346786    1.942496   -0.887426   -0.000308    0.000186    0.000380
C     1.084380    4.850096   -1.456167    0.000136   -0.000102    0.000302
C    -4.087802    4.662410   -0.315642    0.000256   -0.000138    0.000028
C    -5.390609   -0.955062   -1.968243   -0.000180    0.000458    0.000424
C    -1.191035   -4.585288   -1.903300    0.000290   -0.000172    0.000088
C     3.975767   -4.630700   -0.631545    0.000126   -0.000012    0.000270
C     5.145574    0.970401   -2.143325    0.000104   -0.000266    0.000352
O     0.113715    5.047820   -2.447302    0.000030    0.000206   -0.000382
O    -4.830812    4.974104   -1.459341   -0.000018   -0.000066   -0.000084
O    -5.080327   -1.591140   -3.176478    0.000106   -0.000186   -0.000126
O    -0.191083   -4.595020   -2.884242   -0.000292   -0.000026   -0.000160
O     4.766093   -4.790286   -1.775350    0.000200   -0.000000    0.000152
O     4.751214    1.606770   -3.329258   -0.000064    0.000212   -0.000330
C     1.746670    3.491959   -1.708372   -0.000080    0.000080    0.000588
C    -2.590186    4.609054   -0.650700    0.000006   -0.000304    0.000208
C    -4.813346    0.464366   -1.918845   -0.000450   -0.000230    0.000392
C    -1.852209   -3.202438   -1.902607    0.000360   -0.000646   -0.000096
C     2.487786   -4.570055   -1.011129    0.000098    0.000130    0.000146
C     4.563970   -0.450833   -2.054304    0.000092    0.000068    0.000310
O     2.348674    3.413259   -2.976705   -0.000030    0.000228   -0.000358
O    -2.154201    5.877234   -1.097194   -0.000086   -0.000198    0.000074
O    -5.335693    1.259658   -2.951945    0.000150   -0.000388    0.000172
O    -2.450552   -2.900849   -3.138506   -0.000206   -0.000050   -0.000072
O     2.078848   -5.758922   -1.655378   -0.000212   -0.000072   -0.000024
O     5.057958   -1.266580   -3.089154    0.000054    0.000052   -0.000110
C     2.829184    3.245599   -0.653908    0.000316   -0.000274   -0.000058
C    -1.732275    4.185590    0.556866   -0.000096   -0.000850   -0.001058
C    -5.127465    1.157501   -0.585460    0.000506   -0.000080    0.000322
C    -2.936900   -3.162570   -0.823562    0.000588   -0.000354    0.000546
C     1.603667   -4.338673    0.224624    0.000820   -0.000250    0.000080
C     4.909856   -1.131345   -0.721033    0.000112   -0.000028    0.000096
C     2.236199    3.392703    0.760922    0.000168   -0.000076   -0.000010
C    -2.360273    2.935278    1.207193    0.001734   -0.000646    0.000894
C    -4.811054    0.250739    0.621807    0.000028    0.000372    0.000562
C    -2.347514   -3.553884    0.542682   -0.000014   -0.000402    0.000352
C     2.171245   -3.190618    1.070612   -0.000080   -0.000274    0.000950
C     4.631201   -0.188599    0.463290   -0.000058   -0.000072    0.000140
O     1.566630    4.652659    0.890980   -0.000366   -0.000274   -0.000292
O    -3.733888    3.113678    1.475256   -0.000088    0.000074   -0.000734
O    -5.283591   -1.085501    0.430487   -0.000092    0.000194   -0.000810
O    -1.695764   -4.817534    0.445502   -0.000154    0.000400   -0.000196
O     3.554988   -3.290686    1.327480    0.000142    0.000238   -0.000578
O     5.191020    1.110607    0.257726   -0.000430    0.000418   -0.000534
C     3.335056    3.377199    1.832643    0.000134   -0.000010    0.000264
C    -1.764536    2.533977    2.542856   -0.004636    0.003904   -0.003192
C    -5.517211    0.695325    1.915917   -0.000372   -0.000022    0.000242
C    -3.441825   -3.710366    1.604904    0.000168   -0.000684    0.000314
C     1.442242   -3.063792    2.400757    0.000630   -0.005430   -0.001964
C     5.237050   -0.679307    1.790266   -0.000060    0.000010    0.000408
O     4.243847    4.437748    1.670486    0.000064    0.000112   -0.000036
O    -0.590624    1.904293    2.408975    0.001704   -0.000778    0.000156
O    -6.891532    0.904554    1.725906    0.000132   -0.000206   -0.000020
O    -4.384091   -4.689762    1.252929   -0.000100   -0.000224    0.000132
O     1.925926   -1.993594    3.089145   -0.002404    0.002346    0.000268
O     6.601970   -0.995755    1.667405    0.000052    0.000064    0.000036
H     0.092913    5.820618    0.222751   -0.001316   -0.000016   -0.001134
H    -5.549602    3.368880    0.667819   -0.000834   -0.001566   -0.000414
H    -5.352781   -2.717876   -0.692306    0.000732   -0.002732   -0.000576
H    -0.234014   -5.861710   -0.417560    0.000254    0.000168   -0.001116
H     5.372853   -3.360743    0.477377    0.000704   -0.000248   -0.000508
H     5.257599    2.737070   -0.882705   -0.000396    0.000382   -0.001340
H     1.844814    5.646379   -1.511105   -0.000060   -0.000194   -0.002370
H    -4.270793    5.463734    0.408477   -0.000274    0.000668   -0.000652
H    -6.483978   -0.899044   -1.922160   -0.000346    0.001326   -0.001532
H    -1.952943   -5.349556   -2.127064   -0.002062    0.002644   -0.002130
H     4.163571   -5.500402    0.005785    0.000284   -0.001102   -0.001144
H     6.238917    0.898461   -2.177285   -0.000062   -0.000060   -0.001476
H    -0.636915    5.552842   -2.079919    0.000578    0.001104    0.001390
H    -4.902343    4.182271   -2.016676   -0.000974    0.001196    0.000714
H    -4.160099   -1.918179   -3.166946   -0.001530    0.000158    0.000466
H     0.525927   -5.203616   -2.620693    0.001232   -0.001680    0.003332
H     4.791879   -3.949567   -2.263029   -0.000344   -0.000564    0.000656
H     3.889870    2.046732   -3.207629    0.001190   -0.001076   -0.000170
H     0.957511    2.730708   -1.614974   -0.002516   -0.000960   -0.000822
H    -2.437376    3.858458   -1.440815   -0.000220   -0.003816    0.002108
H    -3.717105    0.402842   -2.006520    0.002476   -0.004062    0.006854
H    -1.081817   -2.455604   -1.661771   -0.008010    0.007922    0.003286
H     2.339452   -3.714093   -1.687081   -0.000964    0.000492    0.000246
H     3.467180   -0.392775   -2.116339   -0.000848    0.001212   -0.000600
H     1.733088    3.781480   -3.628760    0.001308   -0.000164   -0.000264
H    -2.872974    6.268588   -1.623625   -0.000306    0.000776    0.000342
H    -5.353316    0.727405   -3.764399   -0.001516   -0.000064   -0.000796
H    -1.817416   -3.122863   -3.840755    0.002336   -0.002416    0.000702
H     2.822433   -6.068266   -2.200745    0.000062    0.000112    0.000630
H     4.990893   -0.773810   -3.921511    0.000732   -0.001000    0.000274
H     3.622998    3.991307   -0.785672   -0.000610   -0.000048   -0.002024
H    -1.687879    5.010734    1.280733    0.000700    0.000256   -0.000974
H    -6.190147    1.438530   -0.559506   -0.000020    0.001664   -0.001654
H    -3.720645   -3.884388   -1.088427   -0.002570    0.001940   -0.003608
H     1.522196   -5.260108    0.814375   -0.000654   -0.001866   -0.002482
H     5.962460   -1.440660   -0.724480    0.000048   -0.000056   -0.001490
H     1.512885    2.591797    0.947622   -0.003048    0.000152   -0.005902
H    -2.188841    2.086300    0.517312    0.018808   -0.028912    0.004848
H    -3.725047    0.239607    0.778465    0.007478   -0.000376   -0.017064
H    -1.632422   -2.788020    0.868228   -0.001928    0.007138   -0.015228
H     1.960111   -2.267820    0.495603   -0.004072   -0.000858   -0.000942
H     3.545583   -0.094219    0.548076   -0.001032   -0.000040   -0.005226
H     3.917234    2.459430    1.741359    0.000946    0.000514   -0.001792
H     2.860943    3.418638    2.818726   -0.000240    0.002568   -0.000974
H    -5.339868   -0.084523    2.665171   -0.000930   -0.001392   -0.002380
H    -5.096363    1.631745    2.280004   -0.000266    0.001018   -0.001892
H    -3.986169   -2.769154    1.700989    0.001606    0.000794   -0.003146
H    -2.960816   -3.950586    2.559254   -0.000128   -0.004070   -0.001074
H     5.090971    0.110570    2.535654    0.001508    0.001176   -0.001256
H     4.736634   -1.589806    2.122152    0.001456   -0.001502   -0.001380
H     3.759735    5.268304    1.777749    0.000730    0.000044    0.000244
H    -7.311741    0.051167    1.544195   -0.000420   -0.000004    0.000668
H    -3.932214   -5.546746    1.228727    0.000700   -0.001506    0.001620
H     7.090834   -0.178414    1.496138    0.000254   -0.000968    0.000180
C     1.004288   -1.188242    3.865952   -0.011428   -0.001770   -0.009850
H     1.611623   -0.702762    4.621903   -0.016396    0.022872   -0.021632
H     0.233348   -1.800079    4.319687   -0.011560    0.002806    0.006924
O     0.575860   -3.796032    2.812831   -0.000206    0.001590   -0.000144
C    -0.139302    1.081819    3.504951   -0.002948   -0.003182   -0.008118
H    -0.960701    0.873641    4.184772    0.004220   -0.013168    0.003140
H     0.650821    1.604452    4.035891    0.004158   -0.016424    0.007824
O    -2.332070    2.695570    3.604813    0.001762   -0.001196    0.000174
C     0.365603   -0.207512    2.866822    0.002388    0.029248    0.005038
O    -0.471785   -0.856579    2.067023   -0.003658   -0.016256   -0.043114
H    -0.976223   -0.281289    1.058842    0.612334   -0.318706    1.872162
O    -1.404313    0.188608    0.072094   -0.014568    0.024216   -0.059994
H     0.265409    0.185411   -0.477969   -0.039088   -0.019232    0.044122
O     1.246733    0.049616   -0.383416   -0.001538   -0.000338    0.000076
H     1.424741    0.247442    1.015329    0.015942    0.004262   -0.015496
O     1.626151    0.310624    2.064666   -0.003962   -0.001240    0.001084
H     2.283766   -0.404936    2.200570    0.006746    0.000712   -0.002992
H     1.705674    0.784252   -0.821758   -0.006152    0.001560    0.002790
H    -1.947421   -0.502016   -0.335395    0.006348    0.020320   -0.035686
139
* Frequency(6) -1771.3800
C     0.523359    4.841403   -0.019625   -0.000006    0.000118   -0.000254
C    -4.509146    3.327759    0.319275    0.000428   -0.000160    0.001464
C    -4.882815   -1.726985   -0.739762   -0.001376   -0.000140   -0.000394
C    -0.648969   -4.848588   -0.485398    0.000550    0.000840   -0.000814
C     4.329047   -3.346237    0.141821    0.000398   -0.000164    0.000824
C     4.746393    1.766585   -0.889387    0.000936   -0.000100    0.000098
O    -0.440772    3.820959    0.120497    0.000390   -0.000186    0.000972
O    -4.327742    2.332777   -0.640684   -0.001148   -0.000372   -0.000824
O    -3.478904   -1.849259   -0.814110   -0.002510   -0.001134   -0.000874
O     0.322273   -3.885090   -0.180726   -0.001360    0.000062    0.000158
O     4.063222   -2.276743   -0.710352    0.000024    0.000390    0.000010
O     3.346819    1.942476   -0.887467   -0.000308    0.000186    0.000380
C     1.084365    4.850107   -1.456200    0.000136   -0.000102    0.000302
C    -4.087830    4.662425   -0.315645    0.000256   -0.000138    0.000028
C    -5.390589   -0.955112   -1.968290   -0.000180    0.000458    0.000424
C    -1.191066   -4.585269   -1.903310    0.000290   -0.000172    0.000088
C     3.975753   -4.630699   -0.631574    0.000126   -0.000012    0.000270
C     5.145563    0.970430   -2.143364    0.000104   -0.000266    0.000352
O     0.113712    5.047798   -2.447260    0.000030    0.000206   -0.000382
O    -4.830810    4.974111   -1.459332   -0.000018   -0.000066   -0.000084
O    -5.080339   -1.591120   -3.176464    0.000106   -0.000186   -0.000126
O    -0.191051   -4.595017   -2.884224   -0.000292   -0.000026   -0.000160
O     4.766072   -4.790286   -1.775366    0.000200   -0.000000    0.000152
O     4.751221    1.606747   -3.329222   -0.000064    0.000212   -0.000330
C     1.746678    3.491951   -1.708436   -0.000080    0.000080    0.000588
C    -2.590187    4.609087   -0.650723    0.000006   -0.000304    0.000208
C    -4.813297    0.464391   -1.918887   -0.000450   -0.000230    0.000392
C    -1.852248   -3.202367   -1.902597    0.000360   -0.000646   -0.000096
C     2.487776   -4.570070   -1.011145    0.000098    0.000130    0.000146
C     4.563960   -0.450840   -2.054338    0.000092    0.000068    0.000310
O     2.348677    3.413234   -2.976666   -0.000030    0.000228   -0.000358
O    -2.154192    5.877256   -1.097202   -0.000086   -0.000198    0.000074
O    -5.335709    1.259701   -2.951964    0.000150   -0.000388    0.000172
O    -2.450530   -2.900844   -3.138498   -0.000206   -0.000050   -0.000072
O     2.078871   -5.758914   -1.655375   -0.000212   -0.000072   -0.000024
O     5.057952   -1.266586   -3.089142    0.000054    0.000052   -0.000110
C     2.829149    3.245629   -0.653901    0.000316   -0.000274   -0.000058
C    -1.732265    4.185683    0.556981   -0.000096   -0.000850   -0.001058
C    -5.127520    1.157509   -0.585495    0.000506   -0.000080    0.000322
C    -2.936964   -3.162531   -0.823622    0.000588   -0.000354    0.000546
C     1.603577   -4.338645    0.224616    0.000820   -0.000250    0.000080
C     4.909843   -1.131342   -0.721043    0.000112   -0.000028    0.000096
C     2.236181    3.392712    0.760923    0.000168   -0.000076   -0.000010
C    -2.360462    2.935349    1.207096    0.001734   -0.000646    0.000894
C    -4.811057    0.250698    0.621745    0.000028    0.000372    0.000562
C    -2.347513   -3.553840    0.542643   -0.000014   -0.000402    0.000352
C     2.171253   -3.190588    1.070509   -0.000080   -0.000274    0.000950
C     4.631208   -0.188591    0.463275   -0.000058   -0.000072    0.000140
O     1.566670    4.652689    0.891012   -0.000366   -0.000274   -0.000292
O    -3.733878    3.113670    1.475336   -0.000088    0.000074   -0.000734
O    -5.283581   -1.085522    0.430575   -0.000092    0.000194   -0.000810
O    -1.695747   -4.817578    0.445524   -0.000154    0.000400   -0.000196
O     3.554972   -3.290712    1.327543    0.000142    0.000238   -0.000578
O     5.191067    1.110561    0.257784   -0.000430    0.000418   -0.000534
C     3.335042    3.377200    1.832614    0.000134   -0.000010    0.000264
C    -1.764031    2.533552    2.543204   -0.004636    0.003904   -0.003192
C    -5.517170    0.695328    1.915891   -0.000372   -0.000022    0.000242
C    -3.441843   -3.710291    1.604870    0.000168   -0.000684    0.000314
C     1.442173   -3.063200    2.400971    0.000630   -0.005430   -0.001964
C     5.237057   -0.679308    1.790222   -0.000060    0.000010    0.000408
O     4.243840    4.437735    1.670490    0.000064    0.000112   -0.000036
O    -0.590810    1.904378    2.408958    0.001704   -0.000778    0.000156
O    -6.891546    0.904576    1.725908    0.000132   -0.000206   -0.000020
O    -4.384080   -4.689738    1.252915   -0.000100   -0.000224    0.000132
O     1.926188   -1.993850    3.089115   -0.002404    0.002346    0.000268
O     6.601964   -0.995762    1.667401    0.000052    0.000064    0.000036
H     0.093056    5.820620    0.222875   -0.001316   -0.000016   -0.001134
H    -5.549511    3.369051    0.667864   -0.000834   -0.001566   -0.000414
H    -5.352861   -2.717578   -0.692243    0.000732   -0.002732   -0.000576
H    -0.234041   -5.861728   -0.417438    0.000254    0.000168   -0.001116
H     5.372777   -3.360716    0.477433    0.000704   -0.000248   -0.000508
H     5.257642    2.737028   -0.882559   -0.000396    0.000382   -0.001340
H     1.844821    5.646400   -1.510847   -0.000060   -0.000194   -0.002370
H    -4.270763    5.463661    0.408548   -0.000274    0.000668   -0.000652
H    -6.483940   -0.899189   -1.921993   -0.000346    0.001326   -0.001532
H    -1.952719   -5.349844   -2.126832   -0.002062    0.002644   -0.002130
H     4.163540   -5.500281    0.005910    0.000284   -0.001102   -0.001144
H     6.238923    0.898468   -2.177124   -0.000062   -0.000060   -0.001476
H    -0.636978    5.552722   -2.080071    0.000578    0.001104    0.001390
H    -4.902237    4.182141   -2.016754   -0.000974    0.001196    0.000714
H    -4.159932   -1.918196   -3.166997   -0.001530    0.000158    0.000466
H     0.525793   -5.203433   -2.621056    0.001232   -0.001680    0.003332
H     4.791916   -3.949505   -2.263100   -0.000344   -0.000564    0.000656
H     3.889741    2.046849   -3.207611    0.001190   -0.001076   -0.000170
H     0.957785    2.730813   -1.614884   -0.002516   -0.000960   -0.000822
H    -2.437352    3.858874   -1.441045   -0.000220   -0.003816    0.002108
H    -3.717374    0.403285   -2.007267    0.002476   -0.004062    0.006854
H    -1.080944   -2.456468   -1.662129   -0.008010    0.007922    0.003286
H     2.339557   -3.714147   -1.687108   -0.000964    0.000492    0.000246
H     3.467272   -0.392907   -2.116274   -0.000848    0.001212   -0.000600
H     1.732945    3.781498   -3.628731    0.001308   -0.000164   -0.000264
H    -2.872941    6.268504   -1.623662   -0.000306    0.000776    0.000342
H    -5.353150    0.727412   -3.764312   -0.001516   -0.000064   -0.000796
H    -1.817670   -3.122600   -3.840832    0.002336   -0.002416    0.000702
H     2.822427   -6.068279   -2.200814    0.000062    0.000112    0.000630
H     4.990813   -0.773701   -3.921541    0.000732   -0.001000    0.000274
H     3.623065    3.991312   -0.785452   -0.000610   -0.000048   -0.002024
H    -1.687956    5.010706    1.280839    0.000700    0.000256   -0.000974
H    -6.190145    1.438349   -0.559325   -0.000020    0.001664   -0.001654
H    -3.720365   -3.884599   -1.088034   -0.002570    0.001940   -0.003608
H     1.522267   -5.259904    0.814645   -0.000654   -0.001866   -0.002482
H     5.962455   -1.440654   -0.724318    0.000048   -0.000056   -0.001490
H     1.513217    2.591781    0.948265   -0.003048    0.000152   -0.005902
H    -2.190891    2.089450    0.516783    0.018808   -0.028912    0.004848
H    -3.725862    0.239648    0.780325    0.007478   -0.000376   -0.017064
H    -1.632212   -2.788798    0.869888   -0.001928    0.007138   -0.015228
H     1.960554   -2.267726    0.495706   -0.004072   -0.000858   -0.000942
H     3.545696   -0.094214    0.548646   -0.001032   -0.000040   -0.005226
H     3.917130    2.459374    1.741555    0.000946    0.000514   -0.001792
H     2.860969    3.418358    2.818832   -0.000240    0.002568   -0.000974
H    -5.339767   -0.084371    2.665430   -0.000930   -0.001392   -0.002380
H    -5.096334    1.631634    2.280210   -0.000266    0.001018   -0.001892
H    -3.986344   -2.769240    1.701332    0.001606    0.000794   -0.003146
H    -2.960802   -3.950142    2.559371   -0.000128   -0.004070   -0.001074
H     5.090807    0.110442    2.535791    0.001508    0.001176   -0.001256
H     4.736475   -1.589643    2.122303    0.001456   -0.001502   -0.001380
H     3.759655    5.268300    1.777722    0.000730    0.000044    0.000244
H    -7.311695    0.051168    1.544122   -0.000420   -0.000004    0.000668
H    -3.932291   -5.546582    1.228550    0.000700   -0.001506    0.001620
H     7.090807   -0.178309    1.496118    0.000254   -0.000968    0.000180
C     1.005534   -1.188049    3.867026   -0.011428   -0.001770   -0.009850
H     1.613409   -0.705254    4.624260   -0.016396    0.022872   -0.021632
H     0.234608   -1.800384    4.318933   -0.011560    0.002806    0.006924
O     0.575882   -3.796205    2.812847   -0.000206    0.001590   -0.000144
C    -0.138981    1.082166    3.505835   -0.002948   -0.003182   -0.008118
H    -0.961161    0.875076    4.184430    0.004220   -0.013168    0.003140
H     0.650368    1.606242    4.035039    0.004158   -0.016424    0.007824
O    -2.332262    2.695700    3.604794    0.001762   -0.001196    0.000174
C     0.365343   -0.210699    2.866273    0.002388    0.029248    0.005038
O    -0.471387   -0.854807    2.071721   -0.003658   -0.016256   -0.043114
H    -1.042952   -0.246558    0.854826    0.612334   -0.318706    1.872162
O    -1.402725    0.185969    0.078632   -0.014568    0.024216   -0.059994
H     0.269668    0.187507   -0.482777   -0.039088   -0.019232    0.044122
O     1.246900    0.049653   -0.383425   -0.001538   -0.000338    0.000076
H     1.423003    0.246978    1.017017    0.015942    0.004262   -0.015496
O     1.626583    0.310760    2.064547   -0.003962   -0.001240    0.001084
H     2.283031   -0.405014    2.200896    0.006746    0.000712   -0.002992
H     1.706345    0.784082   -0.822062   -0.006152    0.001560    0.002790
H    -1.948112   -0.504230   -0.331506    0.006348    0.020320   -0.035686
139
* Frequency(6) -1771.3800
C     0.523360    4.841393   -0.019602   -0.000006    0.000118   -0.000254
C    -4.509185    3.327773    0.319142    0.000428   -0.000160    0.001464
C    -4.882690   -1.726972   -0.739727   -0.001376   -0.000140   -0.000394
C    -0.649019   -4.848664   -0.485324    0.000550    0.000840   -0.000814
C     4.329011   -3.346222    0.141746    0.000398   -0.000164    0.000824
C     4.746308    1.766594   -0.889396    0.000936   -0.000100    0.000098
O    -0.440807    3.820976    0.120409    0.000390   -0.000186    0.000972
O    -4.327637    2.332811   -0.640609   -0.001148   -0.000372   -0.000824
O    -3.478676   -1.849156   -0.814031   -0.002510   -0.001134   -0.000874
O     0.322396   -3.885096   -0.180741   -0.001360    0.000062    0.000158
O     4.063220   -2.276778   -0.710353    0.000024    0.000390    0.000010
O     3.346847    1.942459   -0.887502   -0.000308    0.000186    0.000380
C     1.084353    4.850116   -1.456228    0.000136   -0.000102    0.000302
C    -4.087853    4.662438   -0.315647    0.000256   -0.000138    0.000028
C    -5.390573   -0.955154   -1.968328   -0.000180    0.000458    0.000424
C    -1.191093   -4.585254   -1.903318    0.000290   -0.000172    0.000088
C     3.975742   -4.630698   -0.631599    0.000126   -0.000012    0.000270
C     5.145553    0.970454   -2.143396    0.000104   -0.000266    0.000352
O     0.113709    5.047779   -2.447226    0.000030    0.000206   -0.000382
O    -4.830808    4.974117   -1.459324   -0.000018   -0.000066   -0.000084
O    -5.080348   -1.591103   -3.176453    0.000106   -0.000186   -0.000126
O    -0.191025   -4.595014   -2.884210   -0.000292   -0.000026   -0.000160
O     4.766053   -4.790286   -1.775380    0.000200   -0.000000    0.000152
O     4.751226    1.606727   -3.329192   -0.000064    0.000212   -0.000330
C     1.746686    3.491943   -1.708489   -0.000080    0.000080    0.000588
C    -2.590188    4.609114   -0.650742    0.000006   -0.000304    0.000208
C    -4.813256    0.464412   -1.918923   -0.000450   -0.000230    0.000392
C    -1.852281   -3.202309   -1.902588    0.000360   -0.000646   -0.000096
C     2.487767   -4.570081   -1.011159    0.000098    0.000130    0.000146
C     4.563951   -0.450847   -2.054366    0.000092    0.000068    0.000310
O     2.348680    3.413213   -2.976634   -0.000030    0.000228   -0.000358
O    -2.154184    5.877274   -1.097209   -0.000086   -0.000198    0.000074
O    -5.335723    1.259736   -2.951979    0.000150   -0.000388    0.000172
O    -2.450511   -2.900839   -3.138491   -0.000206   -0.000050   -0.000072
O     2.078891   -5.758907   -1.655373   -0.000212   -0.000072   -0.000024
O     5.057947   -1.266590   -3.089132    0.000054    0.000052   -0.000110
C     2.829121    3.245654   -0.653896    0.000316   -0.000274   -0.000058
C    -1.732256    4.185760    0.557077   -0.000096   -0.000850   -0.001058
C    -5.127566    1.157517   -0.585524    0.000506   -0.000080    0.000322
C    -2.937017   -3.162499   -0.823672    0.000588   -0.000354    0.000546
C     1.603503   -4.338623    0.224608    0.000820   -0.000250    0.000080
C     4.909833   -1.131340   -0.721052    0.000112   -0.000028    0.000096
C     2.236166    3.392719    0.760924    0.000168   -0.000076   -0.000010
C    -2.360620    2.935407    1.207015    0.001734   -0.000646    0.000894
C    -4.811059    0.250664    0.621694    0.000028    0.000372    0.000562
C    -2.347511   -3.553803    0.542611   -0.000014   -0.000402    0.000352
C     2.171261   -3.190563    1.070422   -0.000080   -0.000274    0.000950
C     4.631213   -0.188584    0.463262   -0.000058   -0.000072    0.000140
O     1.566703    4.652714    0.891038   -0.000366   -0.000274   -0.000292
O    -3.733870    3.113663    1.475403   -0.000088    0.000074   -0.000734
O    -5.283572   -1.085540    0.430649   -0.000092    0.000194   -0.000810
O    -1.695733   -4.817614    0.445541   -0.000154    0.000400   -0.000196
O     3.554959   -3.290733    1.327596    0.000142    0.000238   -0.000578
O     5.191106    1.110523    0.257833   -0.000430    0.000418   -0.000534
C     3.335029    3.377201    1.832590    0.000134   -0.000010    0.000264
C    -1.763609    2.533197    2.543494   -0.004636    0.003904   -0.003192
C    -5.517136    0.695330    1.915869   -0.000372   -0.000022    0.000242
C    -3.441858   -3.710229    1.604841    0.000168   -0.000684    0.000314
C     1.442116   -3.062707    2.401150    0.000630   -0.005430   -0.001964
C     5.237062   -0.679309    1.790185   -0.000060    0.000010    0.000408
O     4.243835    4.437725    1.670493    0.000064    0.000112   -0.000036
O    -0.590965    1.904448    2.408944    0.001704   -0.000778    0.000156
O    -6.891558    0.904595    1.725910    0.000132   -0.000206   -0.000020
O    -4.384071   -4.689717    1.252903   -0.000100   -0.000224    0.000132
O     1.926407   -1.994063    3.089091   -0.002404    0.002346    0.000268
O     6.601960   -0.995767    1.667398    0.000052    0.000064    0.000036
H     0.093176    5.820621    0.222978   -0.001316   -0.000016   -0.001134
H    -5.549435    3.369193    0.667902   -0.000834   -0.001566   -0.000414
H    -5.352927   -2.717330   -0.692191    0.000732   -0.002732   -0.000576
H    -0.234064   -5.861743   -0.417337    0.000254    0.000168   -0.001116
H     5.372713   -3.360693    0.477479    0.000704   -0.000248   -0.000508
H     5.257678    2.736994   -0.882437   -0.000396    0.000382   -0.001340
H     1.844826    5.646418   -1.510632   -0.000060   -0.000194   -0.002370
H    -4.270738    5.463600    0.408607   -0.000274    0.000668   -0.000652
H    -6.483909   -0.899309   -1.921854   -0.000346    0.001326   -0.001532
H    -1.952531   -5.350085   -2.126639   -0.002062    0.002644   -0.002130
H     4.163514   -5.500181    0.006014    0.000284   -0.001102   -0.001144
H     6.238929    0.898473   -2.176990   -0.000062   -0.000060   -0.001476
H    -0.637031    5.552622   -2.080197    0.000578    0.001104    0.001390
H    -4.902148    4.182032   -2.016819   -0.000974    0.001196    0.000714
H    -4.159793   -1.918211   -3.167039   -0.001530    0.000158    0.000466
H     0.525681   -5.203280   -2.621359    0.001232   -0.001680    0.003332
H     4.791948   -3.949454   -2.263160   -0.000344   -0.000564    0.000656
H     3.889633    2.046947   -3.207595    0.001190   -0.001076   -0.000170
H     0.958014    2.730900   -1.614809   -0.002516   -0.000960   -0.000822
H    -2.437332    3.859221   -1.441237   -0.000220   -0.003816    0.002108
H    -3.717600    0.403654   -2.007890    0.002476   -0.004062    0.006854
H    -1.080215   -2.457188   -1.662428   -0.008010    0.007922    0.003286
H     2.339644   -3.714192   -1.687130   -0.000964    0.000492    0.000246
H     3.467349   -0.393017   -2.116219   -0.000848    0.001212   -0.000600
H     1.732826    3.781513   -3.628707    0.001308   -0.000164   -0.000264
H    -2.872913    6.268433   -1.623693   -0.000306    0.000776    0.000342
H    -5.353013    0.727417   -3.764240   -0.001516   -0.000064   -0.000796
H    -1.817883   -3.122380   -3.840896    0.002336   -0.002416    0.000702
H     2.822421   -6.068289   -2.200871    0.000062    0.000112    0.000630
H     4.990747   -0.773610   -3.921566    0.000732   -0.001000    0.000274
H     3.623120    3.991316   -0.785268   -0.000610   -0.000048   -0.002024
H    -1.688019    5.010683    1.280928    0.000700    0.000256   -0.000974
H    -6.190143    1.438198   -0.559175   -0.000020    0.001664   -0.001654
H    -3.720131   -3.884776   -1.087706   -0.002570    0.001940   -0.003608
H     1.522326   -5.259734    0.814871   -0.000654   -0.001866   -0.002482
H     5.962451   -1.440649   -0.724182    0.000048   -0.000056   -0.001490
H     1.513494    2.591767    0.948802   -0.003048    0.000152   -0.005902
H    -2.192601    2.092079    0.516343    0.018808   -0.028912    0.004848
H    -3.726542    0.239682    0.781876    0.007478   -0.000376   -0.017064
H    -1.632037   -2.789447    0.871272   -0.001928    0.007138   -0.015228
H     1.960925   -2.267648    0.495792   -0.004072   -0.000858   -0.000942
H     3.545790   -0.094211    0.549121   -0.001032   -0.000040   -0.005226
H     3.917044    2.459328    1.741717    0.000946    0.000514   -0.001792
H     2.860991    3.418125    2.818921   -0.000240    0.002568   -0.000974
H    -5.339683   -0.084245    2.665647   -0.000930   -0.001392   -0.002380
H    -5.096310    1.631542    2.280382   -0.000266    0.001018   -0.001892
H    -3.986490   -2.769312    1.701618    0.001606    0.000794   -0.003146
H    -2.960790   -3.949772    2.559469   -0.000128   -0.004070   -0.001074
H     5.090670    0.110335    2.535905    0.001508    0.001176   -0.001256
H     4.736343   -1.589506    2.122428    0.001456   -0.001502   -0.001380
H     3.759589    5.268296    1.777700    0.000730    0.000044    0.000244
H    -7.311657    0.051168    1.544061   -0.000420   -0.000004    0.000668
H    -3.932354   -5.546445    1.228403    0.000700   -0.001506    0.001620
H     7.090784   -0.178221    1.496102    0.000254   -0.000968    0.000180
C     1.006573   -1.187888    3.867921   -0.011428   -0.001770   -0.009850
H     1.614900   -0.707334    4.626227   -0.016396    0.022872   -0.021632
H     0.235659   -1.800640    4.318303   -0.011560    0.002806    0.006924
O     0.575901   -3.796349    2.812860   -0.000206    0.001590   -0.000144
C    -0.138713    1.082455    3.506573   -0.002948   -0.003182   -0.008118
H    -0.961545    0.876273    4.184144    0.004220   -0.013168    0.003140
H     0.649990    1.607735    4.034327    0.004158   -0.016424    0.007824
O    -2.332422    2.695809    3.604778    0.001762   -0.001196    0.000174
C     0.365126   -0.213358    2.865815    0.002388    0.029248    0.005038
O    -0.471054   -0.853329    2.075641   -0.003658   -0.016256   -0.043114
H    -1.098626   -0.217581    0.684606    0.612334   -0.318706    1.872162
O    -1.401401    0.183767    0.084087   -0.014568    0.024216   -0.059994
H     0.273222    0.189255   -0.486789   -0.039088   -0.019232    0.044122
O     1.247040    0.049684   -0.383432   -0.001538   -0.000338    0.000076
H     1.421554    0.246591    1.018426    0.015942    0.004262   -0.015496
O     1.626943    0.310872    2.064449   -0.003962   -0.001240    0.001084
H     2.282418   -0.405078    2.201168    0.006746    0.000712   -0.002992
H     1.706904    0.783940   -0.822315   -0.006152    0.001560    0.002790
H    -1.948690   -0.506077   -0.328262    0.006348    0.020320   -0.035686
139
* Frequency(6) -1771.3800
C     0.523360    4.841385   -0.019586   -0.000006    0.000118   -0.000254
C    -4.509212    3.327783    0.319050    0.000428   -0.000160    0.001464
C    -4.882603   -1.726963   -0.739702   -0.001376   -0.000140   -0.000394
C    -0.649053   -4.848717   -0.485273    0.000550    0.000840   -0.000814
C     4.328985   -3.346211    0.141694    0.000398   -0.000164    0.000824
C     4.746249    1.766600   -0.889402    0.000936   -0.000100    0.000098
O    -0.440832    3.820988    0.120347    0.000390   -0.000186    0.000972
O    -4.327565    2.332834   -0.640557   -0.001148   -0.000372   -0.000824
O    -3.478517   -1.849085   -0.813976   -0.002510   -0.001134   -0.000874
O     0.322482   -3.885100   -0.180751   -0.001360    0.000062    0.000158
O     4.063218   -2.276803   -0.710353    0.000024    0.000390    0.000010
O     3.346867    1.942447   -0.887526   -0.000308    0.000186    0.000380
C     1.084344    4.850123   -1.456247    0.000136   -0.000102    0.000302
C    -4.087869    4.662446   -0.315649    0.000256   -0.000138    0.000028
C    -5.390561   -0.955183   -1.968355   -0.000180    0.000458    0.000424
C    -1.191111   -4.585243   -1.903323    0.000290   -0.000172    0.000088
C     3.975734   -4.630697   -0.631616    0.000126   -0.000012    0.000270
C     5.145547    0.970471   -2.143418    0.000104   -0.000266    0.000352
O     0.113707    5.047766   -2.447202    0.000030    0.000206   -0.000382
O    -4.830807    4.974121   -1.459319   -0.000018   -0.000066   -0.000084
O    -5.080355   -1.591091   -3.176445    0.000106   -0.000186   -0.000126
O    -0.191006   -4.595013   -2.884200   -0.000292   -0.000026   -0.000160
O     4.766041   -4.790286   -1.775390    0.000200   -0.000000    0.000152
O     4.751231    1.606714   -3.329171   -0.000064    0.000212   -0.000330
C     1.746691    3.491938   -1.708526   -0.000080    0.000080    0.000588
C    -2.590188    4.609133   -0.650755    0.000006   -0.000304    0.000208
C    -4.813228    0.464427   -1.918948   -0.000450   -0.000230    0.000392
C    -1.852303   -3.202268   -1.902582    0.000360   -0.000646   -0.000096
C     2.487761   -4.570090   -1.011168    0.000098    0.000130    0.000146
C     4.563946   -0.450851   -2.054385    0.000092    0.000068    0.000310
O     2.348682    3.413199   -2.976611   -0.000030    0.000228   -0.000358
O    -2.154178    5.877286   -1.097214   -0.000086   -0.000198    0.000074
O    -5.335732    1.259760   -2.951990    0.000150   -0.000388    0.000172
O    -2.450498   -2.900836   -3.138487   -0.000206   -0.000050   -0.000072
O     2.078904   -5.758903   -1.655371   -0.000212   -0.000072   -0.000024
O     5.057944   -1.266594   -3.089125    0.000054    0.000052   -0.000110
C     2.829101    3.245671   -0.653892    0.000316   -0.000274   -0.000058
C    -1.732250    4.185813    0.557144   -0.000096   -0.000850   -0.001058
C    -5.127598    1.157522   -0.585544    0.000506   -0.000080    0.000322
C    -2.937054   -3.162477   -0.823706    0.000588   -0.000354    0.000546
C     1.603451   -4.338607    0.224603    0.000820   -0.000250    0.000080
C     4.909826   -1.131338   -0.721058    0.000112   -0.000028    0.000096
C     2.236155    3.392723    0.760924    0.000168   -0.000076   -0.000010
C    -2.360729    2.935448    1.206958    0.001734   -0.000646    0.000894
C    -4.811061    0.250641    0.621659    0.000028    0.000372    0.000562
C    -2.347511   -3.553778    0.542589   -0.000014   -0.000402    0.000352
C     2.171266   -3.190546    1.070363   -0.000080   -0.000274    0.000950
C     4.631217   -0.188580    0.463253   -0.000058   -0.000072    0.000140
O     1.566726    4.652731    0.891057   -0.000366   -0.000274   -0.000292
O    -3.733865    3.113658    1.475449   -0.000088    0.000074   -0.000734
O    -5.283567   -1.085552    0.430700   -0.000092    0.000194   -0.000810
O    -1.695724   -4.817639    0.445554   -0.000154    0.000400   -0.000196
O     3.554950   -3.290748    1.327632    0.000142    0.000238   -0.000578
O     5.191133    1.110497    0.257866   -0.000430    0.000418   -0.000534
C     3.335021    3.377201    1.832573    0.000134   -0.000010    0.000264
C    -1.763317    2.532951    2.543695   -0.004636    0.003904   -0.003192
C    -5.517113    0.695331    1.915853   -0.000372   -0.000022    0.000242
C    -3.441869   -3.710186    1.604821    0.000168   -0.000684    0.000314
C     1.442076   -3.062365    2.401274    0.000630   -0.005430   -0.001964
C     5.237066   -0.679309    1.790159   -0.000060    0.000010    0.000408
O     4.243830    4.437718    1.670496    0.000064    0.000112   -0.000036
O    -0.591072    1.904497    2.408934    0.001704   -0.000778    0.000156
O    -6.891566    0.904608    1.725911    0.000132   -0.000206   -0.000020
O    -4.384065   -4.689703    1.252895   -0.000100   -0.000224    0.000132
O     1.926559   -1.994211    3.089074   -0.002404    0.002346    0.000268
O     6.601956   -0.995772    1.667395    0.000052    0.000064    0.000036
H     0.093259    5.820622    0.223049   -0.001316   -0.000016   -0.001134
H    -5.549383    3.369292    0.667928   -0.000834   -0.001566   -0.000414
H    -5.352974   -2.717157   -0.692154    0.000732   -0.002732   -0.000576
H    -0.234080   -5.861754   -0.417266    0.000254    0.000168   -0.001116
H     5.372668   -3.360678    0.477511    0.000704   -0.000248   -0.000508
H     5.257703    2.736970   -0.882353   -0.000396    0.000382   -0.001340
H     1.844830    5.646430   -1.510482   -0.000060   -0.000194   -0.002370
H    -4.270721    5.463558    0.408648   -0.000274    0.000668   -0.000652
H    -6.483887   -0.899393   -1.921757   -0.000346    0.001326   -0.001532
H    -1.952401   -5.350251   -2.126504   -0.002062    0.002644   -0.002130
H     4.163496   -5.500112    0.006086    0.000284   -0.001102   -0.001144
H     6.238933    0.898477   -2.176897   -0.000062   -0.000060   -0.001476
H    -0.637067    5.552552   -2.080285    0.000578    0.001104    0.001390
H    -4.902087    4.181957   -2.016864   -0.000974    0.001196    0.000714
H    -4.159697   -1.918221   -3.167068   -0.001530    0.000158    0.000466
H     0.525603   -5.203175   -2.621569    0.001232   -0.001680    0.003332
H     4.791969   -3.949418   -2.263201   -0.000344   -0.000564    0.000656
H     3.889558    2.047015   -3.207585    0.001190   -0.001076   -0.000170
H     0.958172    2.730961   -1.614758   -0.002516   -0.000960   -0.000822
H    -2.437318    3.859461   -1.441370   -0.000220   -0.003816    0.002108
H    -3.717756    0.403910   -2.008322    0.002476   -0.004062    0.006854
H    -1.079711   -2.457687   -1.662635   -0.008010    0.007922    0.003286
H     2.339705   -3.714223   -1.687146   -0.000964    0.000492    0.000246
H     3.467403   -0.393093   -2.116182   -0.000848    0.001212   -0.000600
H     1.732744    3.781524   -3.628690    0.001308   -0.000164   -0.000264
H    -2.872894    6.268384   -1.623715   -0.000306    0.000776    0.000342
H    -5.352917    0.727422   -3.764190   -0.001516   -0.000064   -0.000796
H    -1.818030   -3.122228   -3.840940    0.002336   -0.002416    0.000702
H     2.822417   -6.068296   -2.200911    0.000062    0.000112    0.000630
H     4.990700   -0.773547   -3.921583    0.000732   -0.001000    0.000274
H     3.623159    3.991319   -0.785140   -0.000610   -0.000048   -0.002024
H    -1.688063    5.010667    1.280989    0.000700    0.000256   -0.000974
H    -6.190142    1.438093   -0.559071   -0.000020    0.001664   -0.001654
H    -3.719969   -3.884898   -1.087479   -0.002570    0.001940   -0.003608
H     1.522368   -5.259617    0.815028   -0.000654   -0.001866   -0.002482
H     5.962448   -1.440645   -0.724088    0.000048   -0.000056   -0.001490
H     1.513686    2.591757    0.949174   -0.003048    0.000152   -0.005902
H    -2.193786    2.093901    0.516037    0.018808   -0.028912    0.004848
H    -3.727013    0.239706    0.782951    0.007478   -0.000376   -0.017064
H    -1.631915   -2.789897    0.872232   -0.001928    0.007138   -0.015228
H     1.961181   -2.267594    0.495851   -0.004072   -0.000858   -0.000942
H     3.545855   -0.094208    0.549450   -0.001032   -0.000040   -0.005226
H     3.916985    2.459295    1.741830    0.000946    0.000514   -0.001792
H     2.861006    3.417963    2.818982   -0.000240    0.002568   -0.000974
H    -5.339624   -0.084157    2.665797   -0.000930   -0.001392   -0.002380
H    -5.096293    1.631478    2.280501   -0.000266    0.001018   -0.001892
H    -3.986591   -2.769362    1.701816    0.001606    0.000794   -0.003146
H    -2.960782   -3.949515    2.559536   -0.000128   -0.004070   -0.001074
H     5.090575    0.110261    2.535985    0.001508    0.001176   -0.001256
H     4.736251   -1.589412    2.122515    0.001456   -0.001502   -0.001380
H     3.759543    5.268293    1.777685    0.000730    0.000044    0.000244
H    -7.311630    0.051168    1.544019   -0.000420   -0.000004    0.000668
H    -3.932398   -5.546350    1.228301    0.000700   -0.001506    0.001620
H     7.090768   -0.178160    1.496090    0.000254   -0.000968    0.000180
C     1.007293   -1.187777    3.868542   -0.011428   -0.001770   -0.009850
H     1.615933   -0.708775    4.627591   -0.016396    0.022872   -0.021632
H     0.236387   -1.800816    4.317867   -0.011560    0.002806    0.006924
O     0.575914   -3.796450    2.812869   -0.000206    0.001590   -0.000144
C    -0.138527    1.082656    3.507085   -0.002948   -0.003182   -0.008118
H    -0.961811    0.877103    4.183947    0.004220   -0.013168    0.003140
H     0.649728    1.608770    4.033834    0.004158   -0.016424    0.007824
O    -2.332533    2.695884    3.604767    0.001762   -0.001196    0.000174
C     0.364976   -0.215202    2.865497    0.002388    0.029248    0.005038
O    -0.470824   -0.852305    2.078358   -0.003658   -0.016256   -0.043114
H    -1.137214   -0.197497    0.566627    0.612334   -0.318706    1.872162
O    -1.400483    0.182241    0.087867   -0.014568    0.024216   -0.059994
H     0.275686    0.190467   -0.489569   -0.039088   -0.019232    0.044122
O     1.247137    0.049705   -0.383436   -0.001538   -0.000338    0.000076
H     1.420549    0.246322    1.019403    0.015942    0.004262   -0.015496
O     1.627193    0.310950    2.064381   -0.003962   -0.001240    0.001084
H     2.281993   -0.405123    2.201357    0.006746    0.000712   -0.002992
H     1.707292    0.783842   -0.822491   -0.006152    0.001560    0.002790
H    -1.949090   -0.507358   -0.326013    0.006348    0.020320   -0.035686
139
* Frequency(6) -1771.3800
C     0.523360    4.841382   -0.019578   -0.000006    0.000118   -0.000254
C    -4.509224    3.327788    0.319008    0.000428   -0.000160    0.001464
C    -4.882564   -1.726959   -0.739691   -0.001376   -0.000140   -0.000394
C    -0.649069   -4.848741   -0.485250    0.000550    0.000840   -0.000814
C     4.328974   -3.346207    0.141671    0.000398   -0.000164    0.000824
C     4.746223    1.766603   -0.889405    0.000936   -0.000100    0.000098
O    -0.440843    3.820993    0.120320    0.000390   -0.000186    0.000972
O    -4.327533    2.332845   -0.640534   -0.001148   -0.000372   -0.000824
O    -3.478447   -1.849052   -0.813951   -0.002510   -0.001134   -0.000874
O     0.322520   -3.885102   -0.180755   -0.001360    0.000062    0.000158
O     4.063218   -2.276814   -0.710353    0.000024    0.000390    0.000010
O     3.346875    1.942442   -0.887537   -0.000308    0.000186    0.000380
C     1.084341    4.850126   -1.456255    0.000136   -0.000102    0.000302
C    -4.087876    4.662450   -0.315650    0.000256   -0.000138    0.000028
C    -5.390556   -0.955196   -1.968367   -0.000180    0.000458    0.000424
C    -1.191119   -4.585238   -1.903326    0.000290   -0.000172    0.000088
C     3.975730   -4.630697   -0.631623    0.000126   -0.000012    0.000270
C     5.145544    0.970479   -2.143428    0.000104   -0.000266    0.000352
O     0.113707    5.047760   -2.447191    0.000030    0.000206   -0.000382
O    -4.830807    4.974123   -1.459317   -0.000018   -0.000066   -0.000084
O    -5.080358   -1.591086   -3.176441    0.000106   -0.000186   -0.000126
O    -0.190998   -4.595012   -2.884195   -0.000292   -0.000026   -0.000160
O     4.766035   -4.790286   -1.775394    0.000200   -0.000000    0.000152
O     4.751232    1.606708   -3.329162   -0.000064    0.000212   -0.000330
C     1.746693    3.491936   -1.708543   -0.000080    0.000080    0.000588
C    -2.590188    4.609142   -0.650761    0.000006   -0.000304    0.000208
C    -4.813215    0.464433   -1.918959   -0.000450   -0.000230    0.000392
C    -1.852314   -3.202250   -1.902580    0.000360   -0.000646   -0.000096
C     2.487758   -4.570093   -1.011172    0.000098    0.000130    0.000146
C     4.563943   -0.450853   -2.054394    0.000092    0.000068    0.000310
O     2.348682    3.413192   -2.976601   -0.000030    0.000228   -0.000358
O    -2.154176    5.877292   -1.097216   -0.000086   -0.000198    0.000074
O    -5.335736    1.259771   -2.951995    0.000150   -0.000388    0.000172
O    -2.450492   -2.900835   -3.138485   -0.000206   -0.000050   -0.000072
O     2.078910   -5.758901   -1.655371   -0.000212   -0.000072   -0.000024
O     5.057942   -1.266595   -3.089122    0.000054    0.000052   -0.000110
C     2.829092    3.245679   -0.653891    0.000316   -0.000274   -0.000058
C    -1.732248    4.185837    0.557174   -0.000096   -0.000850   -0.001058
C    -5.127612    1.157524   -0.585553    0.000506   -0.000080    0.000322
C    -2.937071   -3.162467   -0.823721    0.000588   -0.000354    0.000546
C     1.603428   -4.338600    0.224601    0.000820   -0.000250    0.000080
C     4.909823   -1.131337   -0.721060    0.000112   -0.000028    0.000096
C     2.236150    3.392726    0.760924    0.000168   -0.000076   -0.000010
C    -2.360778    2.935466    1.206933    0.001734   -0.000646    0.000894
C    -4.811062    0.250630    0.621643    0.000028    0.000372    0.000562
C    -2.347510   -3.553767    0.542579   -0.000014   -0.000402    0.000352
C     2.171268   -3.190538    1.070336   -0.000080   -0.000274    0.000950
C     4.631218   -0.188578    0.463249   -0.000058   -0.000072    0.000140
O     1.566737    4.652739    0.891065   -0.000366   -0.000274   -0.000292
O    -3.733862    3.113656    1.475470   -0.000088    0.000074   -0.000734
O    -5.283564   -1.085558    0.430723   -0.000092    0.000194   -0.000810
O    -1.695719   -4.817651    0.445559   -0.000154    0.000400   -0.000196
O     3.554946   -3.290755    1.327649    0.000142    0.000238   -0.000578
O     5.191145    1.110485    0.257881   -0.000430    0.000418   -0.000534
C     3.335017    3.377201    1.832566    0.000134   -0.000010    0.000264
C    -1.763186    2.532840    2.543785   -0.004636    0.003904   -0.003192
C    -5.517102    0.695332    1.915847   -0.000372   -0.000022    0.000242
C    -3.441874   -3.710166    1.604812    0.000168   -0.000684    0.000314
C     1.442058   -3.062211    2.401329    0.000630   -0.005430   -0.001964
C     5.237068   -0.679309    1.790148   -0.000060    0.000010    0.000408
O     4.243829    4.437715    1.670497    0.000064    0.000112   -0.000036
O    -0.591120    1.904519    2.408930    0.001704   -0.000778    0.000156
O    -6.891570    0.904614    1.725912    0.000132   -0.000206   -0.000020
O    -4.384062   -4.689697    1.252891   -0.000100   -0.000224    0.000132
O     1.926627   -1.994277    3.089067   -0.002404    0.002346    0.000268
O     6.601955   -0.995773    1.667394    0.000052    0.000064    0.000036
H     0.093296    5.820623    0.223082   -0.001316   -0.000016   -0.001134
H    -5.549359    3.369336    0.667939   -0.000834   -0.001566   -0.000414
H    -5.352994   -2.717080   -0.692138    0.000732   -0.002732   -0.000576
H    -0.234088   -5.861759   -0.417235    0.000254    0.000168   -0.001116
H     5.372648   -3.360670    0.477525    0.000704   -0.000248   -0.000508
H     5.257714    2.736959   -0.882315   -0.000396    0.000382   -0.001340
H     1.844832    5.646436   -1.510415   -0.000060   -0.000194   -0.002370
H    -4.270713    5.463539    0.408666   -0.000274    0.000668   -0.000652
H    -6.483877   -0.899431   -1.921714   -0.000346    0.001326   -0.001532
H    -1.952343   -5.350326   -2.126444   -0.002062    0.002644   -0.002130
H     4.163488   -5.500081    0.006118    0.000284   -0.001102   -0.001144
H     6.238935    0.898479   -2.176855   -0.000062   -0.000060   -0.001476
H    -0.637084    5.552521   -2.080324    0.000578    0.001104    0.001390
H    -4.902059    4.181923   -2.016884   -0.000974    0.001196    0.000714
H    -4.159653   -1.918225   -3.167082   -0.001530    0.000158    0.000466
H     0.525568   -5.203127   -2.621663    0.001232   -0.001680    0.003332
H     4.791979   -3.949402   -2.263220   -0.000344   -0.000564    0.000656
H     3.889524    2.047045   -3.207580    0.001190   -0.001076   -0.000170
H     0.958244    2.730988   -1.614734   -0.002516   -0.000960   -0.000822
H    -2.437312    3.859569   -1.441429   -0.000220   -0.003816    0.002108
H    -3.717826    0.404025   -2.008516    0.002476   -0.004062    0.006854
H    -1.079484   -2.457911   -1.662728   -0.008010    0.007922    0.003286
H     2.339732   -3.714237   -1.687153   -0.000964    0.000492    0.000246
H     3.467427   -0.393128   -2.116165   -0.000848    0.001212   -0.000600
H     1.732707    3.781528   -3.628683    0.001308   -0.000164   -0.000264
H    -2.872885    6.268362   -1.623724   -0.000306    0.000776    0.000342
H    -5.352874    0.727423   -3.764167   -0.001516   -0.000064   -0.000796
H    -1.818096   -3.122159   -3.840960    0.002336   -0.002416    0.000702
H     2.822415   -6.068299   -2.200929    0.000062    0.000112    0.000630
H     4.990680   -0.773519   -3.921591    0.000732   -0.001000    0.000274
H     3.623176    3.991321   -0.785083   -0.000610   -0.000048   -0.002024
H    -1.688083    5.010660    1.281017    0.000700    0.000256   -0.000974
H    -6.190141    1.438046   -0.559024   -0.000020    0.001664   -0.001654
H    -3.719897   -3.884953   -1.087377   -0.002570    0.001940   -0.003608
H     1.522386   -5.259564    0.815098   -0.000654   -0.001866   -0.002482
H     5.962446   -1.440643   -0.724046    0.000048   -0.000056   -0.001490
H     1.513772    2.591753    0.949341   -0.003048    0.000152   -0.005902
H    -2.194318    2.094719    0.515900    0.018808   -0.028912    0.004848
H    -3.727224    0.239716    0.783434    0.007478   -0.000376   -0.017064
H    -1.631861   -2.790099    0.872663   -0.001928    0.007138   -0.015228
H     1.961296   -2.267570    0.495878   -0.004072   -0.000858   -0.000942
H     3.545884   -0.094207    0.549598   -0.001032   -0.000040   -0.005226
H     3.916958    2.459281    1.741881    0.000946    0.000514   -0.001792
H     2.861013    3.417890    2.819010   -0.000240    0.002568   -0.000974
H    -5.339598   -0.084117    2.665864   -0.000930   -0.001392   -0.002380
H    -5.096285    1.631449    2.280555   -0.000266    0.001018   -0.001892
H    -3.986636   -2.769385    1.701905    0.001606    0.000794   -0.003146
H    -2.960778   -3.949400    2.559567   -0.000128   -0.004070   -0.001074
H     5.090532    0.110228    2.536020    0.001508    0.001176   -0.001256
H     4.736210   -1.589369    2.122554    0.001456   -0.001502   -0.001380
H     3.759522    5.268292    1.777678    0.000730    0.000044    0.000244
H    -7.311619    0.051168    1.544000   -0.000420   -0.000004    0.000668
H    -3.932418   -5.546308    1.228255    0.000700   -0.001506    0.001620
H     7.090760   -0.178132    1.496085    0.000254   -0.000968    0.000180
C     1.007616   -1.187727    3.868821   -0.011428   -0.001770   -0.009850
H     1.616397   -0.709422    4.628202   -0.016396    0.022872   -0.021632
H     0.236714   -1.800896    4.317671   -0.011560    0.002806    0.006924
O     0.575920   -3.796495    2.812873   -0.000206    0.001590   -0.000144
C    -0.138444    1.082746    3.507315   -0.002948   -0.003182   -0.008118
H    -0.961930    0.877475    4.183858    0.004220   -0.013168    0.003140
H     0.649611    1.609235    4.033613    0.004158   -0.016424    0.007824
O    -2.332583    2.695918    3.604762    0.001762   -0.001196    0.000174
C     0.364908   -0.216029    2.865355    0.002388    0.029248    0.005038
O    -0.470720   -0.851845    2.079577   -0.003658   -0.016256   -0.043114
H    -1.154533   -0.188483    0.513675    0.612334   -0.318706    1.872162
O    -1.400071    0.181556    0.089564   -0.014568    0.024216   -0.059994
H     0.276791    0.191011   -0.490817   -0.039088   -0.019232    0.044122
O     1.247180    0.049715   -0.383439   -0.001538   -0.000338    0.000076
H     1.420098    0.246201    1.019841    0.015942    0.004262   -0.015496
O     1.627305    0.310986    2.064350   -0.003962   -0.001240    0.001084
H     2.281802   -0.405143    2.201442    0.006746    0.000712   -0.002992
H     1.707466    0.783798   -0.822570   -0.006152    0.001560    0.002790
H    -1.949269   -0.507933   -0.325004    0.006348    0.020320   -0.035686
139
* Frequency(6) -1771.3800
C     0.523360    4.841383   -0.019581   -0.000006    0.000118   -0.000254
C    -4.509220    3.327786    0.319022    0.000428   -0.000160    0.001464
C    -4.882577   -1.726960   -0.739694   -0.001376   -0.000140   -0.000394
C    -0.649064   -4.848733   -0.485258    0.000550    0.000840   -0.000814
C     4.328978   -3.346208    0.141678    0.000398   -0.000164    0.000824
C     4.746231    1.766602   -0.889404    0.000936   -0.000100    0.000098
O    -0.440839    3.820991    0.120329    0.000390   -0.000186    0.000972
O    -4.327543    2.332841   -0.640541   -0.001148   -0.000372   -0.000824
O    -3.478470   -1.849063   -0.813959   -0.002510   -0.001134   -0.000874
O     0.322507   -3.885101   -0.180754   -0.001360    0.000062    0.000158
O     4.063218   -2.276810   -0.710353    0.000024    0.000390    0.000010
O     3.346873    1.942444   -0.887533   -0.000308    0.000186    0.000380
C     1.084342    4.850125   -1.456252    0.000136   -0.000102    0.000302
C    -4.087874    4.662449   -0.315650    0.000256   -0.000138    0.000028
C    -5.390558   -0.955191   -1.968363   -0.000180    0.000458    0.000424
C    -1.191116   -4.585240   -1.903325    0.000290   -0.000172    0.000088
C     3.975731   -4.630697   -0.631621    0.000126   -0.000012    0.000270
C     5.145545    0.970476   -2.143424    0.000104   -0.000266    0.000352
O     0.113707    5.047762   -2.447194    0.000030    0.000206   -0.000382
O    -4.830807    4.974122   -1.459317   -0.000018   -0.000066   -0.000084
O    -5.080357   -1.591088   -3.176442    0.000106   -0.000186   -0.000126
O    -0.191001   -4.595012   -2.884197   -0.000292   -0.000026   -0.000160
O     4.766037   -4.790286   -1.775393    0.000200   -0.000000    0.000152
O     4.751232    1.606710   -3.329165   -0.000064    0.000212   -0.000330
C     1.746692    3.491937   -1.708538   -0.000080    0.000080    0.000588
C    -2.590188    4.609139   -0.650759    0.000006   -0.000304    0.000208
C    -4.813219    0.464431   -1.918955   -0.000450   -0.000230    0.000392
C    -1.852310   -3.202256   -1.902580    0.000360   -0.000646   -0.000096
C     2.487759   -4.570092   -1.011171    0.000098    0.000130    0.000146
C     4.563944   -0.450852   -2.054391    0.000092    0.000068    0.000310
O     2.348682    3.413195   -2.976605   -0.000030    0.000228   -0.000358
O    -2.154177    5.877290   -1.097215   -0.000086   -0.000198    0.000074
O    -5.335735    1.259768   -2.951993    0.000150   -0.000388    0.000172
O    -2.450494   -2.900835   -3.138486   -0.000206   -0.000050   -0.000072
O     2.078908   -5.758902   -1.655371   -0.000212   -0.000072   -0.000024
O     5.057943   -1.266595   -3.089123    0.000054    0.000052   -0.000110
C     2.829095    3.245676   -0.653891    0.000316   -0.000274   -0.000058
C    -1.732248    4.185829    0.557164   -0.000096   -0.000850   -0.001058
C    -5.127608    1.157523   -0.585550    0.000506   -0.000080    0.000322
C    -2.937066   -3.162470   -0.823716    0.000588   -0.000354    0.000546
C     1.603436   -4.338602    0.224602    0.000820   -0.000250    0.000080
C     4.909824   -1.131337   -0.721060    0.000112   -0.000028    0.000096
C     2.236152    3.392725    0.760924    0.000168   -0.000076   -0.000010
C    -2.360761    2.935460    1.206942    0.001734   -0.000646    0.000894
C    -4.811062    0.250634    0.621648    0.000028    0.000372    0.000562
C    -2.347510   -3.553771    0.542583   -0.000014   -0.000402    0.000352
C     2.171267   -3.190541    1.070345   -0.000080   -0.000274    0.000950
C     4.631218   -0.188579    0.463250   -0.000058   -0.000072    0.000140
O     1.566733    4.652736    0.891062   -0.000366   -0.000274   -0.000292
O    -3.733863    3.113657    1.475463   -0.000088    0.000074   -0.000734
O    -5.283565   -1.085556    0.430715   -0.000092    0.000194   -0.000810
O    -1.695721   -4.817647    0.445558   -0.000154    0.000400   -0.000196
O     3.554948   -3.290753    1.327643    0.000142    0.000238   -0.000578
O     5.191141    1.110489    0.257876   -0.000430    0.000418   -0.000534
C     3.335019    3.377201    1.832568    0.000134   -0.000010    0.000264
C    -1.763230    2.532877    2.543755   -0.004636    0.003904   -0.003192
C    -5.517106    0.695331    1.915849   -0.000372   -0.000022    0.000242
C    -3.441872   -3.710173    1.604815    0.000168   -0.000684    0.000314
C     1.442064   -3.062263    2.401310    0.000630   -0.005430   -0.001964
C     5.237067   -0.679309    1.790152   -0.000060    0.000010    0.000408
O     4.243829    4.437716    1.670496    0.000064    0.000112   -0.000036
O    -0.591104    1.904512    2.408931    0.001704   -0.000778    0.000156
O    -6.891569    0.904612    1.725912    0.000132   -0.000206   -0.000020
O    -4.384063   -4.689699    1.252892   -0.000100   -0.000224    0.000132
O     1.926604   -1.994255    3.089069   -0.002404    0.002346    0.000268
O     6.601955   -0.995773    1.667395    0.000052    0.000064    0.000036
H     0.093284    5.820622    0.223071   -0.001316   -0.000016   -0.001134
H    -5.549367    3.369321    0.667935   -0.000834   -0.001566   -0.000414
H    -5.352987   -2.717106   -0.692144    0.000732   -0.002732   -0.000576
H    -0.234085   -5.861757   -0.417245    0.000254    0.000168   -0.001116
H     5.372655   -3.360673    0.477520    0.000704   -0.000248   -0.000508
H     5.257710    2.736962   -0.882327   -0.000396    0.000382   -0.001340
H     1.844831    5.646434   -1.510438   -0.000060   -0.000194   -0.002370
H    -4.270716    5.463545    0.408660   -0.000274    0.000668   -0.000652
H    -6.483881   -0.899418   -1.921728   -0.000346    0.001326   -0.001532
H    -1.952362   -5.350301   -2.126464   -0.002062    0.002644   -0.002130
H     4.163491   -5.500091    0.006107    0.000284   -0.001102   -0.001144
H     6.238934    0.898478   -2.176869   -0.000062   -0.000060   -0.001476
H    -0.637078    5.552531   -2.080311    0.000578    0.001104    0.001390
H    -4.902069    4.181934   -2.016877   -0.000974    0.001196    0.000714
H    -4.159668   -1.918224   -3.167077   -0.001530    0.000158    0.000466
H     0.525580   -5.203143   -2.621632    0.001232   -0.001680    0.003332
H     4.791976   -3.949408   -2.263214   -0.000344   -0.000564    0.000656
H     3.889535    2.047035   -3.207581    0.001190   -0.001076   -0.000170
H     0.958220    2.730979   -1.614742   -0.002516   -0.000960   -0.000822
H    -2.437314    3.859533   -1.441409   -0.000220   -0.003816    0.002108
H    -3.717802    0.403986   -2.008450    0.002476   -0.004062    0.006854
H    -1.079560   -2.457836   -1.662697   -0.008010    0.007922    0.003286
H     2.339723   -3.714232   -1.687150   -0.000964    0.000492    0.000246
H     3.467419   -0.393116   -2.116170   -0.000848    0.001212   -0.000600
H     1.732719    3.781527   -3.628685    0.001308   -0.000164   -0.000264
H    -2.872888    6.268370   -1.623721   -0.000306    0.000776    0.000342
H    -5.352889    0.727423   -3.764175   -0.001516   -0.000064   -0.000796
H    -1.818074   -3.122182   -3.840953    0.002336   -0.002416    0.000702
H     2.822416   -6.068298   -2.200923    0.000062    0.000112    0.000630
H     4.990687   -0.773529   -3.921588    0.000732   -0.001000    0.000274
H     3.623170    3.991320   -0.785102   -0.000610   -0.000048   -0.002024
H    -1.688077    5.010662    1.281007    0.000700    0.000256   -0.000974
H    -6.190141    1.438061   -0.559040   -0.000020    0.001664   -0.001654
H    -3.719921   -3.884934   -1.087411   -0.002570    0.001940   -0.003608
H     1.522380   -5.259582    0.815074   -0.000654   -0.001866   -0.002482
H     5.962447   -1.440644   -0.724060    0.000048   -0.000056   -0.001490
H     1.513743    2.591754    0.949284   -0.003048    0.000152   -0.005902
H    -2.194139    2.094444    0.515946    0.018808   -0.028912    0.004848
H    -3.727153    0.239713    0.783272    0.007478   -0.000376   -0.017064
H    -1.631879   -2.790031    0.872518   -0.001928    0.007138   -0.015228
H     1.961258   -2.267578    0.495869   -0.004072   -0.000858   -0.000942
H     3.545874   -0.094207    0.549548   -0.001032   -0.000040   -0.005226
H     3.916967    2.459286    1.741864    0.000946    0.000514   -0.001792
H     2.861010    3.417915    2.819000   -0.000240    0.002568   -0.000974
H    -5.339606   -0.084131    2.665842   -0.000930   -0.001392   -0.002380
H    -5.096288    1.631459    2.280537   -0.000266    0.001018   -0.001892
H    -3.986621   -2.769377    1.701875    0.001606    0.000794   -0.003146
H    -2.960780   -3.949439    2.559556   -0.000128   -0.004070   -0.001074
H     5.090546    0.110239    2.536008    0.001508    0.001176   -0.001256
H     4.736224   -1.589383    2.122541    0.001456   -0.001502   -0.001380
H     3.759529    5.268292    1.777680    0.000730    0.000044    0.000244
H    -7.311622    0.051168    1.544006   -0.000420   -0.000004    0.000668
H    -3.932412   -5.546322    1.228270    0.000700   -0.001506    0.001620
H     7.090763   -0.178142    1.496087    0.000254   -0.000968    0.000180
C     1.007507   -1.187743    3.868727   -0.011428   -0.001770   -0.009850
H     1.616241   -0.709204    4.627997   -0.016396    0.022872   -0.021632
H     0.236604   -1.800869    4.317737   -0.011560    0.002806    0.006924
O     0.575918   -3.796479    2.812872   -0.000206    0.001590   -0.000144
C    -0.138472    1.082716    3.507237   -0.002948   -0.003182   -0.008118
H    -0.961890    0.877350    4.183888    0.004220   -0.013168    0.003140
H     0.649650    1.609079    4.033687    0.004158   -0.016424    0.007824
O    -2.332566    2.695907    3.604764    0.001762   -0.001196    0.000174
C     0.364931   -0.215751    2.865403    0.002388    0.029248    0.005038
O    -0.470755   -0.852000    2.079167   -0.003658   -0.016256   -0.043114
H    -1.148707   -0.191515    0.531488    0.612334   -0.318706    1.872162
O    -1.400209    0.181787    0.088993   -0.014568    0.024216   -0.059994
H     0.276419    0.190828   -0.490397   -0.039088   -0.019232    0.044122
O     1.247166    0.049712   -0.383438   -0.001538   -0.000338    0.000076
H     1.420250    0.246242    1.019694    0.015942    0.004262   -0.015496
O     1.627267    0.310974    2.064360   -0.003962   -0.001240    0.001084
H     2.281866   -0.405137    2.201413    0.006746    0.000712   -0.002992
H     1.707407    0.783813   -0.822544   -0.006152    0.001560    0.002790
H    -1.949209   -0.507739   -0.325343    0.006348    0.020320   -0.035686
139
* Frequency(6) -1771.3800
C     0.523360    4.841388   -0.019593   -0.000006    0.000118   -0.000254
C    -4.509200    3.327779    0.319090    0.000428   -0.000160    0.001464
C    -4.882641   -1.726967   -0.739713   -0.001376   -0.000140   -0.000394
C    -0.649038   -4.848694   -0.485295    0.000550    0.000840   -0.000814
C     4.328996   -3.346216    0.141717    0.000398   -0.000164    0.000824
C     4.746275    1.766597   -0.889400    0.000936   -0.000100    0.000098
O    -0.440821    3.820982    0.120374    0.000390   -0.000186    0.000972
O    -4.327597    2.332824   -0.640580   -0.001148   -0.000372   -0.000824
O    -3.478587   -1.849116   -0.814000   -0.002510   -0.001134   -0.000874
O     0.322444   -3.885098   -0.180746   -0.001360    0.000062    0.000158
O     4.063219   -2.276792   -0.710353    0.000024    0.000390    0.000010
O     3.346858    1.942453   -0.887515   -0.000308    0.000186    0.000380
C     1.084348    4.850120   -1.456238    0.000136   -0.000102    0.000302
C    -4.087862    4.662442   -0.315648    0.000256   -0.000138    0.000028
C    -5.390566   -0.955170   -1.968343   -0.000180    0.000458    0.000424
C    -1.191103   -4.585248   -1.903321    0.000290   -0.000172    0.000088
C     3.975737   -4.630697   -0.631608    0.000126   -0.000012    0.000270
C     5.145550    0.970464   -2.143408    0.000104   -0.000266    0.000352
O     0.113708    5.047772   -2.447212    0.000030    0.000206   -0.000382
O    -4.830808    4.974119   -1.459321   -0.000018   -0.000066   -0.000084
O    -5.080352   -1.591097   -3.176448    0.000106   -0.000186   -0.000126
O    -0.191014   -4.595013   -2.884204   -0.000292   -0.000026   -0.000160
O     4.766046   -4.790286   -1.775386    0.000200   -0.000000    0.000152
O     4.751229    1.606720   -3.329180   -0.000064    0.000212   -0.000330
C     1.746688    3.491941   -1.708510   -0.000080    0.000080    0.000588
C    -2.590188    4.609125   -0.650749    0.000006   -0.000304    0.000208
C    -4.813240    0.464420   -1.918937   -0.000450   -0.000230    0.000392
C    -1.852293   -3.202286   -1.902585    0.000360   -0.000646   -0.000096
C     2.487763   -4.570086   -1.011164    0.000098    0.000130    0.000146
C     4.563948   -0.450849   -2.054377    0.000092    0.000068    0.000310
O     2.348681    3.413205   -2.976621   -0.000030    0.000228   -0.000358
O    -2.154181    5.877281   -1.097212   -0.000086   -0.000198    0.000074
O    -5.335728    1.259750   -2.951985    0.000150   -0.000388    0.000172
O    -2.450504   -2.900837   -3.138489   -0.000206   -0.000050   -0.000072
O     2.078898   -5.758905   -1.655372   -0.000212   -0.000072   -0.000024
O     5.057945   -1.266592   -3.089128    0.000054    0.000052   -0.000110
C     2.829109    3.245663   -0.653894    0.000316   -0.000274   -0.000058
C    -1.732253    4.185790    0.557115   -0.000096   -0.000850   -0.001058
C    -5.127584    1.157519   -0.585535    0.000506   -0.000080    0.000322
C    -2.937038   -3.162486   -0.823691    0.000588   -0.000354    0.000546
C     1.603474   -4.338614    0.224606    0.000820   -0.000250    0.000080
C     4.909829   -1.131339   -0.721055    0.000112   -0.000028    0.000096
C     2.236160    3.392721    0.760924    0.000168   -0.000076   -0.000010
C    -2.360681    2.935430    1.206983    0.001734   -0.000646    0.000894
C    -4.811060    0.250651    0.621674    0.000028    0.000372    0.000562
C    -2.347511   -3.553789    0.542599   -0.000014   -0.000402    0.000352
C     2.171263   -3.190554    1.070389   -0.000080   -0.000274    0.000950
C     4.631215   -0.188582    0.463257   -0.000058   -0.000072    0.000140
O     1.566716    4.652723    0.891049   -0.000366   -0.000274   -0.000292
O    -3.733867    3.113660    1.475429   -0.000088    0.000074   -0.000734
O    -5.283569   -1.085547    0.430677   -0.000092    0.000194   -0.000810
O    -1.695728   -4.817628    0.445548   -0.000154    0.000400   -0.000196
O     3.554954   -3.290742    1.327616    0.000142    0.000238   -0.000578
O     5.191121    1.110509    0.257851   -0.000430    0.000418   -0.000534
C     3.335025    3.377201    1.832581    0.000134   -0.000010    0.000264
C    -1.763445    2.533058    2.543607   -0.004636    0.003904   -0.003192
C    -5.517123    0.695330    1.915860   -0.000372   -0.000022    0.000242
C    -3.441864   -3.710205    1.604830    0.000168   -0.000684    0.000314
C     1.442093   -3.062514    2.401219    0.000630   -0.005430   -0.001964
C     5.237065   -0.679309    1.790170   -0.000060    0.000010    0.000408
O     4.243832    4.437721    1.670495    0.000064    0.000112   -0.000036
O    -0.591025    1.904476    2.408938    0.001704   -0.000778    0.000156
O    -6.891563    0.904602    1.725911    0.000132   -0.000206   -0.000020
O    -4.384068   -4.689709    1.252898   -0.000100   -0.000224    0.000132
O     1.926492   -1.994146    3.089081   -0.002404    0.002346    0.000268
O     6.601958   -0.995770    1.667396    0.000052    0.000064    0.000036
H     0.093223    5.820622    0.223018   -0.001316   -0.000016   -0.001134
H    -5.549406    3.369249    0.667916   -0.000834   -0.001566   -0.000414
H    -5.352953   -2.717233   -0.692170    0.000732   -0.002732   -0.000576
H    -0.234073   -5.861749   -0.417297    0.000254    0.000168   -0.001116
H     5.372688   -3.360684    0.477497    0.000704   -0.000248   -0.000508
H     5.257692    2.736980   -0.882389   -0.000396    0.000382   -0.001340
H     1.844829    5.646425   -1.510548   -0.000060   -0.000194   -0.002370
H    -4.270729    5.463576    0.408630   -0.000274    0.000668   -0.000652
H    -6.483897   -0.899357   -1.921799   -0.000346    0.001326   -0.001532
H    -1.952458   -5.350179   -2.126563   -0.002062    0.002644   -0.002130
H     4.163504   -5.500142    0.006054    0.000284   -0.001102   -0.001144
H     6.238931    0.898476   -2.176938   -0.000062   -0.000060   -0.001476
H    -0.637051    5.552583   -2.080246    0.000578    0.001104    0.001390
H    -4.902114    4.181990   -2.016844   -0.000974    0.001196    0.000714
H    -4.159739   -1.918216   -3.167056   -0.001530    0.000158    0.000466
H     0.525637   -5.203221   -2.621477    0.001232   -0.001680    0.003332
H     4.791960   -3.949434   -2.263183   -0.000344   -0.000564    0.000656
H     3.889590    2.046985   -3.207589    0.001190   -0.001076   -0.000170
H     0.958103    2.730934   -1.614780   -0.002516   -0.000960   -0.000822
H    -2.437325    3.859356   -1.441312   -0.000220   -0.003816    0.002108
H    -3.717687    0.403798   -2.008133    0.002476   -0.004062    0.006854
H    -1.079931   -2.457469   -1.662545   -0.008010    0.007922    0.003286
H     2.339678   -3.714209   -1.687139   -0.000964    0.000492    0.000246
H     3.467379   -0.393060   -2.116198   -0.000848    0.001212   -0.000600
H     1.732780    3.781519   -3.628698    0.001308   -0.000164   -0.000264
H    -2.872902    6.268406   -1.623705   -0.000306    0.000776    0.000342
H    -5.352959    0.727420   -3.764212   -0.001516   -0.000064   -0.000796
H    -1.817965   -3.122294   -3.840921    0.002336   -0.002416    0.000702
H     2.822419   -6.068293   -2.200894    0.000062    0.000112    0.000630
H     4.990721   -0.773575   -3.921575    0.000732   -0.001000    0.000274
H     3.623142    3.991318   -0.785196   -0.000610   -0.000048   -0.002024
H    -1.688044    5.010674    1.280962    0.000700    0.000256   -0.000974
H    -6.190142    1.438138   -0.559116   -0.000020    0.001664   -0.001654
H    -3.720040   -3.884844   -1.087578   -0.002570    0.001940   -0.003608
H     1.522350   -5.259668    0.814959   -0.000654   -0.001866   -0.002482
H     5.962449   -1.440647   -0.724129    0.000048   -0.000056   -0.001490
H     1.513602    2.591761    0.949011   -0.003048    0.000152   -0.005902
H    -2.193269    2.093105    0.516170    0.018808   -0.028912    0.004848
H    -3.726807    0.239695    0.782482    0.007478   -0.000376   -0.017064
H    -1.631968   -2.789700    0.871813   -0.001928    0.007138   -0.015228
H     1.961069   -2.267618    0.495825   -0.004072   -0.000858   -0.000942
H     3.545826   -0.094209    0.549306   -0.001032   -0.000040   -0.005226
H     3.917011    2.459309    1.741781    0.000946    0.000514   -0.001792
H     2.860999    3.418034    2.818955   -0.000240    0.002568   -0.000974
H    -5.339650   -0.084195    2.665731   -0.000930   -0.001392   -0.002380
H    -5.096300    1.631506    2.280449   -0.000266    0.001018   -0.001892
H    -3.986547   -2.769341    1.701730    0.001606    0.000794   -0.003146
H    -2.960785   -3.949627    2.559507   -0.000128   -0.004070   -0.001074
H     5.090616    0.110293    2.535950    0.001508    0.001176   -0.001256
H     4.736291   -1.589453    2.122477    0.001456   -0.001502   -0.001380
H     3.759563    5.268294    1.777692    0.000730    0.000044    0.000244
H    -7.311642    0.051168    1.544037   -0.000420   -0.000004    0.000668
H    -3.932379   -5.546392    1.228345    0.000700   -0.001506    0.001620
H     7.090775   -0.178186    1.496095    0.000254   -0.000968    0.000180
C     1.006978   -1.187825    3.868271   -0.011428   -0.001770   -0.009850
H     1.615482   -0.708146    4.626995   -0.016396    0.022872   -0.021632
H     0.236069   -1.800739    4.318057   -0.011560    0.002806    0.006924
O     0.575908   -3.796406    2.812865   -0.000206    0.001590   -0.000144
C    -0.138608    1.082568    3.506862   -0.002948   -0.003182   -0.008118
H    -0.961694    0.876740    4.184033    0.004220   -0.013168    0.003140
H     0.649843    1.608318    4.034050    0.004158   -0.016424    0.007824
O    -2.332484    2.695851    3.604772    0.001762   -0.001196    0.000174
C     0.365041   -0.214397    2.865636    0.002388    0.029248    0.005038
O    -0.470924   -0.852752    2.077172   -0.003658   -0.016256   -0.043114
H    -1.120367   -0.206266    0.618135    0.612334   -0.318706    1.872162
O    -1.400883    0.182908    0.086217   -0.014568    0.024216   -0.059994
H     0.274610    0.189938   -0.488355   -0.039088   -0.019232    0.044122
O     1.247095    0.049696   -0.383434   -0.001538   -0.000338    0.000076
H     1.420988    0.246439    1.018976    0.015942    0.004262   -0.015496
O     1.627084    0.310916    2.064410   -0.003962   -0.001240    0.001084
H     2.282178   -0.405104    2.201275    0.006746    0.000712   -0.002992
H     1.707123    0.783885   -0.822414   -0.006152    0.001560    0.002790
H    -1.948915   -0.506799   -0.326995    0.006348    0.020320   -0.035686
139
* Frequency(6) -1771.3800
C     0.523359    4.841398   -0.019612   -0.000006    0.000118   -0.000254
C    -4.509167    3.327766    0.319204    0.000428   -0.000160    0.001464
C    -4.882748   -1.726978   -0.739743   -0.001376   -0.000140   -0.000394
C    -0.648995   -4.848629   -0.485359    0.000550    0.000840   -0.000814
C     4.329027   -3.346229    0.141781    0.000398   -0.000164    0.000824
C     4.746348    1.766589   -0.889392    0.000936   -0.000100    0.000098
O    -0.440791    3.820968    0.120450    0.000390   -0.000186    0.000972
O    -4.327686    2.332795   -0.640644   -0.001148   -0.000372   -0.000824
O    -3.478782   -1.849204   -0.814068   -0.002510   -0.001134   -0.000874
O     0.322338   -3.885093   -0.180734   -0.001360    0.000062    0.000158
O     4.063221   -2.276762   -0.710352    0.000024    0.000390    0.000010
O     3.346834    1.942467   -0.887486   -0.000308    0.000186    0.000380
C     1.084359    4.850112   -1.456215    0.000136   -0.000102    0.000302
C    -4.087842    4.662432   -0.315646    0.000256   -0.000138    0.000028
C    -5.390580   -0.955134   -1.968310   -0.000180    0.000458    0.000424
C    -1.191080   -4.585261   -1.903314    0.000290   -0.000172    0.000088
C     3.975747   -4.630698   -0.631587    0.000126   -0.000012    0.000270
C     5.145558    0.970443   -2.143381    0.000104   -0.000266    0.000352
O     0.113711    5.047788   -2.447242    0.000030    0.000206   -0.000382
O    -4.830809    4.974114   -1.459328   -0.000018   -0.000066   -0.000084
O    -5.080344   -1.591111   -3.176458    0.000106   -0.000186   -0.000126
O    -0.191037   -4.595015   -2.884217   -0.000292   -0.000026   -0.000160
O     4.766062   -4.790286   -1.775374    0.000200   -0.000000    0.000152
O     4.751224    1.606736   -3.329206   -0.000064    0.000212   -0.000330
C     1.746682    3.491947   -1.708464   -0.000080    0.000080    0.000588
C    -2.590187    4.609101   -0.650733    0.000006   -0.000304    0.000208
C    -4.813275    0.464402   -1.918906   -0.000450   -0.000230    0.000392
C    -1.852265   -3.202336   -1.902592    0.000360   -0.000646   -0.000096
C     2.487771   -4.570076   -1.011152    0.000098    0.000130    0.000146
C     4.563955   -0.450844   -2.054353    0.000092    0.000068    0.000310
O     2.348678    3.413223   -2.976649   -0.000030    0.000228   -0.000358
O    -2.154188    5.877266   -1.097206   -0.000086   -0.000198    0.000074
O    -5.335716    1.259719   -2.951972    0.000150   -0.000388    0.000172
O    -2.450520   -2.900841   -3.138495   -0.000206   -0.000050   -0.000072
O     2.078882   -5.758911   -1.655374   -0.000212   -0.000072   -0.000024
O     5.057949   -1.266588   -3.089136    0.000054    0.000052   -0.000110
C     2.829134    3.245642   -0.653899    0.000316   -0.000274   -0.000058
C    -1.732260    4.185724    0.557032   -0.000096   -0.000850   -0.001058
C    -5.127545    1.157513   -0.585510    0.000506   -0.000080    0.000322
C    -2.936992   -3.162514   -0.823648    0.000588   -0.000354    0.000546
C     1.603538   -4.338633    0.224612    0.000820   -0.000250    0.000080
C     4.909838   -1.131341   -0.721048    0.000112   -0.000028    0.000096
C     2.236173    3.392715    0.760923    0.000168   -0.000076   -0.000010
C    -2.360546    2.935380    1.207053    0.001734   -0.000646    0.000894
C    -4.811058    0.250680    0.621718    0.000028    0.000372    0.000562
C    -2.347512   -3.553821    0.542626   -0.000014   -0.000402    0.000352
C     2.171257   -3.190575    1.070463   -0.000080   -0.000274    0.000950
C     4.631210   -0.188588    0.463268   -0.000058   -0.000072    0.000140
O     1.566688    4.652702    0.891026   -0.000366   -0.000274   -0.000292
O    -3.733874    3.113666    1.475372   -0.000088    0.000074   -0.000734
O    -5.283576   -1.085532    0.430614   -0.000092    0.000194   -0.000810
O    -1.695740   -4.817597    0.445533   -0.000154    0.000400   -0.000196
O     3.554965   -3.290723    1.327571    0.000142    0.000238   -0.000578
O     5.191087    1.110541    0.257810   -0.000430    0.000418   -0.000534
C     3.335035    3.377200    1.832601    0.000134   -0.000010    0.000264
C    -1.763806    2.533363    2.543358   -0.004636    0.003904   -0.003192
C    -5.517152    0.695329    1.915879   -0.000372   -0.000022    0.000242
C    -3.441851   -3.710258    1.604854    0.000168   -0.000684    0.000314
C     1.442143   -3.062938    2.401066    0.000630   -0.005430   -0.001964
C     5.237060   -0.679308    1.790202   -0.000060    0.000010    0.000408
O     4.243837    4.437730    1.670492    0.000064    0.000112   -0.000036
O    -0.590892    1.904415    2.408950    0.001704   -0.000778    0.000156
O    -6.891552    0.904586    1.725909    0.000132   -0.000206   -0.000020
O    -4.384076   -4.689727    1.252909   -0.000100   -0.000224    0.000132
O     1.926305   -1.993963    3.089102   -0.002404    0.002346    0.000268
O     6.601962   -0.995765    1.667399    0.000052    0.000064    0.000036
H     0.093120    5.820620    0.222930   -0.001316   -0.000016   -0.001134
H    -5.549471    3.369127    0.667884   -0.000834   -0.001566   -0.000414
H    -5.352896   -2.717446   -0.692215    0.000732   -0.002732   -0.000576
H    -0.234054   -5.861736   -0.417384    0.000254    0.000168   -0.001116
H     5.372743   -3.360704    0.477457    0.000704   -0.000248   -0.000508
H     5.257661    2.737010   -0.882494   -0.000396    0.000382   -0.001340
H     1.844824    5.646410   -1.510733   -0.000060   -0.000194   -0.002370
H    -4.270750    5.463628    0.408579   -0.000274    0.000668   -0.000652
H    -6.483924   -0.899253   -1.921919   -0.000346    0.001326   -0.001532
H    -1.952619   -5.349972   -2.126729   -0.002062    0.002644   -0.002130
H     4.163526   -5.500228    0.005965    0.000284   -0.001102   -0.001144
H     6.238926    0.898471   -2.177053   -0.000062   -0.000060   -0.001476
H    -0.637006    5.552669   -2.080138    0.000578    0.001104    0.001390
H    -4.902190    4.182083   -2.016788   -0.000974    0.001196    0.000714
H    -4.159858   -1.918204   -3.167019   -0.001530    0.000158    0.000466
H     0.525733   -5.203352   -2.621217    0.001232   -0.001680    0.003332
H     4.791933   -3.949478   -2.263132   -0.000344   -0.000564    0.000656
H     3.889683    2.046901   -3.207602    0.001190   -0.001076   -0.000170
H     0.957907    2.730859   -1.614844   -0.002516   -0.000960   -0.000822
H    -2.437342    3.859058   -1.441147   -0.000220   -0.003816    0.002108
H    -3.717494    0.403481   -2.007598    0.002476   -0.004062    0.006854
H    -1.080556   -2.456851   -1.662288   -0.008010    0.007922    0.003286
H     2.339603   -3.714171   -1.687120   -0.000964    0.000492    0.000246
H     3.467313   -0.392966   -2.116245   -0.000848    0.001212   -0.000600
H     1.732882    3.781506   -3.628718    0.001308   -0.000164   -0.000264
H    -2.872926    6.268466   -1.623679   -0.000306    0.000776    0.000342
H    -5.353077    0.727415   -3.764274   -0.001516   -0.000064   -0.000796
H    -1.817783   -3.122483   -3.840866    0.002336   -0.002416    0.000702
H     2.822424   -6.068284   -2.200844    0.000062    0.000112    0.000630
H     4.990778   -0.773653   -3.921554    0.000732   -0.001000    0.000274
H     3.623094    3.991314   -0.785354   -0.000610   -0.000048   -0.002024
H    -1.687989    5.010694    1.280886    0.000700    0.000256   -0.000974
H    -6.190144    1.438268   -0.559245   -0.000020    0.001664   -0.001654
H    -3.720241   -3.884693   -1.087859   -0.002570    0.001940   -0.003608
H     1.522299   -5.259814    0.814766   -0.000654   -0.001866   -0.002482
H     5.962453   -1.440651   -0.724246    0.000048   -0.000056   -0.001490
H     1.513364    2.591773    0.948551   -0.003048    0.000152   -0.005902
H    -2.191801    2.090849    0.516549    0.018808   -0.028912    0.004848
H    -3.726224    0.239666    0.781150    0.007478   -0.000376   -0.017064
H    -1.632119   -2.789143    0.870625   -0.001928    0.007138   -0.015228
H     1.960751   -2.267685    0.495752   -0.004072   -0.000858   -0.000942
H     3.545746   -0.094212    0.548898   -0.001032   -0.000040   -0.005226
H     3.917085    2.459350    1.741641    0.000946    0.000514   -0.001792
H     2.860981    3.418234    2.818879   -0.000240    0.002568   -0.000974
H    -5.339722   -0.084304    2.665546   -0.000930   -0.001392   -0.002380
H    -5.096321    1.631585    2.280302   -0.000266    0.001018   -0.001892
H    -3.986421   -2.769279    1.701484    0.001606    0.000794   -0.003146
H    -2.960795   -3.949945    2.559423   -0.000128   -0.004070   -0.001074
H     5.090734    0.110385    2.535852    0.001508    0.001176   -0.001256
H     4.736405   -1.589570    2.122370    0.001456   -0.001502   -0.001380
H     3.759620    5.268298    1.777711    0.000730    0.000044    0.000244
H    -7.311675    0.051168    1.544089   -0.000420   -0.000004    0.000668
H    -3.932324   -5.546509    1.228472    0.000700   -0.001506    0.001620
H     7.090794   -0.178262    1.496109    0.000254   -0.000968    0.000180
C     1.006087   -1.187963    3.867502   -0.011428   -0.001770   -0.009850
H     1.614203   -0.706361    4.625307   -0.016396    0.022872   -0.021632
H     0.235167   -1.800520    4.318598   -0.011560    0.002806    0.006924
O     0.575892   -3.796282    2.812854   -0.000206    0.001590   -0.000144
C    -0.138838    1.082320    3.506228   -0.002948   -0.003182   -0.008118
H    -0.961365    0.875713    4.184278    0.004220   -0.013168    0.003140
H     0.650167    1.607037    4.034660    0.004158   -0.016424    0.007824
O    -2.332347    2.695758    3.604786    0.001762   -0.001196    0.000174
C     0.365228   -0.212115    2.866029    0.002388    0.029248    0.005038
O    -0.471210   -0.854020    2.073807   -0.003658   -0.016256   -0.043114
H    -1.072584   -0.231135    0.764227    0.612334   -0.318706    1.872162
O    -1.402020    0.184797    0.081535   -0.014568    0.024216   -0.059994
H     0.271560    0.188437   -0.484912   -0.039088   -0.019232    0.044122
O     1.246975    0.049670   -0.383428   -0.001538   -0.000338    0.000076
H     1.422232    0.246772    1.017767    0.015942    0.004262   -0.015496
O     1.626775    0.310820    2.064495   -0.003962   -0.001240    0.001084
H     2.282705   -0.405048    2.201041    0.006746    0.000712   -0.002992
H     1.706643    0.784007   -0.822197   -0.006152    0.001560    0.002790
H    -1.948420   -0.505213   -0.329779    0.006348    0.020320   -0.035686
139
* Frequency(6) -1771.3800
C     0.523359    4.841410   -0.019638   -0.000006    0.000118   -0.000254
C    -4.509124    3.327750    0.319353    0.000428   -0.000160    0.001464
C    -4.882888   -1.726992   -0.739783   -0.001376   -0.000140   -0.000394
C    -0.648940   -4.848543   -0.485441    0.000550    0.000840   -0.000814
C     4.329068   -3.346245    0.141864    0.000398   -0.000164    0.000824
C     4.746443    1.766579   -0.889382    0.000936   -0.000100    0.000098
O    -0.440751    3.820949    0.120549    0.000390   -0.000186    0.000972
O    -4.327803    2.332757   -0.640727   -0.001148   -0.000372   -0.000824
O    -3.479037   -1.849319   -0.814157   -0.002510   -0.001134   -0.000874
O     0.322201   -3.885087   -0.180718   -0.001360    0.000062    0.000158
O     4.063223   -2.276722   -0.710351    0.000024    0.000390    0.000010
O     3.346803    1.942486   -0.887447   -0.000308    0.000186    0.000380
C     1.084373    4.850102   -1.456184    0.000136   -0.000102    0.000302
C    -4.087816    4.662418   -0.315643    0.000256   -0.000138    0.000028
C    -5.390599   -0.955088   -1.968267   -0.000180    0.000458    0.000424
C    -1.191051   -4.585278   -1.903305    0.000290   -0.000172    0.000088
C     3.975760   -4.630700   -0.631560    0.000126   -0.000012    0.000270
C     5.145568    0.970416   -2.143345    0.000104   -0.000266    0.000352
O     0.113714    5.047809   -2.447281    0.000030    0.000206   -0.000382
O    -4.830811    4.974108   -1.459336   -0.000018   -0.000066   -0.000084
O    -5.080333   -1.591130   -3.176471    0.000106   -0.000186   -0.000126
O    -0.191067   -4.595018   -2.884233   -0.000292   -0.000026   -0.000160
O     4.766082   -4.790286   -1.775358    0.000200   -0.000000    0.000152
O     4.751217    1.606758   -3.329239   -0.000064    0.000212   -0.000330
C     1.746674    3.491955   -1.708405   -0.000080    0.000080    0.000588
C    -2.590187    4.609071   -0.650712    0.000006   -0.000304    0.000208
C    -4.813321    0.464379   -1.918867   -0.000450   -0.000230    0.000392
C    -1.852229   -3.202402   -1.902602    0.000360   -0.000646   -0.000096
C     2.487781   -4.570063   -1.011138    0.000098    0.000130    0.000146
C     4.563965   -0.450837   -2.054321    0.000092    0.000068    0.000310
O     2.348675    3.413246   -2.976685   -0.000030    0.000228   -0.000358
O    -2.154196    5.877246   -1.097198   -0.000086   -0.000198    0.000074
O    -5.335701    1.259680   -2.951955    0.000150   -0.000388    0.000172
O    -2.450541   -2.900846   -3.138502   -0.000206   -0.000050   -0.000072
O     2.078860   -5.758918   -1.655376   -0.000212   -0.000072   -0.000024
O     5.057955   -1.266583   -3.089147    0.000054    0.000052   -0.000110
C     2.829166    3.245614   -0.653904    0.000316   -0.000274   -0.000058
C    -1.732270    4.185638    0.556925   -0.000096   -0.000850   -0.001058
C    -5.127494    1.157505   -0.585478    0.000506   -0.000080    0.000322
C    -2.936933   -3.162550   -0.823593    0.000588   -0.000354    0.000546
C     1.603621   -4.338659    0.224620    0.000820   -0.000250    0.000080
C     4.909849   -1.131344   -0.721038    0.000112   -0.000028    0.000096
C     2.236190    3.392708    0.760922    0.000168   -0.000076   -0.000010
C    -2.360370    2.935314    1.207143    0.001734   -0.000646    0.000894
C    -4.811055    0.250718    0.621775    0.000028    0.000372    0.000562
C    -2.347513   -3.553861    0.542662   -0.000014   -0.000402    0.000352
C     2.171249   -3.190603    1.070559   -0.000080   -0.000274    0.000950
C     4.631205   -0.188595    0.463282   -0.000058   -0.000072    0.000140
O     1.566651    4.652674    0.890996   -0.000366   -0.000274   -0.000292
O    -3.733883    3.113674    1.475297   -0.000088    0.000074   -0.000734
O    -5.283586   -1.085512    0.430532   -0.000092    0.000194   -0.000810
O    -1.695755   -4.817556    0.445513   -0.000154    0.000400   -0.000196
O     3.554980   -3.290699    1.327513    0.000142    0.000238   -0.000578
O     5.191044    1.110583    0.257756   -0.000430    0.000418   -0.000534
C     3.335049    3.377199    1.832628    0.000134   -0.000010    0.000264
C    -1.764276    2.533758    2.543035   -0.004636    0.003904   -0.003192
C    -5.517190    0.695327    1.915903   -0.000372   -0.000022    0.000242
C    -3.441834   -3.710327    1.604886    0.000168   -0.000684    0.000314
C     1.442206   -3.063488    2.400867    0.000630   -0.005430   -0.001964
C     5.237054   -0.679307    1.790244   -0.000060    0.000010    0.000408
O     4.243844    4.437741    1.670488    0.000064    0.000112   -0.000036
O    -0.590720    1.904336    2.408966    0.001704   -0.000778    0.000156
O    -6.891539    0.904565    1.725907    0.000132   -0.000206   -0.000020
O    -4.384086   -4.689750    1.252922   -0.000100   -0.000224    0.000132
O     1.926061   -1.993726    3.089130   -0.002404    0.002346    0.000268
O     6.601967   -0.995758    1.667403    0.000052    0.000064    0.000036
H     0.092987    5.820619    0.222815   -0.001316   -0.000016   -0.001134
H    -5.549555    3.368968    0.667842   -0.000834   -0.001566   -0.000414
H    -5.352822   -2.717723   -0.692274    0.000732   -0.002732   -0.000576
H    -0.234028   -5.861719   -0.417497    0.000254    0.000168   -0.001116
H     5.372814   -3.360729    0.477406    0.000704   -0.000248   -0.000508
H     5.257621    2.737049   -0.882630   -0.000396    0.000382   -0.001340
H     1.844818    5.646390   -1.510973   -0.000060   -0.000194   -0.002370
H    -4.270778    5.463696    0.408513   -0.000274    0.000668   -0.000652
H    -6.483959   -0.899119   -1.922074   -0.000346    0.001326   -0.001532
H    -1.952828   -5.349704   -2.126945   -0.002062    0.002644   -0.002130
H     4.163555   -5.500340    0.005849    0.000284   -0.001102   -0.001144
H     6.238920    0.898465   -2.177202   -0.000062   -0.000060   -0.001476
H    -0.636948    5.552781   -2.079997    0.000578    0.001104    0.001390
H    -4.902288    4.182204   -2.016716   -0.000974    0.001196    0.000714
H    -4.160013   -1.918188   -3.166972   -0.001530    0.000158    0.000466
H     0.525858   -5.203522   -2.620880    0.001232   -0.001680    0.003332
H     4.791898   -3.949535   -2.263066   -0.000344   -0.000564    0.000656
H     3.889804    2.046792   -3.207620    0.001190   -0.001076   -0.000170
H     0.957652    2.730762   -1.614928   -0.002516   -0.000960   -0.000822
H    -2.437364    3.858672   -1.440934   -0.000220   -0.003816    0.002108
H    -3.717243    0.403070   -2.006904    0.002476   -0.004062    0.006854
H    -1.081368   -2.456048   -1.661955   -0.008010    0.007922    0.003286
H     2.339506   -3.714121   -1.687095   -0.000964    0.000492    0.000246
H     3.467227   -0.392843   -2.116306   -0.000848    0.001212   -0.000600
H     1.733014    3.781490   -3.628745    0.001308   -0.000164   -0.000264
H    -2.872957    6.268545   -1.623644   -0.000306    0.000776    0.000342
H    -5.353231    0.727408   -3.764355   -0.001516   -0.000064   -0.000796
H    -1.817546   -3.122727   -3.840795    0.002336   -0.002416    0.000702
H     2.822430   -6.068273   -2.200781    0.000062    0.000112    0.000630
H     4.990852   -0.773754   -3.921526    0.000732   -0.001000    0.000274
H     3.623032    3.991309   -0.785559   -0.000610   -0.000048   -0.002024
H    -1.687919    5.010720    1.280788    0.000700    0.000256   -0.000974
H    -6.190146    1.438437   -0.559413   -0.000020    0.001664   -0.001654
H    -3.720501   -3.884496   -1.088225   -0.002570    0.001940   -0.003608
H     1.522232   -5.260003    0.814514   -0.000654   -0.001866   -0.002482
H     5.962458   -1.440657   -0.724397    0.000048   -0.000056   -0.001490
H     1.513055    2.591789    0.947953   -0.003048    0.000152   -0.005902
H    -2.189895    2.087920    0.517040    0.018808   -0.028912    0.004848
H    -3.725466    0.239628    0.779421    0.007478   -0.000376   -0.017064
H    -1.632314   -2.788420    0.869082   -0.001928    0.007138   -0.015228
H     1.960339   -2.267771    0.495656   -0.004072   -0.000858   -0.000942
H     3.545641   -0.094216    0.548369   -0.001032   -0.000040   -0.005226
H     3.917180    2.459402    1.741460    0.000946    0.000514   -0.001792
H     2.860956    3.418494    2.818781   -0.000240    0.002568   -0.000974
H    -5.339816   -0.084445    2.665304   -0.000930   -0.001392   -0.002380
H    -5.096348    1.631688    2.280110   -0.000266    0.001018   -0.001892
H    -3.986259   -2.769198    1.701166    0.001606    0.000794   -0.003146
H    -2.960808   -3.950357    2.559314   -0.000128   -0.004070   -0.001074
H     5.090887    0.110504    2.535725    0.001508    0.001176   -0.001256
H     4.736553   -1.589722    2.122230    0.001456   -0.001502   -0.001380
H     3.759694    5.268302    1.777735    0.000730    0.000044    0.000244
H    -7.311717    0.051167    1.544157   -0.000420   -0.000004    0.000668
H    -3.932254   -5.546662    1.228636    0.000700   -0.001506    0.001620
H     7.090820   -0.178360    1.496128    0.000254   -0.000968    0.000180
C     1.004929   -1.188143    3.866504   -0.011428   -0.001770   -0.009850
H     1.612541   -0.704043    4.623115   -0.016396    0.022872   -0.021632
H     0.233996   -1.800236    4.319299   -0.011560    0.002806    0.006924
O     0.575871   -3.796121    2.812839   -0.000206    0.001590   -0.000144
C    -0.139137    1.081998    3.505406   -0.002948   -0.003182   -0.008118
H    -0.960938    0.874378    4.184596    0.004220   -0.013168    0.003140
H     0.650588    1.605373    4.035453    0.004158   -0.016424    0.007824
O    -2.332168    2.695637    3.604803    0.001762   -0.001196    0.000174
C     0.365470   -0.209151    2.866539    0.002388    0.029248    0.005038
O    -0.471580   -0.855668    2.069439   -0.003658   -0.016256   -0.043114
H    -1.010537   -0.263430    0.953932    0.612334   -0.318706    1.872162
O    -1.403496    0.187251    0.075456   -0.014568    0.024216   -0.059994
H     0.267599    0.186489   -0.480441   -0.039088   -0.019232    0.044122
O     1.246819    0.049635   -0.383421   -0.001538   -0.000338    0.000076
H     1.423847    0.247204    1.016197    0.015942    0.004262   -0.015496
O     1.626373    0.310694    2.064605   -0.003962   -0.001240    0.001084
H     2.283388   -0.404976    2.200738    0.006746    0.000712   -0.002992
H     1.706019    0.784165   -0.821914   -0.006152    0.001560    0.002790
H    -1.947776   -0.503154   -0.333395    0.006348    0.020320   -0.035686
139
* Frequency(6) -1771.3800
C     0.523358    4.841423   -0.019667   -0.000006    0.000118   -0.000254
C    -4.509075    3.327732    0.319519    0.000428   -0.000160    0.001464
C    -4.883044   -1.727008   -0.739828   -0.001376   -0.000140   -0.000394
C    -0.648877   -4.848448   -0.485534    0.000550    0.000840   -0.000814
C     4.329113   -3.346264    0.141958    0.000398   -0.000164    0.000824
C     4.746549    1.766568   -0.889371    0.000936   -0.000100    0.000098
O    -0.440707    3.820928    0.120659    0.000390   -0.000186    0.000972
O    -4.327933    2.332715   -0.640821   -0.001148   -0.000372   -0.000824
O    -3.479322   -1.849448   -0.814256   -0.002510   -0.001134   -0.000874
O     0.322046   -3.885080   -0.180700   -0.001360    0.000062    0.000158
O     4.063226   -2.276678   -0.710350    0.000024    0.000390    0.000010
O     3.346768    1.942507   -0.887404   -0.000308    0.000186    0.000380
C     1.084388    4.850090   -1.456150    0.000136   -0.000102    0.000302
C    -4.087787    4.662402   -0.315640    0.000256   -0.000138    0.000028
C    -5.390619   -0.955036   -1.968219   -0.000180    0.000458    0.000424
C    -1.191018   -4.585298   -1.903295    0.000290   -0.000172    0.000088
C     3.975774   -4.630701   -0.631529    0.000126   -0.000012    0.000270
C     5.145580    0.970386   -2.143305    0.000104   -0.000266    0.000352
O     0.113717    5.047832   -2.447324    0.000030    0.000206   -0.000382
O    -4.830813    4.974100   -1.459346   -0.000018   -0.000066   -0.000084
O    -5.080321   -1.591151   -3.176485    0.000106   -0.000186   -0.000126
O    -0.191100   -4.595021   -2.884251   -0.000292   -0.000026   -0.000160
O     4.766105   -4.790286   -1.775341    0.000200   -0.000000    0.000152
O     4.751210    1.606782   -3.329277   -0.000064    0.000212   -0.000330
C     1.746665    3.491964   -1.708338   -0.000080    0.000080    0.000588
C    -2.590186    4.609036   -0.650688    0.000006   -0.000304    0.000208
C    -4.813372    0.464353   -1.918822   -0.000450   -0.000230    0.000392
C    -1.852188   -3.202475   -1.902613    0.000360   -0.000646   -0.000096
C     2.487792   -4.570048   -1.011121    0.000098    0.000130    0.000146
C     4.563975   -0.450829   -2.054286    0.000092    0.000068    0.000310
O     2.348672    3.413272   -2.976726   -0.000030    0.000228   -0.000358
O    -2.154206    5.877223   -1.097190   -0.000086   -0.000198    0.000074
O    -5.335684    1.259636   -2.951935    0.000150   -0.000388    0.000172
O    -2.450564   -2.900852   -3.138510   -0.000206   -0.000050   -0.000072
O     2.078836   -5.758926   -1.655379   -0.000212   -0.000072   -0.000024
O     5.057961   -1.266577   -3.089160    0.000054    0.000052   -0.000110
C     2.829202    3.245583   -0.653911    0.000316   -0.000274   -0.000058
C    -1.732281    4.185541    0.556805   -0.000096   -0.000850   -0.001058
C    -5.127436    1.157496   -0.585441    0.000506   -0.000080    0.000322
C    -2.936866   -3.162590   -0.823531    0.000588   -0.000354    0.000546
C     1.603714   -4.338687    0.224629    0.000820   -0.000250    0.000080
C     4.909862   -1.131347   -0.721027    0.000112   -0.000028    0.000096
C     2.236209    3.392699    0.760921    0.000168   -0.000076   -0.000010
C    -2.360173    2.935241    1.207245    0.001734   -0.000646    0.000894
C    -4.811052    0.250760    0.621839    0.000028    0.000372    0.000562
C    -2.347515   -3.553907    0.542702   -0.000014   -0.000402    0.000352
C     2.171240   -3.190634    1.070667   -0.000080   -0.000274    0.000950
C     4.631198   -0.188603    0.463298   -0.000058   -0.000072    0.000140
O     1.566609    4.652643    0.890963   -0.000366   -0.000274   -0.000292
O    -3.733893    3.113682    1.475214   -0.000088    0.000074   -0.000734
O    -5.283596   -1.085490    0.430440   -0.000092    0.000194   -0.000810
O    -1.695773   -4.817511    0.445491   -0.000154    0.000400   -0.000196
O     3.554996   -3.290672    1.327447    0.000142    0.000238   -0.000578
O     5.190995    1.110631    0.257695   -0.000430    0.000418   -0.000534
C     3.335064    3.377198    1.832658    0.000134   -0.000010    0.000264
C    -1.764803    2.534202    2.542672   -0.004636    0.003904   -0.003192
C    -5.517232    0.695324    1.915931   -0.000372   -0.000022    0.000242
C    -3.441815   -3.710405    1.604922    0.000168   -0.000684    0.000314
C     1.442278   -3.064105    2.400644    0.000630   -0.005430   -0.001964
C     5.237047   -0.679306    1.790290   -0.000060    0.000010    0.000408
O     4.243851    4.437754    1.670484    0.000064    0.000112   -0.000036
O    -0.590526    1.904248    2.408984    0.001704   -0.000778    0.000156
O    -6.891524    0.904542    1.725905    0.000132   -0.000206   -0.000020
O    -4.384097   -4.689775    1.252937   -0.000100   -0.000224    0.000132
O     1.925788   -1.993459    3.089160   -0.002404    0.002346    0.000268
O     6.601973   -0.995751    1.667407    0.000052    0.000064    0.000036
H     0.092837    5.820617    0.222686   -0.001316   -0.000016   -0.001134
H    -5.549650    3.368790    0.667795   -0.000834   -0.001566   -0.000414
H    -5.352739   -2.718033   -0.692339    0.000732   -0.002732   -0.000576
H    -0.233999   -5.861700   -0.417624    0.000254    0.000168   -0.001116
H     5.372894   -3.360757    0.477348    0.000704   -0.000248   -0.000508
H     5.257576    2.737092   -0.882782   -0.000396    0.000382   -0.001340
H     1.844811    5.646368   -1.511242   -0.000060   -0.000194   -0.002370
H    -4.270809    5.463772    0.408439   -0.000274    0.000668   -0.000652
H    -6.483998   -0.898968   -1.922248   -0.000346    0.001326   -0.001532
H    -1.953062   -5.349404   -2.127187   -0.002062    0.002644   -0.002130
H     4.163587   -5.500465    0.005719    0.000284   -0.001102   -0.001144
H     6.238913    0.898458   -2.177370   -0.000062   -0.000060   -0.001476
H    -0.636882    5.552906   -2.079839    0.000578    0.001104    0.001390
H    -4.902399    4.182340   -2.016635   -0.000974    0.001196    0.000714
H    -4.160187   -1.918170   -3.166919   -0.001530    0.000158    0.000466
H     0.525998   -5.203713   -2.620501    0.001232   -0.001680    0.003332
H     4.791859   -3.949599   -2.262991   -0.000344   -0.000564    0.000656
H     3.889939    2.046670   -3.207639    0.001190   -0.001076   -0.000170
H     0.957366    2.730653   -1.615021   -0.002516   -0.000960   -0.000822
H    -2.437389    3.858238   -1.440694   -0.000220   -0.003816    0.002108
H    -3.716962    0.402608   -2.006125    0.002476   -0.004062    0.006854
H    -1.082278   -2.455148   -1.661582   -0.008010    0.007922    0.003286
H     2.339396   -3.714065   -1.687067   -0.000964    0.000492    0.000246
H     3.467131   -0.392705   -2.116374   -0.000848    0.001212   -0.000600
H     1.733163    3.781471   -3.628775    0.001308   -0.000164   -0.000264
H    -2.872992    6.268633   -1.623605   -0.000306    0.000776    0.000342
H    -5.353403    0.727401   -3.764445   -0.001516   -0.000064   -0.000796
H    -1.817281   -3.123002   -3.840715    0.002336   -0.002416    0.000702
H     2.822437   -6.068260   -2.200709    0.000062    0.000112    0.000630
H     4.990935   -0.773868   -3.921495    0.000732   -0.001000    0.000274
H     3.622963    3.991304   -0.785789   -0.000610   -0.000048   -0.002024
H    -1.687839    5.010749    1.280677    0.000700    0.000256   -0.000974
H    -6.190148    1.438626   -0.559601   -0.000020    0.001664   -0.001654
H    -3.720793   -3.884276   -1.088635   -0.002570    0.001940   -0.003608
H     1.522158   -5.260215    0.814232   -0.000654   -0.001866   -0.002482
H     5.962463   -1.440663   -0.724566    0.000048   -0.000056   -0.001490
H     1.512709    2.591806    0.947282   -0.003048    0.000152   -0.005902
H    -2.187758    2.084634    0.517591    0.018808   -0.028912    0.004848
H    -3.724616    0.239585    0.777482    0.007478   -0.000376   -0.017064
H    -1.632533   -2.787609    0.867351   -0.001928    0.007138   -0.015228
H     1.959876   -2.267869    0.495549   -0.004072   -0.000858   -0.000942
H     3.545524   -0.094221    0.547775   -0.001032   -0.000040   -0.005226
H     3.917288    2.459460    1.741256    0.000946    0.000514   -0.001792
H     2.860929    3.418786    2.818670   -0.000240    0.002568   -0.000974
H    -5.339922   -0.084603    2.665034   -0.000930   -0.001392   -0.002380
H    -5.096378    1.631804    2.279895   -0.000266    0.001018   -0.001892
H    -3.986076   -2.769108    1.700808    0.001606    0.000794   -0.003146
H    -2.960823   -3.950820    2.559192   -0.000128   -0.004070   -0.001074
H     5.091058    0.110638    2.535582    0.001508    0.001176   -0.001256
H     4.736718   -1.589893    2.122073    0.001456   -0.001502   -0.001380
H     3.759777    5.268307    1.777763    0.000730    0.000044    0.000244
H    -7.311765    0.051167    1.544233   -0.000420   -0.000004    0.000668
H    -3.932174   -5.546833    1.228820    0.000700   -0.001506    0.001620
H     7.090849   -0.178470    1.496148    0.000254   -0.000968    0.000180
C     1.003630   -1.188344    3.865385   -0.011428   -0.001770   -0.009850
H     1.610678   -0.701444    4.620657   -0.016396    0.022872   -0.021632
H     0.232682   -1.799917    4.320086   -0.011560    0.002806    0.006924
O     0.575848   -3.795940    2.812823   -0.000206    0.001590   -0.000144
C    -0.139472    1.081636    3.504483   -0.002948   -0.003182   -0.008118
H    -0.960458    0.872882    4.184953    0.004220   -0.013168    0.003140
H     0.651061    1.603506    4.036342    0.004158   -0.016424    0.007824
O    -2.331968    2.695501    3.604823    0.001762   -0.001196    0.000174
C     0.365741   -0.205827    2.867112    0.002388    0.029248    0.005038
O    -0.471996   -0.857515    2.064539   -0.003658   -0.016256   -0.043114
H    -0.940948   -0.299649    1.166694    0.612334   -0.318706    1.872162
O    -1.405152    0.190003    0.068638   -0.014568    0.024216   -0.059994
H     0.263157    0.184303   -0.475427   -0.039088   -0.019232    0.044122
O     1.246644    0.049597   -0.383412   -0.001538   -0.000338    0.000076
H     1.425659    0.247688    1.014436    0.015942    0.004262   -0.015496
O     1.625923    0.310553    2.064728   -0.003962   -0.001240    0.001084
H     2.284155   -0.404895    2.200398    0.006746    0.000712   -0.002992
H     1.705320    0.784342   -0.821597   -0.006152    0.001560    0.002790
H    -1.947055   -0.500845   -0.337451    0.006348    0.020320   -0.035686
