25
Coordinates from ORCA-job job.QMRegion
  C          -1.76480305608022      2.53420248861361      2.54267243443736
  C           1.44227768804369     -3.06410505067145      2.40064350390802
  O          -0.59052566210353      1.90424780407318      2.40898370382195
  O           1.92578798563593     -1.99345855455322      3.08915998212465
  C           1.00362976879443     -1.18834355687601      3.86538478052292
  H           1.61067763655961     -0.70144370644991      4.62065703853616
  H           0.23268207189310     -1.79991700946030      4.32008640217905
  O           0.57584769066724     -3.79594008825717      2.81282325536755
  C          -0.13947210801280      1.08163643377994      3.50448276912609
  H          -0.96045750102089      0.87288154794981      4.18495300696354
  H           0.65106148490371      1.60350554158425      4.03634171391889
  O          -2.33196766841033      2.69550141475119      3.60482274180505
  C           0.36574125474627     -0.20582724762549      2.86711246389968
  O          -0.47199623746696     -0.85751530077642      2.06453927178987
  H          -0.94094751186718     -0.29964891911595      1.16669400036858
  O          -1.40515191308755      0.19000286499508      0.06863806204525
  H           0.26315677736831      0.18430278714129     -0.47542658970019
  O           1.24664412638880      0.04959691879366     -0.38341246891988
  H           1.42565913400485      0.24768782236045      1.01443625638420
  O           1.62592271162360      0.31055274483878      2.06472759232524
  H           2.28415548129939     -0.40489547939898      2.20039762958833
  H           1.70532046218402      0.78434195911701     -0.82159741532875
  H          -1.94705458550457     -0.50084539970856     -0.33745082329063
  H          -2.19481663903581      2.82385725382577      1.57814356683702
  H           1.96552298018577     -3.15492652938438      1.44599299008324
