139
* (null), Energy   -1000.0000000
C     0.435769    4.765838   -0.070219    0.006766    0.026080   -0.036376
C    -4.578706    3.378023    0.416767    0.028228   -0.005288    0.040710
C    -4.867431   -1.668679   -0.777878    0.019148   -0.008870    0.041526
C    -0.652325   -4.810829   -0.563078    0.019222   -0.020348    0.016794
C     4.394630   -3.502868    0.097129    0.000134    0.037712    0.055960
C     4.662121    1.657496   -0.511564    0.022948    0.041542   -0.039440
O    -0.496169    3.777923    0.319049    0.013080    0.026856   -0.029382
O    -4.370354    2.388526   -0.538340    0.020820   -0.009074    0.042144
O    -3.462598   -1.781693   -0.849856    0.019066   -0.005244    0.024766
O     0.346599   -3.866199   -0.288176    0.048776   -0.044664   -0.022122
O     4.230629   -2.414375   -0.750024   -0.025512    0.048684    0.067652
O     3.256255    1.768466   -0.567216    0.021550    0.039702   -0.030256
C     0.900186    4.481516   -1.517874    0.003898    0.025002   -0.036820
C    -4.115574    4.707422   -0.201728    0.002658   -0.003904    0.018750
C    -5.373307   -0.862952   -1.985726    0.009998   -0.011080    0.042778
C    -1.210108   -4.534288   -1.972533    0.006172   -0.015072    0.022618
C     3.977278   -4.755712   -0.699227    0.054772    0.033998    0.024406
C     5.177077    1.006633   -1.809101    0.009756    0.012648   -0.027020
O    -0.134253    4.513743   -2.460417    0.000906    0.009472   -0.033332
O    -4.824253    5.044708   -1.359374   -0.019222   -0.023122    0.024330
O    -5.036513   -1.452271   -3.209642    0.016088   -0.009234    0.043464
O    -0.219465   -4.560945   -2.962188    0.002568   -0.017306    0.017394
O     4.769817   -4.947096   -1.835595    0.091458    0.072580    0.041724
O     4.773766    1.720023   -2.946021    0.008218   -0.008992   -0.037906
C     1.493710    3.068810   -1.497942    0.015640    0.029340   -0.033666
C    -2.613143    4.612297   -0.510750   -0.002250    0.004114   -0.006082
C    -4.830689    0.568272   -1.884651    0.000962   -0.006132    0.038642
C    -1.838036   -3.134812   -1.954058    0.017364   -0.009992    0.032518
C     2.495334   -4.627078   -1.093380    0.064568    0.000422   -0.015434
C     4.716556   -0.457446   -1.882930    0.000086    0.014484    0.006052
O     1.913383    2.604041   -2.758029    0.024596    0.030936   -0.029896
O    -2.148254    5.853388   -1.002382   -0.017896    0.000984   -0.036476
O    -5.383628    1.389471   -2.882289   -0.015552   -0.011430    0.041380
O    -2.437798   -2.800157   -3.179183    0.014966    0.003046    0.036530
O     2.040550   -5.798797   -1.737743    0.093462    0.010260   -0.053446
O     5.350117   -1.129657   -2.944810   -0.009944   -0.002808    0.012084
C     2.699430    3.075124   -0.554055    0.013866    0.036316   -0.031134
C    -1.783319    4.187525    0.721239    0.021300    0.029598   -0.011256
C    -5.156021    1.203029   -0.524532    0.016140   -0.006912    0.044080
C    -2.912703   -3.092114   -0.864294    0.023784   -0.003310    0.037870
C     1.610844   -4.344820    0.133639    0.043412   -0.070008   -0.024340
C     5.023395   -1.237726   -0.595378   -0.000906    0.037366    0.019950
C     2.234403    3.511382    0.848628    0.016262    0.033916   -0.030606
C    -2.464418    2.943670    1.332963    0.050428    0.032350    0.026626
C    -4.831939    0.258799    0.652297    0.029194   -0.008478    0.039510
C    -2.313671   -3.487848    0.496982    0.041762    0.009072    0.033466
C     2.231029   -3.191231    0.927389   -0.016346   -0.108986    0.068616
C     4.661124   -0.436329    0.670599    0.023588    0.071366    0.002748
O     1.546509    4.767347    0.781635    0.006048    0.026448   -0.033716
O    -3.828838    3.162232    1.594786    0.049100    0.012860    0.034318
O    -5.286227   -1.074200    0.412384    0.024842   -0.007634    0.044000
O    -1.677885   -4.759754    0.391992    0.039660    0.008016    0.036740
O     3.583805   -3.410344    1.260006   -0.004858   -0.010480    0.061204
O     5.074718    0.930794    0.606297    0.034898    0.064166   -0.030256
C     3.420679    3.719326    1.797266    0.023698    0.067616   -0.044938
C    -1.897369    2.360090    2.614518    0.090598    0.065018    0.035442
C    -5.547419    0.659284    1.955013    0.046730   -0.001378    0.048546
C    -3.401623   -3.638162    1.566394    0.055522    0.016982    0.049850
C     1.478055   -2.866840    2.208693   -0.202632   -0.270512    0.018308
C     5.356134   -0.977318    1.933947    0.042270    0.087736   -0.001164
O     4.336141    4.666566    1.303965    0.001212    0.070332   -0.078084
O    -0.560321    2.317603    2.629311    0.076828    0.071808    0.030494
O    -6.926358    0.842283    1.768359    0.044240    0.005474    0.066950
O    -4.342233   -4.623589    1.226678    0.049994    0.015890    0.068318
O     1.981419   -1.725720    2.713074   -0.495996   -0.279050    0.024988
O     6.737973   -1.153393    1.754748    0.040698    0.091534   -0.017472
H     0.003416    5.768974    0.011119    0.005868    0.025488   -0.033542
H    -5.626757    3.426321    0.738596    0.034194   -0.014964    0.061914
H    -5.330577   -2.663513   -0.768083    0.020402   -0.009772    0.046514
H    -0.257220   -5.832081   -0.501656   -0.000590   -0.027808    0.018304
H     5.423885   -3.593969    0.465051    0.000116    0.064688    0.059338
H     5.121783    2.645862   -0.389513    0.025194    0.041942   -0.062078
H     1.674481    5.222034   -1.775960   -0.005196    0.033690   -0.038312
H    -4.293310    5.508817    0.523330    0.009684    0.004360    0.013930
H    -6.468055   -0.830522   -1.948764    0.009948   -0.018122    0.042234
H    -1.988785   -5.282864   -2.189283    0.001528   -0.008984    0.020768
H     4.113542   -5.638280   -0.066038    0.062108    0.029522    0.017604
H     6.271991    1.032007   -1.801789    0.010532    0.004590   -0.033684
H    -0.742193    5.241025   -2.246476    0.008834    0.015698   -0.054384
H    -4.890220    4.260515   -1.929281   -0.026532   -0.032574    0.034930
H    -4.115074   -1.778593   -3.192859    0.014418   -0.013076    0.050334
H     0.490894   -5.177545   -2.704854    0.030346    0.020800    0.033938
H     4.850359   -4.101890   -2.309432    0.064680    0.075132    0.042202
H     3.816752    1.913893   -2.897434    0.009934   -0.002338   -0.039874
H     0.703507    2.422745   -1.089047    0.019502    0.024780   -0.036712
H    -2.470157    3.835162   -1.277525   -0.009696   -0.010968    0.005276
H    -3.734971    0.544514   -1.982551    0.000554    0.004124    0.024978
H    -1.041958   -2.418028   -1.709046    0.027448   -0.021046    0.032816
H     2.391681   -3.769488   -1.775389    0.060440    0.022936    0.012042
H     3.626743   -0.485428   -2.025663   -0.000104    0.018182    0.015006
H     1.244059    2.854964   -3.412580    0.022314    0.012862   -0.031182
H    -2.885242    6.268151   -1.483730   -0.028226   -0.015654   -0.036674
H    -5.345067    0.906606   -3.724055    0.021988    0.001648    0.038956
H    -1.798676   -2.987184   -3.886028    0.023244    0.031980    0.034850
H     2.766852   -6.128259   -2.294097    0.093588    0.046926   -0.076304
H     5.263740   -0.583696   -3.741841   -0.000390   -0.002080    0.010714
H     3.438592    3.795646   -0.926648    0.009192    0.043592   -0.026364
H    -1.733198    5.010401    1.446656    0.032886    0.042710   -0.025042
H    -6.222250    1.467367   -0.487929    0.017242   -0.000994    0.056064
H    -3.696524   -3.817116   -1.118936    0.024142   -0.008400    0.051412
H     1.506222   -5.241486    0.755595    0.030108   -0.103642   -0.073878
H     6.087458   -1.506624   -0.571934   -0.005310    0.018964    0.018960
H     1.553969    2.753429    1.250715    0.035468    0.021428   -0.018972
H    -2.339858    2.140774    0.577622    0.049664    0.018204    0.042548
H    -3.748975    0.251528    0.828968    0.032446   -0.010220    0.027188
H    -1.591349   -2.730749    0.829342    0.043392    0.015076    0.014848
H     2.150916   -2.299435    0.279512   -0.072450   -0.058208    0.142374
H     3.575866   -0.490524    0.808220    0.024268    0.090620    0.018514
H     3.974574    2.784853    1.900561    0.038380    0.076546   -0.033058
H     3.036023    4.026301    2.776373    0.031848    0.087832   -0.046278
H    -5.349299   -0.128231    2.690981    0.051130    0.000536    0.049518
H    -5.142468    1.594058    2.340671    0.058940   -0.003042    0.040914
H    -3.947984   -2.698252    1.662068    0.058608    0.018694    0.052692
H    -2.914760   -3.866721    2.521073    0.070926    0.018164    0.042428
H     5.159941   -0.271087    2.748972    0.053016    0.095890   -0.004872
H     4.941893   -1.947717    2.204802    0.054362    0.085816    0.013136
H     3.876989    5.514916    1.226822   -0.010974    0.064136   -0.086900
H    -7.323970   -0.016110    1.560531    0.041628    0.007906    0.064218
H    -3.881834   -5.475465    1.185705    0.052022    0.017084    0.067878
H     7.141945   -0.284331    1.616687    0.034036    0.088704   -0.046276
C     1.175509   -0.899706    3.569991   -0.503976   -0.291688   -0.014090
H     1.873478   -0.425563    4.256275   -0.628238   -0.571024    0.279094
H     0.452718   -1.491228    4.123719   -0.861874   -0.204350   -0.357994
O     0.590641   -3.524759    2.709327   -0.317734   -0.398534   -0.274724
C     0.063419    1.369173    3.516084    0.077214    0.043886   -0.003824
H    -0.611412    1.106022    4.326640    0.143320    0.118376    0.080508
H     0.948283    1.864700    3.905962    0.150914   -0.016678   -0.091130
O    -2.615486    1.943355    3.504245    0.083100    0.063174    0.037824
C     0.414878    0.116984    2.671648   -0.095254    0.012576   -0.030886
O    -0.616077   -0.423594    2.043885   -0.158428    0.244582   -0.137004
H    -1.100055   -0.009549    0.548609   -0.091004    0.094882   -0.269202
O    -1.341707    0.184577   -0.410328    0.040084    0.075392   -0.276944
H     0.192872   -0.047954   -0.917305    0.064496    0.041866   -0.041516
O     1.203632   -0.167427   -0.829534    0.057892    0.025258   -0.006690
H     1.358756    0.088415    0.140599    0.042684   -0.071610    0.001618
O     1.406241    0.628402    1.662453    0.069418   -0.164888    0.077788
H     2.308115    0.558586    2.008946    0.021334    0.013600    0.277704
H     1.638968    0.541608   -1.338888    0.075518    0.050238    0.066234
H    -1.951613   -0.525492   -0.667289    0.043666    0.086342   -0.312300
139
* Frequency(7)  -96.4200
C     0.436538    4.768802   -0.074353    0.006766    0.026080   -0.036376
C    -4.575498    3.377422    0.421393    0.028228   -0.005288    0.040710
C    -4.865255   -1.669687   -0.773159    0.019148   -0.008870    0.041526
C    -0.650141   -4.813141   -0.561169    0.019222   -0.020348    0.016794
C     4.394645   -3.498582    0.103489    0.000134    0.037712    0.055960
C     4.664729    1.662217   -0.516046    0.022948    0.041542   -0.039440
O    -0.494683    3.780975    0.315710    0.013080    0.026856   -0.029382
O    -4.367988    2.387495   -0.533551    0.020820   -0.009074    0.042144
O    -3.460431   -1.782289   -0.847041    0.019066   -0.005244    0.024766
O     0.352142   -3.871275   -0.290690    0.048776   -0.044664   -0.022122
O     4.227730   -2.408842   -0.742336   -0.025512    0.048684    0.067652
O     3.258704    1.772978   -0.570654    0.021550    0.039702   -0.030256
C     0.900629    4.484357   -1.522058    0.003898    0.025002   -0.036820
C    -4.115272    4.706978   -0.199597    0.002658   -0.003904    0.018750
C    -5.372171   -0.864211   -1.980865    0.009998   -0.011080    0.042778
C    -1.209407   -4.536001   -1.969963    0.006172   -0.015072    0.022618
C     3.983503   -4.751848   -0.696453    0.054772    0.033998    0.024406
C     5.178186    1.008070   -1.812172    0.009756    0.012648   -0.027020
O    -0.134150    4.514819   -2.464205    0.000906    0.009472   -0.033332
O    -4.826437    5.042080   -1.356609   -0.019222   -0.023122    0.024330
O    -5.034685   -1.453320   -3.204703    0.016088   -0.009234    0.043464
O    -0.219173   -4.562912   -2.960211    0.002568   -0.017306    0.017394
O     4.780211   -4.938848   -1.830853    0.091458    0.072580    0.041724
O     4.774700    1.719001   -2.950329    0.008218   -0.008992   -0.037906
C     1.495487    3.072144   -1.501768    0.015640    0.029340   -0.033666
C    -2.613399    4.612765   -0.511441   -0.002250    0.004114   -0.006082
C    -4.830580    0.567575   -1.880260    0.000962   -0.006132    0.038642
C    -1.836063   -3.135948   -1.950362    0.017364   -0.009992    0.032518
C     2.502672   -4.627030   -1.095134    0.064568    0.000422   -0.015434
C     4.716566   -0.455800   -1.882242    0.000086    0.014484    0.006052
O     1.916178    2.607557   -2.761427    0.024596    0.030936   -0.029896
O    -2.150288    5.853500   -1.006527   -0.017896    0.000984   -0.036476
O    -5.385395    1.388172   -2.877586   -0.015552   -0.011430    0.041380
O    -2.436097   -2.799811   -3.175032    0.014966    0.003046    0.036530
O     2.051171   -5.797631   -1.743817    0.093462    0.010260   -0.053446
O     5.348987   -1.129976   -2.943437   -0.009944   -0.002808    0.012084
C     2.701006    3.079251   -0.557593    0.013866    0.036316   -0.031134
C    -1.780898    4.190889    0.719960    0.021300    0.029598   -0.011256
C    -5.154187    1.202243   -0.519523    0.016140   -0.006912    0.044080
C    -2.910000   -3.092490   -0.859990    0.023784   -0.003310    0.037870
C     1.615778   -4.352776    0.130873    0.043412   -0.070008   -0.024340
C     5.023292   -1.233480   -0.593111   -0.000906    0.037366    0.019950
C     2.236251    3.515236    0.845150    0.016262    0.033916   -0.030606
C    -2.458687    2.947346    1.335989    0.050428    0.032350    0.026626
C    -4.828621    0.257836    0.656787    0.029194   -0.008478    0.039510
C    -2.308925   -3.486817    0.500785    0.041762    0.009072    0.033466
C     2.229171   -3.203617    0.935187   -0.016346   -0.108986    0.068616
C     4.663805   -0.428219    0.670911    0.023588    0.071366    0.002748
O     1.547196    4.770353    0.777803    0.006048    0.026448   -0.033716
O    -3.823258    3.163693    1.598686    0.049100    0.012860    0.034318
O    -5.283404   -1.075068    0.417384    0.024842   -0.007634    0.044000
O    -1.673378   -4.758843    0.396167    0.039660    0.008016    0.036740
O     3.583253   -3.411535    1.266962   -0.004858   -0.010480    0.061204
O     5.078684    0.938086    0.602859    0.034898    0.064166   -0.030256
C     3.423372    3.727010    1.792159    0.023698    0.067616   -0.044938
C    -1.887073    2.367479    2.618546    0.090598    0.065018    0.035442
C    -5.542108    0.659127    1.960530    0.046730   -0.001378    0.048546
C    -3.395313   -3.636232    1.572059    0.055522    0.016982    0.049850
C     1.455027   -2.897582    2.210774   -0.202632   -0.270512    0.018308
C     5.360938   -0.967347    1.933815    0.042270    0.087736   -0.001164
O     4.336279    4.674559    1.295091    0.001212    0.070332   -0.078084
O    -0.551590    2.325764    2.632776    0.076828    0.071808    0.030494
O    -6.921330    0.842905    1.775968    0.044240    0.005474    0.066950
O    -4.336551   -4.621783    1.234442    0.049994    0.015890    0.068318
O     1.925052   -1.757433    2.715914   -0.495996   -0.279050    0.024988
O     6.742598   -1.142991    1.752762    0.040698    0.091534   -0.017472
H     0.004083    5.771871    0.007307    0.005868    0.025488   -0.033542
H    -5.622871    3.424620    0.745632    0.034194   -0.014964    0.061914
H    -5.328258   -2.664624   -0.762797    0.020402   -0.009772    0.046514
H    -0.257287   -5.835241   -0.499576   -0.000590   -0.027808    0.018304
H     5.423898   -3.586618    0.471794    0.000116    0.064688    0.059338
H     5.124646    2.650628   -0.396568    0.025194    0.041942   -0.062078
H     1.673891    5.225863   -1.780314   -0.005196    0.033690   -0.038312
H    -4.292209    5.509312    0.524913    0.009684    0.004360    0.013930
H    -6.466924   -0.832581   -1.943964    0.009948   -0.018122    0.042234
H    -1.988611   -5.283885   -2.186923    0.001528   -0.008984    0.020768
H     4.120600   -5.634925   -0.064037    0.062108    0.029522    0.017604
H     6.273188    1.032529   -1.805617    0.010532    0.004590   -0.033684
H    -0.741189    5.242809   -2.252656    0.008834    0.015698   -0.054384
H    -4.893235    4.256813   -1.925311   -0.026532   -0.032574    0.034930
H    -4.113435   -1.780079   -3.187139    0.014418   -0.013076    0.050334
H     0.494343   -5.175181   -2.700997    0.030346    0.020800    0.033938
H     4.857710   -4.093352   -2.304636    0.064680    0.075132    0.042202
H     3.817881    1.913627   -2.901965    0.009934   -0.002338   -0.039874
H     0.705723    2.425561   -1.093219    0.019502    0.024780   -0.036712
H    -2.471259    3.833916   -1.276925   -0.009696   -0.010968    0.005276
H    -3.734908    0.544983   -1.979712    0.000554    0.004124    0.024978
H    -1.038839   -2.420420   -1.705317    0.027448   -0.021046    0.032816
H     2.398550   -3.766881   -1.774020    0.060440    0.022936    0.012042
H     3.626731   -0.483362   -2.023958   -0.000104    0.018182    0.015006
H     1.246595    2.856426   -3.416124    0.022314    0.012862   -0.031182
H    -2.888450    6.266372   -1.487898   -0.028226   -0.015654   -0.036674
H    -5.342568    0.906793   -3.719628    0.021988    0.001648    0.038956
H    -1.796034   -2.983550   -3.882067    0.023244    0.031980    0.034850
H     2.777488   -6.122926   -2.302769    0.093588    0.046926   -0.076304
H     5.263696   -0.583932   -3.740623   -0.000390   -0.002080    0.010714
H     3.439637    3.800600   -0.929644    0.009192    0.043592   -0.026364
H    -1.729461    5.015255    1.443810    0.032886    0.042710   -0.025042
H    -6.220291    1.467254   -0.481558    0.017242   -0.000994    0.056064
H    -3.693780   -3.818071   -1.113093    0.024142   -0.008400    0.051412
H     1.509644   -5.253264    0.747199    0.030108   -0.103642   -0.073878
H     6.086855   -1.504469   -0.569779   -0.005310    0.018964    0.018960
H     1.558000    2.755864    1.248559    0.035468    0.021428   -0.018972
H    -2.334214    2.142843    0.582457    0.049664    0.018204    0.042548
H    -3.745288    0.250367    0.832058    0.032446   -0.010220    0.027188
H    -1.586418   -2.729036    0.831029    0.043392    0.015076    0.014848
H     2.142682   -2.306050    0.295692   -0.072450   -0.058208    0.142374
H     3.578624   -0.480226    0.810324    0.024268    0.090620    0.018514
H     3.978936    2.793552    1.896804    0.038380    0.076546   -0.033058
H     3.039642    4.036283    2.771114    0.031848    0.087832   -0.046278
H    -5.343488   -0.128170    2.696608    0.051130    0.000536    0.049518
H    -5.135770    1.593712    2.345321    0.058940   -0.003042    0.040914
H    -3.941324   -2.696128    1.668056    0.058608    0.018694    0.052692
H    -2.906700   -3.864657    2.525895    0.070926    0.018164    0.042428
H     5.165966   -0.260190    2.748418    0.053016    0.095890   -0.004872
H     4.948071   -1.937964    2.206295    0.054362    0.085816    0.013136
H     3.875742    5.522205    1.216946   -0.010974    0.064136   -0.086900
H    -7.319239   -0.015212    1.567829    0.041628    0.007906    0.064218
H    -3.875922   -5.473523    1.193419    0.052022    0.017084    0.067878
H     7.145813   -0.274250    1.611428    0.034036    0.088704   -0.046276
C     1.118235   -0.932855    3.568390   -0.503976   -0.291688   -0.014090
H     1.802082   -0.490457    4.287993   -0.628238   -0.571024    0.279094
H     0.354770   -1.514451    4.083035   -0.861874   -0.204350   -0.357994
O     0.554532   -3.570050    2.678106   -0.317734   -0.398534   -0.274724
C     0.072194    1.374160    3.515649    0.077214    0.043886   -0.003824
H    -0.595124    1.119475    4.335789    0.143320    0.118376    0.080508
H     0.965434    1.862805    3.895606    0.150914   -0.016678   -0.091130
O    -2.606042    1.950534    3.508544    0.083100    0.063174    0.037824
C     0.404053    0.118413    2.668138   -0.095254    0.012576   -0.030886
O    -0.634082   -0.395799    2.028315   -0.158428    0.244582   -0.137004
H    -1.110397    0.001234    0.518016   -0.091004    0.094882   -0.269202
O    -1.337152    0.193145   -0.441801    0.040084    0.075392   -0.276944
H     0.200202   -0.043196   -0.922023    0.064496    0.041866   -0.041516
O     1.210211   -0.164557   -0.830294    0.057892    0.025258   -0.006690
H     1.363607    0.080277    0.140783    0.042684   -0.071610    0.001618
O     1.414130    0.609663    1.671293    0.069418   -0.164888    0.077788
H     2.310539    0.560132    2.040506    0.021334    0.013600    0.277704
H     1.647550    0.547317   -1.331361    0.075518    0.050238    0.066234
H    -1.946651   -0.515680   -0.702780    0.043666    0.086342   -0.312300
139
* Frequency(7)  -96.4200
C     0.437224    4.771445   -0.078039    0.006766    0.026080   -0.036376
C    -4.572638    3.376886    0.425519    0.028228   -0.005288    0.040710
C    -4.863315   -1.670586   -0.768951    0.019148   -0.008870    0.041526
C    -0.648193   -4.815203   -0.559468    0.019222   -0.020348    0.016794
C     4.394659   -3.494761    0.109159    0.000134    0.037712    0.055960
C     4.667054    1.666426   -0.520043    0.022948    0.041542   -0.039440
O    -0.493357    3.783696    0.312733    0.013080    0.026856   -0.029382
O    -4.365878    2.386575   -0.529280    0.020820   -0.009074    0.042144
O    -3.458499   -1.782820   -0.844532    0.019066   -0.005244    0.024766
O     0.357085   -3.875801   -0.292932    0.048776   -0.044664   -0.022122
O     4.225145   -2.403909   -0.735481   -0.025512    0.048684    0.067652
O     3.260888    1.777001   -0.573720    0.021550    0.039702   -0.030256
C     0.901024    4.486891   -1.525789    0.003898    0.025002   -0.036820
C    -4.115003    4.706583   -0.197697    0.002658   -0.003904    0.018750
C    -5.371158   -0.865334   -1.976530    0.009998   -0.011080    0.042778
C    -1.208781   -4.537528   -1.967671    0.006172   -0.015072    0.022618
C     3.989053   -4.748403   -0.693980    0.054772    0.033998    0.024406
C     5.179174    1.009352   -1.814910    0.009756    0.012648   -0.027020
O    -0.134058    4.515779   -2.467583    0.000906    0.009472   -0.033332
O    -4.828385    5.039737   -1.354144   -0.019222   -0.023122    0.024330
O    -5.033054   -1.454256   -3.200298    0.016088   -0.009234    0.043464
O    -0.218913   -4.564665   -2.958449    0.002568   -0.017306    0.017394
O     4.789478   -4.931493   -1.826625    0.091458    0.072580    0.041724
O     4.775533    1.718090   -2.954170    0.008218   -0.008992   -0.037906
C     1.497072    3.075117   -1.505179    0.015640    0.029340   -0.033666
C    -2.613627    4.613181   -0.512057   -0.002250    0.004114   -0.006082
C    -4.830482    0.566954   -1.876344    0.000962   -0.006132    0.038642
C    -1.834303   -3.136960   -1.947067    0.017364   -0.009992    0.032518
C     2.509214   -4.626987   -1.096698    0.064568    0.000422   -0.015434
C     4.716574   -0.454332   -1.881629    0.000086    0.014484    0.006052
O     1.918671    2.610691   -2.764456    0.024596    0.030936   -0.029896
O    -2.152101    5.853600   -1.010223   -0.017896    0.000984   -0.036476
O    -5.386971    1.387014   -2.873393   -0.015552   -0.011430    0.041380
O    -2.434581   -2.799502   -3.171330    0.014966    0.003046    0.036530
O     2.060642   -5.796591   -1.749233    0.093462    0.010260   -0.053446
O     5.347979   -1.130261   -2.942212   -0.009944   -0.002808    0.012084
C     2.702411    3.082931   -0.560748    0.013866    0.036316   -0.031134
C    -1.778740    4.193888    0.718819    0.021300    0.029598   -0.011256
C    -5.152551    1.201543   -0.515056    0.016140   -0.006912    0.044080
C    -2.907590   -3.092826   -0.856153    0.023784   -0.003310    0.037870
C     1.620176   -4.359870    0.128407    0.043412   -0.070008   -0.024340
C     5.023200   -1.229693   -0.591089   -0.000906    0.037366    0.019950
C     2.237899    3.518673    0.842048    0.016262    0.033916   -0.030606
C    -2.453577    2.950624    1.338687    0.050428    0.032350    0.026626
C    -4.825663    0.256976    0.660791    0.029194   -0.008478    0.039510
C    -2.304693   -3.485898    0.504176    0.041762    0.009072    0.033466
C     2.227515   -3.214660    0.942140   -0.016346   -0.108986    0.068616
C     4.666195   -0.420987    0.671190    0.023588    0.071366    0.002748
O     1.547809    4.773033    0.774387    0.006048    0.026448   -0.033716
O    -3.818283    3.164997    1.602163    0.049100    0.012860    0.034318
O    -5.280887   -1.075841    0.421843    0.024842   -0.007634    0.044000
O    -1.669359   -4.758031    0.399890    0.039660    0.008016    0.036740
O     3.582761   -3.412597    1.273163   -0.004858   -0.010480    0.061204
O     5.082220    0.944588    0.599793    0.034898    0.064166   -0.030256
C     3.425773    3.733862    1.787605    0.023698    0.067616   -0.044938
C    -1.877893    2.374067    2.622137    0.090598    0.065018    0.035442
C    -5.537373    0.658988    1.965449    0.046730   -0.001378    0.048546
C    -3.389687   -3.634511    1.577110    0.055522    0.016982    0.049850
C     1.434494   -2.924993    2.212629   -0.202632   -0.270512    0.018308
C     5.365221   -0.958457    1.933697    0.042270    0.087736   -0.001164
O     4.336402    4.681686    1.287179    0.001212    0.070332   -0.078084
O    -0.543805    2.333040    2.635866    0.076828    0.071808    0.030494
O    -6.916848    0.843460    1.782752    0.044240    0.005474    0.066950
O    -4.331486   -4.620173    1.241365    0.049994    0.015890    0.068318
O     1.874793   -1.785709    2.718446   -0.495996   -0.279050    0.024988
O     6.746722   -1.133716    1.750992    0.040698    0.091534   -0.017472
H     0.004677    5.774453    0.003908    0.005868    0.025488   -0.033542
H    -5.619406    3.423104    0.751906    0.034194   -0.014964    0.061914
H    -5.326191   -2.665614   -0.758084    0.020402   -0.009772    0.046514
H    -0.257347   -5.838059   -0.497721   -0.000590   -0.027808    0.018304
H     5.423910   -3.580063    0.477807    0.000116    0.064688    0.059338
H     5.127199    2.654878   -0.402858    0.025194    0.041942   -0.062078
H     1.673364    5.229276   -1.784196   -0.005196    0.033690   -0.038312
H    -4.291228    5.509754    0.526325    0.009684    0.004360    0.013930
H    -6.465916   -0.834418   -1.939685    0.009948   -0.018122    0.042234
H    -1.988457   -5.284795   -2.184818    0.001528   -0.008984    0.020768
H     4.126894   -5.631934   -0.062254    0.062108    0.029522    0.017604
H     6.274255    1.032994   -1.809030    0.010532    0.004590   -0.033684
H    -0.740294    5.244400   -2.258167    0.008834    0.015698   -0.054384
H    -4.895924    4.253512   -1.921772   -0.026532   -0.032574    0.034930
H    -4.111974   -1.781404   -3.182038    0.014418   -0.013076    0.050334
H     0.497418   -5.173074   -2.697558    0.030346    0.020800    0.033938
H     4.864264   -4.085739   -2.300360    0.064680    0.075132    0.042202
H     3.818888    1.913390   -2.906006    0.009934   -0.002338   -0.039874
H     0.707699    2.428072   -1.096939    0.019502    0.024780   -0.036712
H    -2.472241    3.832804   -1.276391   -0.009696   -0.010968    0.005276
H    -3.734852    0.545401   -1.977181    0.000554    0.004124    0.024978
H    -1.036057   -2.422552   -1.701991    0.027448   -0.021046    0.032816
H     2.404674   -3.764557   -1.772800    0.060440    0.022936    0.012042
H     3.626721   -0.481519   -2.022437   -0.000104    0.018182    0.015006
H     1.248856    2.857729   -3.419283    0.022314    0.012862   -0.031182
H    -2.891310    6.264786   -1.491614   -0.028226   -0.015654   -0.036674
H    -5.340340    0.906960   -3.715680    0.021988    0.001648    0.038956
H    -1.793679   -2.980309   -3.878536    0.023244    0.031980    0.034850
H     2.786971   -6.118171   -2.310500    0.093588    0.046926   -0.076304
H     5.263656   -0.584143   -3.739538   -0.000390   -0.002080    0.010714
H     3.440568    3.805017   -0.932316    0.009192    0.043592   -0.026364
H    -1.726128    5.019583    1.441273    0.032886    0.042710   -0.025042
H    -6.218543    1.467153   -0.475877    0.017242   -0.000994    0.056064
H    -3.691334   -3.818922   -1.107884    0.024142   -0.008400    0.051412
H     1.512694   -5.263766    0.739713    0.030108   -0.103642   -0.073878
H     6.086316   -1.502547   -0.567858   -0.005310    0.018964    0.018960
H     1.561594    2.758035    1.246637    0.035468    0.021428   -0.018972
H    -2.329182    2.144687    0.586769    0.049664    0.018204    0.042548
H    -3.742000    0.249331    0.834813    0.032446   -0.010220    0.027188
H    -1.582021   -2.727508    0.832534    0.043392    0.015076    0.014848
H     2.135341   -2.311948    0.310119   -0.072450   -0.058208    0.142374
H     3.581083   -0.471043    0.812200    0.024268    0.090620    0.018514
H     3.982825    2.801308    1.893454    0.038380    0.076546   -0.033058
H     3.042870    4.045183    2.766424    0.031848    0.087832   -0.046278
H    -5.338307   -0.128116    2.701626    0.051130    0.000536    0.049518
H    -5.129797    1.593404    2.349466    0.058940   -0.003042    0.040914
H    -3.935385   -2.694233    1.673395    0.058608    0.018694    0.052692
H    -2.899513   -3.862816    2.530194    0.070926    0.018164    0.042428
H     5.171338   -0.250473    2.747925    0.053016    0.095890   -0.004872
H     4.953579   -1.929269    2.207626    0.054362    0.085816    0.013136
H     3.874630    5.528704    1.208141   -0.010974    0.064136   -0.086900
H    -7.315021   -0.014410    1.574336    0.041628    0.007906    0.064218
H    -3.870651   -5.471792    1.200297    0.052022    0.017084    0.067878
H     7.149262   -0.265262    1.606739    0.034036    0.088704   -0.046276
C     1.067167   -0.962411    3.566962   -0.503976   -0.291688   -0.014090
H     1.738423   -0.548319    4.316273   -0.628238   -0.571024    0.279094
H     0.267437   -1.535158    4.046759   -0.861874   -0.204350   -0.357994
O     0.522336   -3.610434    2.650268   -0.317734   -0.398534   -0.274724
C     0.080018    1.378607    3.515262    0.077214    0.043886   -0.003824
H    -0.580602    1.131470    4.343947    0.143320    0.118376    0.080508
H     0.980726    1.861115    3.886371    0.150914   -0.016678   -0.091130
O    -2.597622    1.956936    3.512376    0.083100    0.063174    0.037824
C     0.394401    0.119688    2.665008   -0.095254    0.012576   -0.030886
O    -0.650135   -0.371015    2.014433   -0.158428    0.244582   -0.137004
H    -1.119619    0.010848    0.490737   -0.091004    0.094882   -0.269202
O    -1.333090    0.200784   -0.469864    0.040084    0.075392   -0.276944
H     0.206737   -0.038954   -0.926230    0.064496    0.041866   -0.041516
O     1.216077   -0.161997   -0.830972    0.057892    0.025258   -0.006690
H     1.367932    0.073021    0.140947    0.042684   -0.071610    0.001618
O     1.421164    0.592955    1.679175    0.069418   -0.164888    0.077788
H     2.312701    0.561510    2.068645    0.021334    0.013600    0.277704
H     1.655202    0.552408   -1.324649    0.075518    0.050238    0.066234
H    -1.942226   -0.506931   -0.734426    0.043666    0.086342   -0.312300
139
* Frequency(7)  -96.4200
C     0.437751    4.773480   -0.080877    0.006766    0.026080   -0.036376
C    -4.570435    3.376474    0.428695    0.028228   -0.005288    0.040710
C    -4.861820   -1.671278   -0.765711    0.019148   -0.008870    0.041526
C    -0.646693   -4.816791   -0.558157    0.019222   -0.020348    0.016794
C     4.394669   -3.491818    0.113526    0.000134    0.037712    0.055960
C     4.668845    1.669668   -0.523120    0.022948    0.041542   -0.039440
O    -0.492336    3.785792    0.310440    0.013080    0.026856   -0.029382
O    -4.364254    2.385867   -0.525991    0.020820   -0.009074    0.042144
O    -3.457012   -1.783230   -0.842599    0.019066   -0.005244    0.024766
O     0.360891   -3.879286   -0.294658    0.048776   -0.044664   -0.022122
O     4.223154   -2.400110   -0.730201   -0.025512    0.048684    0.067652
O     3.262569    1.780099   -0.576081    0.021550    0.039702   -0.030256
C     0.901328    4.488842   -1.528663    0.003898    0.025002   -0.036820
C    -4.114795    4.706278   -0.196234    0.002658   -0.003904    0.018750
C    -5.370378   -0.866199   -1.973192    0.009998   -0.011080    0.042778
C    -1.208300   -4.538704   -1.965906    0.006172   -0.015072    0.022618
C     3.993327   -4.745750   -0.692076    0.054772    0.033998    0.024406
C     5.179936    1.010339   -1.817018    0.009756    0.012648   -0.027020
O    -0.133988    4.516518   -2.470184    0.000906    0.009472   -0.033332
O    -4.829885    5.037933   -1.352245   -0.019222   -0.023122    0.024330
O    -5.031799   -1.454977   -3.196907    0.016088   -0.009234    0.043464
O    -0.218713   -4.566016   -2.957091    0.002568   -0.017306    0.017394
O     4.796615   -4.925829   -1.823370    0.091458    0.072580    0.041724
O     4.776174    1.717388   -2.957128    0.008218   -0.008992   -0.037906
C     1.498293    3.077407   -1.507806    0.015640    0.029340   -0.033666
C    -2.613802    4.613502   -0.512532   -0.002250    0.004114   -0.006082
C    -4.830407    0.566475   -1.873329    0.000962   -0.006132    0.038642
C    -1.832948   -3.137740   -1.944530    0.017364   -0.009992    0.032518
C     2.514253   -4.626954   -1.097902    0.064568    0.000422   -0.015434
C     4.716581   -0.453202   -1.881157    0.000086    0.014484    0.006052
O     1.920590    2.613106   -2.766789    0.024596    0.030936   -0.029896
O    -2.153498    5.853676   -1.013070   -0.017896    0.000984   -0.036476
O    -5.388185    1.386122   -2.870164   -0.015552   -0.011430    0.041380
O    -2.433413   -2.799264   -3.168479    0.014966    0.003046    0.036530
O     2.067935   -5.795791   -1.753403    0.093462    0.010260   -0.053446
O     5.347203   -1.130480   -2.941269   -0.009944   -0.002808    0.012084
C     2.703493    3.085765   -0.563178    0.013866    0.036316   -0.031134
C    -1.777078    4.196197    0.717941    0.021300    0.029598   -0.011256
C    -5.151292    1.201004   -0.511616    0.016140   -0.006912    0.044080
C    -2.905734   -3.093084   -0.853198    0.023784   -0.003310    0.037870
C     1.623564   -4.365333    0.126507    0.043412   -0.070008   -0.024340
C     5.023130   -1.226777   -0.589532   -0.000906    0.037366    0.019950
C     2.239168    3.521320    0.839660    0.016262    0.033916   -0.030606
C    -2.449642    2.953149    1.340765    0.050428    0.032350    0.026626
C    -4.823385    0.256315    0.663874    0.029194   -0.008478    0.039510
C    -2.301434   -3.485190    0.506788    0.041762    0.009072    0.033466
C     2.226239   -3.223165    0.947494   -0.016346   -0.108986    0.068616
C     4.668035   -0.415418    0.671404    0.023588    0.071366    0.002748
O     1.548281    4.775096    0.771756    0.006048    0.026448   -0.033716
O    -3.814451    3.166000    1.604841    0.049100    0.012860    0.034318
O    -5.278948   -1.076437    0.425276    0.024842   -0.007634    0.044000
O    -1.666264   -4.757405    0.402757    0.039660    0.008016    0.036740
O     3.582382   -3.413415    1.277939   -0.004858   -0.010480    0.061204
O     5.084943    0.949595    0.597432    0.034898    0.064166   -0.030256
C     3.427623    3.739138    1.784099    0.023698    0.067616   -0.044938
C    -1.870823    2.379141    2.624903    0.090598    0.065018    0.035442
C    -5.533727    0.658880    1.969237    0.046730   -0.001378    0.048546
C    -3.385355   -3.633186    1.581000    0.055522    0.016982    0.049850
C     1.418682   -2.946102    2.214057   -0.202632   -0.270512    0.018308
C     5.368519   -0.951611    1.933606    0.042270    0.087736   -0.001164
O     4.336496    4.687174    1.281086    0.001212    0.070332   -0.078084
O    -0.537810    2.338643    2.638246    0.076828    0.071808    0.030494
O    -6.913395    0.843887    1.787976    0.044240    0.005474    0.066950
O    -4.327584   -4.618933    1.246696    0.049994    0.015890    0.068318
O     1.836088   -1.807484    2.720396   -0.495996   -0.279050    0.024988
O     6.749898   -1.126573    1.749629    0.040698    0.091534   -0.017472
H     0.005135    5.776442    0.001291    0.005868    0.025488   -0.033542
H    -5.616738    3.421936    0.756737    0.034194   -0.014964    0.061914
H    -5.324599   -2.666376   -0.754454    0.020402   -0.009772    0.046514
H    -0.257393   -5.840229   -0.496293   -0.000590   -0.027808    0.018304
H     5.423919   -3.575015    0.482438    0.000116    0.064688    0.059338
H     5.129165    2.658151   -0.407702    0.025194    0.041942   -0.062078
H     1.672959    5.231905   -1.787186   -0.005196    0.033690   -0.038312
H    -4.290473    5.510095    0.527412    0.009684    0.004360    0.013930
H    -6.465140   -0.835832   -1.936389    0.009948   -0.018122    0.042234
H    -1.988337   -5.285496   -2.183198    0.001528   -0.008984    0.020768
H     4.131740   -5.629630   -0.060880    0.062108    0.029522    0.017604
H     6.275077    1.033352   -1.811659    0.010532    0.004590   -0.033684
H    -0.739605    5.245625   -2.262411    0.008834    0.015698   -0.054384
H    -4.897994    4.250971   -1.919046   -0.026532   -0.032574    0.034930
H    -4.110849   -1.782424   -3.178111    0.014418   -0.013076    0.050334
H     0.499786   -5.171450   -2.694910    0.030346    0.020800    0.033938
H     4.869311   -4.079876   -2.297066    0.064680    0.075132    0.042202
H     3.819663    1.913208   -2.909117    0.009934   -0.002338   -0.039874
H     0.709221    2.430006   -1.099804    0.019502    0.024780   -0.036712
H    -2.472998    3.831948   -1.275979   -0.009696   -0.010968    0.005276
H    -3.734809    0.545722   -1.975232    0.000554    0.004124    0.024978
H    -1.033916   -2.424195   -1.699431    0.027448   -0.021046    0.032816
H     2.409390   -3.762768   -1.771861    0.060440    0.022936    0.012042
H     3.626713   -0.480101   -2.021266   -0.000104    0.018182    0.015006
H     1.250597    2.858733   -3.421717    0.022314    0.012862   -0.031182
H    -2.893512    6.263564   -1.494476   -0.028226   -0.015654   -0.036674
H    -5.338624    0.907089   -3.712641    0.021988    0.001648    0.038956
H    -1.791865   -2.977814   -3.875817    0.023244    0.031980    0.034850
H     2.794274   -6.114509   -2.316455    0.093588    0.046926   -0.076304
H     5.263626   -0.584305   -3.738702   -0.000390   -0.002080    0.010714
H     3.441285    3.808419   -0.934373    0.009192    0.043592   -0.026364
H    -1.723562    5.022915    1.439318    0.032886    0.042710   -0.025042
H    -6.217198    1.467076   -0.471502    0.017242   -0.000994    0.056064
H    -3.689450   -3.819577   -1.103872    0.024142   -0.008400    0.051412
H     1.515044   -5.271854    0.733948    0.030108   -0.103642   -0.073878
H     6.085902   -1.501067   -0.566379   -0.005310    0.018964    0.018960
H     1.564361    2.759708    1.245156    0.035468    0.021428   -0.018972
H    -2.325306    2.146108    0.590089    0.049664    0.018204    0.042548
H    -3.739468    0.248533    0.836934    0.032446   -0.010220    0.027188
H    -1.578635   -2.726332    0.833693    0.043392    0.015076    0.014848
H     2.129688   -2.316490    0.321229   -0.072450   -0.058208    0.142374
H     3.582977   -0.463972    0.813645    0.024268    0.090620    0.018514
H     3.985820    2.807282    1.890875    0.038380    0.076546   -0.033058
H     3.045355    4.052037    2.762813    0.031848    0.087832   -0.046278
H    -5.334317   -0.128074    2.705490    0.051130    0.000536    0.049518
H    -5.125198    1.593167    2.352659    0.058940   -0.003042    0.040914
H    -3.930811   -2.692775    1.677507    0.058608    0.018694    0.052692
H    -2.893978   -3.861399    2.533505    0.070926    0.018164    0.042428
H     5.175475   -0.242990    2.747544    0.053016    0.095890   -0.004872
H     4.957822   -1.922572    2.208651    0.054362    0.085816    0.013136
H     3.873774    5.533708    1.201360   -0.010974    0.064136   -0.086900
H    -7.311773   -0.013793    1.579347    0.041628    0.007906    0.064218
H    -3.866591   -5.470459    1.205594    0.052022    0.017084    0.067878
H     7.151918   -0.258340    1.603128    0.034036    0.088704   -0.046276
C     1.027840   -0.985173    3.565863   -0.503976   -0.291688   -0.014090
H     1.689399   -0.592878    4.338052   -0.628238   -0.571024    0.279094
H     0.200182   -1.551104    4.018824   -0.861874   -0.204350   -0.357994
O     0.497542   -3.641533    2.628831   -0.317734   -0.398534   -0.274724
C     0.086043    1.382032    3.514964    0.077214    0.043886   -0.003824
H    -0.569418    1.140707    4.350230    0.143320    0.118376    0.080508
H     0.992502    1.859813    3.879260    0.150914   -0.016678   -0.091130
O    -2.591137    1.961866    3.515328    0.083100    0.063174    0.037824
C     0.386968    0.120669    2.662598   -0.095254    0.012576   -0.030886
O    -0.662498   -0.351929    2.003742   -0.158428    0.244582   -0.137004
H    -1.126720    0.018252    0.469731   -0.091004    0.094882   -0.269202
O    -1.329962    0.206667   -0.491475    0.040084    0.075392   -0.276944
H     0.211770   -0.035687   -0.929470    0.064496    0.041866   -0.041516
O     1.220595   -0.160026   -0.831494    0.057892    0.025258   -0.006690
H     1.371263    0.067433    0.141073    0.042684   -0.071610    0.001618
O     1.426581    0.580088    1.685246    0.069418   -0.164888    0.077788
H     2.314366    0.562571    2.090316    0.021334    0.013600    0.277704
H     1.661095    0.556328   -1.319481    0.075518    0.050238    0.066234
H    -1.938819   -0.500193   -0.758795    0.043666    0.086342   -0.312300
139
* Frequency(7)  -96.4200
C     0.438065    4.774687   -0.082561    0.006766    0.026080   -0.036376
C    -4.569129    3.376229    0.430579    0.028228   -0.005288    0.040710
C    -4.860934   -1.671689   -0.763789    0.019148   -0.008870    0.041526
C    -0.645803   -4.817733   -0.557380    0.019222   -0.020348    0.016794
C     4.394675   -3.490073    0.116116    0.000134    0.037712    0.055960
C     4.669907    1.671591   -0.524946    0.022948    0.041542   -0.039440
O    -0.491731    3.787035    0.309080    0.013080    0.026856   -0.029382
O    -4.363290    2.385447   -0.524041    0.020820   -0.009074    0.042144
O    -3.456129   -1.783472   -0.841453    0.019066   -0.005244    0.024766
O     0.363148   -3.881353   -0.295682    0.048776   -0.044664   -0.022122
O     4.221973   -2.397857   -0.727070   -0.025512    0.048684    0.067652
O     3.263567    1.781936   -0.577482    0.021550    0.039702   -0.030256
C     0.901509    4.489999   -1.530367    0.003898    0.025002   -0.036820
C    -4.114672    4.706097   -0.195366    0.002658   -0.003904    0.018750
C    -5.369915   -0.866711   -1.971212    0.009998   -0.011080    0.042778
C    -1.208014   -4.539402   -1.964859    0.006172   -0.015072    0.022618
C     3.995862   -4.744177   -0.690946    0.054772    0.033998    0.024406
C     5.180387    1.010924   -1.818269    0.009756    0.012648   -0.027020
O    -0.133946    4.516957   -2.471726    0.000906    0.009472   -0.033332
O    -4.830775    5.036863   -1.351119   -0.019222   -0.023122    0.024330
O    -5.031055   -1.455404   -3.194895    0.016088   -0.009234    0.043464
O    -0.218594   -4.566817   -2.956286    0.002568   -0.017306    0.017394
O     4.800848   -4.922470   -1.821438    0.091458    0.072580    0.041724
O     4.776554    1.716972   -2.958882    0.008218   -0.008992   -0.037906
C     1.499016    3.078765   -1.509365    0.015640    0.029340   -0.033666
C    -2.613906    4.613693   -0.512814   -0.002250    0.004114   -0.006082
C    -4.830363    0.566191   -1.871540    0.000962   -0.006132    0.038642
C    -1.832145   -3.138202   -1.943025    0.017364   -0.009992    0.032518
C     2.517241   -4.626935   -1.098617    0.064568    0.000422   -0.015434
C     4.716585   -0.452532   -1.880877    0.000086    0.014484    0.006052
O     1.921728    2.614537   -2.768172    0.024596    0.030936   -0.029896
O    -2.154326    5.853722   -1.014758   -0.017896    0.000984   -0.036476
O    -5.388905    1.385593   -2.868249   -0.015552   -0.011430    0.041380
O    -2.432720   -2.799124   -3.166789    0.014966    0.003046    0.036530
O     2.072261   -5.795316   -1.755877    0.093462    0.010260   -0.053446
O     5.346743   -1.130610   -2.940710   -0.009944   -0.002808    0.012084
C     2.704135    3.087446   -0.564618    0.013866    0.036316   -0.031134
C    -1.776092    4.197567    0.717420    0.021300    0.029598   -0.011256
C    -5.150545    1.200684   -0.509576    0.016140   -0.006912    0.044080
C    -2.904633   -3.093237   -0.851445    0.023784   -0.003310    0.037870
C     1.625573   -4.368573    0.125381    0.043412   -0.070008   -0.024340
C     5.023088   -1.225048   -0.588609   -0.000906    0.037366    0.019950
C     2.239921    3.522889    0.838244    0.016262    0.033916   -0.030606
C    -2.447308    2.954646    1.341997    0.050428    0.032350    0.026626
C    -4.822034    0.255922    0.665702    0.029194   -0.008478    0.039510
C    -2.299502   -3.484770    0.508337    0.041762    0.009072    0.033466
C     2.225483   -3.228209    0.950670   -0.016346   -0.108986    0.068616
C     4.669127   -0.412115    0.671531    0.023588    0.071366    0.002748
O     1.548561    4.776321    0.770195    0.006048    0.026448   -0.033716
O    -3.812179    3.166595    1.606430    0.049100    0.012860    0.034318
O    -5.277798   -1.076790    0.427313    0.024842   -0.007634    0.044000
O    -1.664429   -4.757034    0.404458    0.039660    0.008016    0.036740
O     3.582157   -3.413900    1.280772   -0.004858   -0.010480    0.061204
O     5.086559    0.952565    0.596031    0.034898    0.064166   -0.030256
C     3.428719    3.742267    1.782019    0.023698    0.067616   -0.044938
C    -1.866630    2.382150    2.626543    0.090598    0.065018    0.035442
C    -5.531564    0.658816    1.971484    0.046730   -0.001378    0.048546
C    -3.382785   -3.632400    1.583308    0.055522    0.016982    0.049850
C     1.409304   -2.958622    2.214905   -0.202632   -0.270512    0.018308
C     5.370476   -0.947550    1.933552    0.042270    0.087736   -0.001164
O     4.336552    4.690429    1.277472    0.001212    0.070332   -0.078084
O    -0.534254    2.341967    2.639657    0.076828    0.071808    0.030494
O    -6.911348    0.844140    1.791074    0.044240    0.005474    0.066950
O    -4.325271   -4.618198    1.249858    0.049994    0.015890    0.068318
O     1.813132   -1.820399    2.721552   -0.495996   -0.279050    0.024988
O     6.751781   -1.122336    1.748820    0.040698    0.091534   -0.017472
H     0.005407    5.777622   -0.000261    0.005868    0.025488   -0.033542
H    -5.615155    3.421244    0.759603    0.034194   -0.014964    0.061914
H    -5.323655   -2.666829   -0.752301    0.020402   -0.009772    0.046514
H    -0.257420   -5.841516   -0.495446   -0.000590   -0.027808    0.018304
H     5.423924   -3.572021    0.485184    0.000116    0.064688    0.059338
H     5.130331    2.660093   -0.410575    0.025194    0.041942   -0.062078
H     1.672718    5.233465   -1.788959   -0.005196    0.033690   -0.038312
H    -4.290024    5.510296    0.528056    0.009684    0.004360    0.013930
H    -6.464680   -0.836671   -1.934434    0.009948   -0.018122    0.042234
H    -1.988267   -5.285912   -2.182237    0.001528   -0.008984    0.020768
H     4.134615   -5.628263   -0.060065    0.062108    0.029522    0.017604
H     6.275564    1.033564   -1.813218    0.010532    0.004590   -0.033684
H    -0.739196    5.246351   -2.264928    0.008834    0.015698   -0.054384
H    -4.899222    4.249463   -1.917430   -0.026532   -0.032574    0.034930
H    -4.110182   -1.783030   -3.175781    0.014418   -0.013076    0.050334
H     0.501190   -5.170488   -2.693339    0.030346    0.020800    0.033938
H     4.872304   -4.076398   -2.295113    0.064680    0.075132    0.042202
H     3.820123    1.913100   -2.910963    0.009934   -0.002338   -0.039874
H     0.710124    2.431153   -1.101503    0.019502    0.024780   -0.036712
H    -2.473447    3.831441   -1.275735   -0.009696   -0.010968    0.005276
H    -3.734783    0.545913   -1.974076    0.000554    0.004124    0.024978
H    -1.032645   -2.425169   -1.697912    0.027448   -0.021046    0.032816
H     2.412188   -3.761706   -1.771303    0.060440    0.022936    0.012042
H     3.626708   -0.479259   -2.020572   -0.000104    0.018182    0.015006
H     1.251630    2.859328   -3.423160    0.022314    0.012862   -0.031182
H    -2.894819    6.262840   -1.496173   -0.028226   -0.015654   -0.036674
H    -5.337607    0.907165   -3.710838    0.021988    0.001648    0.038956
H    -1.790790   -2.976334   -3.874204    0.023244    0.031980    0.034850
H     2.798605   -6.112337   -2.319986    0.093588    0.046926   -0.076304
H     5.263608   -0.584402   -3.738206   -0.000390   -0.002080    0.010714
H     3.441711    3.810436   -0.935593    0.009192    0.043592   -0.026364
H    -1.722040    5.024892    1.438159    0.032886    0.042710   -0.025042
H    -6.216400    1.467030   -0.468907    0.017242   -0.000994    0.056064
H    -3.688333   -3.819966   -1.101492    0.024142   -0.008400    0.051412
H     1.516437   -5.276651    0.730529    0.030108   -0.103642   -0.073878
H     6.085656   -1.500190   -0.565501   -0.005310    0.018964    0.018960
H     1.566003    2.760699    1.244278    0.035468    0.021428   -0.018972
H    -2.323007    2.146950    0.592058    0.049664    0.018204    0.042548
H    -3.737966    0.248060    0.838193    0.032446   -0.010220    0.027188
H    -1.576627   -2.725634    0.834380    0.043392    0.015076    0.014848
H     2.126334   -2.319184    0.327818   -0.072450   -0.058208    0.142374
H     3.584100   -0.459778    0.814502    0.024268    0.090620    0.018514
H     3.987596    2.810824    1.889345    0.038380    0.076546   -0.033058
H     3.046829    4.056102    2.760671    0.031848    0.087832   -0.046278
H    -5.331951   -0.128049    2.707782    0.051130    0.000536    0.049518
H    -5.122470    1.593026    2.354553    0.058940   -0.003042    0.040914
H    -3.928099   -2.691909    1.679946    0.058608    0.018694    0.052692
H    -2.890696   -3.860558    2.535468    0.070926    0.018164    0.042428
H     5.177929   -0.238552    2.747319    0.053016    0.095890   -0.004872
H     4.960337   -1.918600    2.209259    0.054362    0.085816    0.013136
H     3.873266    5.536677    1.197338   -0.010974    0.064136   -0.086900
H    -7.309846   -0.013428    1.582320    0.041628    0.007906    0.064218
H    -3.864183   -5.469669    1.208735    0.052022    0.017084    0.067878
H     7.153493   -0.254235    1.600986    0.034036    0.088704   -0.046276
C     1.004515   -0.998673    3.565210   -0.503976   -0.291688   -0.014090
H     1.660323   -0.619306    4.350969   -0.628238   -0.571024    0.279094
H     0.160293   -1.560562    4.002255   -0.861874   -0.204350   -0.357994
O     0.482837   -3.659978    2.616116   -0.317734   -0.398534   -0.274724
C     0.089617    1.384063    3.514787    0.077214    0.043886   -0.003824
H    -0.562785    1.146186    4.353956    0.143320    0.118376    0.080508
H     0.999487    1.859041    3.875042    0.150914   -0.016678   -0.091130
O    -2.587291    1.964789    3.517078    0.083100    0.063174    0.037824
C     0.382559    0.121251    2.661169   -0.095254    0.012576   -0.030886
O    -0.669830   -0.340610    1.997401   -0.158428    0.244582   -0.137004
H    -1.130932    0.022644    0.457271   -0.091004    0.094882   -0.269202
O    -1.328107    0.210157   -0.504292    0.040084    0.075392   -0.276944
H     0.214755   -0.033749   -0.931391    0.064496    0.041866   -0.041516
O     1.223274   -0.158857   -0.831804    0.057892    0.025258   -0.006690
H     1.373238    0.064118    0.141148    0.042684   -0.071610    0.001618
O     1.429794    0.572457    1.688846    0.069418   -0.164888    0.077788
H     2.315353    0.563200    2.103168    0.021334    0.013600    0.277704
H     1.664591    0.558653   -1.316415    0.075518    0.050238    0.066234
H    -1.936798   -0.496197   -0.773249    0.043666    0.086342   -0.312300
139
* Frequency(7)  -96.4200
C     0.438129    4.774935   -0.082907    0.006766    0.026080   -0.036376
C    -4.568860    3.376179    0.430967    0.028228   -0.005288    0.040710
C    -4.860752   -1.671773   -0.763394    0.019148   -0.008870    0.041526
C    -0.645620   -4.817926   -0.557220    0.019222   -0.020348    0.016794
C     4.394677   -3.489714    0.116648    0.000134    0.037712    0.055960
C     4.670125    1.671986   -0.525321    0.022948    0.041542   -0.039440
O    -0.491607    3.787290    0.308800    0.013080    0.026856   -0.029382
O    -4.363092    2.385361   -0.523640    0.020820   -0.009074    0.042144
O    -3.455948   -1.783522   -0.841218    0.019066   -0.005244    0.024766
O     0.363612   -3.881778   -0.295892    0.048776   -0.044664   -0.022122
O     4.221730   -2.397394   -0.726427   -0.025512    0.048684    0.067652
O     3.263772    1.782314   -0.577769    0.021550    0.039702   -0.030256
C     0.901546    4.490237   -1.530717    0.003898    0.025002   -0.036820
C    -4.114647    4.706060   -0.195188    0.002658   -0.003904    0.018750
C    -5.369820   -0.866817   -1.970805    0.009998   -0.011080    0.042778
C    -1.207955   -4.539545   -1.964644    0.006172   -0.015072    0.022618
C     3.996383   -4.743853   -0.690714    0.054772    0.033998    0.024406
C     5.180480    1.011045   -1.818526    0.009756    0.012648   -0.027020
O    -0.133937    4.517047   -2.472043    0.000906    0.009472   -0.033332
O    -4.830958    5.036643   -1.350888   -0.019222   -0.023122    0.024330
O    -5.030901   -1.455492   -3.194482    0.016088   -0.009234    0.043464
O    -0.218569   -4.566981   -2.956121    0.002568   -0.017306    0.017394
O     4.801718   -4.921780   -1.821041    0.091458    0.072580    0.041724
O     4.776632    1.716887   -2.959243    0.008218   -0.008992   -0.037906
C     1.499165    3.079044   -1.509685    0.015640    0.029340   -0.033666
C    -2.613928    4.613732   -0.512871   -0.002250    0.004114   -0.006082
C    -4.830353    0.566133   -1.871172    0.000962   -0.006132    0.038642
C    -1.831979   -3.138297   -1.942716    0.017364   -0.009992    0.032518
C     2.517856   -4.626931   -1.098763    0.064568    0.000422   -0.015434
C     4.716586   -0.452394   -1.880819    0.000086    0.014484    0.006052
O     1.921962    2.614832   -2.768457    0.024596    0.030936   -0.029896
O    -2.154496    5.853731   -1.015105   -0.017896    0.000984   -0.036476
O    -5.389053    1.385484   -2.867855   -0.015552   -0.011430    0.041380
O    -2.432578   -2.799095   -3.166441    0.014966    0.003046    0.036530
O     2.073150   -5.795218   -1.756385    0.093462    0.010260   -0.053446
O     5.346648   -1.130636   -2.940595   -0.009944   -0.002808    0.012084
C     2.704267    3.087791   -0.564915    0.013866    0.036316   -0.031134
C    -1.775889    4.197849    0.717313    0.021300    0.029598   -0.011256
C    -5.150391    1.200618   -0.509157    0.016140   -0.006912    0.044080
C    -2.904407   -3.093269   -0.851085    0.023784   -0.003310    0.037870
C     1.625986   -4.369239    0.125149    0.043412   -0.070008   -0.024340
C     5.023079   -1.224693   -0.588419   -0.000906    0.037366    0.019950
C     2.240075    3.523212    0.837952    0.016262    0.033916   -0.030606
C    -2.446828    2.954954    1.342250    0.050428    0.032350    0.026626
C    -4.821756    0.255842    0.666078    0.029194   -0.008478    0.039510
C    -2.299104   -3.484684    0.508655    0.041762    0.009072    0.033466
C     2.225327   -3.229246    0.951323   -0.016346   -0.108986    0.068616
C     4.669352   -0.411436    0.671558    0.023588    0.071366    0.002748
O     1.548619    4.776572    0.769875    0.006048    0.026448   -0.033716
O    -3.811712    3.166718    1.606756    0.049100    0.012860    0.034318
O    -5.277562   -1.076863    0.427731    0.024842   -0.007634    0.044000
O    -1.664051   -4.756958    0.404807    0.039660    0.008016    0.036740
O     3.582111   -3.413999    1.281354   -0.004858   -0.010480    0.061204
O     5.086891    0.953175    0.595744    0.034898    0.064166   -0.030256
C     3.428945    3.742911    1.781591    0.023698    0.067616   -0.044938
C    -1.865768    2.382769    2.626880    0.090598    0.065018    0.035442
C    -5.531119    0.658803    1.971946    0.046730   -0.001378    0.048546
C    -3.382257   -3.632239    1.583782    0.055522    0.016982    0.049850
C     1.407376   -2.961196    2.215079   -0.202632   -0.270512    0.018308
C     5.370878   -0.946715    1.933541    0.042270    0.087736   -0.001164
O     4.336564    4.691098    1.276729    0.001212    0.070332   -0.078084
O    -0.533523    2.342650    2.639947    0.076828    0.071808    0.030494
O    -6.910927    0.844192    1.791711    0.044240    0.005474    0.066950
O    -4.324795   -4.618046    1.250508    0.049994    0.015890    0.068318
O     1.808413   -1.823054    2.721790   -0.495996   -0.279050    0.024988
O     6.752169   -1.121466    1.748654    0.040698    0.091534   -0.017472
H     0.005463    5.777864   -0.000581    0.005868    0.025488   -0.033542
H    -5.614830    3.421101    0.760192    0.034194   -0.014964    0.061914
H    -5.323461   -2.666922   -0.751859    0.020402   -0.009772    0.046514
H    -0.257426   -5.841781   -0.495271   -0.000590   -0.027808    0.018304
H     5.423925   -3.571406    0.485748    0.000116    0.064688    0.059338
H     5.130571    2.660492   -0.411166    0.025194    0.041942   -0.062078
H     1.672669    5.233785   -1.789323   -0.005196    0.033690   -0.038312
H    -4.289932    5.510338    0.528189    0.009684    0.004360    0.013930
H    -6.464585   -0.836843   -1.934033    0.009948   -0.018122    0.042234
H    -1.988252   -5.285998   -2.182039    0.001528   -0.008984    0.020768
H     4.135206   -5.627983   -0.059898    0.062108    0.029522    0.017604
H     6.275665    1.033608   -1.813538    0.010532    0.004590   -0.033684
H    -0.739112    5.246501   -2.265445    0.008834    0.015698   -0.054384
H    -4.899474    4.249153   -1.917097   -0.026532   -0.032574    0.034930
H    -4.110045   -1.783154   -3.175302    0.014418   -0.013076    0.050334
H     0.501479   -5.170290   -2.693016    0.030346    0.020800    0.033938
H     4.872920   -4.075684   -2.294712    0.064680    0.075132    0.042202
H     3.820217    1.913077   -2.911342    0.009934   -0.002338   -0.039874
H     0.710309    2.431388   -1.101852    0.019502    0.024780   -0.036712
H    -2.473539    3.831336   -1.275685   -0.009696   -0.010968    0.005276
H    -3.734778    0.545952   -1.973839    0.000554    0.004124    0.024978
H    -1.032384   -2.425369   -1.697600    0.027448   -0.021046    0.032816
H     2.412763   -3.761488   -1.771189    0.060440    0.022936    0.012042
H     3.626707   -0.479086   -2.020429   -0.000104    0.018182    0.015006
H     1.251842    2.859450   -3.423456    0.022314    0.012862   -0.031182
H    -2.895087    6.262691   -1.496522   -0.028226   -0.015654   -0.036674
H    -5.337397    0.907181   -3.710467    0.021988    0.001648    0.038956
H    -1.790568   -2.976029   -3.873872    0.023244    0.031980    0.034850
H     2.799496   -6.111891   -2.320712    0.093588    0.046926   -0.076304
H     5.263604   -0.584422   -3.738104   -0.000390   -0.002080    0.010714
H     3.441798    3.810851   -0.935844    0.009192    0.043592   -0.026364
H    -1.721727    5.025298    1.437921    0.032886    0.042710   -0.025042
H    -6.216236    1.467020   -0.468374    0.017242   -0.000994    0.056064
H    -3.688103   -3.820046   -1.101003    0.024142   -0.008400    0.051412
H     1.516724   -5.277637    0.729826    0.030108   -0.103642   -0.073878
H     6.085606   -1.500009   -0.565321   -0.005310    0.018964    0.018960
H     1.566340    2.760903    1.244097    0.035468    0.021428   -0.018972
H    -2.322535    2.147124    0.592463    0.049664    0.018204    0.042548
H    -3.737658    0.247963    0.838451    0.032446   -0.010220    0.027188
H    -1.576214   -2.725490    0.834521    0.043392    0.015076    0.014848
H     2.125645   -2.319738    0.329173   -0.072450   -0.058208    0.142374
H     3.584331   -0.458915    0.814678    0.024268    0.090620    0.018514
H     3.987961    2.811553    1.889030    0.038380    0.076546   -0.033058
H     3.047132    4.056937    2.760231    0.031848    0.087832   -0.046278
H    -5.331465   -0.128044    2.708253    0.051130    0.000536    0.049518
H    -5.121909    1.592997    2.354942    0.058940   -0.003042    0.040914
H    -3.927541   -2.691731    1.680447    0.058608    0.018694    0.052692
H    -2.890021   -3.860385    2.535872    0.070926    0.018164    0.042428
H     5.178433   -0.237640    2.747273    0.053016    0.095890   -0.004872
H     4.960855   -1.917784    2.209384    0.054362    0.085816    0.013136
H     3.873161    5.537287    1.196511   -0.010974    0.064136   -0.086900
H    -7.309450   -0.013352    1.582931    0.041628    0.007906    0.064218
H    -3.863688   -5.469506    1.209381    0.052022    0.017084    0.067878
H     7.153817   -0.253391    1.600546    0.034036    0.088704   -0.046276
C     0.999720   -1.001448    3.565076   -0.503976   -0.291688   -0.014090
H     1.654346   -0.624739    4.353624   -0.628238   -0.571024    0.279094
H     0.152092   -1.562506    3.998849   -0.861874   -0.204350   -0.357994
O     0.479814   -3.663769    2.613502   -0.317734   -0.398534   -0.274724
C     0.090352    1.384481    3.514750    0.077214    0.043886   -0.003824
H    -0.561421    1.147312    4.354722    0.143320    0.118376    0.080508
H     1.000922    1.858883    3.874175    0.150914   -0.016678   -0.091130
O    -2.586500    1.965390    3.517438    0.083100    0.063174    0.037824
C     0.381653    0.121371    2.660875   -0.095254    0.012576   -0.030886
O    -0.671337   -0.338283    1.996097   -0.158428    0.244582   -0.137004
H    -1.131798    0.023546    0.454710   -0.091004    0.094882   -0.269202
O    -1.327726    0.210874   -0.506927    0.040084    0.075392   -0.276944
H     0.215368   -0.033351   -0.931786    0.064496    0.041866   -0.041516
O     1.223825   -0.158617   -0.831868    0.057892    0.025258   -0.006690
H     1.373644    0.063437    0.141163    0.042684   -0.071610    0.001618
O     1.430454    0.570888    1.689586    0.069418   -0.164888    0.077788
H     2.315556    0.563330    2.105810    0.021334    0.013600    0.277704
H     1.665309    0.559131   -1.315785    0.075518    0.050238    0.066234
H    -1.936382   -0.495376   -0.776221    0.043666    0.086342   -0.312300
139
* Frequency(7)  -96.4200
C     0.437938    4.774197   -0.081878    0.006766    0.026080   -0.036376
C    -4.569658    3.376328    0.429815    0.028228   -0.005288    0.040710
C    -4.861294   -1.671522   -0.764568    0.019148   -0.008870    0.041526
C    -0.646164   -4.817351   -0.557695    0.019222   -0.020348    0.016794
C     4.394673   -3.490781    0.115065    0.000134    0.037712    0.055960
C     4.669476    1.670811   -0.524205    0.022948    0.041542   -0.039440
O    -0.491977    3.786531    0.309631    0.013080    0.026856   -0.029382
O    -4.363681    2.385618   -0.524832    0.020820   -0.009074    0.042144
O    -3.456487   -1.783374   -0.841918    0.019066   -0.005244    0.024766
O     0.362233   -3.880515   -0.295267    0.048776   -0.044664   -0.022122
O     4.222452   -2.398771   -0.728340   -0.025512    0.048684    0.067652
O     3.263162    1.781191   -0.576914    0.021550    0.039702   -0.030256
C     0.901435    4.489530   -1.529676    0.003898    0.025002   -0.036820
C    -4.114722    4.706171   -0.195718    0.002658   -0.003904    0.018750
C    -5.370102   -0.866503   -1.972015    0.009998   -0.011080    0.042778
C    -1.208130   -4.539119   -1.965283    0.006172   -0.015072    0.022618
C     3.994834   -4.744815   -0.691404    0.054772    0.033998    0.024406
C     5.180204    1.010687   -1.817761    0.009756    0.012648   -0.027020
O    -0.133963    4.516779   -2.471101    0.000906    0.009472   -0.033332
O    -4.830414    5.037297   -1.351576   -0.019222   -0.023122    0.024330
O    -5.031356   -1.455231   -3.195711    0.016088   -0.009234    0.043464
O    -0.218642   -4.566492   -2.956613    0.002568   -0.017306    0.017394
O     4.799131   -4.923833   -1.822222    0.091458    0.072580    0.041724
O     4.776400    1.717141   -2.958171    0.008218   -0.008992   -0.037906
C     1.498723    3.078214   -1.508733    0.015640    0.029340   -0.033666
C    -2.613864    4.613616   -0.512699   -0.002250    0.004114   -0.006082
C    -4.830381    0.566307   -1.872265    0.000962   -0.006132    0.038642
C    -1.832470   -3.138015   -1.943635    0.017364   -0.009992    0.032518
C     2.516029   -4.626943   -1.098327    0.064568    0.000422   -0.015434
C     4.716584   -0.452804   -1.880990    0.000086    0.014484    0.006052
O     1.921267    2.613957   -2.767611    0.024596    0.030936   -0.029896
O    -2.153990    5.853703   -1.014073   -0.017896    0.000984   -0.036476
O    -5.388613    1.385807   -2.869026   -0.015552   -0.011430    0.041380
O    -2.433001   -2.799181   -3.167474    0.014966    0.003046    0.036530
O     2.070507   -5.795508   -1.754874    0.093462    0.010260   -0.053446
O     5.346930   -1.130557   -2.940937   -0.009944   -0.002808    0.012084
C     2.703874    3.086764   -0.564034    0.013866    0.036316   -0.031134
C    -1.776492    4.197012    0.717631    0.021300    0.029598   -0.011256
C    -5.150848    1.200814   -0.510403    0.016140   -0.006912    0.044080
C    -2.905080   -3.093175   -0.852156    0.023784   -0.003310    0.037870
C     1.624758   -4.367259    0.125838    0.043412   -0.070008   -0.024340
C     5.023105   -1.225749   -0.588984   -0.000906    0.037366    0.019950
C     2.239615    3.522253    0.838818    0.016262    0.033916   -0.030606
C    -2.448255    2.954039    1.341497    0.050428    0.032350    0.026626
C    -4.822582    0.256082    0.664961    0.029194   -0.008478    0.039510
C    -2.300285   -3.484940    0.507709    0.041762    0.009072    0.033466
C     2.225790   -3.226163    0.949382   -0.016346   -0.108986    0.068616
C     4.668684   -0.413455    0.671480    0.023588    0.071366    0.002748
O     1.548448    4.775824    0.770828    0.006048    0.026448   -0.033716
O    -3.813100    3.166354    1.605786    0.049100    0.012860    0.034318
O    -5.278265   -1.076647    0.426487    0.024842   -0.007634    0.044000
O    -1.665173   -4.757185    0.403768    0.039660    0.008016    0.036740
O     3.582248   -3.413703    1.279623   -0.004858   -0.010480    0.061204
O     5.085904    0.951361    0.596599    0.034898    0.064166   -0.030256
C     3.428275    3.740998    1.782862    0.023698    0.067616   -0.044938
C    -1.868330    2.380930    2.625878    0.090598    0.065018    0.035442
C    -5.532441    0.658842    1.970573    0.046730   -0.001378    0.048546
C    -3.383827   -3.632719    1.582372    0.055522    0.016982    0.049850
C     1.413107   -2.953545    2.214561   -0.202632   -0.270512    0.018308
C     5.369682   -0.949197    1.933574    0.042270    0.087736   -0.001164
O     4.336529    4.689109    1.278937    0.001212    0.070332   -0.078084
O    -0.535696    2.340619    2.639085    0.076828    0.071808    0.030494
O    -6.912178    0.844038    1.789818    0.044240    0.005474    0.066950
O    -4.326209   -4.618496    1.248575    0.049994    0.015890    0.068318
O     1.822442   -1.815161    2.721083   -0.495996   -0.279050    0.024988
O     6.751018   -1.124054    1.749148    0.040698    0.091534   -0.017472
H     0.005297    5.777143    0.000368    0.005868    0.025488   -0.033542
H    -5.615797    3.421525    0.758441    0.034194   -0.014964    0.061914
H    -5.324038   -2.666645   -0.753174    0.020402   -0.009772    0.046514
H    -0.257409   -5.840994   -0.495789   -0.000590   -0.027808    0.018304
H     5.423922   -3.573235    0.484070    0.000116    0.064688    0.059338
H     5.129858    2.659305   -0.409410    0.025194    0.041942   -0.062078
H     1.672816    5.232832   -1.788240   -0.005196    0.033690   -0.038312
H    -4.290206    5.510214    0.527795    0.009684    0.004360    0.013930
H    -6.464866   -0.836330   -1.935227    0.009948   -0.018122    0.042234
H    -1.988295   -5.285744   -2.182626    0.001528   -0.008984    0.020768
H     4.133449   -5.628818   -0.060396    0.062108    0.029522    0.017604
H     6.275367    1.033478   -1.812585    0.010532    0.004590   -0.033684
H    -0.739362    5.246057   -2.263907    0.008834    0.015698   -0.054384
H    -4.898724    4.250074   -1.918085   -0.026532   -0.032574    0.034930
H    -4.110453   -1.782784   -3.176726    0.014418   -0.013076    0.050334
H     0.500621   -5.170878   -2.693976    0.030346    0.020800    0.033938
H     4.871090   -4.077809   -2.295905    0.064680    0.075132    0.042202
H     3.819936    1.913144   -2.910214    0.009934   -0.002338   -0.039874
H     0.709758    2.430688   -1.100814    0.019502    0.024780   -0.036712
H    -2.473265    3.831647   -1.275834   -0.009696   -0.010968    0.005276
H    -3.734793    0.545836   -1.974545    0.000554    0.004124    0.024978
H    -1.033160   -2.424774   -1.698528    0.027448   -0.021046    0.032816
H     2.411053   -3.762137   -1.771529    0.060440    0.022936    0.012042
H     3.626710   -0.479600   -2.020853   -0.000104    0.018182    0.015006
H     1.251211    2.859087   -3.422574    0.022314    0.012862   -0.031182
H    -2.894289    6.263134   -1.495485   -0.028226   -0.015654   -0.036674
H    -5.338019    0.907134   -3.711569    0.021988    0.001648    0.038956
H    -1.791226   -2.976934   -3.874858    0.023244    0.031980    0.034850
H     2.796849   -6.113218   -2.318554    0.093588    0.046926   -0.076304
H     5.263615   -0.584363   -3.738407   -0.000390   -0.002080    0.010714
H     3.441538    3.809618   -0.935098    0.009192    0.043592   -0.026364
H    -1.722657    5.024090    1.438630    0.032886    0.042710   -0.025042
H    -6.216724    1.467048   -0.469959    0.017242   -0.000994    0.056064
H    -3.688786   -3.819808   -1.102457    0.024142   -0.008400    0.051412
H     1.515872   -5.274705    0.731916    0.030108   -0.103642   -0.073878
H     6.085756   -1.500546   -0.565857   -0.005310    0.018964    0.018960
H     1.565337    2.760297    1.244634    0.035468    0.021428   -0.018972
H    -2.323940    2.146609    0.591260    0.049664    0.018204    0.042548
H    -3.738575    0.248252    0.837682    0.032446   -0.010220    0.027188
H    -1.577441   -2.725917    0.834101    0.043392    0.015076    0.014848
H     2.127694   -2.318092    0.325146   -0.072450   -0.058208    0.142374
H     3.583644   -0.461478    0.814154    0.024268    0.090620    0.018514
H     3.986876    2.809388    1.889965    0.038380    0.076546   -0.033058
H     3.046231    4.054453    2.761540    0.031848    0.087832   -0.046278
H    -5.332911   -0.128059    2.706853    0.051130    0.000536    0.049518
H    -5.123577    1.593083    2.353785    0.058940   -0.003042    0.040914
H    -3.929199   -2.692260    1.678957    0.058608    0.018694    0.052692
H    -2.892027   -3.860899    2.534672    0.070926    0.018164    0.042428
H     5.176934   -0.240352    2.747410    0.053016    0.095890   -0.004872
H     4.959317   -1.920211    2.209012    0.054362    0.085816    0.013136
H     3.873472    5.535473    1.198969   -0.010974    0.064136   -0.086900
H    -7.310627   -0.013576    1.581114    0.041628    0.007906    0.064218
H    -3.865160   -5.469989    1.207461    0.052022    0.017084    0.067878
H     7.152854   -0.255900    1.601855    0.034036    0.088704   -0.046276
C     1.013974   -0.993198    3.565475   -0.503976   -0.291688   -0.014090
H     1.672115   -0.608588    4.345730   -0.628238   -0.571024    0.279094
H     0.176470   -1.556726    4.008975   -0.861874   -0.204350   -0.357994
O     0.488801   -3.652497    2.621272   -0.317734   -0.398534   -0.274724
C     0.088168    1.383239    3.514858    0.077214    0.043886   -0.003824
H    -0.565475    1.143964    4.352444    0.143320    0.118376    0.080508
H     0.996654    1.859354    3.876753    0.150914   -0.016678   -0.091130
O    -2.588851    1.963604    3.516368    0.083100    0.063174    0.037824
C     0.384347    0.121015    2.661748   -0.095254    0.012576   -0.030886
O    -0.666856   -0.345200    1.999972   -0.158428    0.244582   -0.137004
H    -1.129224    0.020863    0.462324   -0.091004    0.094882   -0.269202
O    -1.328859    0.208742   -0.499094    0.040084    0.075392   -0.276944
H     0.213544   -0.034535   -0.930612    0.064496    0.041866   -0.041516
O     1.222188   -0.159331   -0.831678    0.057892    0.025258   -0.006690
H     1.372437    0.065463    0.141118    0.042684   -0.071610    0.001618
O     1.428491    0.575552    1.687386    0.069418   -0.164888    0.077788
H     2.314953    0.562945    2.097956    0.021334    0.013600    0.277704
H     1.663173    0.557710   -1.317659    0.075518    0.050238    0.066234
H    -1.937617   -0.497818   -0.767388    0.043666    0.086342   -0.312300
139
* Frequency(7)  -96.4200
C     0.437511    4.772554   -0.079586    0.006766    0.026080   -0.036376
C    -4.571437    3.376661    0.427250    0.028228   -0.005288    0.040710
C    -4.862500   -1.670963   -0.767185    0.019148   -0.008870    0.041526
C    -0.647375   -4.816069   -0.558753    0.019222   -0.020348    0.016794
C     4.394665   -3.493157    0.111539    0.000134    0.037712    0.055960
C     4.668030    1.668193   -0.521720    0.022948    0.041542   -0.039440
O    -0.492801    3.784839    0.311483    0.013080    0.026856   -0.029382
O    -4.364993    2.386189   -0.527488    0.020820   -0.009074    0.042144
O    -3.457688   -1.783043   -0.843479    0.019066   -0.005244    0.024766
O     0.359159   -3.877700   -0.293872    0.048776   -0.044664   -0.022122
O     4.224060   -2.401839   -0.732603   -0.025512    0.048684    0.067652
O     3.261804    1.778689   -0.575007    0.021550    0.039702   -0.030256
C     0.901190    4.487954   -1.527355    0.003898    0.025002   -0.036820
C    -4.114890    4.706417   -0.196900    0.002658   -0.003904    0.018750
C    -5.370732   -0.865805   -1.974711    0.009998   -0.011080    0.042778
C    -1.208519   -4.538169   -1.966709    0.006172   -0.015072    0.022618
C     3.991382   -4.746957   -0.692942    0.054772    0.033998    0.024406
C     5.179589    1.009890   -1.816059    0.009756    0.012648   -0.027020
O    -0.134020    4.516182   -2.469000    0.000906    0.009472   -0.033332
O    -4.829203    5.038754   -1.353109   -0.019222   -0.023122    0.024330
O    -5.032370   -1.454649   -3.198450    0.016088   -0.009234    0.043464
O    -0.218804   -4.565401   -2.957709    0.002568   -0.017306    0.017394
O     4.793368   -4.928406   -1.824851    0.091458    0.072580    0.041724
O     4.775882    1.717708   -2.955782    0.008218   -0.008992   -0.037906
C     1.497737    3.076365   -1.506611    0.015640    0.029340   -0.033666
C    -2.613722    4.613356   -0.512316   -0.002250    0.004114   -0.006082
C    -4.830441    0.566693   -1.874701    0.000962   -0.006132    0.038642
C    -1.833565   -3.137385   -1.945685    0.017364   -0.009992    0.032518
C     2.511960   -4.626969   -1.097354    0.064568    0.000422   -0.015434
C     4.716578   -0.453716   -1.881372    0.000086    0.014484    0.006052
O     1.919717    2.612007   -2.765727    0.024596    0.030936   -0.029896
O    -2.152862    5.853641   -1.011775   -0.017896    0.000984   -0.036476
O    -5.387633    1.386528   -2.871634   -0.015552   -0.011430    0.041380
O    -2.433944   -2.799373   -3.169776    0.014966    0.003046    0.036530
O     2.064617   -5.796155   -1.751506    0.093462    0.010260   -0.053446
O     5.347556   -1.130380   -2.941698   -0.009944   -0.002808    0.012084
C     2.703001    3.084475   -0.562072    0.013866    0.036316   -0.031134
C    -1.777834    4.195147    0.718341    0.021300    0.029598   -0.011256
C    -5.151865    1.201249   -0.513181    0.016140   -0.006912    0.044080
C    -2.906579   -3.092966   -0.854542    0.023784   -0.003310    0.037870
C     1.622023   -4.362847    0.127371    0.043412   -0.070008   -0.024340
C     5.023162   -1.228104   -0.590241   -0.000906    0.037366    0.019950
C     2.238591    3.520115    0.840747    0.016262    0.033916   -0.030606
C    -2.451433    2.952000    1.339819    0.050428    0.032350    0.026626
C    -4.824421    0.256616    0.662471    0.029194   -0.008478    0.039510
C    -2.302917   -3.485512    0.505600    0.041762    0.009072    0.033466
C     2.226820   -3.219295    0.945058   -0.016346   -0.108986    0.068616
C     4.667198   -0.417952    0.671307    0.023588    0.071366    0.002748
O     1.548066    4.774157    0.772953    0.006048    0.026448   -0.033716
O    -3.816195    3.165543    1.603623    0.049100    0.012860    0.034318
O    -5.279830   -1.076166    0.423714    0.024842   -0.007634    0.044000
O    -1.667672   -4.757690    0.401453    0.039660    0.008016    0.036740
O     3.582554   -3.413043    1.275766   -0.004858   -0.010480    0.061204
O     5.083704    0.947317    0.598506    0.034898    0.064166   -0.030256
C     3.426781    3.736737    1.785694    0.023698    0.067616   -0.044938
C    -1.874040    2.376832    2.623644    0.090598    0.065018    0.035442
C    -5.535386    0.658929    1.967514    0.046730   -0.001378    0.048546
C    -3.387326   -3.633789    1.579231    0.055522    0.016982    0.049850
C     1.425877   -2.936498    2.213407   -0.202632   -0.270512    0.018308
C     5.367019   -0.954726    1.933647    0.042270    0.087736   -0.001164
O     4.336453    4.684677    1.283858    0.001212    0.070332   -0.078084
O    -0.540538    2.336094    2.637163    0.076828    0.071808    0.030494
O    -6.914966    0.843693    1.785599    0.044240    0.005474    0.066950
O    -4.329359   -4.619497    1.244270    0.049994    0.015890    0.068318
O     1.853698   -1.797576    2.719508   -0.495996   -0.279050    0.024988
O     6.748453   -1.129823    1.750249    0.040698    0.091534   -0.017472
H     0.004927    5.775537    0.002482    0.005868    0.025488   -0.033542
H    -5.617952    3.422468    0.754539    0.034194   -0.014964    0.061914
H    -5.325323   -2.666029   -0.756105    0.020402   -0.009772    0.046514
H    -0.257372   -5.839242   -0.496943   -0.000590   -0.027808    0.018304
H     5.423915   -3.577312    0.480331    0.000116    0.064688    0.059338
H     5.128271    2.656662   -0.405498    0.025194    0.041942   -0.062078
H     1.673143    5.230709   -1.785825   -0.005196    0.033690   -0.038312
H    -4.290816    5.509940    0.526917    0.009684    0.004360    0.013930
H    -6.465493   -0.835188   -1.937889    0.009948   -0.018122    0.042234
H    -1.988392   -5.285177   -2.183935    0.001528   -0.008984    0.020768
H     4.129535   -5.630678   -0.061505    0.062108    0.029522    0.017604
H     6.274703    1.033189   -1.810463    0.010532    0.004590   -0.033684
H    -0.739918    5.245067   -2.260480    0.008834    0.015698   -0.054384
H    -4.897052    4.252127   -1.920286   -0.026532   -0.032574    0.034930
H    -4.111361   -1.781960   -3.179898    0.014418   -0.013076    0.050334
H     0.498708   -5.172189   -2.696115    0.030346    0.020800    0.033938
H     4.867014   -4.082543   -2.298565    0.064680    0.075132    0.042202
H     3.819310    1.913291   -2.907702    0.009934   -0.002338   -0.039874
H     0.708529    2.429126   -1.098500    0.019502    0.024780   -0.036712
H    -2.472654    3.832338   -1.276166   -0.009696   -0.010968    0.005276
H    -3.734828    0.545576   -1.976119    0.000554    0.004124    0.024978
H    -1.034890   -2.423447   -1.700596    0.027448   -0.021046    0.032816
H     2.407245   -3.763582   -1.772288    0.060440    0.022936    0.012042
H     3.626716   -0.480746   -2.021799   -0.000104    0.018182    0.015006
H     1.249805    2.858276   -3.420609    0.022314    0.012862   -0.031182
H    -2.892510    6.264120   -1.493174   -0.028226   -0.015654   -0.036674
H    -5.339405    0.907030   -3.714024    0.021988    0.001648    0.038956
H    -1.792691   -2.978949   -3.877054    0.023244    0.031980    0.034850
H     2.790951   -6.116175   -2.313746    0.093588    0.046926   -0.076304
H     5.263640   -0.584232   -3.739082   -0.000390   -0.002080    0.010714
H     3.440959    3.806871   -0.933437    0.009192    0.043592   -0.026364
H    -1.724730    5.021399    1.440208    0.032886    0.042710   -0.025042
H    -6.217810    1.467111   -0.473492    0.017242   -0.000994    0.056064
H    -3.690307   -3.819279   -1.105697    0.024142   -0.008400    0.051412
H     1.513975   -5.268174    0.736571    0.030108   -0.103642   -0.073878
H     6.086091   -1.501741   -0.567052   -0.005310    0.018964    0.018960
H     1.563102    2.758947    1.245830    0.035468    0.021428   -0.018972
H    -2.327069    2.145462    0.588578    0.049664    0.018204    0.042548
H    -3.740620    0.248896    0.835969    0.032446   -0.010220    0.027188
H    -1.580175   -2.726867    0.833165    0.043392    0.015076    0.014848
H     2.132260   -2.314424    0.316174   -0.072450   -0.058208    0.142374
H     3.582115   -0.467189    0.812987    0.024268    0.090620    0.018514
H     3.984457    2.804564    1.892048    0.038380    0.076546   -0.033058
H     3.044224    4.048918    2.764456    0.031848    0.087832   -0.046278
H    -5.336133   -0.128093    2.703732    0.051130    0.000536    0.049518
H    -5.127291    1.593275    2.351206    0.058940   -0.003042    0.040914
H    -3.932892   -2.693438    1.675636    0.058608    0.018694    0.052692
H    -2.896496   -3.862044    2.531998    0.070926    0.018164    0.042428
H     5.173593   -0.246395    2.747717    0.053016    0.095890   -0.004872
H     4.955891   -1.925619    2.208185    0.054362    0.085816    0.013136
H     3.874163    5.531431    1.204445   -0.010974    0.064136   -0.086900
H    -7.313251   -0.014074    1.577067    0.041628    0.007906    0.064218
H    -3.868438   -5.471066    1.203184    0.052022    0.017084    0.067878
H     7.150709   -0.261489    1.604771    0.034036    0.088704   -0.046276
C     1.045733   -0.974817    3.566363   -0.503976   -0.291688   -0.014090
H     1.711705   -0.572604    4.328143   -0.628238   -0.571024    0.279094
H     0.230783   -1.543849    4.031534   -0.861874   -0.204350   -0.357994
O     0.508823   -3.627383    2.638585   -0.317734   -0.398534   -0.274724
C     0.083302    1.380474    3.515099    0.077214    0.043886   -0.003824
H    -0.574507    1.136504    4.347371    0.143320    0.118376    0.080508
H     0.987144    1.860405    3.882496    0.150914   -0.016678   -0.091130
O    -2.594087    1.959623    3.513985    0.083100    0.063174    0.037824
C     0.390350    0.120222    2.663695   -0.095254    0.012576   -0.030886
O    -0.656873   -0.360613    2.008606   -0.158428    0.244582   -0.137004
H    -1.123489    0.014883    0.479289   -0.091004    0.094882   -0.269202
O    -1.331385    0.203991   -0.481642    0.040084    0.075392   -0.276944
H     0.209480   -0.037173   -0.927996    0.064496    0.041866   -0.041516
O     1.218539   -0.160923   -0.831257    0.057892    0.025258   -0.006690
H     1.369747    0.069975    0.141016    0.042684   -0.071610    0.001618
O     1.424116    0.585943    1.682484    0.069418   -0.164888    0.077788
H     2.313609    0.562088    2.080456    0.021334    0.013600    0.277704
H     1.658414    0.554544   -1.321833    0.075518    0.050238    0.066234
H    -1.940369   -0.503259   -0.747707    0.043666    0.086342   -0.312300
139
* Frequency(7)  -96.4200
C     0.436896    4.770182   -0.076279    0.006766    0.026080   -0.036376
C    -4.574004    3.377142    0.423549    0.028228   -0.005288    0.040710
C    -4.864241   -1.670157   -0.770961    0.019148   -0.008870    0.041526
C    -0.649123   -4.814219   -0.560280    0.019222   -0.020348    0.016794
C     4.394652   -3.496586    0.106451    0.000134    0.037712    0.055960
C     4.665944    1.664416   -0.518134    0.022948    0.041542   -0.039440
O    -0.493990    3.782397    0.314154    0.013080    0.026856   -0.029382
O    -4.366886    2.387014   -0.531320    0.020820   -0.009074    0.042144
O    -3.459422   -1.782567   -0.845730    0.019066   -0.005244    0.024766
O     0.354724   -3.873639   -0.291861    0.048776   -0.044664   -0.022122
O     4.226379   -2.406265   -0.738754   -0.025512    0.048684    0.067652
O     3.259845    1.775080   -0.572256    0.021550    0.039702   -0.030256
C     0.900835    4.485681   -1.524008    0.003898    0.025002   -0.036820
C    -4.115131    4.706772   -0.198605    0.002658   -0.003904    0.018750
C    -5.371642   -0.864798   -1.978600    0.009998   -0.011080    0.042778
C    -1.209080   -4.536799   -1.968765    0.006172   -0.015072    0.022618
C     3.986402   -4.750049   -0.695161    0.054772    0.033998    0.024406
C     5.178702    1.008740   -1.813602    0.009756    0.012648   -0.027020
O    -0.134102    4.515321   -2.465969    0.000906    0.009472   -0.033332
O    -4.827455    5.040856   -1.355321   -0.019222   -0.023122    0.024330
O    -5.033833   -1.453809   -3.202402    0.016088   -0.009234    0.043464
O    -0.219037   -4.563828   -2.959290    0.002568   -0.017306    0.017394
O     4.785052   -4.935006   -1.828645    0.091458    0.072580    0.041724
O     4.775135    1.718525   -2.952335    0.008218   -0.008992   -0.037906
C     1.496315    3.073698   -1.503550    0.015640    0.029340   -0.033666
C    -2.613518    4.612982   -0.511763   -0.002250    0.004114   -0.006082
C    -4.830529    0.567251   -1.878214    0.000962   -0.006132    0.038642
C    -1.835143   -3.136476   -1.948641    0.017364   -0.009992    0.032518
C     2.506090   -4.627008   -1.095951    0.064568    0.000422   -0.015434
C     4.716570   -0.455033   -1.881922    0.000086    0.014484    0.006052
O     1.917480    2.609194   -2.763009    0.024596    0.030936   -0.029896
O    -2.151235    5.853552   -1.008458   -0.017896    0.000984   -0.036476
O    -5.386219    1.387567   -2.875396   -0.015552   -0.011430    0.041380
O    -2.435305   -2.799650   -3.173098    0.014966    0.003046    0.036530
O     2.056119   -5.797088   -1.746646    0.093462    0.010260   -0.053446
O     5.348461   -1.130125   -2.942797   -0.009944   -0.002808    0.012084
C     2.701740    3.081174   -0.559241    0.013866    0.036316   -0.031134
C    -1.779771    4.192455    0.719364    0.021300    0.029598   -0.011256
C    -5.153332    1.201878   -0.517189    0.016140   -0.006912    0.044080
C    -2.908741   -3.092665   -0.857986    0.023784   -0.003310    0.037870
C     1.618076   -4.356482    0.129584    0.043412   -0.070008   -0.024340
C     5.023244   -1.231502   -0.592055   -0.000906    0.037366    0.019950
C     2.237112    3.517032    0.843530    0.016262    0.033916   -0.030606
C    -2.456018    2.949059    1.337398    0.050428    0.032350    0.026626
C    -4.827076    0.257387    0.658879    0.029194   -0.008478    0.039510
C    -2.306714   -3.486337    0.502557    0.041762    0.009072    0.033466
C     2.228306   -3.209386    0.938819   -0.016346   -0.108986    0.068616
C     4.665053   -0.424441    0.671057    0.023588    0.071366    0.002748
O     1.547516    4.771753    0.776019    0.006048    0.026448   -0.033716
O    -3.820659    3.164374    1.600503    0.049100    0.012860    0.034318
O    -5.282089   -1.075472    0.419714    0.024842   -0.007634    0.044000
O    -1.671278   -4.758419    0.398112    0.039660    0.008016    0.036740
O     3.582996   -3.412090    1.270201   -0.004858   -0.010480    0.061204
O     5.080531    0.941483    0.601257    0.034898    0.064166   -0.030256
C     3.424627    3.730590    1.789780    0.023698    0.067616   -0.044938
C    -1.882277    2.370921    2.620422    0.090598    0.065018    0.035442
C    -5.539635    0.659054    1.963100    0.046730   -0.001378    0.048546
C    -3.392374   -3.635333    1.574698    0.055522    0.016982    0.049850
C     1.444300   -2.911902    2.211743   -0.202632   -0.270512    0.018308
C     5.363175   -0.962703    1.933753    0.042270    0.087736   -0.001164
O     4.336343    4.678282    1.290958    0.001212    0.070332   -0.078084
O    -0.547523    2.329565    2.634391    0.076828    0.071808    0.030494
O    -6.918988    0.843195    1.779512    0.044240    0.005474    0.066950
O    -4.333905   -4.620942    1.238059    0.049994    0.015890    0.068318
O     1.898795   -1.772205    2.717237   -0.495996   -0.279050    0.024988
O     6.744753   -1.138145    1.751837    0.040698    0.091534   -0.017472
H     0.004394    5.773220    0.005532    0.005868    0.025488   -0.033542
H    -5.621061    3.423828    0.748910    0.034194   -0.014964    0.061914
H    -5.327178   -2.665141   -0.760335    0.020402   -0.009772    0.046514
H    -0.257318   -5.836713   -0.498607   -0.000590   -0.027808    0.018304
H     5.423904   -3.583193    0.474936    0.000116    0.064688    0.059338
H     5.125980    2.652849   -0.399854    0.025194    0.041942   -0.062078
H     1.673615    5.227646   -1.782342   -0.005196    0.033690   -0.038312
H    -4.291697    5.509543    0.525650    0.009684    0.004360    0.013930
H    -6.466398   -0.833541   -1.941729    0.009948   -0.018122    0.042234
H    -1.988530   -5.284361   -2.185823    0.001528   -0.008984    0.020768
H     4.123888   -5.633362   -0.063105    0.062108    0.029522    0.017604
H     6.273745    1.032772   -1.807400    0.010532    0.004590   -0.033684
H    -0.740721    5.243640   -2.255535    0.008834    0.015698   -0.054384
H    -4.894640    4.255089   -1.923462   -0.026532   -0.032574    0.034930
H    -4.112672   -1.780771   -3.184474    0.014418   -0.013076    0.050334
H     0.495949   -5.174080   -2.699201    0.030346    0.020800    0.033938
H     4.861133   -4.089374   -2.302402    0.064680    0.075132    0.042202
H     3.818407    1.913504   -2.904076    0.009934   -0.002338   -0.039874
H     0.706756    2.426873   -1.095163    0.019502    0.024780   -0.036712
H    -2.471772    3.833335   -1.276646   -0.009696   -0.010968    0.005276
H    -3.734879    0.545201   -1.978390    0.000554    0.004124    0.024978
H    -1.037386   -2.421534   -1.703579    0.027448   -0.021046    0.032816
H     2.401749   -3.765667   -1.773383    0.060440    0.022936    0.012042
H     3.626726   -0.482399   -2.023163   -0.000104    0.018182    0.015006
H     1.247776    2.857107   -3.417774    0.022314    0.012862   -0.031182
H    -2.889944    6.265543   -1.489839   -0.028226   -0.015654   -0.036674
H    -5.341404    0.906881   -3.717566    0.021988    0.001648    0.038956
H    -1.794804   -2.981857   -3.880223    0.023244    0.031980    0.034850
H     2.782442   -6.120442   -2.306808    0.093588    0.046926   -0.076304
H     5.263675   -0.584042   -3.740056   -0.000390   -0.002080    0.010714
H     3.440123    3.802908   -0.931040    0.009192    0.043592   -0.026364
H    -1.727720    5.017516    1.442484    0.032886    0.042710   -0.025042
H    -6.219378    1.467201   -0.478590    0.017242   -0.000994    0.056064
H    -3.692502   -3.818515   -1.110372    0.024142   -0.008400    0.051412
H     1.511237   -5.258751    0.743288    0.030108   -0.103642   -0.073878
H     6.086573   -1.503465   -0.568776   -0.005310    0.018964    0.018960
H     1.559877    2.756999    1.247555    0.035468    0.021428   -0.018972
H    -2.331585    2.143806    0.584710    0.049664    0.018204    0.042548
H    -3.743570    0.249826    0.833497    0.032446   -0.010220    0.027188
H    -1.584121   -2.728238    0.831815    0.043392    0.015076    0.014848
H     2.138847   -2.309131    0.303229   -0.072450   -0.058208    0.142374
H     3.579909   -0.475428    0.811304    0.024268    0.090620    0.018514
H     3.980967    2.797604    1.895054    0.038380    0.076546   -0.033058
H     3.041328    4.040932    2.768664    0.031848    0.087832   -0.046278
H    -5.340782   -0.128142    2.699230    0.051130    0.000536    0.049518
H    -5.132650    1.593551    2.347487    0.058940   -0.003042    0.040914
H    -3.938221   -2.695138    1.670846    0.058608    0.018694    0.052692
H    -2.902945   -3.863695    2.528141    0.070926    0.018164    0.042428
H     5.168772   -0.255113    2.748160    0.053016    0.095890   -0.004872
H     4.950949   -1.933422    2.206990    0.054362    0.085816    0.013136
H     3.875161    5.525600    1.212346   -0.010974    0.064136   -0.086900
H    -7.317036   -0.014793    1.571229    0.041628    0.007906    0.064218
H    -3.873168   -5.472619    1.197012    0.052022    0.017084    0.067878
H     7.147615   -0.269555    1.608978    0.034036    0.088704   -0.046276
C     1.091556   -0.948296    3.567644   -0.503976   -0.291688   -0.014090
H     1.768825   -0.520685    4.302767   -0.628238   -0.571024    0.279094
H     0.309146   -1.525269    4.064084   -0.861874   -0.204350   -0.357994
O     0.537712   -3.591147    2.663563   -0.317734   -0.398534   -0.274724
C     0.076281    1.376484    3.515447    0.077214    0.043886   -0.003824
H    -0.587538    1.125741    4.340051    0.143320    0.118376    0.080508
H     0.973422    1.861922    3.890781    0.150914   -0.016678   -0.091130
O    -2.601643    1.953879    3.510546    0.083100    0.063174    0.037824
C     0.399010    0.119079    2.666503   -0.095254    0.012576   -0.030886
O    -0.642468   -0.382851    2.021063   -0.158428    0.244582   -0.137004
H    -1.115215    0.006257    0.503765   -0.091004    0.094882   -0.269202
O    -1.335030    0.197136   -0.456462    0.040084    0.075392   -0.276944
H     0.203616   -0.040980   -0.924221    0.064496    0.041866   -0.041516
O     1.213276   -0.163219   -0.830648    0.057892    0.025258   -0.006690
H     1.365866    0.076486    0.140869    0.042684   -0.071610    0.001618
O     1.417805    0.600935    1.675411    0.069418   -0.164888    0.077788
H     2.311669    0.560852    2.055206    0.021334    0.013600    0.277704
H     1.651548    0.549977   -1.327855    0.075518    0.050238    0.066234
H    -1.944339   -0.511109   -0.719312    0.043666    0.086342   -0.312300
139
* Frequency(7)  -96.4200
C     0.436159    4.767340   -0.072315    0.006766    0.026080   -0.036376
C    -4.577080    3.377718    0.419112    0.028228   -0.005288    0.040710
C    -4.866328   -1.669190   -0.775486    0.019148   -0.008870    0.041526
C    -0.651218   -4.812001   -0.562111    0.019222   -0.020348    0.016794
C     4.394638   -3.500695    0.100353    0.000134    0.037712    0.055960
C     4.663443    1.659889   -0.513836    0.022948    0.041542   -0.039440
O    -0.495415    3.779470    0.317356    0.013080    0.026856   -0.029382
O    -4.369155    2.388003   -0.535912    0.020820   -0.009074    0.042144
O    -3.461500   -1.781995   -0.848429    0.019066   -0.005244    0.024766
O     0.349409   -3.868772   -0.289450    0.048776   -0.044664   -0.022122
O     4.229159   -2.411570   -0.746127   -0.025512    0.048684    0.067652
O     3.257496    1.770753   -0.568959    0.021550    0.039702   -0.030256
C     0.900411    4.482956   -1.519995    0.003898    0.025002   -0.036820
C    -4.115421    4.707197   -0.200648    0.002658   -0.003904    0.018750
C    -5.372731   -0.863590   -1.983262    0.009998   -0.011080    0.042778
C    -1.209752   -4.535156   -1.971230    0.006172   -0.015072    0.022618
C     3.980433   -4.753753   -0.697821    0.054772    0.033998    0.024406
C     5.177639    1.007362   -1.810658    0.009756    0.012648   -0.027020
O    -0.134201    4.514289   -2.462337    0.000906    0.009472   -0.033332
O    -4.825360    5.043376   -1.357972   -0.019222   -0.023122    0.024330
O    -5.035586   -1.452803   -3.207138    0.016088   -0.009234    0.043464
O    -0.219317   -4.561942   -2.961186    0.002568   -0.017306    0.017394
O     4.775086   -4.942915   -1.833191    0.091458    0.072580    0.041724
O     4.774239    1.719505   -2.948205    0.008218   -0.008992   -0.037906
C     1.494611    3.070500   -1.499881    0.015640    0.029340   -0.033666
C    -2.613273    4.612534   -0.511100   -0.002250    0.004114   -0.006082
C    -4.830634    0.567919   -1.882425    0.000962   -0.006132    0.038642
C    -1.837036   -3.135388   -1.952185    0.017364   -0.009992    0.032518
C     2.499054   -4.627054   -1.094269    0.064568    0.000422   -0.015434
C     4.716561   -0.456612   -1.882581    0.000086    0.014484    0.006052
O     1.914800    2.605823   -2.759751    0.024596    0.030936   -0.029896
O    -2.149285    5.853445   -1.004483   -0.017896    0.000984   -0.036476
O    -5.384524    1.388813   -2.879905   -0.015552   -0.011430    0.041380
O    -2.436936   -2.799982   -3.177079    0.014966    0.003046    0.036530
O     2.045934   -5.798206   -1.740822    0.093462    0.010260   -0.053446
O     5.349544   -1.129819   -2.944114   -0.009944   -0.002808    0.012084
C     2.700229    3.077216   -0.555849    0.013866    0.036316   -0.031134
C    -1.782092    4.189230    0.720591    0.021300    0.029598   -0.011256
C    -5.155091    1.202631   -0.521993    0.016140   -0.006912    0.044080
C    -2.911333   -3.092305   -0.862112    0.023784   -0.003310    0.037870
C     1.613345   -4.348853    0.132237    0.043412   -0.070008   -0.024340
C     5.023343   -1.235573   -0.594229   -0.000906    0.037366    0.019950
C     2.235340    3.513336    0.846865    0.016262    0.033916   -0.030606
C    -2.461513    2.945534    1.334497    0.050428    0.032350    0.026626
C    -4.830257    0.258311    0.654573    0.029194   -0.008478    0.039510
C    -2.311265   -3.487325    0.498910    0.041762    0.009072    0.033466
C     2.230087   -3.197509    0.931342   -0.016346   -0.108986    0.068616
C     4.662483   -0.432218    0.670757    0.023588    0.071366    0.002748
O     1.546857    4.768871    0.779693    0.006048    0.026448   -0.033716
O    -3.826009    3.162973    1.596763    0.049100    0.012860    0.034318
O    -5.284796   -1.074640    0.414919    0.024842   -0.007634    0.044000
O    -1.675600   -4.759292    0.394109    0.039660    0.008016    0.036740
O     3.583525   -3.410948    1.263532   -0.004858   -0.010480    0.061204
O     5.076728    0.934490    0.604554    0.034898    0.064166   -0.030256
C     3.422044    3.723221    1.794677    0.023698    0.067616   -0.044938
C    -1.892150    2.363836    2.616560    0.090598    0.065018    0.035442
C    -5.544727    0.659205    1.957810    0.046730   -0.001378    0.048546
C    -3.398424   -3.637184    1.569266    0.055522    0.016982    0.049850
C     1.466382   -2.882424    2.209748   -0.202632   -0.270512    0.018308
C     5.358569   -0.972264    1.933880    0.042270    0.087736   -0.001164
O     4.336211    4.670618    1.299467    0.001212    0.070332   -0.078084
O    -0.555895    2.321740    2.631068    0.076828    0.071808    0.030494
O    -6.923809    0.842598    1.772216    0.044240    0.005474    0.066950
O    -4.339353   -4.622674    1.230614    0.049994    0.015890    0.068318
O     1.952846   -1.741796    2.714514   -0.495996   -0.279050    0.024988
O     6.740318   -1.148120    1.753741    0.040698    0.091534   -0.017472
H     0.003754    5.770442    0.009187    0.005868    0.025488   -0.033542
H    -5.624787    3.425459    0.742163    0.034194   -0.014964    0.061914
H    -5.329402   -2.664076   -0.765403    0.020402   -0.009772    0.046514
H    -0.257254   -5.833683   -0.500602   -0.000590   -0.027808    0.018304
H     5.423892   -3.590242    0.468469    0.000116    0.064688    0.059338
H     5.123234    2.648278   -0.393089    0.025194    0.041942   -0.062078
H     1.674182    5.223975   -1.778167   -0.005196    0.033690   -0.038312
H    -4.292752    5.509068    0.524132    0.009684    0.004360    0.013930
H    -6.467482   -0.831566   -1.946331    0.009948   -0.018122    0.042234
H    -1.988697   -5.283382   -2.188087    0.001528   -0.008984    0.020768
H     4.117120   -5.636579   -0.065024    0.062108    0.029522    0.017604
H     6.272598    1.032271   -1.803729    0.010532    0.004590   -0.033684
H    -0.741684    5.241929   -2.249609    0.008834    0.015698   -0.054384
H    -4.891748    4.258638   -1.927269   -0.026532   -0.032574    0.034930
H    -4.114243   -1.779346   -3.189959    0.014418   -0.013076    0.050334
H     0.492642   -5.176347   -2.702899    0.030346    0.020800    0.033938
H     4.854085   -4.097562   -2.307001    0.064680    0.075132    0.042202
H     3.817324    1.913758   -2.899731    0.009934   -0.002338   -0.039874
H     0.704630    2.424173   -1.091162    0.019502    0.024780   -0.036712
H    -2.470716    3.834530   -1.277221   -0.009696   -0.010968    0.005276
H    -3.734939    0.544752   -1.981112    0.000554    0.004124    0.024978
H    -1.040377   -2.419240   -1.707156    0.027448   -0.021046    0.032816
H     2.395163   -3.768167   -1.774695    0.060440    0.022936    0.012042
H     3.626737   -0.484381   -2.024799   -0.000104    0.018182    0.015006
H     1.245344    2.855705   -3.414376    0.022314    0.012862   -0.031182
H    -2.886868    6.267249   -1.485843   -0.028226   -0.015654   -0.036674
H    -5.343800    0.906701   -3.721811    0.021988    0.001648    0.038956
H    -1.797337   -2.985342   -3.884020    0.023244    0.031980    0.034850
H     2.772243   -6.125556   -2.298493    0.093588    0.046926   -0.076304
H     5.263718   -0.583816   -3.741224   -0.000390   -0.002080    0.010714
H     3.439122    3.798157   -0.928167    0.009192    0.043592   -0.026364
H    -1.731303    5.012861    1.445213    0.032886    0.042710   -0.025042
H    -6.221257    1.467310   -0.484699    0.017242   -0.000994    0.056064
H    -3.695133   -3.817600   -1.115974    0.024142   -0.008400    0.051412
H     1.507956   -5.247457    0.751339    0.030108   -0.103642   -0.073878
H     6.087152   -1.505532   -0.570842   -0.005310    0.018964    0.018960
H     1.556012    2.754663    1.249622    0.035468    0.021428   -0.018972
H    -2.336997    2.141823    0.580073    0.049664    0.018204    0.042548
H    -3.747106    0.250939    0.830534    0.032446   -0.010220    0.027188
H    -1.588849   -2.729881    0.830197    0.043392    0.015076    0.014848
H     2.146742   -2.302788    0.287714   -0.072450   -0.058208    0.142374
H     3.577264   -0.485304    0.809287    0.024268    0.090620    0.018514
H     3.976785    2.789263    1.898657    0.038380    0.076546   -0.033058
H     3.037858    4.031361    2.773707    0.031848    0.087832   -0.046278
H    -5.346353   -0.128200    2.693834    0.051130    0.000536    0.049518
H    -5.139073    1.593883    2.343028    0.058940   -0.003042    0.040914
H    -3.944608   -2.697175    1.665103    0.058608    0.018694    0.052692
H    -2.910674   -3.865675    2.523517    0.070926    0.018164    0.042428
H     5.162995   -0.265563    2.748691    0.053016    0.095890   -0.004872
H     4.945025   -1.942773    2.205559    0.054362    0.085816    0.013136
H     3.876357    5.518611    1.221816   -0.010974    0.064136   -0.086900
H    -7.321572   -0.015655    1.564230    0.041628    0.007906    0.064218
H    -3.878837   -5.474481    1.189615    0.052022    0.017084    0.067878
H     7.143906   -0.279221    1.614021    0.034036    0.088704   -0.046276
C     1.146476   -0.916510    3.569179   -0.503976   -0.291688   -0.014090
H     1.837286   -0.458459    4.272353   -0.628238   -0.571024    0.279094
H     0.403067   -1.503000    4.103096   -0.861874   -0.204350   -0.357994
O     0.572337   -3.547718    2.693501   -0.317734   -0.398534   -0.274724
C     0.067867    1.371701    3.515864    0.077214    0.043886   -0.003824
H    -0.603156    1.112841    4.331278    0.143320    0.118376    0.080508
H     0.956977    1.863739    3.900712    0.150914   -0.016678   -0.091130
O    -2.610699    1.946994    3.506424    0.083100    0.063174    0.037824
C     0.409391    0.117708    2.669869   -0.095254    0.012576   -0.030886
O    -0.625204   -0.409504    2.035992   -0.158428    0.244582   -0.137004
H    -1.105298   -0.004083    0.533101   -0.091004    0.094882   -0.269202
O    -1.339398    0.188920   -0.426282    0.040084    0.075392   -0.276944
H     0.196587   -0.045542   -0.919697    0.064496    0.041866   -0.041516
O     1.206967   -0.165972   -0.829919    0.057892    0.025258   -0.006690
H     1.361215    0.084290    0.140692    0.042684   -0.071610    0.001618
O     1.410240    0.618903    1.666934    0.069418   -0.164888    0.077788
H     2.309344    0.559369    2.024944    0.021334    0.013600    0.277704
H     1.643318    0.544502   -1.335072    0.075518    0.050238    0.066234
H    -1.949097   -0.520518   -0.685280    0.043666    0.086342   -0.312300
139
* Frequency(7)  -96.4200
C     0.435379    4.764336   -0.068123    0.006766    0.026080   -0.036376
C    -4.580332    3.378328    0.414422    0.028228   -0.005288    0.040710
C    -4.868534   -1.668168   -0.780270    0.019148   -0.008870    0.041526
C    -0.653432   -4.809657   -0.564045    0.019222   -0.020348    0.016794
C     4.394622   -3.505041    0.093905    0.000134    0.037712    0.055960
C     4.660799    1.655103   -0.509292    0.022948    0.041542   -0.039440
O    -0.496923    3.776376    0.320742    0.013080    0.026856   -0.029382
O    -4.371553    2.389049   -0.540768    0.020820   -0.009074    0.042144
O    -3.463696   -1.781391   -0.851283    0.019066   -0.005244    0.024766
O     0.343789   -3.863626   -0.286902    0.048776   -0.044664   -0.022122
O     4.232099   -2.417180   -0.753921   -0.025512    0.048684    0.067652
O     3.255014    1.766179   -0.565473    0.021550    0.039702   -0.030256
C     0.899961    4.480076   -1.515753    0.003898    0.025002   -0.036820
C    -4.115727    4.707647   -0.202808    0.002658   -0.003904    0.018750
C    -5.373883   -0.862314   -1.988190    0.009998   -0.011080    0.042778
C    -1.210464   -4.533420   -1.973836    0.006172   -0.015072    0.022618
C     3.974123   -4.757671   -0.700633    0.054772    0.033998    0.024406
C     5.176515    1.005904   -1.807544    0.009756    0.012648   -0.027020
O    -0.134305    4.513197   -2.458497    0.000906    0.009472   -0.033332
O    -4.823146    5.046040   -1.360776   -0.019222   -0.023122    0.024330
O    -5.037440   -1.451739   -3.212146    0.016088   -0.009234    0.043464
O    -0.219613   -4.559948   -2.963190    0.002568   -0.017306    0.017394
O     4.764548   -4.951277   -1.837999    0.091458    0.072580    0.041724
O     4.773293    1.720541   -2.943837    0.008218   -0.008992   -0.037906
C     1.492809    3.067120   -1.496003    0.015640    0.029340   -0.033666
C    -2.613013    4.612060   -0.510400   -0.002250    0.004114   -0.006082
C    -4.830744    0.568625   -1.886877    0.000962   -0.006132    0.038642
C    -1.839036   -3.134236   -1.955931    0.017364   -0.009992    0.032518
C     2.491614   -4.627102   -1.092491    0.064568    0.000422   -0.015434
C     4.716551   -0.458280   -1.883279    0.000086    0.014484    0.006052
O     1.911966    2.602259   -2.756307    0.024596    0.030936   -0.029896
O    -2.147223    5.853331   -1.000281   -0.017896    0.000984   -0.036476
O    -5.382732    1.390129   -2.884673   -0.015552   -0.011430    0.041380
O    -2.438660   -2.800332   -3.181287    0.014966    0.003046    0.036530
O     2.035166   -5.799388   -1.734664    0.093462    0.010260   -0.053446
O     5.350690   -1.129495   -2.945506   -0.009944   -0.002808    0.012084
C     2.698631    3.073032   -0.552261    0.013866    0.036316   -0.031134
C    -1.784546    4.185820    0.721887    0.021300    0.029598   -0.011256
C    -5.156951    1.203427   -0.527071    0.016140   -0.006912    0.044080
C    -2.914073   -3.091923   -0.866476    0.023784   -0.003310    0.037870
C     1.608343   -4.340787    0.135041    0.043412   -0.070008   -0.024340
C     5.023447   -1.239879   -0.596527   -0.000906    0.037366    0.019950
C     2.233466    3.509428    0.850391    0.016262    0.033916   -0.030606
C    -2.467323    2.941806    1.331429    0.050428    0.032350    0.026626
C    -4.833621    0.259287    0.650021    0.029194   -0.008478    0.039510
C    -2.316077   -3.488371    0.495054    0.041762    0.009072    0.033466
C     2.231971   -3.184953    0.923436   -0.016346   -0.108986    0.068616
C     4.659765   -0.440440    0.670441    0.023588    0.071366    0.002748
O     1.546161    4.765823    0.783577    0.006048    0.026448   -0.033716
O    -3.831667    3.161491    1.592809    0.049100    0.012860    0.034318
O    -5.287658   -1.073760    0.409849    0.024842   -0.007634    0.044000
O    -1.680170   -4.760216    0.389875    0.039660    0.008016    0.036740
O     3.584085   -3.409740    1.256480   -0.004858   -0.010480    0.061204
O     5.072708    0.927098    0.608040    0.034898    0.064166   -0.030256
C     3.419314    3.715431    1.799855    0.023698    0.067616   -0.044938
C    -1.902588    2.356344    2.612476    0.090598    0.065018    0.035442
C    -5.550111    0.659363    1.952216    0.046730   -0.001378    0.048546
C    -3.404822   -3.639140    1.563522    0.055522    0.016982    0.049850
C     1.489728   -2.851256    2.207638   -0.202632   -0.270512    0.018308
C     5.353699   -0.982372    1.934014    0.042270    0.087736   -0.001164
O     4.336071    4.662514    1.308463    0.001212    0.070332   -0.078084
O    -0.564747    2.313466    2.627554    0.076828    0.071808    0.030494
O    -6.928907    0.841968    1.764502    0.044240    0.005474    0.066950
O    -4.345113   -4.624504    1.222742    0.049994    0.015890    0.068318
O     2.009992   -1.709644    2.711634   -0.495996   -0.279050    0.024988
O     6.735628   -1.158666    1.755755    0.040698    0.091534   -0.017472
H     0.003078    5.767506    0.013051    0.005868    0.025488   -0.033542
H    -5.628727    3.427183    0.735029    0.034194   -0.014964    0.061914
H    -5.331752   -2.662950   -0.770763    0.020402   -0.009772    0.046514
H    -0.257186   -5.830479   -0.502710   -0.000590   -0.027808    0.018304
H     5.423878   -3.597696    0.461633    0.000116    0.064688    0.059338
H     5.120332    2.643446   -0.385937    0.025194    0.041942   -0.062078
H     1.674780    5.220093   -1.773753   -0.005196    0.033690   -0.038312
H    -4.293868    5.508566    0.522528    0.009684    0.004360    0.013930
H    -6.468628   -0.829478   -1.951197    0.009948   -0.018122    0.042234
H    -1.988873   -5.282346   -2.190479    0.001528   -0.008984    0.020768
H     4.109964   -5.639981   -0.067052    0.062108    0.029522    0.017604
H     6.271384    1.031743   -1.799849    0.010532    0.004590   -0.033684
H    -0.742702    5.240121   -2.243343    0.008834    0.015698   -0.054384
H    -4.888692    4.262392   -1.931293   -0.026532   -0.032574    0.034930
H    -4.115905   -1.777840   -3.195759    0.014418   -0.013076    0.050334
H     0.489146   -5.178743   -2.706809    0.030346    0.020800    0.033938
H     4.846633   -4.106218   -2.311863    0.064680    0.075132    0.042202
H     3.816180    1.914028   -2.895137    0.009934   -0.002338   -0.039874
H     0.702384    2.421317   -1.086932    0.019502    0.024780   -0.036712
H    -2.469598    3.835794   -1.277829   -0.009696   -0.010968    0.005276
H    -3.735003    0.544276   -1.983990    0.000554    0.004124    0.024978
H    -1.043539   -2.416816   -1.710936    0.027448   -0.021046    0.032816
H     2.388199   -3.770809   -1.776083    0.060440    0.022936    0.012042
H     3.626749   -0.486475   -2.026527   -0.000104    0.018182    0.015006
H     1.242774    2.854223   -3.410784    0.022314    0.012862   -0.031182
H    -2.883616    6.269053   -1.481617   -0.028226   -0.015654   -0.036674
H    -5.346334    0.906511   -3.726299    0.021988    0.001648    0.038956
H    -1.800015   -2.989026   -3.888036    0.023244    0.031980    0.034850
H     2.761461   -6.130962   -2.289701    0.093588    0.046926   -0.076304
H     5.263762   -0.583576   -3.742458   -0.000390   -0.002080    0.010714
H     3.438062    3.793135   -0.925129    0.009192    0.043592   -0.026364
H    -1.735093    5.007941    1.448099    0.032886    0.042710   -0.025042
H    -6.223243    1.467424   -0.491159    0.017242   -0.000994    0.056064
H    -3.697915   -3.816632   -1.121898    0.024142   -0.008400    0.051412
H     1.504488   -5.235515    0.759851    0.030108   -0.103642   -0.073878
H     6.087764   -1.507716   -0.573026   -0.005310    0.018964    0.018960
H     1.551926    2.752195    1.251808    0.035468    0.021428   -0.018972
H    -2.342719    2.139725    0.575171    0.049664    0.018204    0.042548
H    -3.750844    0.252117    0.827402    0.032446   -0.010220    0.027188
H    -1.593849   -2.731617    0.828487    0.043392    0.015076    0.014848
H     2.155090   -2.296082    0.271310   -0.072450   -0.058208    0.142374
H     3.574468   -0.495744    0.807153    0.024268    0.090620    0.018514
H     3.972363    2.780443    1.902465    0.038380    0.076546   -0.033058
H     3.034188    4.021241    2.779039    0.031848    0.087832   -0.046278
H    -5.352245   -0.128262    2.688128    0.051130    0.000536    0.049518
H    -5.145863    1.594233    2.338314    0.058940   -0.003042    0.040914
H    -3.951360   -2.699329    1.659033    0.058608    0.018694    0.052692
H    -2.918846   -3.867767    2.518629    0.070926    0.018164    0.042428
H     5.156887   -0.276611    2.749253    0.053016    0.095890   -0.004872
H     4.938761   -1.952661    2.204045    0.054362    0.085816    0.013136
H     3.877621    5.511221    1.231828   -0.010974    0.064136   -0.086900
H    -7.326368   -0.016565    1.556832    0.041628    0.007906    0.064218
H    -3.884831   -5.476449    1.181795    0.052022    0.017084    0.067878
H     7.139984   -0.289441    1.619353    0.034036    0.088704   -0.046276
C     1.204542   -0.882902    3.570803   -0.503976   -0.291688   -0.014090
H     1.909670   -0.392667    4.240197   -0.628238   -0.571024    0.279094
H     0.502369   -1.479456    4.144342   -0.861874   -0.204350   -0.357994
O     0.608945   -3.501800    2.725153   -0.317734   -0.398534   -0.274724
C     0.058971    1.366645    3.516304    0.077214    0.043886   -0.003824
H    -0.619668    1.099203    4.322002    0.143320    0.118376    0.080508
H     0.939589    1.865661    3.911212    0.150914   -0.016678   -0.091130
O    -2.620273    1.939716    3.502066    0.083100    0.063174    0.037824
C     0.420365    0.116260    2.673427   -0.095254    0.012576   -0.030886
O    -0.606950   -0.437684    2.051778   -0.158428    0.244582   -0.137004
H    -1.094812   -0.015015    0.564117   -0.091004    0.094882   -0.269202
O    -1.344016    0.180234   -0.394374    0.040084    0.075392   -0.276944
H     0.189157   -0.050366   -0.914913    0.064496    0.041866   -0.041516
O     1.200297   -0.168882   -0.829149    0.057892    0.025258   -0.006690
H     1.356297    0.092540    0.140506    0.042684   -0.071610    0.001618
O     1.402242    0.637901    1.657972    0.069418   -0.164888    0.077788
H     2.306886    0.557803    1.992948    0.021334    0.013600    0.277704
H     1.634618    0.538714   -1.342704    0.075518    0.050238    0.066234
H    -1.954129   -0.530466   -0.649298    0.043666    0.086342   -0.312300
139
* Frequency(7)  -96.4200
C     0.434642    4.761494   -0.064159    0.006766    0.026080   -0.036376
C    -4.583408    3.378904    0.409985    0.028228   -0.005288    0.040710
C    -4.870621   -1.667201   -0.784795    0.019148   -0.008870    0.041526
C    -0.655527   -4.807439   -0.565876    0.019222   -0.020348    0.016794
C     4.394608   -3.509150    0.087807    0.000134    0.037712    0.055960
C     4.658298    1.650576   -0.504994    0.022948    0.041542   -0.039440
O    -0.498348    3.773449    0.323944    0.013080    0.026856   -0.029382
O    -4.373822    2.390038   -0.545360    0.020820   -0.009074    0.042144
O    -3.465774   -1.780819   -0.853982    0.019066   -0.005244    0.024766
O     0.338474   -3.858759   -0.284491    0.048776   -0.044664   -0.022122
O     4.234879   -2.422485   -0.761294   -0.025512    0.048684    0.067652
O     3.252665    1.761852   -0.562176    0.021550    0.039702   -0.030256
C     0.899537    4.477351   -1.511740    0.003898    0.025002   -0.036820
C    -4.116017    4.708072   -0.204851    0.002658   -0.003904    0.018750
C    -5.374972   -0.861106   -1.992852    0.009998   -0.011080    0.042778
C    -1.211136   -4.531777   -1.976301    0.006172   -0.015072    0.022618
C     3.968154   -4.761375   -0.703293    0.054772    0.033998    0.024406
C     5.175452    1.004526   -1.804600    0.009756    0.012648   -0.027020
O    -0.134404    4.512165   -2.454865    0.000906    0.009472   -0.033332
O    -4.821051    5.048560   -1.363427   -0.019222   -0.023122    0.024330
O    -5.039193   -1.450733   -3.216882    0.016088   -0.009234    0.043464
O    -0.219893   -4.558062   -2.965086    0.002568   -0.017306    0.017394
O     4.754582   -4.959186   -1.842545    0.091458    0.072580    0.041724
O     4.772397    1.721521   -2.939707    0.008218   -0.008992   -0.037906
C     1.491105    3.063922   -1.492334    0.015640    0.029340   -0.033666
C    -2.612768    4.611612   -0.509737   -0.002250    0.004114   -0.006082
C    -4.830849    0.569293   -1.891088    0.000962   -0.006132    0.038642
C    -1.840929   -3.133148   -1.959475    0.017364   -0.009992    0.032518
C     2.484578   -4.627148   -1.090809    0.064568    0.000422   -0.015434
C     4.716542   -0.459859   -1.883938    0.000086    0.014484    0.006052
O     1.909286    2.598888   -2.753049    0.024596    0.030936   -0.029896
O    -2.145273    5.853224   -0.996306   -0.017896    0.000984   -0.036476
O    -5.381037    1.391375   -2.889182   -0.015552   -0.011430    0.041380
O    -2.440291   -2.800664   -3.185268    0.014966    0.003046    0.036530
O     2.024981   -5.800506   -1.728840    0.093462    0.010260   -0.053446
O     5.351773   -1.129189   -2.946823   -0.009944   -0.002808    0.012084
C     2.697120    3.069074   -0.548869    0.013866    0.036316   -0.031134
C    -1.786867    4.182595    0.723114    0.021300    0.029598   -0.011256
C    -5.158710    1.204180   -0.531875    0.016140   -0.006912    0.044080
C    -2.916665   -3.091563   -0.870602    0.023784   -0.003310    0.037870
C     1.603612   -4.333158    0.137694    0.043412   -0.070008   -0.024340
C     5.023546   -1.243950   -0.598701   -0.000906    0.037366    0.019950
C     2.231694    3.505732    0.853726    0.016262    0.033916   -0.030606
C    -2.472818    2.938281    1.328528    0.050428    0.032350    0.026626
C    -4.836802    0.260211    0.645715    0.029194   -0.008478    0.039510
C    -2.320628   -3.489359    0.491407    0.041762    0.009072    0.033466
C     2.233752   -3.173076    0.915959   -0.016346   -0.108986    0.068616
C     4.657195   -0.448217    0.670141    0.023588    0.071366    0.002748
O     1.545502    4.762941    0.787251    0.006048    0.026448   -0.033716
O    -3.837017    3.160090    1.589069    0.049100    0.012860    0.034318
O    -5.290365   -1.072928    0.405054    0.024842   -0.007634    0.044000
O    -1.684492   -4.761089    0.385872    0.039660    0.008016    0.036740
O     3.584614   -3.408598    1.249811   -0.004858   -0.010480    0.061204
O     5.068905    0.920105    0.611337    0.034898    0.064166   -0.030256
C     3.416731    3.708062    1.804752    0.023698    0.067616   -0.044938
C    -1.912461    2.349259    2.608614    0.090598    0.065018    0.035442
C    -5.555203    0.659514    1.946926    0.046730   -0.001378    0.048546
C    -3.410872   -3.640991    1.558090    0.055522    0.016982    0.049850
C     1.511810   -2.821778    2.205643   -0.202632   -0.270512    0.018308
C     5.349093   -0.991933    1.934141    0.042270    0.087736   -0.001164
O     4.335939    4.654850    1.316972    0.001212    0.070332   -0.078084
O    -0.573119    2.305641    2.624231    0.076828    0.071808    0.030494
O    -6.933728    0.841371    1.757206    0.044240    0.005474    0.066950
O    -4.350561   -4.626236    1.215297    0.049994    0.015890    0.068318
O     2.064043   -1.679235    2.708911   -0.495996   -0.279050    0.024988
O     6.731193   -1.168641    1.757659    0.040698    0.091534   -0.017472
H     0.002438    5.764728    0.016706    0.005868    0.025488   -0.033542
H    -5.632453    3.428814    0.728282    0.034194   -0.014964    0.061914
H    -5.333976   -2.661885   -0.775831    0.020402   -0.009772    0.046514
H    -0.257122   -5.827449   -0.504705   -0.000590   -0.027808    0.018304
H     5.423866   -3.604745    0.455166    0.000116    0.064688    0.059338
H     5.117586    2.638875   -0.379172    0.025194    0.041942   -0.062078
H     1.675347    5.216422   -1.769578   -0.005196    0.033690   -0.038312
H    -4.294923    5.508091    0.521010    0.009684    0.004360    0.013930
H    -6.469712   -0.827503   -1.955799    0.009948   -0.018122    0.042234
H    -1.989040   -5.281367   -2.192743    0.001528   -0.008984    0.020768
H     4.103196   -5.643198   -0.068971    0.062108    0.029522    0.017604
H     6.270237    1.031242   -1.796178    0.010532    0.004590   -0.033684
H    -0.743665    5.238410   -2.237417    0.008834    0.015698   -0.054384
H    -4.885800    4.265941   -1.935100   -0.026532   -0.032574    0.034930
H    -4.117476   -1.776415   -3.201244    0.014418   -0.013076    0.050334
H     0.485839   -5.181010   -2.710507    0.030346    0.020800    0.033938
H     4.839585   -4.114406   -2.316462    0.064680    0.075132    0.042202
H     3.815097    1.914282   -2.890792    0.009934   -0.002338   -0.039874
H     0.700258    2.418617   -1.082931    0.019502    0.024780   -0.036712
H    -2.468542    3.836989   -1.278404   -0.009696   -0.010968    0.005276
H    -3.735063    0.543827   -1.986712    0.000554    0.004124    0.024978
H    -1.046530   -2.414522   -1.714513    0.027448   -0.021046    0.032816
H     2.381613   -3.773309   -1.777395    0.060440    0.022936    0.012042
H     3.626760   -0.488457   -2.028163   -0.000104    0.018182    0.015006
H     1.240342    2.852821   -3.407386    0.022314    0.012862   -0.031182
H    -2.880540    6.270759   -1.477621   -0.028226   -0.015654   -0.036674
H    -5.348730    0.906331   -3.730544    0.021988    0.001648    0.038956
H    -1.802548   -2.992511   -3.891833    0.023244    0.031980    0.034850
H     2.751262   -6.136076   -2.281386    0.093588    0.046926   -0.076304
H     5.263805   -0.583350   -3.743626   -0.000390   -0.002080    0.010714
H     3.437061    3.788384   -0.922256    0.009192    0.043592   -0.026364
H    -1.738676    5.003286    1.450828    0.032886    0.042710   -0.025042
H    -6.225122    1.467533   -0.497268    0.017242   -0.000994    0.056064
H    -3.700546   -3.815717   -1.127500    0.024142   -0.008400    0.051412
H     1.501207   -5.224221    0.767902    0.030108   -0.103642   -0.073878
H     6.088343   -1.509783   -0.575092   -0.005310    0.018964    0.018960
H     1.548061    2.749859    1.253875    0.035468    0.021428   -0.018972
H    -2.348131    2.137742    0.570534    0.049664    0.018204    0.042548
H    -3.754380    0.253230    0.824439    0.032446   -0.010220    0.027188
H    -1.598577   -2.733260    0.826869    0.043392    0.015076    0.014848
H     2.162985   -2.289739    0.255795   -0.072450   -0.058208    0.142374
H     3.571823   -0.505620    0.805136    0.024268    0.090620    0.018514
H     3.968181    2.772102    1.906068    0.038380    0.076546   -0.033058
H     3.030718    4.011670    2.784082    0.031848    0.087832   -0.046278
H    -5.357816   -0.128320    2.682732    0.051130    0.000536    0.049518
H    -5.152286    1.594565    2.333855    0.058940   -0.003042    0.040914
H    -3.957747   -2.701366    1.653290    0.058608    0.018694    0.052692
H    -2.926575   -3.869747    2.514005    0.070926    0.018164    0.042428
H     5.151110   -0.287061    2.749784    0.053016    0.095890   -0.004872
H     4.932837   -1.962012    2.202614    0.054362    0.085816    0.013136
H     3.878817    5.504232    1.241298   -0.010974    0.064136   -0.086900
H    -7.330904   -0.017427    1.549833    0.041628    0.007906    0.064218
H    -3.890500   -5.478311    1.174398    0.052022    0.017084    0.067878
H     7.136275   -0.299107    1.624396    0.034036    0.088704   -0.046276
C     1.259462   -0.851116    3.572338   -0.503976   -0.291688   -0.014090
H     1.978131   -0.330441    4.209783   -0.628238   -0.571024    0.279094
H     0.596290   -1.457187    4.183354   -0.861874   -0.204350   -0.357994
O     0.643570   -3.458371    2.755091   -0.317734   -0.398534   -0.274724
C     0.050557    1.361862    3.516721    0.077214    0.043886   -0.003824
H    -0.635286    1.086303    4.313229    0.143320    0.118376    0.080508
H     0.923144    1.867478    3.921143    0.150914   -0.016678   -0.091130
O    -2.629329    1.932831    3.497944    0.083100    0.063174    0.037824
C     0.430746    0.114889    2.676793   -0.095254    0.012576   -0.030886
O    -0.589686   -0.464337    2.066707   -0.158428    0.244582   -0.137004
H    -1.084895   -0.025355    0.593453   -0.091004    0.094882   -0.269202
O    -1.348384    0.172018   -0.364194    0.040084    0.075392   -0.276944
H     0.182128   -0.054928   -0.910389    0.064496    0.041866   -0.041516
O     1.193988   -0.171635   -0.828420    0.057892    0.025258   -0.006690
H     1.351646    0.100344    0.140329    0.042684   -0.071610    0.001618
O     1.394677    0.655869    1.649495    0.069418   -0.164888    0.077788
H     2.304561    0.556320    1.962686    0.021334    0.013600    0.277704
H     1.626388    0.533239   -1.349921    0.075518    0.050238    0.066234
H    -1.958887   -0.539875   -0.615266    0.043666    0.086342   -0.312300
139
* Frequency(7)  -96.4200
C     0.434027    4.759122   -0.060852    0.006766    0.026080   -0.036376
C    -4.585975    3.379385    0.406284    0.028228   -0.005288    0.040710
C    -4.872362   -1.666395   -0.788571    0.019148   -0.008870    0.041526
C    -0.657275   -4.805589   -0.567403    0.019222   -0.020348    0.016794
C     4.394595   -3.512579    0.082719    0.000134    0.037712    0.055960
C     4.656212    1.646799   -0.501408    0.022948    0.041542   -0.039440
O    -0.499537    3.771007    0.326615    0.013080    0.026856   -0.029382
O    -4.375715    2.390863   -0.549192    0.020820   -0.009074    0.042144
O    -3.467508   -1.780343   -0.856233    0.019066   -0.005244    0.024766
O     0.334039   -3.854698   -0.282480    0.048776   -0.044664   -0.022122
O     4.237198   -2.426911   -0.767445   -0.025512    0.048684    0.067652
O     3.250706    1.758243   -0.559425    0.021550    0.039702   -0.030256
C     0.899182    4.475078   -1.508393    0.003898    0.025002   -0.036820
C    -4.116258    4.708427   -0.206556    0.002658   -0.003904    0.018750
C    -5.375882   -0.860099   -1.996741    0.009998   -0.011080    0.042778
C    -1.211697   -4.530407   -1.978357    0.006172   -0.015072    0.022618
C     3.963174   -4.764467   -0.705512    0.054772    0.033998    0.024406
C     5.174565    1.003376   -1.802143    0.009756    0.012648   -0.027020
O    -0.134486    4.511304   -2.451834    0.000906    0.009472   -0.033332
O    -4.819303    5.050662   -1.365639   -0.019222   -0.023122    0.024330
O    -5.040656   -1.449893   -3.220834    0.016088   -0.009234    0.043464
O    -0.220126   -4.556489   -2.966667    0.002568   -0.017306    0.017394
O     4.746266   -4.965786   -1.846339    0.091458    0.072580    0.041724
O     4.771650    1.722338   -2.936260    0.008218   -0.008992   -0.037906
C     1.489683    3.061255   -1.489273    0.015640    0.029340   -0.033666
C    -2.612564    4.611238   -0.509184   -0.002250    0.004114   -0.006082
C    -4.830937    0.569851   -1.894601    0.000962   -0.006132    0.038642
C    -1.842507   -3.132239   -1.962431    0.017364   -0.009992    0.032518
C     2.478708   -4.627187   -1.089406    0.064568    0.000422   -0.015434
C     4.716534   -0.461176   -1.884488    0.000086    0.014484    0.006052
O     1.907049    2.596075   -2.750331    0.024596    0.030936   -0.029896
O    -2.143646    5.853135   -0.992989   -0.017896    0.000984   -0.036476
O    -5.379623    1.392414   -2.892944   -0.015552   -0.011430    0.041380
O    -2.441652   -2.800941   -3.188590    0.014966    0.003046    0.036530
O     2.016483   -5.801439   -1.723980    0.093462    0.010260   -0.053446
O     5.352678   -1.128934   -2.947922   -0.009944   -0.002808    0.012084
C     2.695859    3.065773   -0.546038    0.013866    0.036316   -0.031134
C    -1.788804    4.179903    0.724137    0.021300    0.029598   -0.011256
C    -5.160177    1.204809   -0.535883    0.016140   -0.006912    0.044080
C    -2.918827   -3.091262   -0.874046    0.023784   -0.003310    0.037870
C     1.599665   -4.326793    0.139907    0.043412   -0.070008   -0.024340
C     5.023628   -1.247348   -0.600515   -0.000906    0.037366    0.019950
C     2.230215    3.502649    0.856509    0.016262    0.033916   -0.030606
C    -2.477403    2.935340    1.326107    0.050428    0.032350    0.026626
C    -4.839457    0.260982    0.642123    0.029194   -0.008478    0.039510
C    -2.324425   -3.490184    0.488364    0.041762    0.009072    0.033466
C     2.235238   -3.163167    0.909720   -0.016346   -0.108986    0.068616
C     4.655050   -0.454706    0.669891    0.023588    0.071366    0.002748
O     1.544952    4.760537    0.790317    0.006048    0.026448   -0.033716
O    -3.841481    3.158921    1.585949    0.049100    0.012860    0.034318
O    -5.292624   -1.072234    0.401054    0.024842   -0.007634    0.044000
O    -1.688098   -4.761818    0.382531    0.039660    0.008016    0.036740
O     3.585056   -3.407645    1.244246   -0.004858   -0.010480    0.061204
O     5.065732    0.914271    0.614088    0.034898    0.064166   -0.030256
C     3.414577    3.701915    1.808838    0.023698    0.067616   -0.044938
C    -1.920698    2.343348    2.605392    0.090598    0.065018    0.035442
C    -5.559452    0.659639    1.942512    0.046730   -0.001378    0.048546
C    -3.415920   -3.642535    1.553557    0.055522    0.016982    0.049850
C     1.530233   -2.797182    2.203979   -0.202632   -0.270512    0.018308
C     5.345249   -0.999910    1.934247    0.042270    0.087736   -0.001164
O     4.335829    4.648455    1.324072    0.001212    0.070332   -0.078084
O    -0.580104    2.299112    2.621459    0.076828    0.071808    0.030494
O    -6.937750    0.840873    1.751119    0.044240    0.005474    0.066950
O    -4.355107   -4.627681    1.209086    0.049994    0.015890    0.068318
O     2.109140   -1.653864    2.706640   -0.495996   -0.279050    0.024988
O     6.727493   -1.176963    1.759247    0.040698    0.091534   -0.017472
H     0.001905    5.762411    0.019756    0.005868    0.025488   -0.033542
H    -5.635562    3.430174    0.722653    0.034194   -0.014964    0.061914
H    -5.335831   -2.660997   -0.780061    0.020402   -0.009772    0.046514
H    -0.257068   -5.824920   -0.506369   -0.000590   -0.027808    0.018304
H     5.423855   -3.610626    0.449771    0.000116    0.064688    0.059338
H     5.115295    2.635062   -0.373528    0.025194    0.041942   -0.062078
H     1.675819    5.213359   -1.766095   -0.005196    0.033690   -0.038312
H    -4.295804    5.507694    0.519743    0.009684    0.004360    0.013930
H    -6.470617   -0.825856   -1.959639    0.009948   -0.018122    0.042234
H    -1.989178   -5.280551   -2.194631    0.001528   -0.008984    0.020768
H     4.097549   -5.645882   -0.070571    0.062108    0.029522    0.017604
H     6.269279    1.030825   -1.793115    0.010532    0.004590   -0.033684
H    -0.744468    5.236983   -2.232472    0.008834    0.015698   -0.054384
H    -4.883388    4.268903   -1.938276   -0.026532   -0.032574    0.034930
H    -4.118787   -1.775226   -3.205820    0.014418   -0.013076    0.050334
H     0.483080   -5.182901   -2.713593    0.030346    0.020800    0.033938
H     4.833704   -4.121237   -2.320299    0.064680    0.075132    0.042202
H     3.814194    1.914495   -2.887166    0.009934   -0.002338   -0.039874
H     0.698485    2.416364   -1.079594    0.019502    0.024780   -0.036712
H    -2.467660    3.837986   -1.278884   -0.009696   -0.010968    0.005276
H    -3.735114    0.543452   -1.988983    0.000554    0.004124    0.024978
H    -1.049026   -2.412609   -1.717496    0.027448   -0.021046    0.032816
H     2.376117   -3.775394   -1.778490    0.060440    0.022936    0.012042
H     3.626770   -0.490110   -2.029527   -0.000104    0.018182    0.015006
H     1.238313    2.851652   -3.404551    0.022314    0.012862   -0.031182
H    -2.877974    6.272182   -1.474286   -0.028226   -0.015654   -0.036674
H    -5.350729    0.906182   -3.734086    0.021988    0.001648    0.038956
H    -1.804661   -2.995419   -3.895002    0.023244    0.031980    0.034850
H     2.742753   -6.140343   -2.274448    0.093588    0.046926   -0.076304
H     5.263840   -0.583160   -3.744600   -0.000390   -0.002080    0.010714
H     3.436225    3.784421   -0.919859    0.009192    0.043592   -0.026364
H    -1.741666    4.999403    1.453104    0.032886    0.042710   -0.025042
H    -6.226690    1.467623   -0.502366    0.017242   -0.000994    0.056064
H    -3.702741   -3.814953   -1.132175    0.024142   -0.008400    0.051412
H     1.498469   -5.214798    0.774619    0.030108   -0.103642   -0.073878
H     6.088825   -1.511507   -0.576816   -0.005310    0.018964    0.018960
H     1.544836    2.747911    1.255600    0.035468    0.021428   -0.018972
H    -2.352647    2.136086    0.566666    0.049664    0.018204    0.042548
H    -3.757330    0.254160    0.821967    0.032446   -0.010220    0.027188
H    -1.602523   -2.734631    0.825519    0.043392    0.015076    0.014848
H     2.169572   -2.284446    0.242850   -0.072450   -0.058208    0.142374
H     3.569617   -0.513859    0.803453    0.024268    0.090620    0.018514
H     3.964691    2.765142    1.909074    0.038380    0.076546   -0.033058
H     3.027822    4.003684    2.788290    0.031848    0.087832   -0.046278
H    -5.362465   -0.128369    2.678230    0.051130    0.000536    0.049518
H    -5.157645    1.594841    2.330136    0.058940   -0.003042    0.040914
H    -3.963076   -2.703066    1.648500    0.058608    0.018694    0.052692
H    -2.933024   -3.871398    2.510148    0.070926    0.018164    0.042428
H     5.146289   -0.295779    2.750227    0.053016    0.095890   -0.004872
H     4.927895   -1.969815    2.201419    0.054362    0.085816    0.013136
H     3.879815    5.498401    1.249199   -0.010974    0.064136   -0.086900
H    -7.334689   -0.018146    1.543995    0.041628    0.007906    0.064218
H    -3.895230   -5.479864    1.168226    0.052022    0.017084    0.067878
H     7.133181   -0.307173    1.628603    0.034036    0.088704   -0.046276
C     1.305285   -0.824595    3.573619   -0.503976   -0.291688   -0.014090
H     2.035251   -0.278522    4.184407   -0.628238   -0.571024    0.279094
H     0.674653   -1.438607    4.215904   -0.861874   -0.204350   -0.357994
O     0.672459   -3.422135    2.780069   -0.317734   -0.398534   -0.274724
C     0.043536    1.357872    3.517069    0.077214    0.043886   -0.003824
H    -0.648317    1.075540    4.305909    0.143320    0.118376    0.080508
H     0.909422    1.868995    3.929428    0.150914   -0.016678   -0.091130
O    -2.636885    1.927087    3.494505    0.083100    0.063174    0.037824
C     0.439406    0.113746    2.679601   -0.095254    0.012576   -0.030886
O    -0.575281   -0.486575    2.079164   -0.158428    0.244582   -0.137004
H    -1.076621   -0.033981    0.617929   -0.091004    0.094882   -0.269202
O    -1.352029    0.165163   -0.339014    0.040084    0.075392   -0.276944
H     0.176264   -0.058735   -0.906614    0.064496    0.041866   -0.041516
O     1.188725   -0.173931   -0.827811    0.057892    0.025258   -0.006690
H     1.347765    0.106855    0.140182    0.042684   -0.071610    0.001618
O     1.388366    0.670861    1.642422    0.069418   -0.164888    0.077788
H     2.302621    0.555084    1.937436    0.021334    0.013600    0.277704
H     1.619522    0.528672   -1.355943    0.075518    0.050238    0.066234
H    -1.962857   -0.547725   -0.586871    0.043666    0.086342   -0.312300
139
* Frequency(7)  -96.4200
C     0.433600    4.757479   -0.058560    0.006766    0.026080   -0.036376
C    -4.587754    3.379718    0.403719    0.028228   -0.005288    0.040710
C    -4.873568   -1.665836   -0.791188    0.019148   -0.008870    0.041526
C    -0.658486   -4.804307   -0.568461    0.019222   -0.020348    0.016794
C     4.394587   -3.514955    0.079193    0.000134    0.037712    0.055960
C     4.654766    1.644181   -0.498923    0.022948    0.041542   -0.039440
O    -0.500361    3.769315    0.328467    0.013080    0.026856   -0.029382
O    -4.377027    2.391434   -0.551848    0.020820   -0.009074    0.042144
O    -3.468709   -1.780012   -0.857794    0.019066   -0.005244    0.024766
O     0.330965   -3.851883   -0.281085    0.048776   -0.044664   -0.022122
O     4.238806   -2.429979   -0.771708   -0.025512    0.048684    0.067652
O     3.249348    1.755741   -0.557518    0.021550    0.039702   -0.030256
C     0.898937    4.473502   -1.506072    0.003898    0.025002   -0.036820
C    -4.116426    4.708673   -0.207738    0.002658   -0.003904    0.018750
C    -5.376512   -0.859401   -1.999437    0.009998   -0.011080    0.042778
C    -1.212086   -4.529457   -1.979783    0.006172   -0.015072    0.022618
C     3.959722   -4.766609   -0.707050    0.054772    0.033998    0.024406
C     5.173950    1.002579   -1.800441    0.009756    0.012648   -0.027020
O    -0.134543    4.510707   -2.449733    0.000906    0.009472   -0.033332
O    -4.818092    5.052119   -1.367172   -0.019222   -0.023122    0.024330
O    -5.041670   -1.449311   -3.223573    0.016088   -0.009234    0.043464
O    -0.220288   -4.555398   -2.967763    0.002568   -0.017306    0.017394
O     4.740503   -4.970359   -1.848968    0.091458    0.072580    0.041724
O     4.771132    1.722905   -2.933871    0.008218   -0.008992   -0.037906
C     1.488697    3.059406   -1.487151    0.015640    0.029340   -0.033666
C    -2.612422    4.610978   -0.508801   -0.002250    0.004114   -0.006082
C    -4.830997    0.570237   -1.897037    0.000962   -0.006132    0.038642
C    -1.843602   -3.131609   -1.964481    0.017364   -0.009992    0.032518
C     2.474639   -4.627213   -1.088433    0.064568    0.000422   -0.015434
C     4.716528   -0.462088   -1.884870    0.000086    0.014484    0.006052
O     1.905499    2.594125   -2.748447    0.024596    0.030936   -0.029896
O    -2.142518    5.853073   -0.990691   -0.017896    0.000984   -0.036476
O    -5.378643    1.393135   -2.895552   -0.015552   -0.011430    0.041380
O    -2.442595   -2.801133   -3.190892    0.014966    0.003046    0.036530
O     2.010593   -5.802086   -1.720612    0.093462    0.010260   -0.053446
O     5.353304   -1.128757   -2.948683   -0.009944   -0.002808    0.012084
C     2.694986    3.063484   -0.544076    0.013866    0.036316   -0.031134
C    -1.790146    4.178038    0.724847    0.021300    0.029598   -0.011256
C    -5.161194    1.205244   -0.538661    0.016140   -0.006912    0.044080
C    -2.920326   -3.091053   -0.876432    0.023784   -0.003310    0.037870
C     1.596930   -4.322381    0.141440    0.043412   -0.070008   -0.024340
C     5.023685   -1.249703   -0.601772   -0.000906    0.037366    0.019950
C     2.229191    3.500511    0.858438    0.016262    0.033916   -0.030606
C    -2.480581    2.933301    1.324429    0.050428    0.032350    0.026626
C    -4.841296    0.261516    0.639633    0.029194   -0.008478    0.039510
C    -2.327057   -3.490756    0.486255    0.041762    0.009072    0.033466
C     2.236268   -3.156299    0.905396   -0.016346   -0.108986    0.068616
C     4.653564   -0.459203    0.669718    0.023588    0.071366    0.002748
O     1.544570    4.758870    0.792442    0.006048    0.026448   -0.033716
O    -3.844576    3.158110    1.583786    0.049100    0.012860    0.034318
O    -5.294189   -1.071753    0.398281    0.024842   -0.007634    0.044000
O    -1.690597   -4.762323    0.380216    0.039660    0.008016    0.036740
O     3.585362   -3.406985    1.240389   -0.004858   -0.010480    0.061204
O     5.063532    0.910227    0.615995    0.034898    0.064166   -0.030256
C     3.413083    3.697654    1.811670    0.023698    0.067616   -0.044938
C    -1.926408    2.339250    2.603158    0.090598    0.065018    0.035442
C    -5.562397    0.659726    1.939453    0.046730   -0.001378    0.048546
C    -3.419419   -3.643605    1.550416    0.055522    0.016982    0.049850
C     1.543003   -2.780135    2.202825   -0.202632   -0.270512    0.018308
C     5.342586   -1.005439    1.934320    0.042270    0.087736   -0.001164
O     4.335753    4.644023    1.328993    0.001212    0.070332   -0.078084
O    -0.584946    2.294587    2.619537    0.076828    0.071808    0.030494
O    -6.940538    0.840528    1.746900    0.044240    0.005474    0.066950
O    -4.358257   -4.628682    1.204781    0.049994    0.015890    0.068318
O     2.140396   -1.636279    2.705065   -0.495996   -0.279050    0.024988
O     6.724928   -1.182732    1.760348    0.040698    0.091534   -0.017472
H     0.001535    5.760805    0.021870    0.005868    0.025488   -0.033542
H    -5.637717    3.431117    0.718751    0.034194   -0.014964    0.061914
H    -5.337116   -2.660381   -0.782992    0.020402   -0.009772    0.046514
H    -0.257031   -5.823168   -0.507523   -0.000590   -0.027808    0.018304
H     5.423848   -3.614703    0.446032    0.000116    0.064688    0.059338
H     5.113708    2.632419   -0.369616    0.025194    0.041942   -0.062078
H     1.676146    5.211236   -1.763680   -0.005196    0.033690   -0.038312
H    -4.296414    5.507420    0.518865    0.009684    0.004360    0.013930
H    -6.471244   -0.824714   -1.962301    0.009948   -0.018122    0.042234
H    -1.989275   -5.279984   -2.195940    0.001528   -0.008984    0.020768
H     4.093635   -5.647742   -0.071680    0.062108    0.029522    0.017604
H     6.268615    1.030536   -1.790993    0.010532    0.004590   -0.033684
H    -0.745024    5.235993   -2.229045    0.008834    0.015698   -0.054384
H    -4.881716    4.270956   -1.940477   -0.026532   -0.032574    0.034930
H    -4.119695   -1.774402   -3.208992    0.014418   -0.013076    0.050334
H     0.481167   -5.184212   -2.715732    0.030346    0.020800    0.033938
H     4.829628   -4.125971   -2.322959    0.064680    0.075132    0.042202
H     3.813568    1.914642   -2.884654    0.009934   -0.002338   -0.039874
H     0.697256    2.414802   -1.077280    0.019502    0.024780   -0.036712
H    -2.467049    3.838677   -1.279216   -0.009696   -0.010968    0.005276
H    -3.735149    0.543192   -1.990557    0.000554    0.004124    0.024978
H    -1.050756   -2.411282   -1.719564    0.027448   -0.021046    0.032816
H     2.372309   -3.776839   -1.779249    0.060440    0.022936    0.012042
H     3.626776   -0.491256   -2.030473   -0.000104    0.018182    0.015006
H     1.236907    2.850841   -3.402586    0.022314    0.012862   -0.031182
H    -2.876195    6.273168   -1.471975   -0.028226   -0.015654   -0.036674
H    -5.352115    0.906078   -3.736541    0.021988    0.001648    0.038956
H    -1.806126   -2.997434   -3.897198    0.023244    0.031980    0.034850
H     2.736855   -6.143300   -2.269640    0.093588    0.046926   -0.076304
H     5.263865   -0.583029   -3.745275   -0.000390   -0.002080    0.010714
H     3.435646    3.781674   -0.918198    0.009192    0.043592   -0.026364
H    -1.743739    4.996712    1.454682    0.032886    0.042710   -0.025042
H    -6.227776    1.467686   -0.505899    0.017242   -0.000994    0.056064
H    -3.704262   -3.814424   -1.135415    0.024142   -0.008400    0.051412
H     1.496572   -5.208267    0.779274    0.030108   -0.103642   -0.073878
H     6.089160   -1.512702   -0.578011   -0.005310    0.018964    0.018960
H     1.542601    2.746561    1.256796    0.035468    0.021428   -0.018972
H    -2.355776    2.134939    0.563984    0.049664    0.018204    0.042548
H    -3.759375    0.254804    0.820254    0.032446   -0.010220    0.027188
H    -1.605257   -2.735581    0.824583    0.043392    0.015076    0.014848
H     2.174138   -2.280778    0.233878   -0.072450   -0.058208    0.142374
H     3.568088   -0.519570    0.802286    0.024268    0.090620    0.018514
H     3.962272    2.760318    1.911157    0.038380    0.076546   -0.033058
H     3.025815    3.998149    2.791206    0.031848    0.087832   -0.046278
H    -5.365687   -0.128403    2.675109    0.051130    0.000536    0.049518
H    -5.161359    1.595033    2.327557    0.058940   -0.003042    0.040914
H    -3.966769   -2.704244    1.645179    0.058608    0.018694    0.052692
H    -2.937493   -3.872543    2.507474    0.070926    0.018164    0.042428
H     5.142948   -0.301822    2.750534    0.053016    0.095890   -0.004872
H     4.924469   -1.975223    2.200592    0.054362    0.085816    0.013136
H     3.880506    5.494359    1.254675   -0.010974    0.064136   -0.086900
H    -7.337313   -0.018644    1.539948    0.041628    0.007906    0.064218
H    -3.898508   -5.480941    1.163949    0.052022    0.017084    0.067878
H     7.131036   -0.312762    1.631519    0.034036    0.088704   -0.046276
C     1.337044   -0.806214    3.574507   -0.503976   -0.291688   -0.014090
H     2.074841   -0.242538    4.166820   -0.628238   -0.571024    0.279094
H     0.728966   -1.425730    4.238463   -0.861874   -0.204350   -0.357994
O     0.692481   -3.397021    2.797382   -0.317734   -0.398534   -0.274724
C     0.038670    1.355107    3.517310    0.077214    0.043886   -0.003824
H    -0.657349    1.068080    4.300836    0.143320    0.118376    0.080508
H     0.899912    1.870046    3.935171    0.150914   -0.016678   -0.091130
O    -2.642121    1.923106    3.492122    0.083100    0.063174    0.037824
C     0.445409    0.112953    2.681548   -0.095254    0.012576   -0.030886
O    -0.565298   -0.501988    2.087798   -0.158428    0.244582   -0.137004
H    -1.070886   -0.039961    0.634894   -0.091004    0.094882   -0.269202
O    -1.354555    0.160412   -0.321562    0.040084    0.075392   -0.276944
H     0.172200   -0.061373   -0.903998    0.064496    0.041866   -0.041516
O     1.185076   -0.175523   -0.827390    0.057892    0.025258   -0.006690
H     1.345075    0.111367    0.140080    0.042684   -0.071610    0.001618
O     1.383991    0.681252    1.637520    0.069418   -0.164888    0.077788
H     2.301277    0.554227    1.919936    0.021334    0.013600    0.277704
H     1.614763    0.525506   -1.360117    0.075518    0.050238    0.066234
H    -1.965609   -0.553166   -0.567190    0.043666    0.086342   -0.312300
139
* Frequency(7)  -96.4200
C     0.433409    4.756741   -0.057531    0.006766    0.026080   -0.036376
C    -4.588552    3.379867    0.402567    0.028228   -0.005288    0.040710
C    -4.874110   -1.665585   -0.792362    0.019148   -0.008870    0.041526
C    -0.659030   -4.803732   -0.568936    0.019222   -0.020348    0.016794
C     4.394583   -3.516022    0.077610    0.000134    0.037712    0.055960
C     4.654117    1.643006   -0.497807    0.022948    0.041542   -0.039440
O    -0.500731    3.768556    0.329298    0.013080    0.026856   -0.029382
O    -4.377616    2.391691   -0.553040    0.020820   -0.009074    0.042144
O    -3.469248   -1.779864   -0.858494    0.019066   -0.005244    0.024766
O     0.329586   -3.850620   -0.280460    0.048776   -0.044664   -0.022122
O     4.239528   -2.431356   -0.773621   -0.025512    0.048684    0.067652
O     3.248738    1.754618   -0.556663    0.021550    0.039702   -0.030256
C     0.898826    4.472795   -1.505031    0.003898    0.025002   -0.036820
C    -4.116501    4.708784   -0.208268    0.002658   -0.003904    0.018750
C    -5.376794   -0.859087   -2.000647    0.009998   -0.011080    0.042778
C    -1.212261   -4.529031   -1.980422    0.006172   -0.015072    0.022618
C     3.958173   -4.767571   -0.707740    0.054772    0.033998    0.024406
C     5.173674    1.002221   -1.799676    0.009756    0.012648   -0.027020
O    -0.134569    4.510439   -2.448791    0.000906    0.009472   -0.033332
O    -4.817548    5.052773   -1.367860   -0.019222   -0.023122    0.024330
O    -5.042125   -1.449050   -3.224802    0.016088   -0.009234    0.043464
O    -0.220361   -4.554909   -2.968255    0.002568   -0.017306    0.017394
O     4.737916   -4.972412   -1.850149    0.091458    0.072580    0.041724
O     4.770900    1.723159   -2.932799    0.008218   -0.008992   -0.037906
C     1.488255    3.058576   -1.486199    0.015640    0.029340   -0.033666
C    -2.612358    4.610862   -0.508629   -0.002250    0.004114   -0.006082
C    -4.831025    0.570411   -1.898130    0.000962   -0.006132    0.038642
C    -1.844093   -3.131327   -1.965400    0.017364   -0.009992    0.032518
C     2.472812   -4.627225   -1.087997    0.064568    0.000422   -0.015434
C     4.716526   -0.462498   -1.885041    0.000086    0.014484    0.006052
O     1.904804    2.593250   -2.747601    0.024596    0.030936   -0.029896
O    -2.142012    5.853045   -0.989659   -0.017896    0.000984   -0.036476
O    -5.378203    1.393458   -2.896723   -0.015552   -0.011430    0.041380
O    -2.443018   -2.801219   -3.191925    0.014966    0.003046    0.036530
O     2.007950   -5.802376   -1.719101    0.093462    0.010260   -0.053446
O     5.353586   -1.128678   -2.949025   -0.009944   -0.002808    0.012084
C     2.694593    3.062457   -0.543195    0.013866    0.036316   -0.031134
C    -1.790749    4.177201    0.725165    0.021300    0.029598   -0.011256
C    -5.161651    1.205440   -0.539907    0.016140   -0.006912    0.044080
C    -2.920999   -3.090959   -0.877503    0.023784   -0.003310    0.037870
C     1.595702   -4.320401    0.142129    0.043412   -0.070008   -0.024340
C     5.023711   -1.250759   -0.602337   -0.000906    0.037366    0.019950
C     2.228731    3.499552    0.859304    0.016262    0.033916   -0.030606
C    -2.482008    2.932386    1.323676    0.050428    0.032350    0.026626
C    -4.842122    0.261756    0.638516    0.029194   -0.008478    0.039510
C    -2.328238   -3.491012    0.485309    0.041762    0.009072    0.033466
C     2.236731   -3.153216    0.903455   -0.016346   -0.108986    0.068616
C     4.652896   -0.461222    0.669640    0.023588    0.071366    0.002748
O     1.544399    4.758122    0.793395    0.006048    0.026448   -0.033716
O    -3.845964    3.157746    1.582816    0.049100    0.012860    0.034318
O    -5.294892   -1.071537    0.397037    0.024842   -0.007634    0.044000
O    -1.691719   -4.762550    0.379177    0.039660    0.008016    0.036740
O     3.585499   -3.406689    1.238658   -0.004858   -0.010480    0.061204
O     5.062545    0.908413    0.616850    0.034898    0.064166   -0.030256
C     3.412413    3.695741    1.812941    0.023698    0.067616   -0.044938
C    -1.928970    2.337411    2.602156    0.090598    0.065018    0.035442
C    -5.563719    0.659765    1.938080    0.046730   -0.001378    0.048546
C    -3.420989   -3.644085    1.549006    0.055522    0.016982    0.049850
C     1.548734   -2.772484    2.202307   -0.202632   -0.270512    0.018308
C     5.341390   -1.007921    1.934353    0.042270    0.087736   -0.001164
O     4.335718    4.642034    1.331201    0.001212    0.070332   -0.078084
O    -0.587119    2.292556    2.618675    0.076828    0.071808    0.030494
O    -6.941789    0.840374    1.745007    0.044240    0.005474    0.066950
O    -4.359671   -4.629132    1.202848    0.049994    0.015890    0.068318
O     2.154425   -1.628386    2.704358   -0.495996   -0.279050    0.024988
O     6.723777   -1.185320    1.760842    0.040698    0.091534   -0.017472
H     0.001369    5.760084    0.022819    0.005868    0.025488   -0.033542
H    -5.638684    3.431541    0.717000    0.034194   -0.014964    0.061914
H    -5.337693   -2.660104   -0.784307    0.020402   -0.009772    0.046514
H    -0.257014   -5.822381   -0.508041   -0.000590   -0.027808    0.018304
H     5.423845   -3.616532    0.444354    0.000116    0.064688    0.059338
H     5.112995    2.631232   -0.367860    0.025194    0.041942   -0.062078
H     1.676293    5.210283   -1.762597   -0.005196    0.033690   -0.038312
H    -4.296688    5.507296    0.518471    0.009684    0.004360    0.013930
H    -6.471525   -0.824201   -1.963495    0.009948   -0.018122    0.042234
H    -1.989318   -5.279730   -2.196527    0.001528   -0.008984    0.020768
H     4.091878   -5.648577   -0.072178    0.062108    0.029522    0.017604
H     6.268317    1.030406   -1.790040    0.010532    0.004590   -0.033684
H    -0.745274    5.235549   -2.227507    0.008834    0.015698   -0.054384
H    -4.880966    4.271877   -1.941465   -0.026532   -0.032574    0.034930
H    -4.120103   -1.774032   -3.210416    0.014418   -0.013076    0.050334
H     0.480309   -5.184800   -2.716692    0.030346    0.020800    0.033938
H     4.827798   -4.128096   -2.324152    0.064680    0.075132    0.042202
H     3.813287    1.914709   -2.883526    0.009934   -0.002338   -0.039874
H     0.696705    2.414102   -1.076242    0.019502    0.024780   -0.036712
H    -2.466775    3.838988   -1.279365   -0.009696   -0.010968    0.005276
H    -3.735164    0.543076   -1.991263    0.000554    0.004124    0.024978
H    -1.051532   -2.410687   -1.720492    0.027448   -0.021046    0.032816
H     2.370599   -3.777488   -1.779589    0.060440    0.022936    0.012042
H     3.626779   -0.491770   -2.030897   -0.000104    0.018182    0.015006
H     1.236276    2.850478   -3.401704    0.022314    0.012862   -0.031182
H    -2.875397    6.273611   -1.470938   -0.028226   -0.015654   -0.036674
H    -5.352737    0.906031   -3.737643    0.021988    0.001648    0.038956
H    -1.806784   -2.998339   -3.898184    0.023244    0.031980    0.034850
H     2.734208   -6.144627   -2.267482    0.093588    0.046926   -0.076304
H     5.263876   -0.582970   -3.745578   -0.000390   -0.002080    0.010714
H     3.435386    3.780441   -0.917452    0.009192    0.043592   -0.026364
H    -1.744669    4.995504    1.455391    0.032886    0.042710   -0.025042
H    -6.228264    1.467714   -0.507484    0.017242   -0.000994    0.056064
H    -3.704945   -3.814186   -1.136869    0.024142   -0.008400    0.051412
H     1.495720   -5.205335    0.781364    0.030108   -0.103642   -0.073878
H     6.089310   -1.513239   -0.578547   -0.005310    0.018964    0.018960
H     1.541598    2.745955    1.257333    0.035468    0.021428   -0.018972
H    -2.357181    2.134424    0.562781    0.049664    0.018204    0.042548
H    -3.760292    0.255093    0.819485    0.032446   -0.010220    0.027188
H    -1.606484   -2.736008    0.824163    0.043392    0.015076    0.014848
H     2.176187   -2.279132    0.229851   -0.072450   -0.058208    0.142374
H     3.567401   -0.522133    0.801762    0.024268    0.090620    0.018514
H     3.961187    2.758153    1.912092    0.038380    0.076546   -0.033058
H     3.024914    3.995665    2.792515    0.031848    0.087832   -0.046278
H    -5.367133   -0.128418    2.673709    0.051130    0.000536    0.049518
H    -5.163027    1.595119    2.326400    0.058940   -0.003042    0.040914
H    -3.968427   -2.704773    1.643689    0.058608    0.018694    0.052692
H    -2.939499   -3.873057    2.506274    0.070926    0.018164    0.042428
H     5.141449   -0.304534    2.750671    0.053016    0.095890   -0.004872
H     4.922931   -1.977650    2.200220    0.054362    0.085816    0.013136
H     3.880817    5.492545    1.257133   -0.010974    0.064136   -0.086900
H    -7.338490   -0.018868    1.538131    0.041628    0.007906    0.064218
H    -3.899980   -5.481424    1.162029    0.052022    0.017084    0.067878
H     7.130073   -0.315271    1.632828    0.034036    0.088704   -0.046276
C     1.351298   -0.797964    3.574906   -0.503976   -0.291688   -0.014090
H     2.092610   -0.226387    4.158926   -0.628238   -0.571024    0.279094
H     0.753344   -1.419950    4.248589   -0.861874   -0.204350   -0.357994
O     0.701468   -3.385749    2.805152   -0.317734   -0.398534   -0.274724
C     0.036486    1.353865    3.517418    0.077214    0.043886   -0.003824
H    -0.661403    1.064732    4.298558    0.143320    0.118376    0.080508
H     0.895644    1.870517    3.937749    0.150914   -0.016678   -0.091130
O    -2.644472    1.921320    3.491052    0.083100    0.063174    0.037824
C     0.448103    0.112597    2.682421   -0.095254    0.012576   -0.030886
O    -0.560817   -0.508905    2.091673   -0.158428    0.244582   -0.137004
H    -1.068312   -0.042644    0.642508   -0.091004    0.094882   -0.269202
O    -1.355688    0.158280   -0.313729    0.040084    0.075392   -0.276944
H     0.170376   -0.062557   -0.902824    0.064496    0.041866   -0.041516
O     1.183439   -0.176237   -0.827200    0.057892    0.025258   -0.006690
H     1.343868    0.113393    0.140035    0.042684   -0.071610    0.001618
O     1.382028    0.685916    1.635320    0.069418   -0.164888    0.077788
H     2.300674    0.553842    1.912082    0.021334    0.013600    0.277704
H     1.612627    0.524085   -1.361991    0.075518    0.050238    0.066234
H    -1.966844   -0.555608   -0.558357    0.043666    0.086342   -0.312300
139
* Frequency(7)  -96.4200
C     0.433473    4.756989   -0.057877    0.006766    0.026080   -0.036376
C    -4.588283    3.379817    0.402955    0.028228   -0.005288    0.040710
C    -4.873928   -1.665669   -0.791967    0.019148   -0.008870    0.041526
C    -0.658847   -4.803925   -0.568776    0.019222   -0.020348    0.016794
C     4.394585   -3.515663    0.078142    0.000134    0.037712    0.055960
C     4.654335    1.643401   -0.498182    0.022948    0.041542   -0.039440
O    -0.500607    3.768811    0.329018    0.013080    0.026856   -0.029382
O    -4.377418    2.391605   -0.552639    0.020820   -0.009074    0.042144
O    -3.469067   -1.779914   -0.858259    0.019066   -0.005244    0.024766
O     0.330050   -3.851045   -0.280670    0.048776   -0.044664   -0.022122
O     4.239285   -2.430893   -0.772978   -0.025512    0.048684    0.067652
O     3.248943    1.754996   -0.556950    0.021550    0.039702   -0.030256
C     0.898863    4.473033   -1.505381    0.003898    0.025002   -0.036820
C    -4.116476    4.708747   -0.208090    0.002658   -0.003904    0.018750
C    -5.376699   -0.859193   -2.000240    0.009998   -0.011080    0.042778
C    -1.212202   -4.529174   -1.980207    0.006172   -0.015072    0.022618
C     3.958694   -4.767247   -0.707508    0.054772    0.033998    0.024406
C     5.173767    1.002342   -1.799933    0.009756    0.012648   -0.027020
O    -0.134560    4.510529   -2.449108    0.000906    0.009472   -0.033332
O    -4.817731    5.052553   -1.367629   -0.019222   -0.023122    0.024330
O    -5.041971   -1.449138   -3.224389    0.016088   -0.009234    0.043464
O    -0.220336   -4.555073   -2.968090    0.002568   -0.017306    0.017394
O     4.738786   -4.971722   -1.849752    0.091458    0.072580    0.041724
O     4.770978    1.723074   -2.933160    0.008218   -0.008992   -0.037906
C     1.488404    3.058855   -1.486519    0.015640    0.029340   -0.033666
C    -2.612380    4.610901   -0.508686   -0.002250    0.004114   -0.006082
C    -4.831015    0.570353   -1.897762    0.000962   -0.006132    0.038642
C    -1.843927   -3.131422   -1.965091    0.017364   -0.009992    0.032518
C     2.473427   -4.627221   -1.088143    0.064568    0.000422   -0.015434
C     4.716527   -0.462360   -1.884983    0.000086    0.014484    0.006052
O     1.905038    2.593545   -2.747886    0.024596    0.030936   -0.029896
O    -2.142182    5.853054   -0.990006   -0.017896    0.000984   -0.036476
O    -5.378351    1.393349   -2.896329   -0.015552   -0.011430    0.041380
O    -2.442876   -2.801190   -3.191577    0.014966    0.003046    0.036530
O     2.008839   -5.802278   -1.719609    0.093462    0.010260   -0.053446
O     5.353491   -1.128704   -2.948910   -0.009944   -0.002808    0.012084
C     2.694725    3.062802   -0.543492    0.013866    0.036316   -0.031134
C    -1.790546    4.177483    0.725058    0.021300    0.029598   -0.011256
C    -5.161497    1.205374   -0.539488    0.016140   -0.006912    0.044080
C    -2.920773   -3.090991   -0.877143    0.023784   -0.003310    0.037870
C     1.596115   -4.321067    0.141897    0.043412   -0.070008   -0.024340
C     5.023702   -1.250404   -0.602147   -0.000906    0.037366    0.019950
C     2.228885    3.499875    0.859012    0.016262    0.033916   -0.030606
C    -2.481528    2.932694    1.323929    0.050428    0.032350    0.026626
C    -4.841844    0.261676    0.638892    0.029194   -0.008478    0.039510
C    -2.327840   -3.490926    0.485627    0.041762    0.009072    0.033466
C     2.236575   -3.154253    0.904108   -0.016346   -0.108986    0.068616
C     4.653121   -0.460543    0.669667    0.023588    0.071366    0.002748
O     1.544457    4.758373    0.793075    0.006048    0.026448   -0.033716
O    -3.845497    3.157869    1.583142    0.049100    0.012860    0.034318
O    -5.294656   -1.071610    0.397455    0.024842   -0.007634    0.044000
O    -1.691341   -4.762474    0.379526    0.039660    0.008016    0.036740
O     3.585453   -3.406788    1.239240   -0.004858   -0.010480    0.061204
O     5.062877    0.909023    0.616563    0.034898    0.064166   -0.030256
C     3.412639    3.696385    1.812513    0.023698    0.067616   -0.044938
C    -1.928108    2.338030    2.602493    0.090598    0.065018    0.035442
C    -5.563274    0.659752    1.938542    0.046730   -0.001378    0.048546
C    -3.420461   -3.643924    1.549480    0.055522    0.016982    0.049850
C     1.546806   -2.775058    2.202481   -0.202632   -0.270512    0.018308
C     5.341792   -1.007086    1.934342    0.042270    0.087736   -0.001164
O     4.335730    4.642703    1.330458    0.001212    0.070332   -0.078084
O    -0.586388    2.293239    2.618965    0.076828    0.071808    0.030494
O    -6.941368    0.840426    1.745644    0.044240    0.005474    0.066950
O    -4.359195   -4.628980    1.203498    0.049994    0.015890    0.068318
O     2.149706   -1.631041    2.704596   -0.495996   -0.279050    0.024988
O     6.724165   -1.184450    1.760676    0.040698    0.091534   -0.017472
H     0.001425    5.760326    0.022499    0.005868    0.025488   -0.033542
H    -5.638359    3.431398    0.717589    0.034194   -0.014964    0.061914
H    -5.337499   -2.660197   -0.783865    0.020402   -0.009772    0.046514
H    -0.257020   -5.822646   -0.507866   -0.000590   -0.027808    0.018304
H     5.423846   -3.615917    0.444918    0.000116    0.064688    0.059338
H     5.113235    2.631631   -0.368451    0.025194    0.041942   -0.062078
H     1.676244    5.210603   -1.762961   -0.005196    0.033690   -0.038312
H    -4.296596    5.507338    0.518604    0.009684    0.004360    0.013930
H    -6.471430   -0.824373   -1.963094    0.009948   -0.018122    0.042234
H    -1.989303   -5.279816   -2.196329    0.001528   -0.008984    0.020768
H     4.092469   -5.648297   -0.072011    0.062108    0.029522    0.017604
H     6.268418    1.030450   -1.790360    0.010532    0.004590   -0.033684
H    -0.745190    5.235699   -2.228024    0.008834    0.015698   -0.054384
H    -4.881218    4.271567   -1.941132   -0.026532   -0.032574    0.034930
H    -4.119966   -1.774156   -3.209937    0.014418   -0.013076    0.050334
H     0.480598   -5.184602   -2.716369    0.030346    0.020800    0.033938
H     4.828414   -4.127382   -2.323751    0.064680    0.075132    0.042202
H     3.813381    1.914686   -2.883905    0.009934   -0.002338   -0.039874
H     0.696890    2.414337   -1.076591    0.019502    0.024780   -0.036712
H    -2.466867    3.838883   -1.279315   -0.009696   -0.010968    0.005276
H    -3.735159    0.543115   -1.991026    0.000554    0.004124    0.024978
H    -1.051271   -2.410887   -1.720180    0.027448   -0.021046    0.032816
H     2.371174   -3.777270   -1.779475    0.060440    0.022936    0.012042
H     3.626778   -0.491597   -2.030754   -0.000104    0.018182    0.015006
H     1.236488    2.850600   -3.402000    0.022314    0.012862   -0.031182
H    -2.875665    6.273462   -1.471287   -0.028226   -0.015654   -0.036674
H    -5.352527    0.906047   -3.737272    0.021988    0.001648    0.038956
H    -1.806562   -2.998034   -3.897852    0.023244    0.031980    0.034850
H     2.735099   -6.144181   -2.268208    0.093588    0.046926   -0.076304
H     5.263872   -0.582990   -3.745476   -0.000390   -0.002080    0.010714
H     3.435473    3.780856   -0.917703    0.009192    0.043592   -0.026364
H    -1.744356    4.995910    1.455153    0.032886    0.042710   -0.025042
H    -6.228100    1.467704   -0.506951    0.017242   -0.000994    0.056064
H    -3.704715   -3.814266   -1.136380    0.024142   -0.008400    0.051412
H     1.496007   -5.206321    0.780661    0.030108   -0.103642   -0.073878
H     6.089260   -1.513058   -0.578367   -0.005310    0.018964    0.018960
H     1.541935    2.746159    1.257152    0.035468    0.021428   -0.018972
H    -2.356709    2.134598    0.563186    0.049664    0.018204    0.042548
H    -3.759984    0.254996    0.819743    0.032446   -0.010220    0.027188
H    -1.606071   -2.735864    0.824304    0.043392    0.015076    0.014848
H     2.175498   -2.279686    0.231206   -0.072450   -0.058208    0.142374
H     3.567632   -0.521270    0.801938    0.024268    0.090620    0.018514
H     3.961552    2.758882    1.911777    0.038380    0.076546   -0.033058
H     3.025217    3.996500    2.792075    0.031848    0.087832   -0.046278
H    -5.366647   -0.128413    2.674180    0.051130    0.000536    0.049518
H    -5.162466    1.595090    2.326789    0.058940   -0.003042    0.040914
H    -3.967869   -2.704595    1.644190    0.058608    0.018694    0.052692
H    -2.938824   -3.872884    2.506678    0.070926    0.018164    0.042428
H     5.141953   -0.303622    2.750625    0.053016    0.095890   -0.004872
H     4.923449   -1.976834    2.200345    0.054362    0.085816    0.013136
H     3.880712    5.493155    1.256306   -0.010974    0.064136   -0.086900
H    -7.338094   -0.018792    1.538742    0.041628    0.007906    0.064218
H    -3.899485   -5.481261    1.162675    0.052022    0.017084    0.067878
H     7.130397   -0.314427    1.632388    0.034036    0.088704   -0.046276
C     1.346503   -0.800739    3.574772   -0.503976   -0.291688   -0.014090
H     2.086633   -0.231820    4.161581   -0.628238   -0.571024    0.279094
H     0.745143   -1.421894    4.245183   -0.861874   -0.204350   -0.357994
O     0.698445   -3.389540    2.802538   -0.317734   -0.398534   -0.274724
C     0.037221    1.354283    3.517381    0.077214    0.043886   -0.003824
H    -0.660039    1.065858    4.299324    0.143320    0.118376    0.080508
H     0.897079    1.870359    3.936882    0.150914   -0.016678   -0.091130
O    -2.643681    1.921921    3.491412    0.083100    0.063174    0.037824
C     0.447197    0.112717    2.682127   -0.095254    0.012576   -0.030886
O    -0.562324   -0.506578    2.090369   -0.158428    0.244582   -0.137004
H    -1.069178   -0.041742    0.639947   -0.091004    0.094882   -0.269202
O    -1.355307    0.158997   -0.316364    0.040084    0.075392   -0.276944
H     0.170989   -0.062159   -0.903219    0.064496    0.041866   -0.041516
O     1.183990   -0.175997   -0.827264    0.057892    0.025258   -0.006690
H     1.344274    0.112712    0.140050    0.042684   -0.071610    0.001618
O     1.382688    0.684347    1.636060    0.069418   -0.164888    0.077788
H     2.300877    0.553972    1.914724    0.021334    0.013600    0.277704
H     1.613345    0.524563   -1.361361    0.075518    0.050238    0.066234
H    -1.966428   -0.554787   -0.561329    0.043666    0.086342   -0.312300
139
* Frequency(7)  -96.4200
C     0.433787    4.758196   -0.059561    0.006766    0.026080   -0.036376
C    -4.586977    3.379572    0.404839    0.028228   -0.005288    0.040710
C    -4.873042   -1.666080   -0.790045    0.019148   -0.008870    0.041526
C    -0.657957   -4.804867   -0.567999    0.019222   -0.020348    0.016794
C     4.394591   -3.513918    0.080732    0.000134    0.037712    0.055960
C     4.655397    1.645324   -0.500008    0.022948    0.041542   -0.039440
O    -0.500002    3.770054    0.327658    0.013080    0.026856   -0.029382
O    -4.376454    2.391185   -0.550689    0.020820   -0.009074    0.042144
O    -3.468184   -1.780156   -0.857113    0.019066   -0.005244    0.024766
O     0.332307   -3.853112   -0.281694    0.048776   -0.044664   -0.022122
O     4.238104   -2.428640   -0.769847   -0.025512    0.048684    0.067652
O     3.249941    1.756833   -0.558351    0.021550    0.039702   -0.030256
C     0.899044    4.474190   -1.507085    0.003898    0.025002   -0.036820
C    -4.116353    4.708566   -0.207222    0.002658   -0.003904    0.018750
C    -5.376236   -0.859705   -1.998260    0.009998   -0.011080    0.042778
C    -1.211916   -4.529872   -1.979160    0.006172   -0.015072    0.022618
C     3.961229   -4.765674   -0.706378    0.054772    0.033998    0.024406
C     5.174218    1.002927   -1.801184    0.009756    0.012648   -0.027020
O    -0.134518    4.510968   -2.450650    0.000906    0.009472   -0.033332
O    -4.818621    5.051483   -1.366503   -0.019222   -0.023122    0.024330
O    -5.041227   -1.449565   -3.222377    0.016088   -0.009234    0.043464
O    -0.220217   -4.555874   -2.967285    0.002568   -0.017306    0.017394
O     4.743019   -4.968363   -1.847820    0.091458    0.072580    0.041724
O     4.771358    1.722658   -2.934914    0.008218   -0.008992   -0.037906
C     1.489127    3.060213   -1.488078    0.015640    0.029340   -0.033666
C    -2.612484    4.611092   -0.508968   -0.002250    0.004114   -0.006082
C    -4.830971    0.570069   -1.895973    0.000962   -0.006132    0.038642
C    -1.843124   -3.131884   -1.963586    0.017364   -0.009992    0.032518
C     2.476415   -4.627202   -1.088858    0.064568    0.000422   -0.015434
C     4.716531   -0.461690   -1.884703    0.000086    0.014484    0.006052
O     1.906176    2.594976   -2.749269    0.024596    0.030936   -0.029896
O    -2.143010    5.853100   -0.991694   -0.017896    0.000984   -0.036476
O    -5.379071    1.392820   -2.894414   -0.015552   -0.011430    0.041380
O    -2.442183   -2.801050   -3.189887    0.014966    0.003046    0.036530
O     2.013165   -5.801803   -1.722083    0.093462    0.010260   -0.053446
O     5.353031   -1.128834   -2.948351   -0.009944   -0.002808    0.012084
C     2.695367    3.064483   -0.544932    0.013866    0.036316   -0.031134
C    -1.789560    4.178853    0.724537    0.021300    0.029598   -0.011256
C    -5.160750    1.205054   -0.537448    0.016140   -0.006912    0.044080
C    -2.919672   -3.091144   -0.875390    0.023784   -0.003310    0.037870
C     1.598124   -4.324307    0.140771    0.043412   -0.070008   -0.024340
C     5.023660   -1.248675   -0.601224   -0.000906    0.037366    0.019950
C     2.229638    3.501444    0.857596    0.016262    0.033916   -0.030606
C    -2.479194    2.934191    1.325161    0.050428    0.032350    0.026626
C    -4.840493    0.261283    0.640720    0.029194   -0.008478    0.039510
C    -2.325908   -3.490506    0.487176    0.041762    0.009072    0.033466
C     2.235819   -3.159297    0.907284   -0.016346   -0.108986    0.068616
C     4.654213   -0.457240    0.669794    0.023588    0.071366    0.002748
O     1.544737    4.759598    0.791514    0.006048    0.026448   -0.033716
O    -3.843225    3.158464    1.584731    0.049100    0.012860    0.034318
O    -5.293506   -1.071963    0.399492    0.024842   -0.007634    0.044000
O    -1.689506   -4.762103    0.381227    0.039660    0.008016    0.036740
O     3.585228   -3.407273    1.242073   -0.004858   -0.010480    0.061204
O     5.064493    0.911993    0.615162    0.034898    0.064166   -0.030256
C     3.413735    3.699514    1.810433    0.023698    0.067616   -0.044938
C    -1.923915    2.341039    2.604133    0.090598    0.065018    0.035442
C    -5.561111    0.659688    1.940789    0.046730   -0.001378    0.048546
C    -3.417891   -3.643138    1.551788    0.055522    0.016982    0.049850
C     1.537428   -2.787578    2.203329   -0.202632   -0.270512    0.018308
C     5.343749   -1.003025    1.934288    0.042270    0.087736   -0.001164
O     4.335786    4.645958    1.326844    0.001212    0.070332   -0.078084
O    -0.582832    2.296563    2.620376    0.076828    0.071808    0.030494
O    -6.939321    0.840679    1.748742    0.044240    0.005474    0.066950
O    -4.356882   -4.628245    1.206660    0.049994    0.015890    0.068318
O     2.126750   -1.643956    2.705752   -0.495996   -0.279050    0.024988
O     6.726048   -1.180213    1.759867    0.040698    0.091534   -0.017472
H     0.001697    5.761506    0.020947    0.005868    0.025488   -0.033542
H    -5.636776    3.430706    0.720455    0.034194   -0.014964    0.061914
H    -5.336555   -2.660650   -0.781712    0.020402   -0.009772    0.046514
H    -0.257047   -5.823933   -0.507019   -0.000590   -0.027808    0.018304
H     5.423851   -3.612923    0.447664    0.000116    0.064688    0.059338
H     5.114401    2.633573   -0.371324    0.025194    0.041942   -0.062078
H     1.676003    5.212163   -1.764734   -0.005196    0.033690   -0.038312
H    -4.296147    5.507539    0.519248    0.009684    0.004360    0.013930
H    -6.470970   -0.825212   -1.961139    0.009948   -0.018122    0.042234
H    -1.989233   -5.280232   -2.195368    0.001528   -0.008984    0.020768
H     4.095344   -5.646930   -0.071196    0.062108    0.029522    0.017604
H     6.268905    1.030662   -1.791919    0.010532    0.004590   -0.033684
H    -0.744781    5.236425   -2.230541    0.008834    0.015698   -0.054384
H    -4.882446    4.270059   -1.939516   -0.026532   -0.032574    0.034930
H    -4.119299   -1.774762   -3.207607    0.014418   -0.013076    0.050334
H     0.482002   -5.183640   -2.714798    0.030346    0.020800    0.033938
H     4.831407   -4.123904   -2.321798    0.064680    0.075132    0.042202
H     3.813841    1.914578   -2.885751    0.009934   -0.002338   -0.039874
H     0.697793    2.415484   -1.078290    0.019502    0.024780   -0.036712
H    -2.467316    3.838376   -1.279071   -0.009696   -0.010968    0.005276
H    -3.735133    0.543306   -1.989870    0.000554    0.004124    0.024978
H    -1.050000   -2.411861   -1.718661    0.027448   -0.021046    0.032816
H     2.373972   -3.776208   -1.778917    0.060440    0.022936    0.012042
H     3.626773   -0.490755   -2.030060   -0.000104    0.018182    0.015006
H     1.237521    2.851195   -3.403443    0.022314    0.012862   -0.031182
H    -2.876972    6.272738   -1.472984   -0.028226   -0.015654   -0.036674
H    -5.351510    0.906123   -3.735469    0.021988    0.001648    0.038956
H    -1.805487   -2.996554   -3.896239    0.023244    0.031980    0.034850
H     2.739430   -6.142009   -2.271739    0.093588    0.046926   -0.076304
H     5.263854   -0.583087   -3.744980   -0.000390   -0.002080    0.010714
H     3.435899    3.782873   -0.918923    0.009192    0.043592   -0.026364
H    -1.742834    4.997887    1.453994    0.032886    0.042710   -0.025042
H    -6.227302    1.467658   -0.504356    0.017242   -0.000994    0.056064
H    -3.703598   -3.814655   -1.134000    0.024142   -0.008400    0.051412
H     1.497400   -5.211118    0.777242    0.030108   -0.103642   -0.073878
H     6.089014   -1.512181   -0.577489   -0.005310    0.018964    0.018960
H     1.543577    2.747150    1.256274    0.035468    0.021428   -0.018972
H    -2.354410    2.135440    0.565155    0.049664    0.018204    0.042548
H    -3.758482    0.254523    0.821002    0.032446   -0.010220    0.027188
H    -1.604063   -2.735166    0.824991    0.043392    0.015076    0.014848
H     2.172144   -2.282380    0.237795   -0.072450   -0.058208    0.142374
H     3.568755   -0.517076    0.802795    0.024268    0.090620    0.018514
H     3.963328    2.762424    1.910247    0.038380    0.076546   -0.033058
H     3.026691    4.000565    2.789933    0.031848    0.087832   -0.046278
H    -5.364281   -0.128388    2.676472    0.051130    0.000536    0.049518
H    -5.159738    1.594949    2.328683    0.058940   -0.003042    0.040914
H    -3.965157   -2.703729    1.646629    0.058608    0.018694    0.052692
H    -2.935542   -3.872043    2.508641    0.070926    0.018164    0.042428
H     5.144407   -0.299184    2.750400    0.053016    0.095890   -0.004872
H     4.925964   -1.972862    2.200953    0.054362    0.085816    0.013136
H     3.880204    5.496124    1.252284   -0.010974    0.064136   -0.086900
H    -7.336167   -0.018427    1.541715    0.041628    0.007906    0.064218
H    -3.897077   -5.480471    1.165816    0.052022    0.017084    0.067878
H     7.131972   -0.310322    1.630246    0.034036    0.088704   -0.046276
C     1.323178   -0.814239    3.574119   -0.503976   -0.291688   -0.014090
H     2.057557   -0.258248    4.174498   -0.628238   -0.571024    0.279094
H     0.705254   -1.431352    4.228614   -0.861874   -0.204350   -0.357994
O     0.683740   -3.407985    2.789823   -0.317734   -0.398534   -0.274724
C     0.040795    1.356314    3.517204    0.077214    0.043886   -0.003824
H    -0.653406    1.071337    4.303050    0.143320    0.118376    0.080508
H     0.904064    1.869587    3.932664    0.150914   -0.016678   -0.091130
O    -2.639835    1.924844    3.493162    0.083100    0.063174    0.037824
C     0.442788    0.113299    2.680698   -0.095254    0.012576   -0.030886
O    -0.569656   -0.495259    2.084028   -0.158428    0.244582   -0.137004
H    -1.073390   -0.037350    0.627487   -0.091004    0.094882   -0.269202
O    -1.353452    0.162487   -0.329181    0.040084    0.075392   -0.276944
H     0.173974   -0.060221   -0.905140    0.064496    0.041866   -0.041516
O     1.186669   -0.174828   -0.827574    0.057892    0.025258   -0.006690
H     1.346249    0.109397    0.140125    0.042684   -0.071610    0.001618
O     1.385901    0.676716    1.639660    0.069418   -0.164888    0.077788
H     2.301864    0.554601    1.927576    0.021334    0.013600    0.277704
H     1.616841    0.526888   -1.358295    0.075518    0.050238    0.066234
H    -1.964407   -0.550791   -0.575783    0.043666    0.086342   -0.312300
139
* Frequency(7)  -96.4200
C     0.434314    4.760231   -0.062399    0.006766    0.026080   -0.036376
C    -4.584774    3.379160    0.408015    0.028228   -0.005288    0.040710
C    -4.871547   -1.666772   -0.786805    0.019148   -0.008870    0.041526
C    -0.656457   -4.806455   -0.566688    0.019222   -0.020348    0.016794
C     4.394601   -3.510975    0.085099    0.000134    0.037712    0.055960
C     4.657188    1.648566   -0.503085    0.022948    0.041542   -0.039440
O    -0.498981    3.772150    0.325365    0.013080    0.026856   -0.029382
O    -4.374830    2.390477   -0.547400    0.020820   -0.009074    0.042144
O    -3.466697   -1.780566   -0.855180    0.019066   -0.005244    0.024766
O     0.336113   -3.856597   -0.283420    0.048776   -0.044664   -0.022122
O     4.236113   -2.424841   -0.764567   -0.025512    0.048684    0.067652
O     3.251622    1.759931   -0.560712    0.021550    0.039702   -0.030256
C     0.899348    4.476141   -1.509959    0.003898    0.025002   -0.036820
C    -4.116145    4.708261   -0.205759    0.002658   -0.003904    0.018750
C    -5.375456   -0.860570   -1.994922    0.009998   -0.011080    0.042778
C    -1.211435   -4.531048   -1.977395    0.006172   -0.015072    0.022618
C     3.965503   -4.763021   -0.704474    0.054772    0.033998    0.024406
C     5.174980    1.003914   -1.803292    0.009756    0.012648   -0.027020
O    -0.134448    4.511707   -2.453251    0.000906    0.009472   -0.033332
O    -4.820121    5.049679   -1.364604   -0.019222   -0.023122    0.024330
O    -5.039972   -1.450286   -3.218986    0.016088   -0.009234    0.043464
O    -0.220017   -4.557225   -2.965927    0.002568   -0.017306    0.017394
O     4.750156   -4.962699   -1.844565    0.091458    0.072580    0.041724
O     4.771999    1.721956   -2.937872    0.008218   -0.008992   -0.037906
C     1.490348    3.062503   -1.490705    0.015640    0.029340   -0.033666
C    -2.612659    4.611413   -0.509443   -0.002250    0.004114   -0.006082
C    -4.830896    0.569590   -1.892958    0.000962   -0.006132    0.038642
C    -1.841769   -3.132664   -1.961049    0.017364   -0.009992    0.032518
C     2.481454   -4.627169   -1.090062    0.064568    0.000422   -0.015434
C     4.716538   -0.460560   -1.884231    0.000086    0.014484    0.006052
O     1.908095    2.597391   -2.751602    0.024596    0.030936   -0.029896
O    -2.144407    5.853176   -0.994541   -0.017896    0.000984   -0.036476
O    -5.380285    1.391928   -2.891185   -0.015552   -0.011430    0.041380
O    -2.441015   -2.800812   -3.187036    0.014966    0.003046    0.036530
O     2.020458   -5.801003   -1.726253    0.093462    0.010260   -0.053446
O     5.352255   -1.129053   -2.947408   -0.009944   -0.002808    0.012084
C     2.696449    3.067317   -0.547362    0.013866    0.036316   -0.031134
C    -1.787898    4.181162    0.723659    0.021300    0.029598   -0.011256
C    -5.159491    1.204515   -0.534008    0.016140   -0.006912    0.044080
C    -2.917816   -3.091402   -0.872435    0.023784   -0.003310    0.037870
C     1.601512   -4.329770    0.138871    0.043412   -0.070008   -0.024340
C     5.023590   -1.245759   -0.599667   -0.000906    0.037366    0.019950
C     2.230907    3.504091    0.855208    0.016262    0.033916   -0.030606
C    -2.475259    2.936716    1.327239    0.050428    0.032350    0.026626
C    -4.838215    0.260622    0.643803    0.029194   -0.008478    0.039510
C    -2.322649   -3.489798    0.489788    0.041762    0.009072    0.033466
C     2.234543   -3.167802    0.912638   -0.016346   -0.108986    0.068616
C     4.656053   -0.451671    0.670008    0.023588    0.071366    0.002748
O     1.545209    4.761661    0.788883    0.006048    0.026448   -0.033716
O    -3.839393    3.159467    1.587409    0.049100    0.012860    0.034318
O    -5.291567   -1.072559    0.402925    0.024842   -0.007634    0.044000
O    -1.686411   -4.761477    0.384094    0.039660    0.008016    0.036740
O     3.584849   -3.408091    1.246849   -0.004858   -0.010480    0.061204
O     5.067216    0.917000    0.612801    0.034898    0.064166   -0.030256
C     3.415585    3.704790    1.806927    0.023698    0.067616   -0.044938
C    -1.916845    2.346113    2.606899    0.090598    0.065018    0.035442
C    -5.557465    0.659580    1.944577    0.046730   -0.001378    0.048546
C    -3.413559   -3.641813    1.555678    0.055522    0.016982    0.049850
C     1.521616   -2.808687    2.204757   -0.202632   -0.270512    0.018308
C     5.347047   -0.996179    1.934197    0.042270    0.087736   -0.001164
O     4.335880    4.651446    1.320751    0.001212    0.070332   -0.078084
O    -0.576837    2.302166    2.622756    0.076828    0.071808    0.030494
O    -6.935868    0.841106    1.753966    0.044240    0.005474    0.066950
O    -4.352980   -4.627005    1.211991    0.049994    0.015890    0.068318
O     2.088045   -1.665731    2.707702   -0.495996   -0.279050    0.024988
O     6.729224   -1.173070    1.758504    0.040698    0.091534   -0.017472
H     0.002155    5.763495    0.018330    0.005868    0.025488   -0.033542
H    -5.634108    3.429538    0.725286    0.034194   -0.014964    0.061914
H    -5.334963   -2.661412   -0.778082    0.020402   -0.009772    0.046514
H    -0.257093   -5.826103   -0.505591   -0.000590   -0.027808    0.018304
H     5.423860   -3.607875    0.452295    0.000116    0.064688    0.059338
H     5.116367    2.636846   -0.376168    0.025194    0.041942   -0.062078
H     1.675598    5.214792   -1.767724   -0.005196    0.033690   -0.038312
H    -4.295392    5.507880    0.520335    0.009684    0.004360    0.013930
H    -6.470194   -0.826626   -1.957843    0.009948   -0.018122    0.042234
H    -1.989113   -5.280933   -2.193748    0.001528   -0.008984    0.020768
H     4.100190   -5.644626   -0.069822    0.062108    0.029522    0.017604
H     6.269727    1.031020   -1.794548    0.010532    0.004590   -0.033684
H    -0.744092    5.237650   -2.234785    0.008834    0.015698   -0.054384
H    -4.884516    4.267518   -1.936790   -0.026532   -0.032574    0.034930
H    -4.118174   -1.775782   -3.203680    0.014418   -0.013076    0.050334
H     0.484370   -5.182016   -2.712150    0.030346    0.020800    0.033938
H     4.836454   -4.118041   -2.318504    0.064680    0.075132    0.042202
H     3.814616    1.914396   -2.888862    0.009934   -0.002338   -0.039874
H     0.699315    2.417418   -1.081155    0.019502    0.024780   -0.036712
H    -2.468073    3.837520   -1.278659   -0.009696   -0.010968    0.005276
H    -3.735090    0.543627   -1.987921    0.000554    0.004124    0.024978
H    -1.047859   -2.413504   -1.716101    0.027448   -0.021046    0.032816
H     2.378688   -3.774419   -1.777978    0.060440    0.022936    0.012042
H     3.626765   -0.489337   -2.028889   -0.000104    0.018182    0.015006
H     1.239262    2.852199   -3.405877    0.022314    0.012862   -0.031182
H    -2.879174    6.271516   -1.475846   -0.028226   -0.015654   -0.036674
H    -5.349794    0.906252   -3.732430    0.021988    0.001648    0.038956
H    -1.803673   -2.994059   -3.893520    0.023244    0.031980    0.034850
H     2.746733   -6.138347   -2.277694    0.093588    0.046926   -0.076304
H     5.263824   -0.583249   -3.744144   -0.000390   -0.002080    0.010714
H     3.436616    3.786275   -0.920980    0.009192    0.043592   -0.026364
H    -1.740268    5.001219    1.452039    0.032886    0.042710   -0.025042
H    -6.225957    1.467581   -0.499981    0.017242   -0.000994    0.056064
H    -3.701714   -3.815310   -1.129988    0.024142   -0.008400    0.051412
H     1.499750   -5.219206    0.771477    0.030108   -0.103642   -0.073878
H     6.088600   -1.510701   -0.576010   -0.005310    0.018964    0.018960
H     1.546344    2.748823    1.254793    0.035468    0.021428   -0.018972
H    -2.350534    2.136861    0.568475    0.049664    0.018204    0.042548
H    -3.755950    0.253725    0.823123    0.032446   -0.010220    0.027188
H    -1.600677   -2.733990    0.826150    0.043392    0.015076    0.014848
H     2.166491   -2.286922    0.248905   -0.072450   -0.058208    0.142374
H     3.570649   -0.510005    0.804240    0.024268    0.090620    0.018514
H     3.966323    2.768398    1.907668    0.038380    0.076546   -0.033058
H     3.029176    4.007419    2.786322    0.031848    0.087832   -0.046278
H    -5.360291   -0.128346    2.680336    0.051130    0.000536    0.049518
H    -5.155139    1.594712    2.331876    0.058940   -0.003042    0.040914
H    -3.960583   -2.702271    1.650741    0.058608    0.018694    0.052692
H    -2.930007   -3.870626    2.511952    0.070926    0.018164    0.042428
H     5.148544   -0.291701    2.750019    0.053016    0.095890   -0.004872
H     4.930207   -1.966165    2.201978    0.054362    0.085816    0.013136
H     3.879348    5.501128    1.245503   -0.010974    0.064136   -0.086900
H    -7.332919   -0.017810    1.546726    0.041628    0.007906    0.064218
H    -3.893017   -5.479138    1.171113    0.052022    0.017084    0.067878
H     7.134628   -0.303400    1.626635    0.034036    0.088704   -0.046276
C     1.283851   -0.837001    3.573020   -0.503976   -0.291688   -0.014090
H     2.008533   -0.302807    4.196277   -0.628238   -0.571024    0.279094
H     0.637999   -1.447298    4.200679   -0.861874   -0.204350   -0.357994
O     0.658946   -3.439084    2.768386   -0.317734   -0.398534   -0.274724
C     0.046820    1.359739    3.516906    0.077214    0.043886   -0.003824
H    -0.642222    1.080574    4.309333    0.143320    0.118376    0.080508
H     0.915840    1.868285    3.925553    0.150914   -0.016678   -0.091130
O    -2.633350    1.929774    3.496114    0.083100    0.063174    0.037824
C     0.435355    0.114280    2.678288   -0.095254    0.012576   -0.030886
O    -0.582019   -0.476173    2.073337   -0.158428    0.244582   -0.137004
H    -1.080491   -0.029946    0.606481   -0.091004    0.094882   -0.269202
O    -1.350324    0.168370   -0.350792    0.040084    0.075392   -0.276944
H     0.179007   -0.056954   -0.908380    0.064496    0.041866   -0.041516
O     1.191187   -0.172857   -0.828096    0.057892    0.025258   -0.006690
H     1.349580    0.103809    0.140251    0.042684   -0.071610    0.001618
O     1.391318    0.663849    1.645731    0.069418   -0.164888    0.077788
H     2.303529    0.555662    1.949247    0.021334    0.013600    0.277704
H     1.622734    0.530808   -1.353127    0.075518    0.050238    0.066234
H    -1.961000   -0.544053   -0.600152    0.043666    0.086342   -0.312300
139
* Frequency(7)  -96.4200
C     0.435000    4.762874   -0.066085    0.006766    0.026080   -0.036376
C    -4.581914    3.378624    0.412141    0.028228   -0.005288    0.040710
C    -4.869607   -1.667671   -0.782597    0.019148   -0.008870    0.041526
C    -0.654509   -4.808517   -0.564987    0.019222   -0.020348    0.016794
C     4.394615   -3.507154    0.090769    0.000134    0.037712    0.055960
C     4.659513    1.652775   -0.507082    0.022948    0.041542   -0.039440
O    -0.497655    3.774871    0.322388    0.013080    0.026856   -0.029382
O    -4.372720    2.389557   -0.543129    0.020820   -0.009074    0.042144
O    -3.464765   -1.781097   -0.852671    0.019066   -0.005244    0.024766
O     0.341056   -3.861123   -0.285662    0.048776   -0.044664   -0.022122
O     4.233528   -2.419908   -0.757712   -0.025512    0.048684    0.067652
O     3.253806    1.763954   -0.563778    0.021550    0.039702   -0.030256
C     0.899743    4.478675   -1.513690    0.003898    0.025002   -0.036820
C    -4.115876    4.707866   -0.203859    0.002658   -0.003904    0.018750
C    -5.374443   -0.861693   -1.990587    0.009998   -0.011080    0.042778
C    -1.210809   -4.532575   -1.975103    0.006172   -0.015072    0.022618
C     3.971053   -4.759576   -0.702001    0.054772    0.033998    0.024406
C     5.175968    1.005196   -1.806030    0.009756    0.012648   -0.027020
O    -0.134356    4.512667   -2.456629    0.000906    0.009472   -0.033332
O    -4.822069    5.047336   -1.362139   -0.019222   -0.023122    0.024330
O    -5.038341   -1.451222   -3.214581    0.016088   -0.009234    0.043464
O    -0.219757   -4.558978   -2.964165    0.002568   -0.017306    0.017394
O     4.759423   -4.955344   -1.840337    0.091458    0.072580    0.041724
O     4.772832    1.721045   -2.941713    0.008218   -0.008992   -0.037906
C     1.491933    3.065476   -1.494116    0.015640    0.029340   -0.033666
C    -2.612887    4.611829   -0.510059   -0.002250    0.004114   -0.006082
C    -4.830798    0.568969   -1.889042    0.000962   -0.006132    0.038642
C    -1.840009   -3.133676   -1.957754    0.017364   -0.009992    0.032518
C     2.487996   -4.627126   -1.091626    0.064568    0.000422   -0.015434
C     4.716546   -0.459092   -1.883618    0.000086    0.014484    0.006052
O     1.910588    2.600525   -2.754631    0.024596    0.030936   -0.029896
O    -2.146220    5.853276   -0.998237   -0.017896    0.000984   -0.036476
O    -5.381861    1.390770   -2.886992   -0.015552   -0.011430    0.041380
O    -2.439499   -2.800503   -3.183334    0.014966    0.003046    0.036530
O     2.029929   -5.799963   -1.731669    0.093462    0.010260   -0.053446
O     5.351247   -1.129338   -2.946183   -0.009944   -0.002808    0.012084
C     2.697854    3.070997   -0.550517    0.013866    0.036316   -0.031134
C    -1.785740    4.184161    0.722518    0.021300    0.029598   -0.011256
C    -5.157855    1.203815   -0.529541    0.016140   -0.006912    0.044080
C    -2.915406   -3.091738   -0.868598    0.023784   -0.003310    0.037870
C     1.605910   -4.336864    0.136405    0.043412   -0.070008   -0.024340
C     5.023498   -1.241972   -0.597645   -0.000906    0.037366    0.019950
C     2.232555    3.507528    0.852106    0.016262    0.033916   -0.030606
C    -2.470149    2.939994    1.329937    0.050428    0.032350    0.026626
C    -4.835257    0.259762    0.647807    0.029194   -0.008478    0.039510
C    -2.318417   -3.488879    0.493179    0.041762    0.009072    0.033466
C     2.232887   -3.178845    0.919591   -0.016346   -0.108986    0.068616
C     4.658443   -0.444439    0.670287    0.023588    0.071366    0.002748
O     1.545822    4.764341    0.785467    0.006048    0.026448   -0.033716
O    -3.834418    3.160771    1.590886    0.049100    0.012860    0.034318
O    -5.289050   -1.073332    0.407384    0.024842   -0.007634    0.044000
O    -1.682392   -4.760665    0.387817    0.039660    0.008016    0.036740
O     3.584357   -3.409153    1.253050   -0.004858   -0.010480    0.061204
O     5.070752    0.923502    0.609735    0.034898    0.064166   -0.030256
C     3.417986    3.711642    1.802373    0.023698    0.067616   -0.044938
C    -1.907665    2.352701    2.610490    0.090598    0.065018    0.035442
C    -5.552730    0.659441    1.949496    0.046730   -0.001378    0.048546
C    -3.407933   -3.640092    1.560729    0.055522    0.016982    0.049850
C     1.501083   -2.836098    2.206612   -0.202632   -0.270512    0.018308
C     5.351330   -0.987289    1.934079    0.042270    0.087736   -0.001164
O     4.336003    4.658573    1.312839    0.001212    0.070332   -0.078084
O    -0.569052    2.309442    2.625846    0.076828    0.071808    0.030494
O    -6.931386    0.841661    1.760750    0.044240    0.005474    0.066950
O    -4.347915   -4.625395    1.218914    0.049994    0.015890    0.068318
O     2.037786   -1.694007    2.710234   -0.495996   -0.279050    0.024988
O     6.733348   -1.163795    1.756734    0.040698    0.091534   -0.017472
H     0.002749    5.766077    0.014931    0.005868    0.025488   -0.033542
H    -5.630643    3.428022    0.731560    0.034194   -0.014964    0.061914
H    -5.332896   -2.662402   -0.773369    0.020402   -0.009772    0.046514
H    -0.257153   -5.828921   -0.503736   -0.000590   -0.027808    0.018304
H     5.423872   -3.601320    0.458308    0.000116    0.064688    0.059338
H     5.118920    2.641096   -0.382458    0.025194    0.041942   -0.062078
H     1.675071    5.218205   -1.771606   -0.005196    0.033690   -0.038312
H    -4.294411    5.508322    0.521747    0.009684    0.004360    0.013930
H    -6.469186   -0.828463   -1.953564    0.009948   -0.018122    0.042234
H    -1.988959   -5.281843   -2.191643    0.001528   -0.008984    0.020768
H     4.106484   -5.641635   -0.068039    0.062108    0.029522    0.017604
H     6.270794    1.031485   -1.797961    0.010532    0.004590   -0.033684
H    -0.743197    5.239241   -2.240296    0.008834    0.015698   -0.054384
H    -4.887205    4.264217   -1.933251   -0.026532   -0.032574    0.034930
H    -4.116713   -1.777107   -3.198579    0.014418   -0.013076    0.050334
H     0.487445   -5.179909   -2.708711    0.030346    0.020800    0.033938
H     4.843008   -4.110428   -2.314228    0.064680    0.075132    0.042202
H     3.815623    1.914159   -2.892903    0.009934   -0.002338   -0.039874
H     0.701291    2.419929   -1.084875    0.019502    0.024780   -0.036712
H    -2.469055    3.836408   -1.278125   -0.009696   -0.010968    0.005276
H    -3.735034    0.544045   -1.985390    0.000554    0.004124    0.024978
H    -1.045077   -2.415636   -1.712775    0.027448   -0.021046    0.032816
H     2.384812   -3.772095   -1.776758    0.060440    0.022936    0.012042
H     3.626755   -0.487494   -2.027368   -0.000104    0.018182    0.015006
H     1.241523    2.853502   -3.409036    0.022314    0.012862   -0.031182
H    -2.882034    6.269930   -1.479562   -0.028226   -0.015654   -0.036674
H    -5.347566    0.906419   -3.728482    0.021988    0.001648    0.038956
H    -1.801318   -2.990818   -3.889989    0.023244    0.031980    0.034850
H     2.756216   -6.133592   -2.285425    0.093588    0.046926   -0.076304
H     5.263784   -0.583460   -3.743059   -0.000390   -0.002080    0.010714
H     3.437547    3.790692   -0.923652    0.009192    0.043592   -0.026364
H    -1.736935    5.005547    1.449502    0.032886    0.042710   -0.025042
H    -6.224209    1.467480   -0.494300    0.017242   -0.000994    0.056064
H    -3.699268   -3.816161   -1.124779    0.024142   -0.008400    0.051412
H     1.502800   -5.229708    0.763991    0.030108   -0.103642   -0.073878
H     6.088061   -1.508779   -0.574089   -0.005310    0.018964    0.018960
H     1.549938    2.750994    1.252871    0.035468    0.021428   -0.018972
H    -2.345502    2.138705    0.572787    0.049664    0.018204    0.042548
H    -3.752662    0.252689    0.825878    0.032446   -0.010220    0.027188
H    -1.596280   -2.732462    0.827655    0.043392    0.015076    0.014848
H     2.159150   -2.292820    0.263332   -0.072450   -0.058208    0.142374
H     3.573108   -0.500822    0.806116    0.024268    0.090620    0.018514
H     3.970212    2.776154    1.904318    0.038380    0.076546   -0.033058
H     3.032404    4.016319    2.781632    0.031848    0.087832   -0.046278
H    -5.355110   -0.128292    2.685354    0.051130    0.000536    0.049518
H    -5.149166    1.594404    2.336021    0.058940   -0.003042    0.040914
H    -3.954644   -2.700376    1.656080    0.058608    0.018694    0.052692
H    -2.922820   -3.868785    2.516251    0.070926    0.018164    0.042428
H     5.153916   -0.281984    2.749526    0.053016    0.095890   -0.004872
H     4.935715   -1.957470    2.203309    0.054362    0.085816    0.013136
H     3.878236    5.507627    1.236698   -0.010974    0.064136   -0.086900
H    -7.328701   -0.017008    1.553233    0.041628    0.007906    0.064218
H    -3.887746   -5.477407    1.177991    0.052022    0.017084    0.067878
H     7.138077   -0.294412    1.621946    0.034036    0.088704   -0.046276
C     1.232783   -0.866557    3.571592   -0.503976   -0.291688   -0.014090
H     1.944874   -0.360669    4.224557   -0.628238   -0.571024    0.279094
H     0.550666   -1.468005    4.164403   -0.861874   -0.204350   -0.357994
O     0.626750   -3.479468    2.740548   -0.317734   -0.398534   -0.274724
C     0.054644    1.364186    3.516519    0.077214    0.043886   -0.003824
H    -0.627700    1.092569    4.317491    0.143320    0.118376    0.080508
H     0.931132    1.866595    3.916318    0.150914   -0.016678   -0.091130
O    -2.624930    1.936176    3.499946    0.083100    0.063174    0.037824
C     0.425703    0.115555    2.675158   -0.095254    0.012576   -0.030886
O    -0.598072   -0.451389    2.059455   -0.158428    0.244582   -0.137004
H    -1.089713   -0.020332    0.579202   -0.091004    0.094882   -0.269202
O    -1.346262    0.176009   -0.378855    0.040084    0.075392   -0.276944
H     0.185542   -0.052712   -0.912587    0.064496    0.041866   -0.041516
O     1.197053   -0.170297   -0.828774    0.057892    0.025258   -0.006690
H     1.353905    0.096553    0.140415    0.042684   -0.071610    0.001618
O     1.398352    0.647141    1.653613    0.069418   -0.164888    0.077788
H     2.305691    0.557040    1.977386    0.021334    0.013600    0.277704
H     1.630386    0.535899   -1.346415    0.075518    0.050238    0.066234
H    -1.956575   -0.535304   -0.631798    0.043666    0.086342   -0.312300
139
* Frequency(7)  -96.4200
C     0.435769    4.765838   -0.070219    0.006766    0.026080   -0.036376
C    -4.578706    3.378023    0.416767    0.028228   -0.005288    0.040710
C    -4.867431   -1.668679   -0.777878    0.019148   -0.008870    0.041526
C    -0.652325   -4.810829   -0.563078    0.019222   -0.020348    0.016794
C     4.394630   -3.502868    0.097129    0.000134    0.037712    0.055960
C     4.662121    1.657496   -0.511564    0.022948    0.041542   -0.039440
O    -0.496169    3.777923    0.319049    0.013080    0.026856   -0.029382
O    -4.370354    2.388526   -0.538340    0.020820   -0.009074    0.042144
O    -3.462598   -1.781693   -0.849856    0.019066   -0.005244    0.024766
O     0.346599   -3.866199   -0.288176    0.048776   -0.044664   -0.022122
O     4.230629   -2.414375   -0.750024   -0.025512    0.048684    0.067652
O     3.256255    1.768466   -0.567216    0.021550    0.039702   -0.030256
C     0.900186    4.481516   -1.517874    0.003898    0.025002   -0.036820
C    -4.115574    4.707422   -0.201728    0.002658   -0.003904    0.018750
C    -5.373307   -0.862952   -1.985726    0.009998   -0.011080    0.042778
C    -1.210108   -4.534288   -1.972533    0.006172   -0.015072    0.022618
C     3.977278   -4.755712   -0.699227    0.054772    0.033998    0.024406
C     5.177077    1.006633   -1.809101    0.009756    0.012648   -0.027020
O    -0.134253    4.513743   -2.460417    0.000906    0.009472   -0.033332
O    -4.824253    5.044708   -1.359374   -0.019222   -0.023122    0.024330
O    -5.036513   -1.452271   -3.209642    0.016088   -0.009234    0.043464
O    -0.219465   -4.560945   -2.962188    0.002568   -0.017306    0.017394
O     4.769817   -4.947096   -1.835595    0.091458    0.072580    0.041724
O     4.773766    1.720023   -2.946021    0.008218   -0.008992   -0.037906
C     1.493710    3.068810   -1.497942    0.015640    0.029340   -0.033666
C    -2.613143    4.612297   -0.510750   -0.002250    0.004114   -0.006082
C    -4.830689    0.568272   -1.884651    0.000962   -0.006132    0.038642
C    -1.838036   -3.134812   -1.954058    0.017364   -0.009992    0.032518
C     2.495334   -4.627078   -1.093380    0.064568    0.000422   -0.015434
C     4.716556   -0.457446   -1.882930    0.000086    0.014484    0.006052
O     1.913383    2.604041   -2.758029    0.024596    0.030936   -0.029896
O    -2.148254    5.853388   -1.002382   -0.017896    0.000984   -0.036476
O    -5.383628    1.389471   -2.882289   -0.015552   -0.011430    0.041380
O    -2.437798   -2.800157   -3.179183    0.014966    0.003046    0.036530
O     2.040550   -5.798797   -1.737743    0.093462    0.010260   -0.053446
O     5.350117   -1.129657   -2.944810   -0.009944   -0.002808    0.012084
C     2.699430    3.075124   -0.554055    0.013866    0.036316   -0.031134
C    -1.783319    4.187525    0.721239    0.021300    0.029598   -0.011256
C    -5.156021    1.203029   -0.524532    0.016140   -0.006912    0.044080
C    -2.912703   -3.092114   -0.864294    0.023784   -0.003310    0.037870
C     1.610844   -4.344820    0.133639    0.043412   -0.070008   -0.024340
C     5.023395   -1.237726   -0.595378   -0.000906    0.037366    0.019950
C     2.234403    3.511382    0.848628    0.016262    0.033916   -0.030606
C    -2.464418    2.943670    1.332963    0.050428    0.032350    0.026626
C    -4.831939    0.258799    0.652297    0.029194   -0.008478    0.039510
C    -2.313671   -3.487848    0.496982    0.041762    0.009072    0.033466
C     2.231029   -3.191231    0.927389   -0.016346   -0.108986    0.068616
C     4.661124   -0.436329    0.670599    0.023588    0.071366    0.002748
O     1.546509    4.767347    0.781635    0.006048    0.026448   -0.033716
O    -3.828838    3.162232    1.594786    0.049100    0.012860    0.034318
O    -5.286227   -1.074200    0.412384    0.024842   -0.007634    0.044000
O    -1.677885   -4.759754    0.391992    0.039660    0.008016    0.036740
O     3.583805   -3.410344    1.260006   -0.004858   -0.010480    0.061204
O     5.074718    0.930794    0.606297    0.034898    0.064166   -0.030256
C     3.420679    3.719326    1.797266    0.023698    0.067616   -0.044938
C    -1.897369    2.360090    2.614518    0.090598    0.065018    0.035442
C    -5.547419    0.659284    1.955013    0.046730   -0.001378    0.048546
C    -3.401623   -3.638162    1.566394    0.055522    0.016982    0.049850
C     1.478055   -2.866840    2.208693   -0.202632   -0.270512    0.018308
C     5.356134   -0.977318    1.933947    0.042270    0.087736   -0.001164
O     4.336141    4.666566    1.303965    0.001212    0.070332   -0.078084
O    -0.560321    2.317603    2.629311    0.076828    0.071808    0.030494
O    -6.926358    0.842283    1.768359    0.044240    0.005474    0.066950
O    -4.342233   -4.623589    1.226678    0.049994    0.015890    0.068318
O     1.981419   -1.725720    2.713074   -0.495996   -0.279050    0.024988
O     6.737973   -1.153393    1.754748    0.040698    0.091534   -0.017472
H     0.003416    5.768974    0.011119    0.005868    0.025488   -0.033542
H    -5.626757    3.426321    0.738596    0.034194   -0.014964    0.061914
H    -5.330577   -2.663513   -0.768083    0.020402   -0.009772    0.046514
H    -0.257220   -5.832081   -0.501656   -0.000590   -0.027808    0.018304
H     5.423885   -3.593969    0.465051    0.000116    0.064688    0.059338
H     5.121783    2.645862   -0.389513    0.025194    0.041942   -0.062078
H     1.674481    5.222034   -1.775960   -0.005196    0.033690   -0.038312
H    -4.293310    5.508817    0.523330    0.009684    0.004360    0.013930
H    -6.468055   -0.830522   -1.948764    0.009948   -0.018122    0.042234
H    -1.988785   -5.282864   -2.189283    0.001528   -0.008984    0.020768
H     4.113542   -5.638280   -0.066038    0.062108    0.029522    0.017604
H     6.271991    1.032007   -1.801789    0.010532    0.004590   -0.033684
H    -0.742193    5.241025   -2.246476    0.008834    0.015698   -0.054384
H    -4.890220    4.260515   -1.929281   -0.026532   -0.032574    0.034930
H    -4.115074   -1.778593   -3.192859    0.014418   -0.013076    0.050334
H     0.490894   -5.177545   -2.704854    0.030346    0.020800    0.033938
H     4.850359   -4.101890   -2.309432    0.064680    0.075132    0.042202
H     3.816752    1.913893   -2.897434    0.009934   -0.002338   -0.039874
H     0.703507    2.422745   -1.089047    0.019502    0.024780   -0.036712
H    -2.470157    3.835162   -1.277525   -0.009696   -0.010968    0.005276
H    -3.734971    0.544514   -1.982551    0.000554    0.004124    0.024978
H    -1.041958   -2.418028   -1.709046    0.027448   -0.021046    0.032816
H     2.391681   -3.769488   -1.775389    0.060440    0.022936    0.012042
H     3.626743   -0.485428   -2.025663   -0.000104    0.018182    0.015006
H     1.244059    2.854964   -3.412580    0.022314    0.012862   -0.031182
H    -2.885242    6.268151   -1.483730   -0.028226   -0.015654   -0.036674
H    -5.345067    0.906606   -3.724055    0.021988    0.001648    0.038956
H    -1.798676   -2.987184   -3.886028    0.023244    0.031980    0.034850
H     2.766852   -6.128259   -2.294097    0.093588    0.046926   -0.076304
H     5.263740   -0.583696   -3.741841   -0.000390   -0.002080    0.010714
H     3.438592    3.795646   -0.926648    0.009192    0.043592   -0.026364
H    -1.733198    5.010401    1.446656    0.032886    0.042710   -0.025042
H    -6.222250    1.467367   -0.487929    0.017242   -0.000994    0.056064
H    -3.696524   -3.817116   -1.118936    0.024142   -0.008400    0.051412
H     1.506222   -5.241486    0.755595    0.030108   -0.103642   -0.073878
H     6.087458   -1.506624   -0.571934   -0.005310    0.018964    0.018960
H     1.553969    2.753429    1.250715    0.035468    0.021428   -0.018972
H    -2.339858    2.140774    0.577622    0.049664    0.018204    0.042548
H    -3.748975    0.251528    0.828968    0.032446   -0.010220    0.027188
H    -1.591349   -2.730749    0.829342    0.043392    0.015076    0.014848
H     2.150916   -2.299435    0.279512   -0.072450   -0.058208    0.142374
H     3.575866   -0.490524    0.808220    0.024268    0.090620    0.018514
H     3.974574    2.784853    1.900561    0.038380    0.076546   -0.033058
H     3.036023    4.026301    2.776373    0.031848    0.087832   -0.046278
H    -5.349299   -0.128231    2.690981    0.051130    0.000536    0.049518
H    -5.142468    1.594058    2.340671    0.058940   -0.003042    0.040914
H    -3.947984   -2.698252    1.662068    0.058608    0.018694    0.052692
H    -2.914760   -3.866721    2.521073    0.070926    0.018164    0.042428
H     5.159941   -0.271087    2.748972    0.053016    0.095890   -0.004872
H     4.941893   -1.947717    2.204802    0.054362    0.085816    0.013136
H     3.876989    5.514916    1.226822   -0.010974    0.064136   -0.086900
H    -7.323970   -0.016110    1.560531    0.041628    0.007906    0.064218
H    -3.881834   -5.475465    1.185705    0.052022    0.017084    0.067878
H     7.141945   -0.284331    1.616687    0.034036    0.088704   -0.046276
C     1.175509   -0.899706    3.569991   -0.503976   -0.291688   -0.014090
H     1.873478   -0.425563    4.256275   -0.628238   -0.571024    0.279094
H     0.452718   -1.491228    4.123719   -0.861874   -0.204350   -0.357994
O     0.590641   -3.524759    2.709327   -0.317734   -0.398534   -0.274724
C     0.063419    1.369173    3.516084    0.077214    0.043886   -0.003824
H    -0.611412    1.106022    4.326640    0.143320    0.118376    0.080508
H     0.948283    1.864700    3.905962    0.150914   -0.016678   -0.091130
O    -2.615486    1.943355    3.504245    0.083100    0.063174    0.037824
C     0.414878    0.116984    2.671648   -0.095254    0.012576   -0.030886
O    -0.616077   -0.423594    2.043885   -0.158428    0.244582   -0.137004
H    -1.100055   -0.009549    0.548609   -0.091004    0.094882   -0.269202
O    -1.341707    0.184577   -0.410328    0.040084    0.075392   -0.276944
H     0.192872   -0.047954   -0.917305    0.064496    0.041866   -0.041516
O     1.203632   -0.167427   -0.829534    0.057892    0.025258   -0.006690
H     1.358756    0.088415    0.140599    0.042684   -0.071610    0.001618
O     1.406241    0.628402    1.662453    0.069418   -0.164888    0.077788
H     2.308115    0.558586    2.008946    0.021334    0.013600    0.277704
H     1.638968    0.541608   -1.338888    0.075518    0.050238    0.066234
H    -1.951613   -0.525492   -0.667289    0.043666    0.086342   -0.312300
