139
Coordinates from ORCA-job job
  C           0.52335809821902      4.84142275749343     -0.01966696652627
  C          -4.50907470712271      3.32773189422853      0.31951880613243
  C          -4.88304404209759     -1.72700842121320     -0.73982777371530
  C          -0.64887711657694     -4.84844822924254     -0.48553434973684
  C           4.32911340276199     -3.34626446244312      0.14195796209035
  C           4.74654937579969      1.76656793556958     -0.88937111306822
  O          -0.44070690681379      3.82092752066564      0.12065915022793
  O          -4.32793325511874      2.33271482592127     -0.64082115128620
  O          -3.47932242924825     -1.84944847405318     -0.81425644508989
  O           0.32204613178127     -3.88507991492324     -0.18069998315402
  O           4.06322644749614     -2.27667806655840     -0.71035047180923
  O           3.34676755110478      1.94250690401131     -0.88740421610955
  C           1.08438847060904      4.85009039919184     -1.45614951342841
  C          -4.08778659569590      4.66240240063123     -0.31563988819566
  C          -5.39061866661062     -0.95503597510962     -1.96821925926317
  C          -1.19101843468598     -4.58529794246395     -1.90329498822164
  C           3.97577389350310     -4.63070134296733     -0.63152897429621
  C           5.14558048764982      0.97038645139108     -2.14330455095945
  O           0.11371743441828      5.04783158910486     -2.44732402162296
  O          -4.83081304539727      4.97410004769542     -1.45934631035520
  O          -5.08032071360902     -1.59115072038813     -3.17648537524685
  O          -0.19110029944344     -4.59502090972361     -2.88425054591556
  O           4.76610521615210     -4.79028575632851     -1.77534097982337
  O           4.75120989002008      1.60678233339935     -3.32927684633563
  C           1.74666485452726      3.49196431255905     -1.70833795226618
  C          -2.59018617561569      4.60903600644113     -0.65068777824593
  C          -4.81337178329393      0.46435269341572     -1.91882196799934
  C          -1.85218780817075     -3.20247542954380     -1.90261283520709
  C           2.48779162690422     -4.57004757762580     -1.01112080903819
  C           4.56397517255131     -0.45082912027535     -2.05428559871337
  O           2.34867203822994      3.41327219774083     -2.97672551315835
  O          -2.15420583845105      5.87722324034200     -1.09719034406825
  O          -5.33568444358911      1.25963639116267     -2.95193504640303
  O          -2.45056425403193     -2.90085201351873     -3.13850960119173
  O           2.07883603475394     -5.75892596858361     -1.65537921584167
  O           5.05796060464200     -1.26657689540384     -3.08916037007559
  C           2.82920201353217      3.24558346761395     -0.65391091796806
  C          -1.73228105097134      4.18554078851532      0.55680489210189
  C          -5.12743563692614      1.15749553404925     -0.58544066211018
  C          -2.93686550191744     -3.16259016583668     -0.82353077114349
  C           1.60371441257551     -4.33868669721936      0.22462895060564
  C           4.90986213384196     -1.13134699077166     -0.72102726735701
  C           2.23620877756052      3.39269921594321      0.76092081253415
  C          -2.36017346912035      2.93524069772807      1.20724496643654
  C          -4.81105151698094      0.25076003154477      0.62183926885445
  C          -2.34751547495571     -3.55390691536745      0.54270248004490
  C           2.17123979183852     -3.19063350145082      1.07066680388345
  C           4.63119761780267     -0.18860335173898      0.46329825017604
  O           1.56660930604872      4.65264335392475      0.89096256452565
  O          -3.73389269379157      3.11368227235961      1.47521435935081
  O          -5.28359563294407     -1.08549042022170      0.43043973433369
  O          -1.69577283327134     -4.81751105121065      0.44549146944160
  O           3.55499553488283     -3.29067198818935      1.32744673445153
  O           5.19099500823436      1.11063069522647      0.25769495692393
  C           3.33506408966632      3.37719764372147      1.83265842241932
  C          -1.76480305608022      2.53420248861361      2.54267243443736
  C          -5.51723239299537      0.69532448490269      1.91593063984653
  C          -3.44181492199815     -3.71040452912047      1.60492153713198
  C           1.44227768804369     -3.06410505067145      2.40064350390802
  C           5.23704663674343     -0.67930563583210      1.79029018918713
  O           4.24385115665375      4.43775422389596      1.67048392432280
  O          -0.59052566210353      1.90424780407318      2.40898370382195
  O          -6.89152390563904      0.90454185030802      1.72590532739821
  O          -4.38409662422184     -4.68977529330356      1.25293737339608
  O           1.92578798563593     -1.99345855455322      3.08915998212465
  O           6.60197296479318     -0.99575097984385      1.66740736428985
  H           0.09283668674266      5.82061729280531      0.22268626945237
  H          -5.54964977352564      3.36879003869958      0.66779519606512
  H          -5.35273859823191     -2.71803341960034     -0.69233867303950
  H          -0.23399916356330     -5.86169953365671     -0.41762446877399
  H           5.37289431353381     -3.36075663263712      0.47734812810695
  H           5.25757639026638      2.73709219187070     -0.88278247575209
  H           1.84481064750519      5.64636830010796     -1.51124151373221
  H          -4.27080893229019      5.46377198196447      0.40843938175029
  H          -6.48399774910476     -0.89896837445164     -1.92224776668615
  H          -1.95306207057908     -5.34940446879847     -2.12718661331201
  H           4.16358704537393     -5.50046496240569      0.00571924247043
  H           6.23891251416246      0.89845769356720     -2.17736957600509
  H          -0.63688186580987      5.55290623264868     -2.07983901882623
  H          -4.90239856676809      4.18233974204976     -2.01663490183370
  H          -4.16018665872462     -1.91816970607667     -3.16691850834193
  H           0.52599814139095     -5.20371282780922     -2.62050064309669
  H           4.79185885468164     -3.94959940053957     -2.26299130633691
  H           3.88993895592601      2.04666952557690     -3.20763940948498
  H           0.95736562855685      2.73065264636356     -1.61502094343637
  H          -2.43738921391794      3.85823788561180     -1.44069429697377
  H          -3.71696245696488      0.40260813175198     -2.00612458565055
  H          -1.08227808162777     -2.45514820314978     -1.66158230970484
  H           2.33939611662572     -3.71406456158864     -1.68706655821514
  H           3.46713132577310     -0.39270543844266     -2.11637369975083
  H           1.73316301090695      3.78147127245285     -3.62877458163480
  H          -2.87299175456321      6.26863314285298     -1.62360496654489
  H          -5.35340319934628      0.72740063851526     -3.76444530186888
  H          -1.81728100168897     -3.12300175562267     -3.84071469580467
  H           2.82243688123948     -6.06825988767436     -2.20070915371782
  H           4.99093455164540     -0.77386781517904     -3.92149472575427
  H           3.62296312468549      3.99130374193623     -0.78578859156340
  H          -1.68783870072262      5.01074884678742      1.28067683236822
  H          -6.19014792955807      1.43862612119110     -0.55960067130499
  H          -3.72079310529311     -3.88427624084850     -1.08863523335251
  H           1.52215782326617     -5.26021501000748      0.81423213361830
  H           5.96246319409023     -1.44066281278952     -0.72456568731031
  H           1.51270872805541      2.59180582743980      0.94728152811165
  H          -2.18775762577087      2.08463363431030      0.51759061767224
  H          -3.72461599320920      0.23958505985721      0.77748230456484
  H          -1.63253251457759     -2.78760874085377      0.86735110058386
  H           1.95987642189589     -2.26786936278371      0.49554896678465
  H           3.54552371957688     -0.09422054662718      0.54777474078316
  H           3.91728807892905      2.45945992681526      1.74125638613457
  H           2.86092892477212      3.41878623462476      2.81866978039500
  H          -5.33992220613097     -0.08460315828307      2.66503410791981
  H          -5.09637792690223      1.63180397468781      2.27989461759792
  H          -3.98607569287230     -2.76910777475896      1.70080786850492
  H          -2.96082323405861     -3.95082039680354      2.55919218025648
  H           5.09105768755908      0.11063770878867      2.53558185280019
  H           4.73671770190254     -1.58989278468950      2.12207259727201
  H           3.75977697794168      5.26830722966226      1.77776280059499
  H          -7.31176509623934      0.05116712936024      1.54423327096645
  H          -3.93217368807090     -5.54683259633075      1.22881999747894
  H           7.09084897255631     -0.17846988542212      1.49614758522276
  C           1.00362976879443     -1.18834355687601      3.86538478052292
  H           1.61067763655961     -0.70144370644991      4.62065703853616
  H           0.23268207189310     -1.79991700946030      4.32008640217905
  O           0.57584769066724     -3.79594008825717      2.81282325536755
  C          -0.13947210801280      1.08163643377994      3.50448276912609
  H          -0.96045750102089      0.87288154794981      4.18495300696354
  H           0.65106148490371      1.60350554158425      4.03634171391889
  O          -2.33196766841033      2.69550141475119      3.60482274180505
  C           0.36574125474627     -0.20582724762549      2.86711246389968
  O          -0.47199623746696     -0.85751530077642      2.06453927178987
  H          -0.94094751186718     -0.29964891911595      1.16669400036858
  O          -1.40515191308755      0.19000286499508      0.06863806204525
  H           0.26315677736831      0.18430278714129     -0.47542658970019
  O           1.24664412638880      0.04959691879366     -0.38341246891988
  H           1.42565913400485      0.24768782236045      1.01443625638420
  O           1.62592271162360      0.31055274483878      2.06472759232524
  H           2.28415548129939     -0.40489547939898      2.20039762958833
  H           1.70532046218402      0.78434195911701     -0.82159741532875
  H          -1.94705458550457     -0.50084539970856     -0.33745082329063
