19
Coordinates from ORCA-job job.QMRegion
  O          -1.43096503021939      1.04232343991693      2.24141543244469
  O           1.87026670914910     -2.27885328602547      3.07204595904495
  C           0.93898554262714     -1.49251737406941      3.78785632984470
  H           1.51252589175403     -0.86978945865901      4.46764483844997
  H           0.21848102679170     -2.10804728057877      4.33549978172006
  C          -0.79899710096714      0.33259846789929      3.30472784125534
  H          -1.56355853222584     -0.20682252285849      3.86188505863799
  H          -0.30285761529195      1.05195654480802      3.96132784298149
  C           0.16241955573820     -0.69260681641096      2.72994646724376
  O          -0.15035818771713     -1.34796551614379      1.67979025747265
  H           0.53376340787984      0.36715687432691     -0.49874058214084
  O           0.80012140981751      1.19096337289566     -0.06072572329971
  H           1.14013134829432      0.71662419989828      1.19932038245980
  O           1.46417424262517      0.29923771083310      2.14617302973976
  O           1.81781207416956      1.48478260652002      2.92976597844374
  H           2.74606295963154      1.24506779289412      3.14181749258215
  H           1.66564629794328      1.41605824475360     -0.46939538688079
  H          -1.37985929063025      1.97693187849841      2.27276290802620
  H           1.45567766265091     -2.90982292165908      2.53278984355785
