11
Coordinates from ORCA-job job.QMRegion
  C          -0.23533935629013     -1.33166554352096      3.10220435873645
  O          -0.99038144721018     -1.49665688864148      1.93214042762919
  O          -1.59369542554607     -1.27697246645359      3.38619682165009
  C           1.21106249222662     -1.05188399885373     -0.64554456946076
  H           1.52657396432753     -0.12640115920838     -0.09481638284052
  O          -0.02153216887720     -1.47506915355788     -0.32491274762587
  H           1.94621834921122     -2.88425715889128     -0.48842039079763
  O           2.26891434636379     -2.00796067900720     -0.21897750534917
  H           0.32859617117092     -0.36462474974032      3.13032526117104
  H           0.30614746932862     -2.22284362752671      3.49699302430717
  H           1.36962531470964     -0.84658166193933     -1.73575877745756
