147
* (null), Energy   -1000.0000000
C     1.607304    3.578425    0.029909    0.000668    0.001548    0.003274
O     0.866970    2.469633   -0.431625   -0.010336   -0.003136    0.019204
C     2.767332    3.839934   -0.942490   -0.001108   -0.002076   -0.002260
O     2.095957    3.388529    1.325153    0.002690    0.009686    0.005762
C    -0.541673    2.576352   -0.430102   -0.009748    0.018278    0.011736
O     2.351913    4.159622   -2.238499   -0.000846   -0.009684    0.000380
C     3.675925    2.602391   -0.929922    0.006066   -0.001544   -0.004074
C     3.021301    2.313764    1.496120   -0.001220    0.013522    0.004592
C    -1.040375    2.625964   -1.882928   -0.000016    0.011638    0.004886
C    -1.216646    1.375686    0.259457   -0.028334    0.019450   -0.001372
O     4.784577    2.765155   -1.774903    0.005838   -0.001124   -0.001342
C     4.189114    2.378921    0.496593   -0.001510    0.000666   -0.000020
C     3.508200    2.442448    2.948360   -0.002052    0.004784    0.004562
C    -2.577472    2.695707   -1.911665   -0.001806    0.002390   -0.001924
O    -0.475403    3.751975   -2.505264    0.010392   -0.000726    0.002274
O    -2.623726    1.534941    0.209403   -0.020896    0.015354    0.007596
C    -0.870358    1.224843    1.726923   -0.009106   -0.029520    0.008692
O     4.915847    1.163213    0.468532    0.002270    0.000020    0.009478
O     4.196693    3.643061    3.165095    0.001538   -0.000622    0.010494
C    -3.146292    1.516111   -1.099358   -0.006978    0.001906   -0.002842
O    -3.059026    2.709478   -3.222750    0.005924   -0.003968   -0.004062
O     0.332532    0.674256    1.909189    0.005146    0.015094   -0.000032
O    -1.597077    1.548762    2.630425   -0.000826    0.033934   -0.005670
C     6.075496    1.054244    1.252224    0.000054    0.001650    0.001212
O    -2.842399    0.358328   -1.813279    0.007916   -0.007086    0.010512
C     0.542826    0.002738    3.141008   -0.070126   -0.068934   -0.036226
C     7.144538    0.363416    0.391551   -0.000846    0.000512   -0.000268
O     5.866734    0.334346    2.434742    0.004860    0.002224    0.010668
C    -3.717689   -0.761832   -1.756482    0.004292   -0.003034   -0.001568
C    -0.235339   -1.331666    3.102204   -0.374172   -0.032548   -0.236480
O     7.414881    1.078160   -0.781729   -0.002686   -0.002458    0.000998
C     6.659611   -1.059804    0.080226    0.000186   -0.001492   -0.001956
C     5.383948   -0.998904    2.276590    0.007670    0.003710    0.006648
C    -3.462452   -1.475108   -3.095404   -0.008096   -0.002092   -0.006736
C    -3.456181   -1.679545   -0.543843   -0.015200   -0.000948    0.006168
C     0.505661   -2.551202    3.642455   -0.055978    0.062218   -0.100176
O    -0.990381   -1.496657    1.932140    0.897874   -0.062538   -1.204610
O    -1.593695   -1.276972    3.386197   -0.002498    0.032274    0.678864
O     7.641756   -1.794797   -0.601390    0.000488   -0.002156    0.000266
C     6.297808   -1.831759    1.357490    0.000242    0.001072    0.000750
C     5.334977   -1.548598    3.712763    0.001356   -0.001830    0.003186
C    -4.040429   -2.895337   -3.140341   -0.004538   -0.001792   -0.001024
O    -3.996198   -0.666648   -4.112523   -0.004524    0.012348    0.007730
O    -4.011157   -2.975313   -0.750966   -0.014586    0.007962    0.000614
C    -4.130376   -1.180367    0.737297   -0.001554    0.013422    0.007134
O     1.683787   -2.746249    2.866940   -0.022326    0.030112   -0.033540
O     5.665713   -3.002912    0.857534   -0.009748    0.001802    0.009886
O     6.613035   -1.646408    4.277610   -0.001366    0.001832    0.009568
C    -3.536619   -3.636720   -1.890964   -0.001050    0.005138    0.002690
O    -3.677533   -3.545192   -4.325307    0.005402   -0.003870    0.007106
O    -3.851066   -2.093744    1.771595   -0.075874   -0.058106   -0.038588
C     2.040252   -3.992436    2.584968   -0.005524    0.021494    0.016272
C     5.585232   -4.156623    1.631474   -0.001332   -0.000042    0.003240
O    -2.141681   -3.672914   -1.983159   -0.000476    0.008094    0.012222
C     3.248600   -4.008983    1.657061    0.004814    0.006806    0.012006
O     1.493632   -4.976570    3.008931    0.013454    0.002190    0.008762
C     5.587051   -5.332262    0.634045   -0.001838    0.001896    0.001078
O     4.415259   -4.217931    2.431514   -0.004270   -0.007370    0.015946
C    -1.425665   -4.795997   -1.509476   -0.006006   -0.003998    0.003038
C     3.072751   -5.122132    0.615200    0.003036    0.018280    0.000498
O     6.746960   -5.355420   -0.143846   -0.000218    0.001720    0.002298
C     4.332354   -5.219920   -0.252337    0.002052    0.004942   -0.002890
C    -0.165046   -4.822496   -2.384350   -0.010006   -0.002934   -0.006896
C    -1.013602   -4.718059   -0.026260   -0.008922   -0.017482    0.007982
O     1.951719   -4.828476   -0.213968    0.000040    0.026846   -0.001140
O     4.204207   -6.340168   -1.096395   -0.000586    0.003674    0.001948
C     0.759763   -5.971986   -1.971655   -0.008140    0.002804    0.002712
O    -0.568272   -4.955958   -3.721294   -0.013616    0.006066    0.002466
O    -0.117914   -5.788206    0.280508   -0.007666   -0.010766    0.008218
C    -2.184921   -4.905675    0.956955   -0.018384    0.021802    0.004534
C     1.055444   -5.888364   -0.465517    0.003632    0.010064    0.001778
O     1.914186   -5.926782   -2.765145   -0.017600    0.005366   -0.005324
O    -1.933385   -4.341428    2.219197    0.001228    0.020350    0.014908
C     1.211062   -1.051884   -0.645545    0.129134   -0.076226    0.211570
H     1.526574   -0.126401   -0.094816   -0.207238   -0.007094    0.059340
C     1.427433   -0.771734   -2.133222   -0.116684   -0.041024    0.064854
C     2.715128   -0.676105   -2.641526   -0.080574   -0.034408    0.093462
C     0.344043   -0.593722   -2.975093   -0.078598   -0.010342    0.036098
C     2.912261   -0.412390   -3.985112   -0.039428   -0.019180    0.088610
C     0.539747   -0.322483   -4.318943   -0.004270   -0.013156    0.027738
C     1.824900   -0.232893   -4.825069   -0.003286   -0.014016    0.042902
H     0.964036    4.466159    0.098942    0.008468    0.004854    0.004250
H     3.342692    4.698740   -0.570417   -0.007358   -0.001664    0.008176
H    -0.853388    3.490765    0.094221   -0.005998    0.019814    0.007022
H     1.447626    3.834168   -2.401323   -0.014882    0.007964    0.011152
H     3.087694    1.721747   -1.235425    0.012038    0.007568   -0.014878
H     2.508151    1.354610    1.344929   -0.016328    0.017646    0.074908
H    -0.705882    1.705075   -2.384251   -0.010564    0.020428   -0.005326
H    -0.909071    0.433666   -0.226336   -0.107086    0.077378   -0.057624
H     4.491816    3.253218   -2.562958   -0.008340   -0.031774   -0.014550
H     4.860058    3.206412    0.768413   -0.009440    0.002734    0.007684
H     4.207740    1.635907    3.171252   -0.005724    0.003196    0.012662
H     2.636161    2.364438    3.607682   -0.004588   -0.012984    0.007164
H    -2.897436    3.634513   -1.445833   -0.014878   -0.005354    0.005888
H    -0.981464    3.936904   -3.316362    0.050888   -0.046048   -0.030504
H     3.580753    4.380147    3.038095    0.014138    0.000256   -0.043032
H    -4.231697    1.621154   -0.961390   -0.006744    0.003744   -0.014286
H    -3.107349    1.798980   -3.558636    0.009654   -0.014540    0.010908
H     6.419465    2.043841    1.582373    0.005428   -0.002138    0.004668
H     1.614524   -0.195196    3.207665   -0.090356   -0.155768   -0.050682
H     0.178592    0.608493    3.982381   -0.005954   -0.081734   -0.019804
H     8.085707    0.310853    0.948862   -0.005014    0.001016    0.006912
H    -4.759015   -0.407806   -1.736397    0.002206   -0.010036    0.007258
H     6.584583    1.416178   -1.159143   -0.005138    0.006254    0.004324
H     5.740061   -0.990504   -0.524160    0.008086   -0.001212   -0.004368
H     4.375031   -0.982871    1.838050   -0.002764    0.008084    0.040658
H    -2.372065   -1.565240   -3.210078   -0.018600   -0.016290   -0.032902
H    -2.369888   -1.757539   -0.386824   -0.037626   -0.018930    0.099602
H     0.789010   -2.357860    4.685232   -0.106630    0.214596   -0.122414
H    -0.140924   -3.440486    3.580558    0.025518    0.014250    0.028314
H     8.022539   -1.224294   -1.289428   -0.025282   -0.010108   -0.020726
H     7.213511   -2.105942    1.899474   -0.001260    0.004078    0.002648
H     4.694547   -0.883428    4.304569   -0.014580   -0.015824    0.007180
H     4.905289   -2.549939    3.716435    0.001354   -0.002468    0.007360
H    -5.134274   -2.856921   -3.119940   -0.004930   -0.013650    0.008846
H    -4.076941   -1.206085   -4.917351    0.048082    0.031804   -0.008252
H    -3.749788   -0.184897    0.988072    0.061392   -0.027980    0.067646
H    -5.211957   -1.143108    0.550706   -0.012646    0.089206    0.027554
H     6.987076   -0.754695    4.348095    0.006716    0.001826   -0.028976
H    -3.958021   -4.650910   -1.835738   -0.007478    0.008972    0.008544
H    -2.751554   -3.834398   -4.260346    0.012380    0.003882    0.025992
H    -4.336120   -1.825113    2.566792    0.458734    0.285544    0.156362
H     6.415933   -4.231313    2.345454    0.000010   -0.004066   -0.000050
H     3.307306   -3.036465    1.155503    0.046296    0.019338    0.056248
H     5.555328   -6.275525    1.188384   -0.002650    0.005500    0.007194
H    -2.013293   -5.710377   -1.680440   -0.009134   -0.002542    0.013802
H     2.906619   -6.068325    1.145726    0.004042    0.024684    0.008436
H     6.944647   -4.453787   -0.449206   -0.008126    0.002810   -0.006072
H     4.398748   -4.297540   -0.848472    0.029760   -0.004612   -0.009998
H     0.357842   -3.863212   -2.235637   -0.016426   -0.002932   -0.026934
H    -0.535931   -3.738883    0.143424   -0.028196   -0.037192    0.095434
H     5.085425   -6.544683   -1.457147   -0.011396    0.022938   -0.028870
H     0.224101   -6.919339   -2.149635   -0.000748   -0.007402    0.032280
H     0.221724   -5.141228   -4.256214   -0.004060    0.071710   -0.003408
H    -2.299822   -5.979950    1.122901   -0.071900    0.035676    0.060284
H    -3.099074   -4.482235    0.537802   -0.016754    0.055636    0.030218
H     1.505114   -6.832575   -0.128696    0.013278    0.016358   -0.002192
H     2.706217   -6.153865   -2.237777   -0.017540   -0.006586   -0.021988
H    -2.134739   -3.393219    2.168922    0.375058    0.111192   -0.028198
O    -0.021532   -1.475069   -0.324913   -0.070170   -0.067436    0.190058
H     3.548417   -0.822074   -1.967553   -0.076030   -0.029954    0.072934
H    -0.642678   -0.684964   -2.541934   -0.141778    0.073392   -0.119546
H     3.916920   -0.346342   -4.372761   -0.021256   -0.010772    0.145770
H    -0.314218   -0.185488   -4.964121    0.011880   -0.007868    0.015010
H     1.979240   -0.024406   -5.871914    0.031382   -0.011252    0.049526
H     1.946218   -2.884257   -0.488420    0.093132   -0.001280   -0.033656
O     2.268914   -2.007961   -0.218978   -0.082652    0.058312    0.003280
147
* Frequency(6) -387.0800
C     1.607380    3.578601    0.030281    0.000668    0.001548    0.003274
O     0.865795    2.469277   -0.429443   -0.010336   -0.003136    0.019204
C     2.767206    3.839698   -0.942747   -0.001108   -0.002076   -0.002260
O     2.096263    3.389630    1.325808    0.002690    0.009686    0.005762
C    -0.542781    2.578429   -0.428768   -0.009748    0.018278    0.011736
O     2.351817    4.158521   -2.238456   -0.000846   -0.009684    0.000380
C     3.676614    2.602216   -0.930385    0.006066   -0.001544   -0.004074
C     3.021162    2.315301    1.496642   -0.001220    0.013522    0.004592
C    -1.040377    2.627287   -1.882373   -0.000016    0.011638    0.004886
C    -1.219866    1.377896    0.259301   -0.028334    0.019450   -0.001372
O     4.785240    2.765027   -1.775056    0.005838   -0.001124   -0.001342
C     4.188942    2.378997    0.496591   -0.001510    0.000666   -0.000020
C     3.507967    2.442992    2.948878   -0.002052    0.004784    0.004562
C    -2.577677    2.695979   -1.911884   -0.001806    0.002390   -0.001924
O    -0.474222    3.751892   -2.505006    0.010392   -0.000726    0.002274
O    -2.626101    1.536686    0.210266   -0.020896    0.015354    0.007596
C    -0.871393    1.221488    1.727911   -0.009106   -0.029520    0.008692
O     4.916105    1.163215    0.469609    0.002270    0.000020    0.009478
O     4.196868    3.642990    3.166288    0.001538   -0.000622    0.010494
C    -3.147085    1.516328   -1.099681   -0.006978    0.001906   -0.002842
O    -3.058353    2.709027   -3.223212    0.005924   -0.003968   -0.004062
O     0.333117    0.675971    1.909185    0.005146    0.015094   -0.000032
O    -1.597171    1.552618    2.629781   -0.000826    0.033934   -0.005670
C     6.075502    1.054432    1.252362    0.000054    0.001650    0.001212
O    -2.841499    0.357523   -1.812084    0.007916   -0.007086    0.010512
C     0.534857   -0.005096    3.136891   -0.070126   -0.068934   -0.036226
C     7.144442    0.363474    0.391521   -0.000846    0.000512   -0.000268
O     5.867286    0.334599    2.435954    0.004860    0.002224    0.010668
C    -3.717201   -0.762177   -1.756660    0.004292   -0.003034   -0.001568
C    -0.277862   -1.335365    3.075329   -0.374172   -0.032548   -0.236480
O     7.414576    1.077881   -0.781616   -0.002686   -0.002458    0.000998
C     6.659632   -1.059974    0.080004    0.000186   -0.001492   -0.001956
C     5.384820   -0.998482    2.277346    0.007670    0.003710    0.006648
C    -3.463372   -1.475346   -3.096170   -0.008096   -0.002092   -0.006736
C    -3.457908   -1.679653   -0.543142   -0.015200   -0.000948    0.006168
C     0.499299   -2.544131    3.631071   -0.055978    0.062218   -0.100176
O    -0.888342   -1.503764    1.795242    0.897874   -0.062538   -1.204610
O    -1.593979   -1.273304    3.463346   -0.002498    0.032274    0.678864
O     7.641811   -1.795042   -0.601360    0.000488   -0.002156    0.000266
C     6.297836   -1.831637    1.357575    0.000242    0.001072    0.000750
C     5.335131   -1.548806    3.713125    0.001356   -0.001830    0.003186
C    -4.040945   -2.895541   -3.140457   -0.004538   -0.001792   -0.001024
O    -3.996712   -0.665245   -4.111645   -0.004524    0.012348    0.007730
O    -4.012815   -2.974408   -0.750896   -0.014586    0.007962    0.000614
C    -4.130553   -1.178842    0.738108   -0.001554    0.013422    0.007134
O     1.681250   -2.742827    2.863128   -0.022326    0.030112   -0.033540
O     5.664605   -3.002707    0.858657   -0.009748    0.001802    0.009886
O     6.612880   -1.646200    4.278697   -0.001366    0.001832    0.009568
C    -3.536738   -3.636136   -1.890658   -0.001050    0.005138    0.002690
O    -3.676919   -3.545632   -4.324499    0.005402   -0.003870    0.007106
O    -3.859689   -2.100347    1.767210   -0.075874   -0.058106   -0.038588
C     2.039624   -3.989993    2.586817   -0.005524    0.021494    0.016272
C     5.585081   -4.156628    1.631842   -0.001332   -0.000042    0.003240
O    -2.141735   -3.671994   -1.981770   -0.000476    0.008094    0.012222
C     3.249147   -4.008210    1.658425    0.004814    0.006806    0.012006
O     1.495161   -4.976321    3.009927    0.013454    0.002190    0.008762
C     5.586842   -5.332047    0.634168   -0.001838    0.001896    0.001078
O     4.414774   -4.218769    2.433326   -0.004270   -0.007370    0.015946
C    -1.426348   -4.796451   -1.509131   -0.006006   -0.003998    0.003038
C     3.073096   -5.120055    0.615257    0.003036    0.018280    0.000498
O     6.746935   -5.355225   -0.143585   -0.000218    0.001720    0.002298
C     4.332587   -5.219358   -0.252665    0.002052    0.004942   -0.002890
C    -0.166183   -4.822829   -2.385134   -0.010006   -0.002934   -0.006896
C    -1.014616   -4.720046   -0.025353   -0.008922   -0.017482    0.007982
O     1.951724   -4.825425   -0.214098    0.000040    0.026846   -0.001140
O     4.204140   -6.339750   -1.096174   -0.000586    0.003674    0.001948
C     0.758838   -5.971667   -1.971347   -0.008140    0.002804    0.002712
O    -0.569819   -4.955269   -3.721014   -0.013616    0.006066    0.002466
O    -0.118785   -5.789430    0.281442   -0.007666   -0.010766    0.008218
C    -2.187010   -4.903197    0.957470   -0.018384    0.021802    0.004534
C     1.055857   -5.887220   -0.465315    0.003632    0.010064    0.001778
O     1.912186   -5.926172   -2.765750   -0.017600    0.005366   -0.005324
O    -1.933245   -4.339115    2.220891    0.001228    0.020350    0.014908
C     1.225737   -1.060547   -0.621501    0.129134   -0.076226    0.211570
H     1.503022   -0.127207   -0.088072   -0.207238   -0.007094    0.059340
C     1.414172   -0.776396   -2.125852   -0.116684   -0.041024    0.064854
C     2.705971   -0.680015   -2.630905   -0.080574   -0.034408    0.093462
C     0.335111   -0.594897   -2.970991   -0.078598   -0.010342    0.036098
C     2.907780   -0.414570   -3.975042   -0.039428   -0.019180    0.088610
C     0.539262   -0.323978   -4.315791   -0.004270   -0.013156    0.027738
C     1.824527   -0.234486   -4.820193   -0.003286   -0.014016    0.042902
H     0.964998    4.466711    0.099425    0.008468    0.004854    0.004250
H     3.341856    4.698551   -0.569488   -0.007358   -0.001664    0.008176
H    -0.854070    3.493017    0.095019   -0.005998    0.019814    0.007022
H     1.445935    3.835073   -2.400056   -0.014882    0.007964    0.011152
H     3.089062    1.722607   -1.237116    0.012038    0.007568   -0.014878
H     2.506295    1.356615    1.353442   -0.016328    0.017646    0.074908
H    -0.707083    1.707397   -2.384856   -0.010564    0.020428   -0.005326
H    -0.921241    0.442460   -0.232885   -0.107086    0.077378   -0.057624
H     4.490868    3.249607   -2.564612   -0.008340   -0.031774   -0.014550
H     4.858985    3.206723    0.769286   -0.009440    0.002734    0.007684
H     4.207089    1.636270    3.172691   -0.005724    0.003196    0.012662
H     2.635640    2.362962    3.608496   -0.004588   -0.012984    0.007164
H    -2.899127    3.633905   -1.445164   -0.014878   -0.005354    0.005888
H    -0.975681    3.931671   -3.319829    0.050888   -0.046048   -0.030504
H     3.582360    4.380176    3.033205    0.014138    0.000256   -0.043032
H    -4.232463    1.621579   -0.963014   -0.006744    0.003744   -0.014286
H    -3.106252    1.797328   -3.557396    0.009654   -0.014540    0.010908
H     6.420082    2.043598    1.582903    0.005428   -0.002138    0.004668
H     1.604256   -0.212898    3.201905   -0.090356   -0.155768   -0.050682
H     0.177915    0.599204    3.980130   -0.005954   -0.081734   -0.019804
H     8.085137    0.310968    0.949648   -0.005014    0.001016    0.006912
H    -4.758764   -0.408947   -1.735572    0.002206   -0.010036    0.007258
H     6.583999    1.416889   -1.158652   -0.005138    0.006254    0.004324
H     5.740980   -0.990642   -0.524656    0.008086   -0.001212   -0.004368
H     4.374717   -0.981952    1.842671   -0.002764    0.008084    0.040658
H    -2.374179   -1.567091   -3.213817   -0.018600   -0.016290   -0.032902
H    -2.374164   -1.759690   -0.375505   -0.037626   -0.018930    0.099602
H     0.776892   -2.333472    4.671320   -0.106630    0.214596   -0.122414
H    -0.138024   -3.438867    3.583776    0.025518    0.014250    0.028314
H     8.019666   -1.225443   -1.291783   -0.025282   -0.010108   -0.020726
H     7.213368   -2.105479    1.899775   -0.001260    0.004078    0.002648
H     4.692890   -0.885226    4.305385   -0.014580   -0.015824    0.007180
H     4.905443   -2.550219    3.717271    0.001354   -0.002468    0.007360
H    -5.134834   -2.858472   -3.118935   -0.004930   -0.013650    0.008846
H    -4.071477   -1.202471   -4.918289    0.048082    0.031804   -0.008252
H    -3.742811   -0.188077    0.995760    0.061392   -0.027980    0.067646
H    -5.213394   -1.132970    0.553837   -0.012646    0.089206    0.027554
H     6.987839   -0.754487    4.344802    0.006716    0.001826   -0.028976
H    -3.958871   -4.649890   -1.834767   -0.007478    0.008972    0.008544
H    -2.750147   -3.833957   -4.257392    0.012380    0.003882    0.025992
H    -4.283987   -1.792662    2.584562    0.458734    0.285544    0.156362
H     6.415934   -4.231775    2.345448    0.000010   -0.004066   -0.000050
H     3.312567   -3.034267    1.161895    0.046296    0.019338    0.056248
H     5.555027   -6.274900    1.189202   -0.002650    0.005500    0.007194
H    -2.014331   -5.710666   -1.678871   -0.009134   -0.002542    0.013802
H     2.907078   -6.065520    1.146685    0.004042    0.024684    0.008436
H     6.943724   -4.453468   -0.449896   -0.008126    0.002810   -0.006072
H     4.402130   -4.298064   -0.849608    0.029760   -0.004612   -0.009998
H     0.355975   -3.863545   -2.238698   -0.016426   -0.002932   -0.026934
H    -0.539135   -3.743110    0.154270   -0.028196   -0.037192    0.095434
H     5.084130   -6.542076   -1.460428   -0.011396    0.022938   -0.028870
H     0.224016   -6.920180   -2.145967   -0.000748   -0.007402    0.032280
H     0.221263   -5.133079   -4.256601   -0.004060    0.071710   -0.003408
H    -2.307993   -5.975896    1.129752   -0.071900    0.035676    0.060284
H    -3.100978   -4.475912    0.541236   -0.016754    0.055636    0.030218
H     1.506623   -6.830716   -0.128945    0.013278    0.016358   -0.002192
H     2.704224   -6.154613   -2.240276   -0.017540   -0.006586   -0.021988
H    -2.092116   -3.380583    2.165717    0.375058    0.111192   -0.028198
O    -0.029506   -1.482733   -0.303314   -0.070170   -0.067436    0.190058
H     3.539777   -0.825478   -1.959264   -0.076030   -0.029954    0.072934
H    -0.658790   -0.676623   -2.555520   -0.141778    0.073392   -0.119546
H     3.914504   -0.347566   -4.356195   -0.021256   -0.010772    0.145770
H    -0.312868   -0.186382   -4.962415    0.011880   -0.007868    0.015010
H     1.982806   -0.025685   -5.866286    0.031382   -0.011252    0.049526
H     1.956802   -2.884402   -0.492245    0.093132   -0.001280   -0.033656
O     2.259521   -2.001334   -0.218605   -0.082652    0.058312    0.003280
147
* Frequency(6) -387.0800
C     1.607448    3.578758    0.030613    0.000668    0.001548    0.003274
O     0.864748    2.468959   -0.427497   -0.010336   -0.003136    0.019204
C     2.767094    3.839488   -0.942976   -0.001108   -0.002076   -0.002260
O     2.096535    3.390611    1.326392    0.002690    0.009686    0.005762
C    -0.543769    2.580281   -0.427579   -0.009748    0.018278    0.011736
O     2.351731    4.157540   -2.238417   -0.000846   -0.009684    0.000380
C     3.677229    2.602059   -0.930798    0.006066   -0.001544   -0.004074
C     3.021039    2.316671    1.497107   -0.001220    0.013522    0.004592
C    -1.040378    2.628466   -1.881878   -0.000016    0.011638    0.004886
C    -1.222737    1.379867    0.259162   -0.028334    0.019450   -0.001372
O     4.785832    2.764913   -1.775191    0.005838   -0.001124   -0.001342
C     4.188789    2.379064    0.496589   -0.001510    0.000666   -0.000020
C     3.507759    2.443476    2.949341   -0.002052    0.004784    0.004562
C    -2.577860    2.696221   -1.912079   -0.001806    0.002390   -0.001924
O    -0.473169    3.751819   -2.504775    0.010392   -0.000726    0.002274
O    -2.628218    1.538242    0.211036   -0.020896    0.015354    0.007596
C    -0.872316    1.218497    1.728792   -0.009106   -0.029520    0.008692
O     4.916335    1.163217    0.470570    0.002270    0.000020    0.009478
O     4.197024    3.642927    3.167351    0.001538   -0.000622    0.010494
C    -3.147792    1.516521   -1.099969   -0.006978    0.001906   -0.002842
O    -3.057752    2.708625   -3.223623    0.005924   -0.003968   -0.004062
O     0.333638    0.677501    1.909182    0.005146    0.015094   -0.000032
O    -1.597255    1.556057    2.629206   -0.000826    0.033934   -0.005670
C     6.075508    1.054599    1.252485    0.000054    0.001650    0.001212
O    -2.840697    0.356805   -1.811019    0.007916   -0.007086    0.010512
C     0.527751   -0.012081    3.133220   -0.070126   -0.068934   -0.036226
C     7.144356    0.363526    0.391493   -0.000846    0.000512   -0.000268
O     5.867779    0.334824    2.437035    0.004860    0.002224    0.010668
C    -3.716766   -0.762484   -1.756819    0.004292   -0.003034   -0.001568
C    -0.315776   -1.338663    3.051367   -0.374172   -0.032548   -0.236480
O     7.414304    1.077632   -0.781514   -0.002686   -0.002458    0.000998
C     6.659651   -1.060125    0.079806    0.000186   -0.001492   -0.001956
C     5.385597   -0.998106    2.278019    0.007670    0.003710    0.006648
C    -3.464192   -1.475558   -3.096852   -0.008096   -0.002092   -0.006736
C    -3.459449   -1.679749   -0.542517   -0.015200   -0.000948    0.006168
C     0.493627   -2.537827    3.620920   -0.055978    0.062218   -0.100176
O    -0.797361   -1.510101    1.673180    0.897874   -0.062538   -1.204610
O    -1.594232   -1.270034    3.532135   -0.002498    0.032274    0.678864
O     7.641861   -1.795260   -0.601333    0.000488   -0.002156    0.000266
C     6.297860   -1.831529    1.357651    0.000242    0.001072    0.000750
C     5.335269   -1.548991    3.713448    0.001356   -0.001830    0.003186
C    -4.041405   -2.895722   -3.140561   -0.004538   -0.001792   -0.001024
O    -3.997171   -0.663993   -4.110861   -0.004524    0.012348    0.007730
O    -4.014293   -2.973601   -0.750834   -0.014586    0.007962    0.000614
C    -4.130710   -1.177482    0.738831   -0.001554    0.013422    0.007134
O     1.678987   -2.739776    2.859730   -0.022326    0.030112   -0.033540
O     5.663617   -3.002525    0.859659   -0.009748    0.001802    0.009886
O     6.612741   -1.646014    4.279667   -0.001366    0.001832    0.009568
C    -3.536845   -3.635615   -1.890386   -0.001050    0.005138    0.002690
O    -3.676372   -3.546024   -4.323779    0.005402   -0.003870    0.007106
O    -3.867377   -2.106235    1.763300   -0.075874   -0.058106   -0.038588
C     2.039064   -3.987815    2.588466   -0.005524    0.021494    0.016272
C     5.584946   -4.156632    1.632171   -0.001332   -0.000042    0.003240
O    -2.141783   -3.671174   -1.980532   -0.000476    0.008094    0.012222
C     3.249635   -4.007520    1.659642    0.004814    0.006806    0.012006
O     1.496524   -4.976099    3.010815    0.013454    0.002190    0.008762
C     5.586656   -5.331854    0.634277   -0.001838    0.001896    0.001078
O     4.414341   -4.219515    2.434942   -0.004270   -0.007370    0.015946
C    -1.426956   -4.796856   -1.508823   -0.006006   -0.003998    0.003038
C     3.073404   -5.118202    0.615307    0.003036    0.018280    0.000498
O     6.746913   -5.355050   -0.143352   -0.000218    0.001720    0.002298
C     4.332795   -5.218858   -0.252958    0.002052    0.004942   -0.002890
C    -0.167197   -4.823127   -2.385832   -0.010006   -0.002934   -0.006896
C    -1.015520   -4.721817   -0.024544   -0.008922   -0.017482    0.007982
O     1.951728   -4.822705   -0.214213    0.000040    0.026846   -0.001140
O     4.204081   -6.339378   -1.095976   -0.000586    0.003674    0.001948
C     0.758013   -5.971383   -1.971072   -0.008140    0.002804    0.002712
O    -0.571199   -4.954654   -3.720764   -0.013616    0.006066    0.002466
O    -0.119562   -5.790520    0.282275   -0.007666   -0.010766    0.008218
C    -2.188873   -4.900988    0.957930   -0.018384    0.021802    0.004534
C     1.056225   -5.886200   -0.465135    0.003632    0.010064    0.001778
O     1.910402   -5.925628   -2.766290   -0.017600    0.005366   -0.005324
O    -1.933121   -4.337053    2.222402    0.001228    0.020350    0.014908
C     1.238823   -1.068271   -0.600063    0.129134   -0.076226    0.211570
H     1.482023   -0.127926   -0.082059   -0.207238   -0.007094    0.059340
C     1.402349   -0.780553   -2.119280   -0.116684   -0.041024    0.064854
C     2.697807   -0.683502   -2.621434   -0.080574   -0.034408    0.093462
C     0.327146   -0.595945   -2.967333   -0.078598   -0.010342    0.036098
C     2.903785   -0.416513   -3.966063   -0.039428   -0.019180    0.088610
C     0.538829   -0.325311   -4.312980   -0.004270   -0.013156    0.027738
C     1.824194   -0.235906   -4.815846   -0.003286   -0.014016    0.042902
H     0.965856    4.467202    0.099856    0.008468    0.004854    0.004250
H     3.341110    4.698382   -0.568659   -0.007358   -0.001664    0.008176
H    -0.854677    3.495025    0.095731   -0.005998    0.019814    0.007022
H     1.444427    3.835880   -2.398926   -0.014882    0.007964    0.011152
H     3.090282    1.723374   -1.238623    0.012038    0.007568   -0.014878
H     2.504641    1.358403    1.361032   -0.016328    0.017646    0.074908
H    -0.708153    1.709466   -2.385396   -0.010564    0.020428   -0.005326
H    -0.932092    0.450300   -0.238724   -0.107086    0.077378   -0.057624
H     4.490023    3.246387   -2.566086   -0.008340   -0.031774   -0.014550
H     4.858029    3.207000    0.770065   -0.009440    0.002734    0.007684
H     4.206509    1.636594    3.173974   -0.005724    0.003196    0.012662
H     2.635175    2.361647    3.609222   -0.004588   -0.012984    0.007164
H    -2.900634    3.633362   -1.444567   -0.014878   -0.005354    0.005888
H    -0.970524    3.927005   -3.322920    0.050888   -0.046048   -0.030504
H     3.583792    4.380202    3.028844    0.014138    0.000256   -0.043032
H    -4.233147    1.621959   -0.964461   -0.006744    0.003744   -0.014286
H    -3.105274    1.795854   -3.556291    0.009654   -0.014540    0.010908
H     6.420632    2.043381    1.583377    0.005428   -0.002138    0.004668
H     1.595100   -0.228682    3.196770   -0.090356   -0.155768   -0.050682
H     0.177312    0.590922    3.978124   -0.005954   -0.081734   -0.019804
H     8.084629    0.311071    0.950348   -0.005014    0.001016    0.006912
H    -4.758541   -0.409963   -1.734837    0.002206   -0.010036    0.007258
H     6.583478    1.417522   -1.158213   -0.005138    0.006254    0.004324
H     5.741799   -0.990765   -0.525099    0.008086   -0.001212   -0.004368
H     4.374437   -0.981133    1.846790   -0.002764    0.008084    0.040658
H    -2.376064   -1.568742   -3.217151   -0.018600   -0.016290   -0.032902
H    -2.377977   -1.761608   -0.365412   -0.037626   -0.018930    0.099602
H     0.766087   -2.311727    4.658916   -0.106630    0.214596   -0.122414
H    -0.135438   -3.437423    3.586645    0.025518    0.014250    0.028314
H     8.017104   -1.226467   -1.293884   -0.025282   -0.010108   -0.020726
H     7.213240   -2.105065    1.900043   -0.001260    0.004078    0.002648
H     4.691413   -0.886830    4.306113   -0.014580   -0.015824    0.007180
H     4.905580   -2.550470    3.718017    0.001354   -0.002468    0.007360
H    -5.135334   -2.859855   -3.118038   -0.004930   -0.013650    0.008846
H    -4.066605   -1.199248   -4.919125    0.048082    0.031804   -0.008252
H    -3.736590   -0.190912    1.002614    0.061392   -0.027980    0.067646
H    -5.214676   -1.123931    0.556629   -0.012646    0.089206    0.027554
H     6.988520   -0.754302    4.341866    0.006716    0.001826   -0.028976
H    -3.959629   -4.648981   -1.833901   -0.007478    0.008972    0.008544
H    -2.748893   -3.833563   -4.254758    0.012380    0.003882    0.025992
H    -4.237504   -1.763728    2.600406    0.458734    0.285544    0.156362
H     6.415935   -4.232187    2.345443    0.000010   -0.004066   -0.000050
H     3.317258   -3.032308    1.167595    0.046296    0.019338    0.056248
H     5.554758   -6.274343    1.189931   -0.002650    0.005500    0.007194
H    -2.015257   -5.710923   -1.677473   -0.009134   -0.002542    0.013802
H     2.907488   -6.063019    1.147540    0.004042    0.024684    0.008436
H     6.942900   -4.453183   -0.450511   -0.008126    0.002810   -0.006072
H     4.405146   -4.298531   -0.850621    0.029760   -0.004612   -0.009998
H     0.354311   -3.863842   -2.241427   -0.016426   -0.002932   -0.026934
H    -0.541992   -3.746878    0.163940   -0.028196   -0.037192    0.095434
H     5.082975   -6.539752   -1.463353   -0.011396    0.022938   -0.028870
H     0.223940   -6.920930   -2.142696   -0.000748   -0.007402    0.032280
H     0.220851   -5.125812   -4.256947   -0.004060    0.071710   -0.003408
H    -2.315279   -5.972281    1.135861   -0.071900    0.035676    0.060284
H    -3.102676   -4.470275    0.544298   -0.016754    0.055636    0.030218
H     1.507968   -6.829058   -0.129167    0.013278    0.016358   -0.002192
H     2.702446   -6.155281   -2.242504   -0.017540   -0.006586   -0.021988
H    -2.054111   -3.369316    2.162860    0.375058    0.111192   -0.028198
O    -0.036617   -1.489566   -0.284055   -0.070170   -0.067436    0.190058
H     3.532072   -0.828513   -1.951874   -0.076030   -0.029954    0.072934
H    -0.673157   -0.669187   -2.567633   -0.141778    0.073392   -0.119546
H     3.912351   -0.348658   -4.341424   -0.021256   -0.010772    0.145770
H    -0.311664   -0.187179   -4.960894    0.011880   -0.007868    0.015010
H     1.985986   -0.026825   -5.861267    0.031382   -0.011252    0.049526
H     1.966239   -2.884532   -0.495655    0.093132   -0.001280   -0.033656
O     2.251146   -1.995425   -0.218273   -0.082652    0.058312    0.003280
147
* Frequency(6) -387.0800
C     1.607500    3.578879    0.030868    0.000668    0.001548    0.003274
O     0.863941    2.468714   -0.425998   -0.010336   -0.003136    0.019204
C     2.767007    3.839326   -0.943152   -0.001108   -0.002076   -0.002260
O     2.096745    3.391367    1.326841    0.002690    0.009686    0.005762
C    -0.544529    2.581708   -0.426663   -0.009748    0.018278    0.011736
O     2.351665    4.156785   -2.238388   -0.000846   -0.009684    0.000380
C     3.677702    2.601939   -0.931116    0.006066   -0.001544   -0.004074
C     3.020944    2.317726    1.497465   -0.001220    0.013522    0.004592
C    -1.040380    2.629374   -1.881496   -0.000016    0.011638    0.004886
C    -1.224948    1.381385    0.259055   -0.028334    0.019450   -0.001372
O     4.786288    2.764826   -1.775296    0.005838   -0.001124   -0.001342
C     4.188672    2.379116    0.496587   -0.001510    0.000666   -0.000020
C     3.507599    2.443850    2.949697   -0.002052    0.004784    0.004562
C    -2.578001    2.696407   -1.912229   -0.001806    0.002390   -0.001924
O    -0.472358    3.751762   -2.504598    0.010392   -0.000726    0.002274
O    -2.629849    1.539440    0.211629   -0.020896    0.015354    0.007596
C    -0.873026    1.216193    1.729470   -0.009106   -0.029520    0.008692
O     4.916512    1.163219    0.471309    0.002270    0.000020    0.009478
O     4.197144    3.642879    3.168170    0.001538   -0.000622    0.010494
C    -3.148337    1.516669   -1.100191   -0.006978    0.001906   -0.002842
O    -3.057290    2.708315   -3.223940    0.005924   -0.003968   -0.004062
O     0.334040    0.678679    1.909180    0.005146    0.015094   -0.000032
O    -1.597319    1.558705    2.628764   -0.000826    0.033934   -0.005670
C     6.075512    1.054727    1.252579    0.000054    0.001650    0.001212
O    -2.840080    0.356252   -1.810199    0.007916   -0.007086    0.010512
C     0.522279   -0.017460    3.130393   -0.070126   -0.068934   -0.036226
C     7.144290    0.363566    0.391472   -0.000846    0.000512   -0.000268
O     5.868158    0.334998    2.437868    0.004860    0.002224    0.010668
C    -3.716431   -0.762721   -1.756941    0.004292   -0.003034   -0.001568
C    -0.344974   -1.341203    3.032913   -0.374172   -0.032548   -0.236480
O     7.414094    1.077440   -0.781437   -0.002686   -0.002458    0.000998
C     6.659665   -1.060241    0.079653    0.000186   -0.001492   -0.001956
C     5.386195   -0.997817    2.278538    0.007670    0.003710    0.006648
C    -3.464824   -1.475721   -3.097378   -0.008096   -0.002092   -0.006736
C    -3.460635   -1.679823   -0.542036   -0.015200   -0.000948    0.006168
C     0.489259   -2.532972    3.613103   -0.055978    0.062218   -0.100176
O    -0.727296   -1.514981    1.579179    0.897874   -0.062538   -1.204610
O    -1.594427   -1.267515    3.585110   -0.002498    0.032274    0.678864
O     7.641899   -1.795429   -0.601312    0.000488   -0.002156    0.000266
C     6.297879   -1.831445    1.357710    0.000242    0.001072    0.000750
C     5.335374   -1.549134    3.713697    0.001356   -0.001830    0.003186
C    -4.041759   -2.895862   -3.140641   -0.004538   -0.001792   -0.001024
O    -3.997524   -0.663030   -4.110258   -0.004524    0.012348    0.007730
O    -4.015431   -2.972980   -0.750786   -0.014586    0.007962    0.000614
C    -4.130831   -1.176434    0.739387   -0.001554    0.013422    0.007134
O     1.677245   -2.737426    2.857113   -0.022326    0.030112   -0.033540
O     5.662857   -3.002384    0.860431   -0.009748    0.001802    0.009886
O     6.612635   -1.645871    4.280414   -0.001366    0.001832    0.009568
C    -3.536927   -3.635215   -1.890176   -0.001050    0.005138    0.002690
O    -3.675950   -3.546326   -4.323225    0.005402   -0.003870    0.007106
O    -3.873298   -2.110770    1.760288   -0.075874   -0.058106   -0.038588
C     2.038633   -3.986138    2.589736   -0.005524    0.021494    0.016272
C     5.584842   -4.156635    1.632423   -0.001332   -0.000042    0.003240
O    -2.141820   -3.670542   -1.979578   -0.000476    0.008094    0.012222
C     3.250011   -4.006989    1.660579    0.004814    0.006806    0.012006
O     1.497574   -4.975928    3.011498    0.013454    0.002190    0.008762
C     5.586512   -5.331706    0.634361   -0.001838    0.001896    0.001078
O     4.414008   -4.220090    2.436186   -0.004270   -0.007370    0.015946
C    -1.427425   -4.797168   -1.508586   -0.006006   -0.003998    0.003038
C     3.073641   -5.116776    0.615346    0.003036    0.018280    0.000498
O     6.746896   -5.354916   -0.143173   -0.000218    0.001720    0.002298
C     4.332955   -5.218472   -0.253184    0.002052    0.004942   -0.002890
C    -0.167978   -4.823356   -2.386371   -0.010006   -0.002934   -0.006896
C    -1.016216   -4.723181   -0.023921   -0.008922   -0.017482    0.007982
O     1.951731   -4.820610   -0.214302    0.000040    0.026846   -0.001140
O     4.204035   -6.339091   -1.095824   -0.000586    0.003674    0.001948
C     0.757378   -5.971164   -1.970860   -0.008140    0.002804    0.002712
O    -0.572262   -4.954181   -3.720571   -0.013616    0.006066    0.002466
O    -0.120160   -5.791361    0.282916   -0.007666   -0.010766    0.008218
C    -2.190308   -4.899287    0.958283   -0.018384    0.021802    0.004534
C     1.056508   -5.885415   -0.464996    0.003632    0.010064    0.001778
O     1.909029   -5.925210   -2.766705   -0.017600    0.005366   -0.005324
O    -1.933025   -4.335465    2.223565    0.001228    0.020350    0.014908
C     1.248899   -1.074219   -0.583553    0.129134   -0.076226    0.211570
H     1.465852   -0.128480   -0.077429   -0.207238   -0.007094    0.059340
C     1.393244   -0.783754   -2.114219   -0.116684   -0.041024    0.064854
C     2.691519   -0.686187   -2.614141   -0.080574   -0.034408    0.093462
C     0.321013   -0.596752   -2.964516   -0.078598   -0.010342    0.036098
C     2.900708   -0.418010   -3.959149   -0.039428   -0.019180    0.088610
C     0.538496   -0.326338   -4.310816   -0.004270   -0.013156    0.027738
C     1.823937   -0.237000   -4.812498   -0.003286   -0.014016    0.042902
H     0.966517    4.467581    0.100187    0.008468    0.004854    0.004250
H     3.340536    4.698252   -0.568021   -0.007358   -0.001664    0.008176
H    -0.855145    3.496571    0.096279   -0.005998    0.019814    0.007022
H     1.443265    3.836502   -2.398055   -0.014882    0.007964    0.011152
H     3.091221    1.723964   -1.239784    0.012038    0.007568   -0.014878
H     2.503367    1.359780    1.366878   -0.016328    0.017646    0.074908
H    -0.708977    1.711061   -2.385812   -0.010564    0.020428   -0.005326
H    -0.940448    0.456338   -0.243220   -0.107086    0.077378   -0.057624
H     4.489372    3.243908   -2.567221   -0.008340   -0.031774   -0.014550
H     4.857292    3.207213    0.770664   -0.009440    0.002734    0.007684
H     4.206063    1.636843    3.174962   -0.005724    0.003196    0.012662
H     2.634817    2.360634    3.609781   -0.004588   -0.012984    0.007164
H    -2.901795    3.632944   -1.444108   -0.014878   -0.005354    0.005888
H    -0.966553    3.923412   -3.325300    0.050888   -0.046048   -0.030504
H     3.584896    4.380222    3.025486    0.014138    0.000256   -0.043032
H    -4.233673    1.622251   -0.965576   -0.006744    0.003744   -0.014286
H    -3.104520    1.794720   -3.555440    0.009654   -0.014540    0.010908
H     6.421055    2.043215    1.583741    0.005428   -0.002138    0.004668
H     1.588049   -0.240837    3.192815   -0.090356   -0.155768   -0.050682
H     0.176847    0.584544    3.976578   -0.005954   -0.081734   -0.019804
H     8.084238    0.311151    0.950887   -0.005014    0.001016    0.006912
H    -4.758369   -0.410747   -1.734270    0.002206   -0.010036    0.007258
H     6.583078    1.418010   -1.157876   -0.005138    0.006254    0.004324
H     5.742430   -0.990859   -0.525440    0.008086   -0.001212   -0.004368
H     4.374221   -0.980502    1.849963   -0.002764    0.008084    0.040658
H    -2.377515   -1.570013   -3.219719   -0.018600   -0.016290   -0.032902
H    -2.380913   -1.763086   -0.357640   -0.037626   -0.018930    0.099602
H     0.757767   -2.294982    4.649364   -0.106630    0.214596   -0.122414
H    -0.133447   -3.436311    3.588854    0.025518    0.014250    0.028314
H     8.015131   -1.227256   -1.295501   -0.025282   -0.010108   -0.020726
H     7.213142   -2.104747    1.900250   -0.001260    0.004078    0.002648
H     4.690275   -0.888065    4.306673   -0.014580   -0.015824    0.007180
H     4.905686   -2.550662    3.718592    0.001354   -0.002468    0.007360
H    -5.135719   -2.860921   -3.117348   -0.004930   -0.013650    0.008846
H    -4.062853   -1.196766   -4.919769    0.048082    0.031804   -0.008252
H    -3.731800   -0.193095    1.007893    0.061392   -0.027980    0.067646
H    -5.215662   -1.116970    0.558780   -0.012646    0.089206    0.027554
H     6.989044   -0.754160    4.339605    0.006716    0.001826   -0.028976
H    -3.960212   -4.648281   -1.833235   -0.007478    0.008972    0.008544
H    -2.747927   -3.833261   -4.252730    0.012380    0.003882    0.025992
H    -4.201707   -1.741446    2.612607    0.458734    0.285544    0.156362
H     6.415936   -4.232504    2.345439    0.000010   -0.004066   -0.000050
H     3.320871   -3.030799    1.171984    0.046296    0.019338    0.056248
H     5.554552   -6.273913    1.190492   -0.002650    0.005500    0.007194
H    -2.015969   -5.711122   -1.676396   -0.009134   -0.002542    0.013802
H     2.907803   -6.061092    1.148198    0.004042    0.024684    0.008436
H     6.942266   -4.452964   -0.450985   -0.008126    0.002810   -0.006072
H     4.407468   -4.298891   -0.851401    0.029760   -0.004612   -0.009998
H     0.353029   -3.864071   -2.243529   -0.016426   -0.002932   -0.026934
H    -0.544193   -3.749781    0.171387   -0.028196   -0.037192    0.095434
H     5.082086   -6.537962   -1.465606   -0.011396    0.022938   -0.028870
H     0.223882   -6.921508   -2.140177   -0.000748   -0.007402    0.032280
H     0.220534   -5.120216   -4.257213   -0.004060    0.071710   -0.003408
H    -2.320889   -5.969497    1.140565   -0.071900    0.035676    0.060284
H    -3.103983   -4.465933    0.546656   -0.016754    0.055636    0.030218
H     1.509005   -6.827782   -0.129338    0.013278    0.016358   -0.002192
H     2.701078   -6.155795   -2.244220   -0.017540   -0.006586   -0.021988
H    -2.024844   -3.360639    2.160660    0.375058    0.111192   -0.028198
O    -0.042092   -1.494828   -0.269224   -0.070170   -0.067436    0.190058
H     3.526140   -0.830851   -1.946183   -0.076030   -0.029954    0.072934
H    -0.684220   -0.663460   -2.576962   -0.141778    0.073392   -0.119546
H     3.910692   -0.349498   -4.330049   -0.021256   -0.010772    0.145770
H    -0.310737   -0.187793   -4.959723    0.011880   -0.007868    0.015010
H     1.988435   -0.027703   -5.857402    0.031382   -0.011252    0.049526
H     1.973506   -2.884632   -0.498281    0.093132   -0.001280   -0.033656
O     2.244696   -1.990875   -0.218017   -0.082652    0.058312    0.003280
147
* Frequency(6) -387.0800
C     1.607531    3.578950    0.031020    0.000668    0.001548    0.003274
O     0.863463    2.468569   -0.425109   -0.010336   -0.003136    0.019204
C     2.766956    3.839230   -0.943257   -0.001108   -0.002076   -0.002260
O     2.096870    3.391815    1.327108    0.002690    0.009686    0.005762
C    -0.544980    2.582554   -0.426120   -0.009748    0.018278    0.011736
O     2.351626    4.156336   -2.238370   -0.000846   -0.009684    0.000380
C     3.677983    2.601867   -0.931304    0.006066   -0.001544   -0.004074
C     3.020887    2.318352    1.497678   -0.001220    0.013522    0.004592
C    -1.040380    2.629913   -1.881270   -0.000016    0.011638    0.004886
C    -1.226259    1.382285    0.258991   -0.028334    0.019450   -0.001372
O     4.786558    2.764774   -1.775358    0.005838   -0.001124   -0.001342
C     4.188602    2.379147    0.496586   -0.001510    0.000666   -0.000020
C     3.507504    2.444071    2.949908   -0.002052    0.004784    0.004562
C    -2.578085    2.696518   -1.912318   -0.001806    0.002390   -0.001924
O    -0.471877    3.751729   -2.504492    0.010392   -0.000726    0.002274
O    -2.630816    1.540150    0.211980   -0.020896    0.015354    0.007596
C    -0.873448    1.214827    1.729872   -0.009106   -0.029520    0.008692
O     4.916617    1.163220    0.471748    0.002270    0.000020    0.009478
O     4.197215    3.642850    3.168656    0.001538   -0.000622    0.010494
C    -3.148660    1.516758   -1.100322   -0.006978    0.001906   -0.002842
O    -3.057016    2.708132   -3.224128    0.005924   -0.003968   -0.004062
O     0.334278    0.679377    1.909178    0.005146    0.015094   -0.000032
O    -1.597357    1.560275    2.628501   -0.000826    0.033934   -0.005670
C     6.075514    1.054804    1.252635    0.000054    0.001650    0.001212
O    -2.839713    0.355924   -1.809712    0.007916   -0.007086    0.010512
C     0.519033   -0.020651    3.128717   -0.070126   -0.068934   -0.036226
C     7.144251    0.363590    0.391460   -0.000846    0.000512   -0.000268
O     5.868383    0.335101    2.438362    0.004860    0.002224    0.010668
C    -3.716233   -0.762861   -1.757014    0.004292   -0.003034   -0.001568
C    -0.362292   -1.342709    3.021969   -0.374172   -0.032548   -0.236480
O     7.413970    1.077326   -0.781390   -0.002686   -0.002458    0.000998
C     6.659674   -1.060310    0.079562    0.000186   -0.001492   -0.001956
C     5.386550   -0.997645    2.278846    0.007670    0.003710    0.006648
C    -3.465199   -1.475818   -3.097689   -0.008096   -0.002092   -0.006736
C    -3.461338   -1.679867   -0.541750   -0.015200   -0.000948    0.006168
C     0.486668   -2.530092    3.608466   -0.055978    0.062218   -0.100176
O    -0.685741   -1.517876    1.523428    0.897874   -0.062538   -1.204610
O    -1.594543   -1.266022    3.616529   -0.002498    0.032274    0.678864
O     7.641922   -1.795529   -0.601300    0.000488   -0.002156    0.000266
C     6.297890   -1.831395    1.357744    0.000242    0.001072    0.000750
C     5.335437   -1.549219    3.713844    0.001356   -0.001830    0.003186
C    -4.041969   -2.895945   -3.140688   -0.004538   -0.001792   -0.001024
O    -3.997733   -0.662458   -4.109900   -0.004524    0.012348    0.007730
O    -4.016106   -2.972612   -0.750758   -0.014586    0.007962    0.000614
C    -4.130903   -1.175813    0.739717   -0.001554    0.013422    0.007134
O     1.676212   -2.736032    2.855560   -0.022326    0.030112   -0.033540
O     5.662406   -3.002301    0.860888   -0.009748    0.001802    0.009886
O     6.612572   -1.645786    4.280856   -0.001366    0.001832    0.009568
C    -3.536975   -3.634977   -1.890051   -0.001050    0.005138    0.002690
O    -3.675700   -3.546505   -4.322896    0.005402   -0.003870    0.007106
O    -3.876809   -2.113459    1.758502   -0.075874   -0.058106   -0.038588
C     2.038378   -3.985143    2.590489   -0.005524    0.021494    0.016272
C     5.584780   -4.156637    1.632573   -0.001332   -0.000042    0.003240
O    -2.141843   -3.670168   -1.979012   -0.000476    0.008094    0.012222
C     3.250233   -4.006674    1.661135    0.004814    0.006806    0.012006
O     1.498197   -4.975827    3.011904    0.013454    0.002190    0.008762
C     5.586427   -5.331619    0.634411   -0.001838    0.001896    0.001078
O     4.413810   -4.220432    2.436924   -0.004270   -0.007370    0.015946
C    -1.427703   -4.797353   -1.508445   -0.006006   -0.003998    0.003038
C     3.073781   -5.115930    0.615369    0.003036    0.018280    0.000498
O     6.746886   -5.354836   -0.143066   -0.000218    0.001720    0.002298
C     4.333050   -5.218243   -0.253318    0.002052    0.004942   -0.002890
C    -0.168441   -4.823491   -2.386690   -0.010006   -0.002934   -0.006896
C    -1.016629   -4.723990   -0.023552   -0.008922   -0.017482    0.007982
O     1.951733   -4.819367   -0.214355    0.000040    0.026846   -0.001140
O     4.204008   -6.338921   -1.095734   -0.000586    0.003674    0.001948
C     0.757001   -5.971035   -1.970735   -0.008140    0.002804    0.002712
O    -0.572892   -4.953900   -3.720457   -0.013616    0.006066    0.002466
O    -0.120515   -5.791859    0.283296   -0.007666   -0.010766    0.008218
C    -2.191159   -4.898278    0.958493   -0.018384    0.021802    0.004534
C     1.056676   -5.884949   -0.464914    0.003632    0.010064    0.001778
O     1.908214   -5.924961   -2.766951   -0.017600    0.005366   -0.005324
O    -1.932968   -4.334523    2.224255    0.001228    0.020350    0.014908
C     1.254876   -1.077747   -0.573761    0.129134   -0.076226    0.211570
H     1.456260   -0.128808   -0.074683   -0.207238   -0.007094    0.059340
C     1.387843   -0.785653   -2.111218   -0.116684   -0.041024    0.064854
C     2.687790   -0.687779   -2.609815   -0.080574   -0.034408    0.093462
C     0.317375   -0.597231   -2.962845   -0.078598   -0.010342    0.036098
C     2.898883   -0.418898   -3.955048   -0.039428   -0.019180    0.088610
C     0.538298   -0.326947   -4.309532   -0.004270   -0.013156    0.027738
C     1.823785   -0.237648   -4.810513   -0.003286   -0.014016    0.042902
H     0.966909    4.467806    0.100384    0.008468    0.004854    0.004250
H     3.340196    4.698175   -0.567643   -0.007358   -0.001664    0.008176
H    -0.855423    3.497488    0.096603   -0.005998    0.019814    0.007022
H     1.442577    3.836870   -2.397539   -0.014882    0.007964    0.011152
H     3.091778    1.724315   -1.240473    0.012038    0.007568   -0.014878
H     2.502611    1.360597    1.370345   -0.016328    0.017646    0.074908
H    -0.709466    1.712006   -2.386058   -0.010564    0.020428   -0.005326
H    -0.945404    0.459920   -0.245887   -0.107086    0.077378   -0.057624
H     4.488986    3.242437   -2.567895   -0.008340   -0.031774   -0.014550
H     4.856855    3.207340    0.771020   -0.009440    0.002734    0.007684
H     4.205798    1.636991    3.175548   -0.005724    0.003196    0.012662
H     2.634604    2.360033    3.610113   -0.004588   -0.012984    0.007164
H    -2.902484    3.632696   -1.443835   -0.014878   -0.005354    0.005888
H    -0.964198    3.921280   -3.326712    0.050888   -0.046048   -0.030504
H     3.585550    4.380234    3.023495    0.014138    0.000256   -0.043032
H    -4.233985    1.622424   -0.966237   -0.006744    0.003744   -0.014286
H    -3.104073    1.794047   -3.554935    0.009654   -0.014540    0.010908
H     6.421307    2.043116    1.583957    0.005428   -0.002138    0.004668
H     1.583867   -0.248047    3.190469   -0.090356   -0.155768   -0.050682
H     0.176572    0.580761    3.975662   -0.005954   -0.081734   -0.019804
H     8.084006    0.311198    0.951207   -0.005014    0.001016    0.006912
H    -4.758267   -0.411211   -1.733934    0.002206   -0.010036    0.007258
H     6.582840    1.418300   -1.157676   -0.005138    0.006254    0.004324
H     5.742804   -0.990915   -0.525642    0.008086   -0.001212   -0.004368
H     4.374093   -0.980128    1.851845   -0.002764    0.008084    0.040658
H    -2.378376   -1.570767   -3.221241   -0.018600   -0.016290   -0.032902
H    -2.382654   -1.763962   -0.353030   -0.037626   -0.018930    0.099602
H     0.752831   -2.285050    4.643698   -0.106630    0.214596   -0.122414
H    -0.132266   -3.435651    3.590165    0.025518    0.014250    0.028314
H     8.013961   -1.227724   -1.296460   -0.025282   -0.010108   -0.020726
H     7.213083   -2.104558    1.900372   -0.001260    0.004078    0.002648
H     4.689600   -0.888797    4.307005   -0.014580   -0.015824    0.007180
H     4.905748   -2.550776    3.718932    0.001354   -0.002468    0.007360
H    -5.135947   -2.861552   -3.116939   -0.004930   -0.013650    0.008846
H    -4.060627   -1.195294   -4.920151    0.048082    0.031804   -0.008252
H    -3.728958   -0.194390    1.011024    0.061392   -0.027980    0.067646
H    -5.216248   -1.112841    0.560055   -0.012646    0.089206    0.027554
H     6.989355   -0.754075    4.338264    0.006716    0.001826   -0.028976
H    -3.960558   -4.647866   -1.832839   -0.007478    0.008972    0.008544
H    -2.747354   -3.833081   -4.251527    0.012380    0.003882    0.025992
H    -4.180476   -1.728231    2.619844    0.458734    0.285544    0.156362
H     6.415936   -4.232693    2.345437    0.000010   -0.004066   -0.000050
H     3.323014   -3.029904    1.174587    0.046296    0.019338    0.056248
H     5.554429   -6.273659    1.190825   -0.002650    0.005500    0.007194
H    -2.016392   -5.711239   -1.675757   -0.009134   -0.002542    0.013802
H     2.907990   -6.059950    1.148588    0.004042    0.024684    0.008436
H     6.941890   -4.452834   -0.451266   -0.008126    0.002810   -0.006072
H     4.408845   -4.299105   -0.851864    0.029760   -0.004612   -0.009998
H     0.352269   -3.864207   -2.244775   -0.016426   -0.002932   -0.026934
H    -0.545498   -3.751502    0.175804   -0.028196   -0.037192    0.095434
H     5.081558   -6.536900   -1.466942   -0.011396    0.022938   -0.028870
H     0.223847   -6.921850   -2.138683   -0.000748   -0.007402    0.032280
H     0.220346   -5.116898   -4.257370   -0.004060    0.071710   -0.003408
H    -2.324217   -5.967845    1.143355   -0.071900    0.035676    0.060284
H    -3.104758   -4.463358    0.548055   -0.016754    0.055636    0.030218
H     1.509619   -6.827025   -0.129440    0.013278    0.016358   -0.002192
H     2.700266   -6.156100   -2.245237   -0.017540   -0.006586   -0.021988
H    -2.007486   -3.355493    2.159355    0.375058    0.111192   -0.028198
O    -0.045340   -1.497949   -0.260428   -0.070170   -0.067436    0.190058
H     3.522621   -0.832237   -1.942807   -0.076030   -0.029954    0.072934
H    -0.690782   -0.660063   -2.582495   -0.141778    0.073392   -0.119546
H     3.909708   -0.349997   -4.323303   -0.021256   -0.010772    0.145770
H    -0.310187   -0.188158   -4.959028    0.011880   -0.007868    0.015010
H     1.989888   -0.028224   -5.855110    0.031382   -0.011252    0.049526
H     1.977817   -2.884691   -0.499839    0.093132   -0.001280   -0.033656
O     2.240871   -1.988176   -0.217865   -0.082652    0.058312    0.003280
147
* Frequency(6) -387.0800
C     1.607537    3.578965    0.031051    0.000668    0.001548    0.003274
O     0.863365    2.468539   -0.424927   -0.010336   -0.003136    0.019204
C     2.766946    3.839210   -0.943278   -0.001108   -0.002076   -0.002260
O     2.096895    3.391908    1.327163    0.002690    0.009686    0.005762
C    -0.545073    2.582727   -0.426008   -0.009748    0.018278    0.011736
O     2.351618    4.156244   -2.238366   -0.000846   -0.009684    0.000380
C     3.678041    2.601852   -0.931343    0.006066   -0.001544   -0.004074
C     3.020875    2.318481    1.497722   -0.001220    0.013522    0.004592
C    -1.040381    2.630023   -1.881224   -0.000016    0.011638    0.004886
C    -1.226529    1.382470    0.258978   -0.028334    0.019450   -0.001372
O     4.786613    2.764763   -1.775371    0.005838   -0.001124   -0.001342
C     4.188587    2.379153    0.496586   -0.001510    0.000666   -0.000020
C     3.507484    2.444117    2.949951   -0.002052    0.004784    0.004562
C    -2.578102    2.696541   -1.912336   -0.001806    0.002390   -0.001924
O    -0.471778    3.751722   -2.504471    0.010392   -0.000726    0.002274
O    -2.631015    1.540297    0.212053   -0.020896    0.015354    0.007596
C    -0.873534    1.214546    1.729955   -0.009106   -0.029520    0.008692
O     4.916639    1.163220    0.471838    0.002270    0.000020    0.009478
O     4.197229    3.642844    3.168755    0.001538   -0.000622    0.010494
C    -3.148726    1.516776   -1.100349   -0.006978    0.001906   -0.002842
O    -3.056960    2.708094   -3.224167    0.005924   -0.003968   -0.004062
O     0.334327    0.679521    1.909178    0.005146    0.015094   -0.000032
O    -1.597365    1.560598    2.628447   -0.000826    0.033934   -0.005670
C     6.075515    1.054820    1.252647    0.000054    0.001650    0.001212
O    -2.839638    0.355856   -1.809612    0.007916   -0.007086    0.010512
C     0.518366   -0.021306    3.128372   -0.070126   -0.068934   -0.036226
C     7.144243    0.363595    0.391458   -0.000846    0.000512   -0.000268
O     5.868429    0.335122    2.438463    0.004860    0.002224    0.010668
C    -3.716192   -0.762890   -1.757029    0.004292   -0.003034   -0.001568
C    -0.365852   -1.343019    3.019719   -0.374172   -0.032548   -0.236480
O     7.413944    1.077303   -0.781381   -0.002686   -0.002458    0.000998
C     6.659676   -1.060324    0.079544    0.000186   -0.001492   -0.001956
C     5.386623   -0.997610    2.278909    0.007670    0.003710    0.006648
C    -3.465276   -1.475838   -3.097754   -0.008096   -0.002092   -0.006736
C    -3.461483   -1.679876   -0.541692   -0.015200   -0.000948    0.006168
C     0.486136   -2.529500    3.607513   -0.055978    0.062218   -0.100176
O    -0.677198   -1.518471    1.511967    0.897874   -0.062538   -1.204610
O    -1.594566   -1.265715    3.622988   -0.002498    0.032274    0.678864
O     7.641926   -1.795549   -0.601297    0.000488   -0.002156    0.000266
C     6.297892   -1.831385    1.357752    0.000242    0.001072    0.000750
C     5.335450   -1.549236    3.713874    0.001356   -0.001830    0.003186
C    -4.042012   -2.895962   -3.140698   -0.004538   -0.001792   -0.001024
O    -3.997776   -0.662341   -4.109827   -0.004524    0.012348    0.007730
O    -4.016245   -2.972536   -0.750752   -0.014586    0.007962    0.000614
C    -4.130918   -1.175685    0.739785   -0.001554    0.013422    0.007134
O     1.676000   -2.735746    2.855241   -0.022326    0.030112   -0.033540
O     5.662313   -3.002283    0.860982   -0.009748    0.001802    0.009886
O     6.612559   -1.645769    4.280947   -0.001366    0.001832    0.009568
C    -3.536985   -3.634928   -1.890026   -0.001050    0.005138    0.002690
O    -3.675649   -3.546542   -4.322828    0.005402   -0.003870    0.007106
O    -3.877531   -2.114012    1.758135   -0.075874   -0.058106   -0.038588
C     2.038325   -3.984939    2.590644   -0.005524    0.021494    0.016272
C     5.584767   -4.156638    1.632604   -0.001332   -0.000042    0.003240
O    -2.141847   -3.670091   -1.978896   -0.000476    0.008094    0.012222
C     3.250279   -4.006609    1.661249    0.004814    0.006806    0.012006
O     1.498325   -4.975806    3.011987    0.013454    0.002190    0.008762
C     5.586410   -5.331601    0.634421   -0.001838    0.001896    0.001078
O     4.413770   -4.220502    2.437076   -0.004270   -0.007370    0.015946
C    -1.427760   -4.797392   -1.508416   -0.006006   -0.003998    0.003038
C     3.073810   -5.115756    0.615374    0.003036    0.018280    0.000498
O     6.746884   -5.354820   -0.143044   -0.000218    0.001720    0.002298
C     4.333070   -5.218196   -0.253345    0.002052    0.004942   -0.002890
C    -0.168536   -4.823519   -2.386755   -0.010006   -0.002934   -0.006896
C    -1.016714   -4.724157   -0.023476   -0.008922   -0.017482    0.007982
O     1.951733   -4.819112   -0.214366    0.000040    0.026846   -0.001140
O     4.204003   -6.338886   -1.095716   -0.000586    0.003674    0.001948
C     0.756924   -5.971008   -1.970709   -0.008140    0.002804    0.002712
O    -0.573021   -4.953842   -3.720434   -0.013616    0.006066    0.002466
O    -0.120588   -5.791961    0.283374   -0.007666   -0.010766    0.008218
C    -2.191333   -4.898070    0.958536   -0.018384    0.021802    0.004534
C     1.056711   -5.884854   -0.464897    0.003632    0.010064    0.001778
O     1.908047   -5.924910   -2.767002   -0.017600    0.005366   -0.005324
O    -1.932957   -4.334330    2.224397    0.001228    0.020350    0.014908
C     1.256105   -1.078472   -0.571748    0.129134   -0.076226    0.211570
H     1.454288   -0.128875   -0.074118   -0.207238   -0.007094    0.059340
C     1.386733   -0.786043   -2.110601   -0.116684   -0.041024    0.064854
C     2.687023   -0.688107   -2.608926   -0.080574   -0.034408    0.093462
C     0.316628   -0.597329   -2.962502   -0.078598   -0.010342    0.036098
C     2.898508   -0.419080   -3.954204   -0.039428   -0.019180    0.088610
C     0.538258   -0.327072   -4.309268   -0.004270   -0.013156    0.027738
C     1.823754   -0.237782   -4.810105   -0.003286   -0.014016    0.042902
H     0.966990    4.467852    0.100424    0.008468    0.004854    0.004250
H     3.340125    4.698160   -0.567565   -0.007358   -0.001664    0.008176
H    -0.855480    3.497676    0.096670   -0.005998    0.019814    0.007022
H     1.442435    3.836946   -2.397433   -0.014882    0.007964    0.011152
H     3.091893    1.724387   -1.240615    0.012038    0.007568   -0.014878
H     2.502456    1.360765    1.371057   -0.016328    0.017646    0.074908
H    -0.709567    1.712200   -2.386109   -0.010564    0.020428   -0.005326
H    -0.946423    0.460656   -0.246436   -0.107086    0.077378   -0.057624
H     4.488907    3.242135   -2.568033   -0.008340   -0.031774   -0.014550
H     4.856765    3.207366    0.771093   -0.009440    0.002734    0.007684
H     4.205743    1.637022    3.175669   -0.005724    0.003196    0.012662
H     2.634561    2.359909    3.610181   -0.004588   -0.012984    0.007164
H    -2.902626    3.632646   -1.443779   -0.014878   -0.005354    0.005888
H    -0.963714    3.920842   -3.327002    0.050888   -0.046048   -0.030504
H     3.585684    4.380236    3.023085    0.014138    0.000256   -0.043032
H    -4.234049    1.622460   -0.966373   -0.006744    0.003744   -0.014286
H    -3.103982    1.793908   -3.554831    0.009654   -0.014540    0.010908
H     6.421358    2.043095    1.584001    0.005428   -0.002138    0.004668
H     1.583007   -0.249529    3.189987   -0.090356   -0.155768   -0.050682
H     0.176515    0.579984    3.975473   -0.005954   -0.081734   -0.019804
H     8.083958    0.311207    0.951273   -0.005014    0.001016    0.006912
H    -4.758246   -0.411307   -1.733865    0.002206   -0.010036    0.007258
H     6.582791    1.418359   -1.157635   -0.005138    0.006254    0.004324
H     5.742881   -0.990927   -0.525684    0.008086   -0.001212   -0.004368
H     4.374067   -0.980051    1.852232   -0.002764    0.008084    0.040658
H    -2.378553   -1.570922   -3.221554   -0.018600   -0.016290   -0.032902
H    -2.383012   -1.764142   -0.352082   -0.037626   -0.018930    0.099602
H     0.751817   -2.283008    4.642533   -0.106630    0.214596   -0.122414
H    -0.132023   -3.435516    3.590434    0.025518    0.014250    0.028314
H     8.013721   -1.227820   -1.296657   -0.025282   -0.010108   -0.020726
H     7.213072   -2.104520    1.900398   -0.001260    0.004078    0.002648
H     4.689461   -0.888947    4.307073   -0.014580   -0.015824    0.007180
H     4.905761   -2.550800    3.719002    0.001354   -0.002468    0.007360
H    -5.135994   -2.861682   -3.116854   -0.004930   -0.013650    0.008846
H    -4.060170   -1.194992   -4.920229    0.048082    0.031804   -0.008252
H    -3.728374   -0.194657    1.011667    0.061392   -0.027980    0.067646
H    -5.216368   -1.111993    0.560317   -0.012646    0.089206    0.027554
H     6.989419   -0.754058    4.337988    0.006716    0.001826   -0.028976
H    -3.960629   -4.647781   -1.832758   -0.007478    0.008972    0.008544
H    -2.747236   -3.833044   -4.251280    0.012380    0.003882    0.025992
H    -4.176111   -1.725514    2.621332    0.458734    0.285544    0.156362
H     6.415936   -4.232731    2.345437    0.000010   -0.004066   -0.000050
H     3.323454   -3.029720    1.175123    0.046296    0.019338    0.056248
H     5.554404   -6.273607    1.190893   -0.002650    0.005500    0.007194
H    -2.016479   -5.711264   -1.675626   -0.009134   -0.002542    0.013802
H     2.908029   -6.059715    1.148669    0.004042    0.024684    0.008436
H     6.941813   -4.452807   -0.451324   -0.008126    0.002810   -0.006072
H     4.409128   -4.299149   -0.851959    0.029760   -0.004612   -0.009998
H     0.352113   -3.864235   -2.245032   -0.016426   -0.002932   -0.026934
H    -0.545766   -3.751856    0.176712   -0.028196   -0.037192    0.095434
H     5.081450   -6.536682   -1.467217   -0.011396    0.022938   -0.028870
H     0.223840   -6.921921   -2.138376   -0.000748   -0.007402    0.032280
H     0.220308   -5.116215   -4.257403   -0.004060    0.071710   -0.003408
H    -2.324901   -5.967506    1.143928   -0.071900    0.035676    0.060284
H    -3.104918   -4.462829    0.548342   -0.016754    0.055636    0.030218
H     1.509745   -6.826869   -0.129461    0.013278    0.016358   -0.002192
H     2.700099   -6.156162   -2.245447   -0.017540   -0.006586   -0.021988
H    -2.003917   -3.354435    2.159086    0.375058    0.111192   -0.028198
O    -0.046008   -1.498591   -0.258620   -0.070170   -0.067436    0.190058
H     3.521897   -0.832522   -1.942113   -0.076030   -0.029954    0.072934
H    -0.692131   -0.659365   -2.583632   -0.141778    0.073392   -0.119546
H     3.909506   -0.350099   -4.321916   -0.021256   -0.010772    0.145770
H    -0.310074   -0.188232   -4.958885    0.011880   -0.007868    0.015010
H     1.990186   -0.028331   -5.854639    0.031382   -0.011252    0.049526
H     1.978703   -2.884703   -0.500159    0.093132   -0.001280   -0.033656
O     2.240085   -1.987622   -0.217834   -0.082652    0.058312    0.003280
147
* Frequency(6) -387.0800
C     1.607518    3.578921    0.030958    0.000668    0.001548    0.003274
O     0.863657    2.468628   -0.425470   -0.010336   -0.003136    0.019204
C     2.766977    3.839269   -0.943214   -0.001108   -0.002076   -0.002260
O     2.096819    3.391634    1.327000    0.002690    0.009686    0.005762
C    -0.544797    2.582210   -0.426340   -0.009748    0.018278    0.011736
O     2.351642    4.156518   -2.238377   -0.000846   -0.009684    0.000380
C     3.677869    2.601896   -0.931228    0.006066   -0.001544   -0.004074
C     3.020910    2.318098    1.497592   -0.001220    0.013522    0.004592
C    -1.040380    2.629694   -1.881362   -0.000016    0.011638    0.004886
C    -1.225728    1.381920    0.259017   -0.028334    0.019450   -0.001372
O     4.786448    2.764795   -1.775333    0.005838   -0.001124   -0.001342
C     4.188630    2.379134    0.496587   -0.001510    0.000666   -0.000020
C     3.507542    2.443981    2.949822   -0.002052    0.004784    0.004562
C    -2.578051    2.696473   -1.912282   -0.001806    0.002390   -0.001924
O    -0.472072    3.751742   -2.504535    0.010392   -0.000726    0.002274
O    -2.630424    1.539862    0.211838   -0.020896    0.015354    0.007596
C    -0.873277    1.215381    1.729709   -0.009106   -0.029520    0.008692
O     4.916575    1.163219    0.471570    0.002270    0.000020    0.009478
O     4.197186    3.642862    3.168459    0.001538   -0.000622    0.010494
C    -3.148529    1.516722   -1.100269   -0.006978    0.001906   -0.002842
O    -3.057127    2.708206   -3.224052    0.005924   -0.003968   -0.004062
O     0.334181    0.679094    1.909179    0.005146    0.015094   -0.000032
O    -1.597342    1.559639    2.628608   -0.000826    0.033934   -0.005670
C     6.075513    1.054773    1.252612    0.000054    0.001650    0.001212
O    -2.839862    0.356057   -1.809910    0.007916   -0.007086    0.010512
C     0.520349   -0.019357    3.129397   -0.070126   -0.068934   -0.036226
C     7.144267    0.363580    0.391465   -0.000846    0.000512   -0.000268
O     5.868292    0.335059    2.438161    0.004860    0.002224    0.010668
C    -3.716313   -0.762804   -1.756985    0.004292   -0.003034   -0.001568
C    -0.355269   -1.342098    3.026407   -0.374172   -0.032548   -0.236480
O     7.414020    1.077372   -0.781409   -0.002686   -0.002458    0.000998
C     6.659671   -1.060282    0.079599    0.000186   -0.001492   -0.001956
C     5.386406   -0.997715    2.278721    0.007670    0.003710    0.006648
C    -3.465047   -1.475779   -3.097563   -0.008096   -0.002092   -0.006736
C    -3.461053   -1.679849   -0.541866   -0.015200   -0.000948    0.006168
C     0.487719   -2.531260    3.610347   -0.055978    0.062218   -0.100176
O    -0.702594   -1.516702    1.546038    0.897874   -0.062538   -1.204610
O    -1.594496   -1.266628    3.603787   -0.002498    0.032274    0.678864
O     7.641912   -1.795488   -0.601305    0.000488   -0.002156    0.000266
C     6.297886   -1.831415    1.357730    0.000242    0.001072    0.000750
C     5.335412   -1.549185    3.713784    0.001356   -0.001830    0.003186
C    -4.041884   -2.895911   -3.140669   -0.004538   -0.001792   -0.001024
O    -3.997648   -0.662690   -4.110045   -0.004524    0.012348    0.007730
O    -4.015832   -2.972761   -0.750769   -0.014586    0.007962    0.000614
C    -4.130874   -1.176065    0.739584   -0.001554    0.013422    0.007134
O     1.676631   -2.736597    2.856190   -0.022326    0.030112   -0.033540
O     5.662589   -3.002334    0.860703   -0.009748    0.001802    0.009886
O     6.612597   -1.645821    4.280677   -0.001366    0.001832    0.009568
C    -3.536956   -3.635073   -1.890102   -0.001050    0.005138    0.002690
O    -3.675802   -3.546432   -4.323029    0.005402   -0.003870    0.007106
O    -3.875385   -2.112368    1.759227   -0.075874   -0.058106   -0.038588
C     2.038481   -3.985547    2.590184   -0.005524    0.021494    0.016272
C     5.584805   -4.156636    1.632512   -0.001332   -0.000042    0.003240
O    -2.141834   -3.670320   -1.979242   -0.000476    0.008094    0.012222
C     3.250143   -4.006802    1.660909    0.004814    0.006806    0.012006
O     1.497944   -4.975868    3.011739    0.013454    0.002190    0.008762
C     5.586462   -5.331654    0.634391   -0.001838    0.001896    0.001078
O     4.413890   -4.220293    2.436625   -0.004270   -0.007370    0.015946
C    -1.427590   -4.797278   -1.508502   -0.006006   -0.003998    0.003038
C     3.073724   -5.116273    0.615360    0.003036    0.018280    0.000498
O     6.746890   -5.354869   -0.143109   -0.000218    0.001720    0.002298
C     4.333012   -5.218336   -0.253263    0.002052    0.004942   -0.002890
C    -0.168253   -4.823436   -2.386560   -0.010006   -0.002934   -0.006896
C    -1.016462   -4.723662   -0.023702   -0.008922   -0.017482    0.007982
O     1.951732   -4.819871   -0.214333    0.000040    0.026846   -0.001140
O     4.204019   -6.338990   -1.095771   -0.000586    0.003674    0.001948
C     0.757154   -5.971087   -1.970786   -0.008140    0.002804    0.002712
O    -0.572636   -4.954014   -3.720504   -0.013616    0.006066    0.002466
O    -0.120371   -5.791657    0.283142   -0.007666   -0.010766    0.008218
C    -2.190813   -4.898687    0.958408   -0.018384    0.021802    0.004534
C     1.056608   -5.885138   -0.464947    0.003632    0.010064    0.001778
O     1.908545   -5.925062   -2.766851   -0.017600    0.005366   -0.005324
O    -1.932991   -4.334905    2.223975    0.001228    0.020350    0.014908
C     1.252452   -1.076316   -0.577732    0.129134   -0.076226    0.211570
H     1.460150   -0.128675   -0.075796   -0.207238   -0.007094    0.059340
C     1.390033   -0.784883   -2.112435   -0.116684   -0.041024    0.064854
C     2.689302   -0.687133   -2.611569   -0.080574   -0.034408    0.093462
C     0.318851   -0.597037   -2.963523   -0.078598   -0.010342    0.036098
C     2.899624   -0.418538   -3.956711   -0.039428   -0.019180    0.088610
C     0.538378   -0.326700   -4.310052   -0.004270   -0.013156    0.027738
C     1.823847   -0.237385   -4.811318   -0.003286   -0.014016    0.042902
H     0.966750    4.467715    0.100304    0.008468    0.004854    0.004250
H     3.340334    4.698207   -0.567796   -0.007358   -0.001664    0.008176
H    -0.855310    3.497116    0.096472   -0.005998    0.019814    0.007022
H     1.442856    3.836721   -2.397749   -0.014882    0.007964    0.011152
H     3.091552    1.724173   -1.240194    0.012038    0.007568   -0.014878
H     2.502918    1.360266    1.368939   -0.016328    0.017646    0.074908
H    -0.709268    1.711623   -2.385958   -0.010564    0.020428   -0.005326
H    -0.943394    0.458467   -0.244806   -0.107086    0.077378   -0.057624
H     4.489143    3.243034   -2.567622   -0.008340   -0.031774   -0.014550
H     4.857032    3.207288    0.770876   -0.009440    0.002734    0.007684
H     4.205905    1.636931    3.175310   -0.005724    0.003196    0.012662
H     2.634690    2.360276    3.609978   -0.004588   -0.012984    0.007164
H    -2.902205    3.632797   -1.443946   -0.014878   -0.005354    0.005888
H    -0.965153    3.922145   -3.326139    0.050888   -0.046048   -0.030504
H     3.585285    4.380229    3.024302    0.014138    0.000256   -0.043032
H    -4.233859    1.622354   -0.965969   -0.006744    0.003744   -0.014286
H    -3.104255    1.794320   -3.555140    0.009654   -0.014540    0.010908
H     6.421205    2.043156    1.583869    0.005428   -0.002138    0.004668
H     1.585563   -0.245123    3.191420   -0.090356   -0.155768   -0.050682
H     0.176684    0.582296    3.976033   -0.005954   -0.081734   -0.019804
H     8.084100    0.311179    0.951077   -0.005014    0.001016    0.006912
H    -4.758308   -0.411023   -1.734071    0.002206   -0.010036    0.007258
H     6.582936    1.418183   -1.157757   -0.005138    0.006254    0.004324
H     5.742653   -0.990892   -0.525560    0.008086   -0.001212   -0.004368
H     4.374145   -0.980280    1.851082   -0.002764    0.008084    0.040658
H    -2.378027   -1.570461   -3.220624   -0.018600   -0.016290   -0.032902
H    -2.381948   -1.763606   -0.354900   -0.037626   -0.018930    0.099602
H     0.754833   -2.289078    4.645996   -0.106630    0.214596   -0.122414
H    -0.132745   -3.435919    3.589633    0.025518    0.014250    0.028314
H     8.014436   -1.227534   -1.296071   -0.025282   -0.010108   -0.020726
H     7.213107   -2.104635    1.900323   -0.001260    0.004078    0.002648
H     4.689874   -0.888500    4.306870   -0.014580   -0.015824    0.007180
H     4.905723   -2.550730    3.718794    0.001354   -0.002468    0.007360
H    -5.135854   -2.861296   -3.117105   -0.004930   -0.013650    0.008846
H    -4.061530   -1.195891   -4.919996    0.048082    0.031804   -0.008252
H    -3.730111   -0.193865    1.009754    0.061392   -0.027980    0.067646
H    -5.216010   -1.114516    0.559538   -0.012646    0.089206    0.027554
H     6.989229   -0.754110    4.338808    0.006716    0.001826   -0.028976
H    -3.960418   -4.648034   -1.832999   -0.007478    0.008972    0.008544
H    -2.747586   -3.833154   -4.252015    0.012380    0.003882    0.025992
H    -4.189086   -1.733590    2.616909    0.458734    0.285544    0.156362
H     6.415936   -4.232616    2.345438    0.000010   -0.004066   -0.000050
H     3.322145   -3.030267    1.173532    0.046296    0.019338    0.056248
H     5.554479   -6.273762    1.190690   -0.002650    0.005500    0.007194
H    -2.016221   -5.711192   -1.676016   -0.009134   -0.002542    0.013802
H     2.907915   -6.060413    1.148430    0.004042    0.024684    0.008436
H     6.942042   -4.452886   -0.451152   -0.008126    0.002810   -0.006072
H     4.408287   -4.299018   -0.851677    0.029760   -0.004612   -0.009998
H     0.352577   -3.864152   -2.244270   -0.016426   -0.002932   -0.026934
H    -0.544968   -3.750804    0.174013   -0.028196   -0.037192    0.095434
H     5.081772   -6.537331   -1.466400   -0.011396    0.022938   -0.028870
H     0.223861   -6.921711   -2.139289   -0.000748   -0.007402    0.032280
H     0.220423   -5.118243   -4.257306   -0.004060    0.071710   -0.003408
H    -2.322867   -5.968515    1.142223   -0.071900    0.035676    0.060284
H    -3.104444   -4.464403    0.547487   -0.016754    0.055636    0.030218
H     1.509370   -6.827332   -0.129399    0.013278    0.016358   -0.002192
H     2.700595   -6.155976   -2.244825   -0.017540   -0.006586   -0.021988
H    -2.014525   -3.357580    2.159884    0.375058    0.111192   -0.028198
O    -0.044023   -1.496684   -0.263995   -0.070170   -0.067436    0.190058
H     3.524048   -0.831675   -1.944176   -0.076030   -0.029954    0.072934
H    -0.688121   -0.661440   -2.580251   -0.141778    0.073392   -0.119546
H     3.910107   -0.349795   -4.326039   -0.021256   -0.010772    0.145770
H    -0.310410   -0.188010   -4.959310    0.011880   -0.007868    0.015010
H     1.989299   -0.028012   -5.856040    0.031382   -0.011252    0.049526
H     1.976069   -2.884667   -0.499207    0.093132   -0.001280   -0.033656
O     2.242422   -1.989271   -0.217927   -0.082652    0.058312    0.003280
147
* Frequency(6) -387.0800
C     1.607476    3.578824    0.030752    0.000668    0.001548    0.003274
O     0.864308    2.468825   -0.426680   -0.010336   -0.003136    0.019204
C     2.767047    3.839399   -0.943072   -0.001108   -0.002076   -0.002260
O     2.096650    3.391023    1.326637    0.002690    0.009686    0.005762
C    -0.544183    2.581059   -0.427080   -0.009748    0.018278    0.011736
O     2.351695    4.157128   -2.238401   -0.000846   -0.009684    0.000380
C     3.677487    2.601993   -0.930971    0.006066   -0.001544   -0.004074
C     3.020987    2.317246    1.497302   -0.001220    0.013522    0.004592
C    -1.040379    2.628961   -1.881670   -0.000016    0.011638    0.004886
C    -1.223942    1.380694    0.259104   -0.028334    0.019450   -0.001372
O     4.786080    2.764866   -1.775249    0.005838   -0.001124   -0.001342
C     4.188725    2.379092    0.496588   -0.001510    0.000666   -0.000020
C     3.507672    2.443680    2.949535   -0.002052    0.004784    0.004562
C    -2.577937    2.696322   -1.912160   -0.001806    0.002390   -0.001924
O    -0.472727    3.751788   -2.504678    0.010392   -0.000726    0.002274
O    -2.629107    1.538895    0.211359   -0.020896    0.015354    0.007596
C    -0.872703    1.217242    1.729161   -0.009106   -0.029520    0.008692
O     4.916432    1.163218    0.470973    0.002270    0.000020    0.009478
O     4.197089    3.642901    3.167797    0.001538   -0.000622    0.010494
C    -3.148089    1.516602   -1.100090   -0.006978    0.001906   -0.002842
O    -3.057501    2.708456   -3.223796    0.005924   -0.003968   -0.004062
O     0.333857    0.678143    1.909181    0.005146    0.015094   -0.000032
O    -1.597290    1.557500    2.628965   -0.000826    0.033934   -0.005670
C     6.075510    1.054669    1.252536    0.000054    0.001650    0.001212
O    -2.840361    0.356503   -1.810572    0.007916   -0.007086    0.010512
C     0.524768   -0.015013    3.131680   -0.070126   -0.068934   -0.036226
C     7.144320    0.363548    0.391482   -0.000846    0.000512   -0.000268
O     5.867985    0.334919    2.437489    0.004860    0.002224    0.010668
C    -3.716584   -0.762613   -1.756886    0.004292   -0.003034   -0.001568
C    -0.331690   -1.340047    3.041310   -0.374172   -0.032548   -0.236480
O     7.414189    1.077527   -0.781472   -0.002686   -0.002458    0.000998
C     6.659659   -1.060188    0.079722    0.000186   -0.001492   -0.001956
C     5.385923   -0.997949    2.278302    0.007670    0.003710    0.006648
C    -3.464537   -1.475647   -3.097139   -0.008096   -0.002092   -0.006736
C    -3.460095   -1.679789   -0.542255   -0.015200   -0.000948    0.006168
C     0.491246   -2.535181    3.616659   -0.055978    0.062218   -0.100176
O    -0.759175   -1.512761    1.621949    0.897874   -0.062538   -1.204610
O    -1.594338   -1.268661    3.561007   -0.002498    0.032274    0.678864
O     7.641882   -1.795352   -0.601322    0.000488   -0.002156    0.000266
C     6.297870   -1.831483    1.357683    0.000242    0.001072    0.000750
C     5.335326   -1.549069    3.713583    0.001356   -0.001830    0.003186
C    -4.041598   -2.895798   -3.140605   -0.004538   -0.001792   -0.001024
O    -3.997363   -0.663468   -4.110532   -0.004524    0.012348    0.007730
O    -4.014913   -2.973263   -0.750808   -0.014586    0.007962    0.000614
C    -4.130776   -1.176911    0.739134   -0.001554    0.013422    0.007134
O     1.678038   -2.738495    2.858303   -0.022326    0.030112   -0.033540
O     5.663203   -3.002448    0.860080   -0.009748    0.001802    0.009886
O     6.612683   -1.645936    4.280074   -0.001366    0.001832    0.009568
C    -3.536889   -3.635397   -1.890271   -0.001050    0.005138    0.002690
O    -3.676142   -3.546189   -4.323477    0.005402   -0.003870    0.007106
O    -3.870604   -2.108706    1.761658   -0.075874   -0.058106   -0.038588
C     2.038830   -3.986901    2.589158   -0.005524    0.021494    0.016272
C     5.584889   -4.156634    1.632308   -0.001332   -0.000042    0.003240
O    -2.141804   -3.670830   -1.980012   -0.000476    0.008094    0.012222
C     3.249840   -4.007230    1.660153    0.004814    0.006806    0.012006
O     1.497096   -4.976006    3.011187    0.013454    0.002190    0.008762
C     5.586578   -5.331774    0.634323   -0.001838    0.001896    0.001078
O     4.414159   -4.219829    2.435620   -0.004270   -0.007370    0.015946
C    -1.427212   -4.797026   -1.508694   -0.006006   -0.003998    0.003038
C     3.073533   -5.117425    0.615328    0.003036    0.018280    0.000498
O     6.746904   -5.354977   -0.143254   -0.000218    0.001720    0.002298
C     4.332882   -5.218647   -0.253081    0.002052    0.004942   -0.002890
C    -0.167623   -4.823252   -2.386126   -0.010006   -0.002934   -0.006896
C    -1.015899   -4.722561   -0.024205   -0.008922   -0.017482    0.007982
O     1.951729   -4.821563   -0.214262    0.000040    0.026846   -0.001140
O     4.204056   -6.339222   -1.095893   -0.000586    0.003674    0.001948
C     0.757667   -5.971264   -1.970957   -0.008140    0.002804    0.002712
O    -0.571778   -4.954396   -3.720659   -0.013616    0.006066    0.002466
O    -0.119888   -5.790978    0.282624   -0.007666   -0.010766    0.008218
C    -2.189655   -4.900061    0.958123   -0.018384    0.021802    0.004534
C     1.056379   -5.885772   -0.465059    0.003632    0.010064    0.001778
O     1.909654   -5.925400   -2.766516   -0.017600    0.005366   -0.005324
O    -1.933069   -4.336188    2.223036    0.001228    0.020350    0.014908
C     1.244314   -1.071512   -0.591065    0.129134   -0.076226    0.211570
H     1.473210   -0.128228   -0.079536   -0.207238   -0.007094    0.059340
C     1.397386   -0.782298   -2.116522   -0.116684   -0.041024    0.064854
C     2.694380   -0.684965   -2.617459   -0.080574   -0.034408    0.093462
C     0.323804   -0.596385   -2.965798   -0.078598   -0.010342    0.036098
C     2.902108   -0.417329   -3.962295   -0.039428   -0.019180    0.088610
C     0.538647   -0.325871   -4.311800   -0.004270   -0.013156    0.027738
C     1.824054   -0.236502   -4.814022   -0.003286   -0.014016    0.042902
H     0.966217    4.467409    0.100036    0.008468    0.004854    0.004250
H     3.340797    4.698312   -0.568312   -0.007358   -0.001664    0.008176
H    -0.854933    3.495867    0.096029   -0.005998    0.019814    0.007022
H     1.443794    3.836219   -2.398451   -0.014882    0.007964    0.011152
H     3.090794    1.723696   -1.239256    0.012038    0.007568   -0.014878
H     2.503946    1.359154    1.364218   -0.016328    0.017646    0.074908
H    -0.708602    1.710335   -2.385622   -0.010564    0.020428   -0.005326
H    -0.936646    0.453591   -0.241174   -0.107086    0.077378   -0.057624
H     4.489668    3.245036   -2.566705   -0.008340   -0.031774   -0.014550
H     4.857627    3.207116    0.770392   -0.009440    0.002734    0.007684
H     4.206266    1.636730    3.174513   -0.005724    0.003196    0.012662
H     2.634980    2.361095    3.609527   -0.004588   -0.012984    0.007164
H    -2.901267    3.633134   -1.444317   -0.014878   -0.005354    0.005888
H    -0.968360    3.925046   -3.324217    0.050888   -0.046048   -0.030504
H     3.584394    4.380213    3.027014    0.014138    0.000256   -0.043032
H    -4.233434    1.622118   -0.965069   -0.006744    0.003744   -0.014286
H    -3.104863    1.795236   -3.555827    0.009654   -0.014540    0.010908
H     6.420863    2.043290    1.583575    0.005428   -0.002138    0.004668
H     1.591257   -0.235307    3.194614   -0.090356   -0.155768   -0.050682
H     0.177059    0.587446    3.977281   -0.005954   -0.081734   -0.019804
H     8.084416    0.311115    0.950642   -0.005014    0.001016    0.006912
H    -4.758447   -0.410390   -1.734528    0.002206   -0.010036    0.007258
H     6.583260    1.417788   -1.158030   -0.005138    0.006254    0.004324
H     5.742143   -0.990816   -0.525285    0.008086   -0.001212   -0.004368
H     4.374319   -0.980789    1.848520   -0.002764    0.008084    0.040658
H    -2.376855   -1.569435   -3.218550   -0.018600   -0.016290   -0.032902
H    -2.379577   -1.762414   -0.361176   -0.037626   -0.018930    0.099602
H     0.761552   -2.302601    4.653710   -0.106630    0.214596   -0.122414
H    -0.134353   -3.436817    3.587849    0.025518    0.014250    0.028314
H     8.016029   -1.226897   -1.294765   -0.025282   -0.010108   -0.020726
H     7.213187   -2.104892    1.900156   -0.001260    0.004078    0.002648
H     4.690793   -0.887503    4.306418   -0.014580   -0.015824    0.007180
H     4.905638   -2.550575    3.718330    0.001354   -0.002468    0.007360
H    -5.135543   -2.860436   -3.117662   -0.004930   -0.013650    0.008846
H    -4.064560   -1.197895   -4.919476    0.048082    0.031804   -0.008252
H    -3.733979   -0.192102    1.005491    0.061392   -0.027980    0.067646
H    -5.215213   -1.120137    0.557801   -0.012646    0.089206    0.027554
H     6.988805   -0.754225    4.340634    0.006716    0.001826   -0.028976
H    -3.959947   -4.648600   -1.833538   -0.007478    0.008972    0.008544
H    -2.748366   -3.833398   -4.253653    0.012380    0.003882    0.025992
H    -4.217994   -1.751584    2.607056    0.458734    0.285544    0.156362
H     6.415936   -4.232360    2.345441    0.000010   -0.004066   -0.000050
H     3.319227   -3.031485    1.169987    0.046296    0.019338    0.056248
H     5.554646   -6.274109    1.190236   -0.002650    0.005500    0.007194
H    -2.015645   -5.711032   -1.676886   -0.009134   -0.002542    0.013802
H     2.907660   -6.061969    1.147898    0.004042    0.024684    0.008436
H     6.942555   -4.453063   -0.450770   -0.008126    0.002810   -0.006072
H     4.406411   -4.298728   -0.851047    0.029760   -0.004612   -0.009998
H     0.353612   -3.863967   -2.242573   -0.016426   -0.002932   -0.026934
H    -0.543192   -3.748460    0.167999   -0.028196   -0.037192    0.095434
H     5.082490   -6.538776   -1.464581   -0.011396    0.022938   -0.028870
H     0.223908   -6.921245   -2.141323   -0.000748   -0.007402    0.032280
H     0.220679   -5.122762   -4.257092   -0.004060    0.071710   -0.003408
H    -2.318336   -5.970763    1.138424   -0.071900    0.035676    0.060284
H    -3.103388   -4.467909    0.545583   -0.016754    0.055636    0.030218
H     1.508533   -6.828363   -0.129260    0.013278    0.016358   -0.002192
H     2.701700   -6.155561   -2.243439   -0.017540   -0.006586   -0.021988
H    -2.038160   -3.364587    2.161661    0.375058    0.111192   -0.028198
O    -0.039601   -1.492434   -0.275972   -0.070170   -0.067436    0.190058
H     3.528839   -0.829787   -1.948772   -0.076030   -0.029954    0.072934
H    -0.679186   -0.666065   -2.572717   -0.141778    0.073392   -0.119546
H     3.911447   -0.349116   -4.335225   -0.021256   -0.010772    0.145770
H    -0.311159   -0.187514   -4.960256    0.011880   -0.007868    0.015010
H     1.987321   -0.027303   -5.859161    0.031382   -0.011252    0.049526
H     1.970200   -2.884587   -0.497087    0.093132   -0.001280   -0.033656
O     2.247631   -1.992945   -0.218133   -0.082652    0.058312    0.003280
147
* Frequency(6) -387.0800
C     1.607415    3.578683    0.030454    0.000668    0.001548    0.003274
O     0.865248    2.469111   -0.428426   -0.010336   -0.003136    0.019204
C     2.767147    3.839588   -0.942866   -0.001108   -0.002076   -0.002260
O     2.096405    3.390143    1.326113    0.002690    0.009686    0.005762
C    -0.543297    2.579397   -0.428147   -0.009748    0.018278    0.011736
O     2.351772    4.158009   -2.238436   -0.000846   -0.009684    0.000380
C     3.676935    2.602134   -0.930601    0.006066   -0.001544   -0.004074
C     3.021098    2.316017    1.496885   -0.001220    0.013522    0.004592
C    -1.040378    2.627903   -1.882114   -0.000016    0.011638    0.004886
C    -1.221366    1.378926    0.259228   -0.028334    0.019450   -0.001372
O     4.785550    2.764968   -1.775127    0.005838   -0.001124   -0.001342
C     4.188862    2.379032    0.496590   -0.001510    0.000666   -0.000020
C     3.507858    2.443245    2.949120   -0.002052    0.004784    0.004562
C    -2.577773    2.696105   -1.911986   -0.001806    0.002390   -0.001924
O    -0.473672    3.751854   -2.504885    0.010392   -0.000726    0.002274
O    -2.627207    1.537499    0.210668   -0.020896    0.015354    0.007596
C    -0.871875    1.219926    1.728371   -0.009106   -0.029520    0.008692
O     4.916225    1.163216    0.470111    0.002270    0.000020    0.009478
O     4.196949    3.642957    3.166843    0.001538   -0.000622    0.010494
C    -3.147454    1.516429   -1.099831   -0.006978    0.001906   -0.002842
O    -3.058039    2.708817   -3.223427    0.005924   -0.003968   -0.004062
O     0.333389    0.676770    1.909184    0.005146    0.015094   -0.000032
O    -1.597215    1.554415    2.629480   -0.000826    0.033934   -0.005670
C     6.075505    1.054519    1.252426    0.000054    0.001650    0.001212
O    -2.841080    0.357148   -1.811528    0.007916   -0.007086    0.010512
C     0.531144   -0.008745    3.134973   -0.070126   -0.068934   -0.036226
C     7.144397    0.363501    0.391506   -0.000846    0.000512   -0.000268
O     5.867544    0.334716    2.436519    0.004860    0.002224    0.010668
C    -3.716974   -0.762337   -1.756743    0.004292   -0.003034   -0.001568
C    -0.297669   -1.337088    3.062811   -0.374172   -0.032548   -0.236480
O     7.414434    1.077751   -0.781563   -0.002686   -0.002458    0.000998
C     6.659642   -1.060053    0.079900    0.000186   -0.001492   -0.001956
C     5.385226   -0.998286    2.277697    0.007670    0.003710    0.006648
C    -3.463801   -1.475456   -3.096526   -0.008096   -0.002092   -0.006736
C    -3.458713   -1.679703   -0.542816   -0.015200   -0.000948    0.006168
C     0.496336   -2.540838    3.625768   -0.055978    0.062218   -0.100176
O    -0.840812   -1.507075    1.731474    0.897874   -0.062538   -1.204610
O    -1.594111   -1.271596    3.499283   -0.002498    0.032274    0.678864
O     7.641837   -1.795156   -0.601346    0.000488   -0.002156    0.000266
C     6.297848   -1.831580    1.357615    0.000242    0.001072    0.000750
C     5.335203   -1.548903    3.713294    0.001356   -0.001830    0.003186
C    -4.041185   -2.895636   -3.140512   -0.004538   -0.001792   -0.001024
O    -3.996952   -0.664591   -4.111235   -0.004524    0.012348    0.007730
O    -4.013587   -2.973987   -0.750864   -0.014586    0.007962    0.000614
C    -4.130635   -1.178131    0.738485   -0.001554    0.013422    0.007134
O     1.680068   -2.741233    2.861353   -0.022326    0.030112   -0.033540
O     5.664089   -3.002612    0.859181   -0.009748    0.001802    0.009886
O     6.612807   -1.646103    4.279204   -0.001366    0.001832    0.009568
C    -3.536794   -3.635864   -1.890516   -0.001050    0.005138    0.002690
O    -3.676633   -3.545837   -4.324123    0.005402   -0.003870    0.007106
O    -3.863705   -2.103423    1.765167   -0.075874   -0.058106   -0.038588
C     2.039332   -3.988855    2.587679   -0.005524    0.021494    0.016272
C     5.585010   -4.156630    1.632014   -0.001332   -0.000042    0.003240
O    -2.141760   -3.671566   -1.981123   -0.000476    0.008094    0.012222
C     3.249402   -4.007849    1.659061    0.004814    0.006806    0.012006
O     1.495873   -4.976205    3.010391    0.013454    0.002190    0.008762
C     5.586745   -5.331946    0.634225   -0.001838    0.001896    0.001078
O     4.414548   -4.219159    2.434170   -0.004270   -0.007370    0.015946
C    -1.426665   -4.796663   -1.508970   -0.006006   -0.003998    0.003038
C     3.073257   -5.119087    0.615283    0.003036    0.018280    0.000498
O     6.746924   -5.355133   -0.143463   -0.000218    0.001720    0.002298
C     4.332696   -5.219097   -0.252818    0.002052    0.004942   -0.002890
C    -0.166713   -4.822985   -2.385499   -0.010006   -0.002934   -0.006896
C    -1.015088   -4.720971   -0.024930   -0.008922   -0.017482    0.007982
O     1.951726   -4.824004   -0.214158    0.000040    0.026846   -0.001140
O     4.204109   -6.339556   -1.096070   -0.000586    0.003674    0.001948
C     0.758407   -5.971519   -1.971203   -0.008140    0.002804    0.002712
O    -0.570540   -4.954948   -3.720883   -0.013616    0.006066    0.002466
O    -0.119191   -5.789999    0.281877   -0.007666   -0.010766    0.008218
C    -2.187983   -4.902043    0.957710   -0.018384    0.021802    0.004534
C     1.056049   -5.886688   -0.465221    0.003632    0.010064    0.001778
O     1.911254   -5.925888   -2.766032   -0.017600    0.005366   -0.005324
O    -1.933180   -4.338038    2.221680    0.001228    0.020350    0.014908
C     1.232573   -1.064582   -0.610301    0.129134   -0.076226    0.211570
H     1.492052   -0.127583   -0.084931   -0.207238   -0.007094    0.059340
C     1.407996   -0.778568   -2.122419   -0.116684   -0.041024    0.064854
C     2.701706   -0.681837   -2.625957   -0.080574   -0.034408    0.093462
C     0.330950   -0.595445   -2.969080   -0.078598   -0.010342    0.036098
C     2.905693   -0.415585   -3.970351   -0.039428   -0.019180    0.088610
C     0.539036   -0.324675   -4.314322   -0.004270   -0.013156    0.027738
C     1.824353   -0.235228   -4.817922   -0.003286   -0.014016    0.042902
H     0.965447    4.466968    0.099650    0.008468    0.004854    0.004250
H     3.341466    4.698463   -0.569055   -0.007358   -0.001664    0.008176
H    -0.854387    3.494066    0.095391   -0.005998    0.019814    0.007022
H     1.445147    3.835495   -2.399465   -0.014882    0.007964    0.011152
H     3.089699    1.723008   -1.237903    0.012038    0.007568   -0.014878
H     2.505431    1.357549    1.357407   -0.016328    0.017646    0.074908
H    -0.707642    1.708478   -2.385138   -0.010564    0.020428   -0.005326
H    -0.926910    0.446556   -0.235935   -0.107086    0.077378   -0.057624
H     4.490427    3.247925   -2.565382   -0.008340   -0.031774   -0.014550
H     4.858485    3.206867    0.769693   -0.009440    0.002734    0.007684
H     4.206786    1.636439    3.173361   -0.005724    0.003196    0.012662
H     2.635397    2.362275    3.608875   -0.004588   -0.012984    0.007164
H    -2.899914    3.633621   -1.444852   -0.014878   -0.005354    0.005888
H    -0.972987    3.929233   -3.321443    0.050888   -0.046048   -0.030504
H     3.583108    4.380190    3.030927    0.014138    0.000256   -0.043032
H    -4.232820    1.621778   -0.963770   -0.006744    0.003744   -0.014286
H    -3.105741    1.796558   -3.556819    0.009654   -0.014540    0.010908
H     6.420369    2.043485    1.583151    0.005428   -0.002138    0.004668
H     1.599472   -0.221144    3.199222   -0.090356   -0.155768   -0.050682
H     0.177600    0.594878    3.979082   -0.005954   -0.081734   -0.019804
H     8.084872    0.311022    0.950013   -0.005014    0.001016    0.006912
H    -4.758648   -0.409478   -1.735188    0.002206   -0.010036    0.007258
H     6.583727    1.417220   -1.158423   -0.005138    0.006254    0.004324
H     5.741408   -0.990706   -0.524888    0.008086   -0.001212   -0.004368
H     4.374571   -0.981524    1.844823   -0.002764    0.008084    0.040658
H    -2.375163   -1.567954   -3.215559   -0.018600   -0.016290   -0.032902
H    -2.376156   -1.760692   -0.370232   -0.037626   -0.018930    0.099602
H     0.771247   -2.322112    4.664840   -0.106630    0.214596   -0.122414
H    -0.136673   -3.438112    3.585275    0.025518    0.014250    0.028314
H     8.018327   -1.225978   -1.292881   -0.025282   -0.010108   -0.020726
H     7.213301   -2.105263    1.899915   -0.001260    0.004078    0.002648
H     4.692118   -0.886064    4.305765   -0.014580   -0.015824    0.007180
H     4.905515   -2.550350    3.717661    0.001354   -0.002468    0.007360
H    -5.135095   -2.859195   -3.118466   -0.004930   -0.013650    0.008846
H    -4.068931   -1.200787   -4.918726    0.048082    0.031804   -0.008252
H    -3.739561   -0.189558    0.999341    0.061392   -0.027980    0.067646
H    -5.214064   -1.128248    0.555296   -0.012646    0.089206    0.027554
H     6.988195   -0.754391    4.343268    0.006716    0.001826   -0.028976
H    -3.959267   -4.649415   -1.834315   -0.007478    0.008972    0.008544
H    -2.749492   -3.833751   -4.256016    0.012380    0.003882    0.025992
H    -4.259703   -1.777547    2.592839    0.458734    0.285544    0.156362
H     6.415935   -4.231990    2.345446    0.000010   -0.004066   -0.000050
H     3.315018   -3.033244    1.164873    0.046296    0.019338    0.056248
H     5.554887   -6.274609    1.189582   -0.002650    0.005500    0.007194
H    -2.014815   -5.710800   -1.678141   -0.009134   -0.002542    0.013802
H     2.907292   -6.064213    1.147131    0.004042    0.024684    0.008436
H     6.943293   -4.453319   -0.450217   -0.008126    0.002810   -0.006072
H     4.403705   -4.298308   -0.850137    0.029760   -0.004612   -0.009998
H     0.355106   -3.863700   -2.240124   -0.016426   -0.002932   -0.026934
H    -0.540628   -3.745079    0.159322   -0.028196   -0.037192    0.095434
H     5.083527   -6.540862   -1.461956   -0.011396    0.022938   -0.028870
H     0.223976   -6.920572   -2.144258   -0.000748   -0.007402    0.032280
H     0.221048   -5.129282   -4.256782   -0.004060    0.071710   -0.003408
H    -2.311799   -5.974007    1.132943   -0.071900    0.035676    0.060284
H    -3.101865   -4.472967    0.542836   -0.016754    0.055636    0.030218
H     1.507326   -6.829850   -0.129061    0.013278    0.016358   -0.002192
H     2.703295   -6.154962   -2.241440   -0.017540   -0.006586   -0.021988
H    -2.072261   -3.374696    2.164225    0.375058    0.111192   -0.028198
O    -0.033221   -1.486303   -0.293253   -0.070170   -0.067436    0.190058
H     3.535752   -0.827064   -1.955404   -0.076030   -0.029954    0.072934
H    -0.666296   -0.672738   -2.561848   -0.141778    0.073392   -0.119546
H     3.913379   -0.348136   -4.348478   -0.021256   -0.010772    0.145770
H    -0.312239   -0.186799   -4.961621    0.011880   -0.007868    0.015010
H     1.984468   -0.026280   -5.863664    0.031382   -0.011252    0.049526
H     1.961732   -2.884470   -0.494026    0.093132   -0.001280   -0.033656
O     2.255146   -1.998247   -0.218432   -0.082652    0.058312    0.003280
147
* Frequency(6) -387.0800
C     1.607342    3.578514    0.030098    0.000668    0.001548    0.003274
O     0.866375    2.469452   -0.430519   -0.010336   -0.003136    0.019204
C     2.767268    3.839814   -0.942620   -0.001108   -0.002076   -0.002260
O     2.096112    3.389087    1.325485    0.002690    0.009686    0.005762
C    -0.542235    2.577405   -0.429426   -0.009748    0.018278    0.011736
O     2.351864    4.159064   -2.238477   -0.000846   -0.009684    0.000380
C     3.676274    2.602302   -0.930157    0.006066   -0.001544   -0.004074
C     3.021231    2.314543    1.496385   -0.001220    0.013522    0.004592
C    -1.040376    2.626634   -1.882647   -0.000016    0.011638    0.004886
C    -1.218278    1.376806    0.259378   -0.028334    0.019450   -0.001372
O     4.784913    2.765090   -1.774980    0.005838   -0.001124   -0.001342
C     4.189027    2.378959    0.496592   -0.001510    0.000666   -0.000020
C     3.508082    2.442724    2.948623   -0.002052    0.004784    0.004562
C    -2.577576    2.695845   -1.911776   -0.001806    0.002390   -0.001924
O    -0.474804    3.751933   -2.505133    0.010392   -0.000726    0.002274
O    -2.624930    1.535826    0.209841   -0.020896    0.015354    0.007596
C    -0.870883    1.223142    1.727424   -0.009106   -0.029520    0.008692
O     4.915978    1.163214    0.469078    0.002270    0.000020    0.009478
O     4.196782    3.643025    3.165700    0.001538   -0.000622    0.010494
C    -3.146694    1.516221   -1.099522   -0.006978    0.001906   -0.002842
O    -3.058685    2.709249   -3.222984    0.005924   -0.003968   -0.004062
O     0.332828    0.675126    1.909187    0.005146    0.015094   -0.000032
O    -1.597125    1.550717    2.630098   -0.000826    0.033934   -0.005670
C     6.075499    1.054339    1.252294    0.000054    0.001650    0.001212
O    -2.841943    0.357920   -1.812673    0.007916   -0.007086    0.010512
C     0.538786   -0.001233    3.138921   -0.070126   -0.068934   -0.036226
C     7.144489    0.363445    0.391536   -0.000846    0.000512   -0.000268
O     5.867014    0.334474    2.435357    0.004860    0.002224    0.010668
C    -3.717442   -0.762007   -1.756572    0.004292   -0.003034   -0.001568
C    -0.256894   -1.333541    3.088581   -0.374172   -0.032548   -0.236480
O     7.414726    1.078018   -0.781672   -0.002686   -0.002458    0.000998
C     6.659622   -1.059890    0.080113    0.000186   -0.001492   -0.001956
C     5.384390   -0.998690    2.276973    0.007670    0.003710    0.006648
C    -3.462918   -1.475229   -3.095792   -0.008096   -0.002092   -0.006736
C    -3.457057   -1.679600   -0.543488   -0.015200   -0.000948    0.006168
C     0.502436   -2.547618    3.636684   -0.055978    0.062218   -0.100176
O    -0.938656   -1.500260    1.862745    0.897874   -0.062538   -1.204610
O    -1.593839   -1.275113    3.425305   -0.002498    0.032274    0.678864
O     7.641784   -1.794921   -0.601375    0.000488   -0.002156    0.000266
C     6.297822   -1.831697    1.357533    0.000242    0.001072    0.000750
C     5.335055   -1.548703    3.712947    0.001356   -0.001830    0.003186
C    -4.040690   -2.895440   -3.140400   -0.004538   -0.001792   -0.001024
O    -3.996459   -0.665937   -4.112078   -0.004524    0.012348    0.007730
O    -4.011997   -2.974854   -0.750931   -0.014586    0.007962    0.000614
C    -4.130466   -1.179594    0.737708   -0.001554    0.013422    0.007134
O     1.682501   -2.744514    2.865008   -0.022326    0.030112   -0.033540
O     5.665151   -3.002808    0.858104   -0.009748    0.001802    0.009886
O     6.612956   -1.646302    4.278161   -0.001366    0.001832    0.009568
C    -3.536679   -3.636424   -1.890809   -0.001050    0.005138    0.002690
O    -3.677222   -3.545415   -4.324898    0.005402   -0.003870    0.007106
O    -3.855437   -2.097091    1.769372   -0.075874   -0.058106   -0.038588
C     2.039934   -3.991198    2.585905   -0.005524    0.021494    0.016272
C     5.585155   -4.156625    1.631661   -0.001332   -0.000042    0.003240
O    -2.141708   -3.672448   -1.982455   -0.000476    0.008094    0.012222
C     3.248877   -4.008591    1.657753    0.004814    0.006806    0.012006
O     1.494407   -4.976444    3.009436    0.013454    0.002190    0.008762
C     5.586945   -5.332153    0.634107   -0.001838    0.001896    0.001078
O     4.415013   -4.218356    2.432433   -0.004270   -0.007370    0.015946
C    -1.426011   -4.796227   -1.509301   -0.006006   -0.003998    0.003038
C     3.072926   -5.121079    0.615229    0.003036    0.018280    0.000498
O     6.746947   -5.355321   -0.143714   -0.000218    0.001720    0.002298
C     4.332472   -5.219635   -0.252503    0.002052    0.004942   -0.002890
C    -0.165622   -4.822665   -2.384747   -0.010006   -0.002934   -0.006896
C    -1.014116   -4.719066   -0.025800   -0.008922   -0.017482    0.007982
O     1.951721   -4.826929   -0.214034    0.000040    0.026846   -0.001140
O     4.204173   -6.339956   -1.096283   -0.000586    0.003674    0.001948
C     0.759294   -5.971824   -1.971499   -0.008140    0.002804    0.002712
O    -0.569056   -4.955609   -3.721152   -0.013616    0.006066    0.002466
O    -0.118356   -5.788826    0.280981   -0.007666   -0.010766    0.008218
C    -2.185980   -4.904419    0.957216   -0.018384    0.021802    0.004534
C     1.055653   -5.887784   -0.465415    0.003632    0.010064    0.001778
O     1.913172   -5.926473   -2.765452   -0.017600    0.005366   -0.005324
O    -1.933314   -4.340256    2.220056    0.001228    0.020350    0.014908
C     1.218501   -1.056275   -0.633357    0.129134   -0.076226    0.211570
H     1.514635   -0.126810   -0.091398   -0.207238   -0.007094    0.059340
C     1.420711   -0.774097   -2.129486   -0.116684   -0.041024    0.064854
C     2.710486   -0.678087   -2.636142   -0.080574   -0.034408    0.093462
C     0.339515   -0.594318   -2.973013   -0.078598   -0.010342    0.036098
C     2.909990   -0.413495   -3.980007   -0.039428   -0.019180    0.088610
C     0.539501   -0.323241   -4.317345   -0.004270   -0.013156    0.027738
C     1.824711   -0.233700   -4.822597   -0.003286   -0.014016    0.042902
H     0.964524    4.466439    0.099187    0.008468    0.004854    0.004250
H     3.342268    4.698644   -0.569946   -0.007358   -0.001664    0.008176
H    -0.853734    3.491906    0.094626   -0.005998    0.019814    0.007022
H     1.446769    3.834627   -2.400681   -0.014882    0.007964    0.011152
H     3.088387    1.722183   -1.236282    0.012038    0.007568   -0.014878
H     2.507210    1.355627    1.349244   -0.016328    0.017646    0.074908
H    -0.706491    1.706252   -2.384558   -0.010564    0.020428   -0.005326
H    -0.915240    0.438124   -0.229656   -0.107086    0.077378   -0.057624
H     4.491336    3.251388   -2.563796   -0.008340   -0.031774   -0.014550
H     4.859514    3.206570    0.768856   -0.009440    0.002734    0.007684
H     4.207410    1.636091    3.171981   -0.005724    0.003196    0.012662
H     2.635897    2.363690    3.608095   -0.004588   -0.012984    0.007164
H    -2.898293    3.634205   -1.445494   -0.014878   -0.005354    0.005888
H    -0.978532    3.934251   -3.318119    0.050888   -0.046048   -0.030504
H     3.581567    4.380162    3.035616    0.014138    0.000256   -0.043032
H    -4.232086    1.621370   -0.962213   -0.006744    0.003744   -0.014286
H    -3.106793    1.798142   -3.558008    0.009654   -0.014540    0.010908
H     6.419778    2.043718    1.582642    0.005428   -0.002138    0.004668
H     1.609319   -0.204169    3.204745   -0.090356   -0.155768   -0.050682
H     0.178249    0.603784    3.981240   -0.005954   -0.081734   -0.019804
H     8.085418    0.310912    0.949260   -0.005014    0.001016    0.006912
H    -4.758888   -0.408384   -1.735979    0.002206   -0.010036    0.007258
H     6.584287    1.416538   -1.158894   -0.005138    0.006254    0.004324
H     5.740527   -0.990574   -0.524412    0.008086   -0.001212   -0.004368
H     4.374872   -0.982405    1.840392   -0.002764    0.008084    0.040658
H    -2.373137   -1.566178   -3.211973   -0.018600   -0.016290   -0.032902
H    -2.372056   -1.758630   -0.381086   -0.037626   -0.018930    0.099602
H     0.782867   -2.345498    4.678180   -0.106630    0.214596   -0.122414
H    -0.139454   -3.439665    3.582189    0.025518    0.014250    0.028314
H     8.021083   -1.224876   -1.290622   -0.025282   -0.010108   -0.020726
H     7.213438   -2.105707    1.899627   -0.001260    0.004078    0.002648
H     4.693707   -0.884340    4.304983   -0.014580   -0.015824    0.007180
H     4.905367   -2.550081    3.716859    0.001354   -0.002468    0.007360
H    -5.134558   -2.857707   -3.119430   -0.004930   -0.013650    0.008846
H    -4.074171   -1.204253   -4.917826    0.048082    0.031804   -0.008252
H    -3.746251   -0.186509    0.991969    0.061392   -0.027980    0.067646
H    -5.212686   -1.137969    0.552293   -0.012646    0.089206    0.027554
H     6.987463   -0.754590    4.346426    0.006716    0.001826   -0.028976
H    -3.958452   -4.650393   -1.835246   -0.007478    0.008972    0.008544
H    -2.750841   -3.834174   -4.258849    0.012380    0.003882    0.025992
H    -4.309693   -1.808663    2.575800    0.458734    0.285544    0.156362
H     6.415934   -4.231547    2.345451    0.000010   -0.004066   -0.000050
H     3.309973   -3.035351    1.158743    0.046296    0.019338    0.056248
H     5.555175   -6.275208    1.188798   -0.002650    0.005500    0.007194
H    -2.013819   -5.710523   -1.679645   -0.009134   -0.002542    0.013802
H     2.906852   -6.066903    1.146212    0.004042    0.024684    0.008436
H     6.944179   -4.453625   -0.449556   -0.008126    0.002810   -0.006072
H     4.400462   -4.297806   -0.849048    0.029760   -0.004612   -0.009998
H     0.356896   -3.863381   -2.237189   -0.016426   -0.002932   -0.026934
H    -0.537555   -3.741026    0.148922   -0.028196   -0.037192    0.095434
H     5.084768   -6.543362   -1.458810   -0.011396    0.022938   -0.028870
H     0.224058   -6.919765   -2.147775   -0.000748   -0.007402    0.032280
H     0.221490   -5.137097   -4.256410   -0.004060    0.071710   -0.003408
H    -2.303964   -5.977895    1.126374   -0.071900    0.035676    0.060284
H    -3.100039   -4.479030    0.539543   -0.016754    0.055636    0.030218
H     1.505879   -6.831633   -0.128822    0.013278    0.016358   -0.002192
H     2.705207   -6.154244   -2.239044   -0.017540   -0.006586   -0.021988
H    -2.113133   -3.386813    2.167298    0.375058    0.111192   -0.028198
O    -0.025574   -1.478954   -0.313964   -0.070170   -0.067436    0.190058
H     3.544037   -0.823800   -1.963351   -0.076030   -0.029954    0.072934
H    -0.650846   -0.680736   -2.548821   -0.141778    0.073392   -0.119546
H     3.915695   -0.346963   -4.364363   -0.021256   -0.010772    0.145770
H    -0.313534   -0.185941   -4.963256    0.011880   -0.007868    0.015010
H     1.981048   -0.025054   -5.869061    0.031382   -0.011252    0.049526
H     1.951583   -2.884331   -0.490359    0.093132   -0.001280   -0.033656
O     2.264153   -2.004602   -0.218789   -0.082652    0.058312    0.003280
147
* Frequency(6) -387.0800
C     1.607266    3.578336    0.029720    0.000668    0.001548    0.003274
O     0.867565    2.469814   -0.432731   -0.010336   -0.003136    0.019204
C     2.767396    3.840054   -0.942360   -0.001108   -0.002076   -0.002260
O     2.095802    3.387971    1.324821    0.002690    0.009686    0.005762
C    -0.541111    2.575299   -0.430778   -0.009748    0.018278    0.011736
O     2.351962    4.160180   -2.238521   -0.000846   -0.009684    0.000380
C     3.675576    2.602480   -0.929687    0.006066   -0.001544   -0.004074
C     3.021371    2.312985    1.495855   -0.001220    0.013522    0.004592
C    -1.040374    2.625294   -1.883209   -0.000016    0.011638    0.004886
C    -1.215014    1.374566    0.259536   -0.028334    0.019450   -0.001372
O     4.784241    2.765220   -1.774826    0.005838   -0.001124   -0.001342
C     4.189201    2.378883    0.496594   -0.001510    0.000666   -0.000020
C     3.508318    2.442172    2.948097   -0.002052    0.004784    0.004562
C    -2.577368    2.695569   -1.911554   -0.001806    0.002390   -0.001924
O    -0.476002    3.752017   -2.505395    0.010392   -0.000726    0.002274
O    -2.622522    1.534056    0.208965   -0.020896    0.015354    0.007596
C    -0.869833    1.226544    1.726422   -0.009106   -0.029520    0.008692
O     4.915716    1.163212    0.467986    0.002270    0.000020    0.009478
O     4.196604    3.643097    3.164490    0.001538   -0.000622    0.010494
C    -3.145890    1.516001   -1.099194   -0.006978    0.001906   -0.002842
O    -3.059367    2.709707   -3.222516    0.005924   -0.003968   -0.004062
O     0.332236    0.673386    1.909191    0.005146    0.015094   -0.000032
O    -1.597029    1.546807    2.630752   -0.000826    0.033934   -0.005670
C     6.075493    1.054149    1.252154    0.000054    0.001650    0.001212
O    -2.842855    0.358736   -1.813885    0.007916   -0.007086    0.010512
C     0.546866    0.006709    3.143095   -0.070126   -0.068934   -0.036226
C     7.144587    0.363387    0.391566   -0.000846    0.000512   -0.000268
O     5.866454    0.334218    2.434127    0.004860    0.002224    0.010668
C    -3.717936   -0.761657   -1.756392    0.004292   -0.003034   -0.001568
C    -0.213784   -1.329791    3.115827   -0.374172   -0.032548   -0.236480
O     7.415036    1.078302   -0.781786   -0.002686   -0.002458    0.000998
C     6.659600   -1.059718    0.080339    0.000186   -0.001492   -0.001956
C     5.383506   -0.999118    2.276207    0.007670    0.003710    0.006648
C    -3.461986   -1.474987   -3.095016   -0.008096   -0.002092   -0.006736
C    -3.455305   -1.679490   -0.544198   -0.015200   -0.000948    0.006168
C     0.508886   -2.554786    3.648226   -0.055978    0.062218   -0.100176
O    -1.042106   -1.493054    2.001535    0.897874   -0.062538   -1.204610
O    -1.593551   -1.278831    3.347089   -0.002498    0.032274    0.678864
O     7.641728   -1.794673   -0.601405    0.000488   -0.002156    0.000266
C     6.297794   -1.831821    1.357447    0.000242    0.001072    0.000750
C     5.334899   -1.548493    3.712579    0.001356   -0.001830    0.003186
C    -4.040168   -2.895234   -3.140282   -0.004538   -0.001792   -0.001024
O    -3.995937   -0.667359   -4.112968   -0.004524    0.012348    0.007730
O    -4.010317   -2.975772   -0.751001   -0.014586    0.007962    0.000614
C    -4.130286   -1.181140    0.736886   -0.001554    0.013422    0.007134
O     1.685073   -2.747984    2.868872   -0.022326    0.030112   -0.033540
O     5.666275   -3.003016    0.856964   -0.009748    0.001802    0.009886
O     6.613114   -1.646514    4.277059   -0.001366    0.001832    0.009568
C    -3.536559   -3.637016   -1.891119   -0.001050    0.005138    0.002690
O    -3.677844   -3.544969   -4.325716    0.005402   -0.003870    0.007106
O    -3.846695   -2.090397    1.773818   -0.075874   -0.058106   -0.038588
C     2.040570   -3.993674    2.584031   -0.005524    0.021494    0.016272
C     5.585309   -4.156621    1.631287   -0.001332   -0.000042    0.003240
O    -2.141654   -3.673380   -1.983863   -0.000476    0.008094    0.012222
C     3.248323   -4.009375    1.656369    0.004814    0.006806    0.012006
O     1.492857   -4.976696    3.008426    0.013454    0.002190    0.008762
C     5.587157   -5.332371    0.633983   -0.001838    0.001896    0.001078
O     4.415505   -4.217506    2.430595   -0.004270   -0.007370    0.015946
C    -1.425319   -4.795767   -1.509651   -0.006006   -0.003998    0.003038
C     3.072576   -5.123185    0.615171    0.003036    0.018280    0.000498
O     6.746973   -5.355519   -0.143978   -0.000218    0.001720    0.002298
C     4.332236   -5.220205   -0.252171    0.002052    0.004942   -0.002890
C    -0.164470   -4.822327   -2.383953   -0.010006   -0.002934   -0.006896
C    -1.013088   -4.717052   -0.026720   -0.008922   -0.017482    0.007982
O     1.951717   -4.830023   -0.213902    0.000040    0.026846   -0.001140
O     4.204241   -6.340380   -1.096507   -0.000586    0.003674    0.001948
C     0.760232   -5.972148   -1.971811   -0.008140    0.002804    0.002712
O    -0.567488   -4.956307   -3.721436   -0.013616    0.006066    0.002466
O    -0.117472   -5.787586    0.280035   -0.007666   -0.010766    0.008218
C    -2.183862   -4.906931    0.956694   -0.018384    0.021802    0.004534
C     1.055235   -5.888944   -0.465619    0.003632    0.010064    0.001778
O     1.915200   -5.927091   -2.764838   -0.017600    0.005366   -0.005324
O    -1.933456   -4.342600    2.218338    0.001228    0.020350    0.014908
C     1.203623   -1.047493   -0.657733    0.129134   -0.076226    0.211570
H     1.538513   -0.125992   -0.098234   -0.207238   -0.007094    0.059340
C     1.434155   -0.769371   -2.136958   -0.116684   -0.041024    0.064854
C     2.719770   -0.674123   -2.646910   -0.080574   -0.034408    0.093462
C     0.348571   -0.593126   -2.977173   -0.078598   -0.010342    0.036098
C     2.914532   -0.411285   -3.990217   -0.039428   -0.019180    0.088610
C     0.539993   -0.321725   -4.320541   -0.004270   -0.013156    0.027738
C     1.825089   -0.232086   -4.827541   -0.003286   -0.014016    0.042902
H     0.963548    4.465879    0.098697    0.008468    0.004854    0.004250
H     3.343116    4.698836   -0.570888   -0.007358   -0.001664    0.008176
H    -0.853042    3.489624    0.093816   -0.005998    0.019814    0.007022
H     1.448483    3.833709   -2.401965   -0.014882    0.007964    0.011152
H     3.087001    1.721311   -1.234568    0.012038    0.007568   -0.014878
H     2.509092    1.353593    1.340614   -0.016328    0.017646    0.074908
H    -0.705273    1.703898   -2.383944   -0.010564    0.020428   -0.005326
H    -0.902902    0.429208   -0.223016   -0.107086    0.077378   -0.057624
H     4.492296    3.255048   -2.562120   -0.008340   -0.031774   -0.014550
H     4.860602    3.206254    0.767970   -0.009440    0.002734    0.007684
H     4.208070    1.635723    3.170523   -0.005724    0.003196    0.012662
H     2.636425    2.365186    3.607269   -0.004588   -0.012984    0.007164
H    -2.896579    3.634821   -1.446172   -0.014878   -0.005354    0.005888
H    -0.984396    3.939557   -3.314605    0.050888   -0.046048   -0.030504
H     3.579939    4.380132    3.040574    0.014138    0.000256   -0.043032
H    -4.231308    1.620938   -0.960567   -0.006744    0.003744   -0.014286
H    -3.107905    1.799818   -3.559264    0.009654   -0.014540    0.010908
H     6.419152    2.043964    1.582104    0.005428   -0.002138    0.004668
H     1.619729   -0.186223    3.210585   -0.090356   -0.155768   -0.050682
H     0.178935    0.613202    3.983522   -0.005954   -0.081734   -0.019804
H     8.085996    0.310794    0.948464   -0.005014    0.001016    0.006912
H    -4.759142   -0.407228   -1.736815    0.002206   -0.010036    0.007258
H     6.584879    1.415818   -1.159392   -0.005138    0.006254    0.004324
H     5.739595   -0.990434   -0.523908    0.008086   -0.001212   -0.004368
H     4.375190   -0.983337    1.835708   -0.002764    0.008084    0.040658
H    -2.370993   -1.564302   -3.208183   -0.018600   -0.016290   -0.032902
H    -2.367720   -1.756448   -0.392562   -0.037626   -0.018930    0.099602
H     0.795153   -2.370222    4.692284   -0.106630    0.214596   -0.122414
H    -0.142394   -3.441307    3.578927    0.025518    0.014250    0.028314
H     8.023995   -1.223712   -1.288234   -0.025282   -0.010108   -0.020726
H     7.213584   -2.106177    1.899321   -0.001260    0.004078    0.002648
H     4.695387   -0.882516    4.304155   -0.014580   -0.015824    0.007180
H     4.905211   -2.549797    3.716011    0.001354   -0.002468    0.007360
H    -5.133990   -2.856135   -3.120450   -0.004930   -0.013650    0.008846
H    -4.079711   -1.207917   -4.916876    0.048082    0.031804   -0.008252
H    -3.753325   -0.183285    0.984175    0.061392   -0.027980    0.067646
H    -5.211228   -1.148247    0.549119   -0.012646    0.089206    0.027554
H     6.986689   -0.754800    4.349764    0.006716    0.001826   -0.028976
H    -3.957590   -4.651427   -1.836230   -0.007478    0.008972    0.008544
H    -2.752267   -3.834622   -4.261843    0.012380    0.003882    0.025992
H    -4.362547   -1.841563    2.557784    0.458734    0.285544    0.156362
H     6.415932   -4.231079    2.345457    0.000010   -0.004066   -0.000050
H     3.304639   -3.037579    1.152263    0.046296    0.019338    0.056248
H     5.555481   -6.275842    1.187970   -0.002650    0.005500    0.007194
H    -2.012767   -5.710231   -1.681235   -0.009134   -0.002542    0.013802
H     2.906386   -6.069747    1.145240    0.004042    0.024684    0.008436
H     6.945115   -4.453949   -0.448856   -0.008126    0.002810   -0.006072
H     4.397034   -4.297274   -0.847896    0.029760   -0.004612   -0.009998
H     0.358788   -3.863043   -2.234085   -0.016426   -0.002932   -0.026934
H    -0.534307   -3.736740    0.137926   -0.028196   -0.037192    0.095434
H     5.086082   -6.546004   -1.455484   -0.011396    0.022938   -0.028870
H     0.224144   -6.918913   -2.151495   -0.000748   -0.007402    0.032280
H     0.221958   -5.145359   -4.256018   -0.004060    0.071710   -0.003408
H    -2.295680   -5.982005    1.119428   -0.071900    0.035676    0.060284
H    -3.098109   -4.485440    0.536061   -0.016754    0.055636    0.030218
H     1.504349   -6.833517   -0.128570    0.013278    0.016358   -0.002192
H     2.707227   -6.153486   -2.236510   -0.017540   -0.006586   -0.021988
H    -2.156345   -3.399625    2.170546    0.375058    0.111192   -0.028198
O    -0.017490   -1.471184   -0.335862   -0.070170   -0.067436    0.190058
H     3.552797   -0.820348   -1.971755   -0.076030   -0.029954    0.072934
H    -0.634510   -0.689192   -2.535047   -0.141778    0.073392   -0.119546
H     3.918145   -0.345721   -4.381159   -0.021256   -0.010772    0.145770
H    -0.314902   -0.185035   -4.964986    0.011880   -0.007868    0.015010
H     1.977432   -0.023758   -5.874767    0.031382   -0.011252    0.049526
H     1.940853   -2.884183   -0.486481    0.093132   -0.001280   -0.033656
O     2.273675   -2.011320   -0.219167   -0.082652    0.058312    0.003280
147
* Frequency(6) -387.0800
C     1.607193    3.578167    0.029364    0.000668    0.001548    0.003274
O     0.868692    2.470155   -0.434824   -0.010336   -0.003136    0.019204
C     2.767517    3.840280   -0.942114   -0.001108   -0.002076   -0.002260
O     2.095509    3.386915    1.324193    0.002690    0.009686    0.005762
C    -0.540049    2.573307   -0.432057   -0.009748    0.018278    0.011736
O     2.352054    4.161235   -2.238562   -0.000846   -0.009684    0.000380
C     3.674915    2.602648   -0.929243    0.006066   -0.001544   -0.004074
C     3.021504    2.311511    1.495355   -0.001220    0.013522    0.004592
C    -1.040372    2.624025   -1.883742   -0.000016    0.011638    0.004886
C    -1.211926    1.372446    0.259686   -0.028334    0.019450   -0.001372
O     4.783604    2.765342   -1.774679    0.005838   -0.001124   -0.001342
C     4.189366    2.378810    0.496596   -0.001510    0.000666   -0.000020
C     3.508542    2.441651    2.947600   -0.002052    0.004784    0.004562
C    -2.577171    2.695309   -1.911344   -0.001806    0.002390   -0.001924
O    -0.477134    3.752096   -2.505643    0.010392   -0.000726    0.002274
O    -2.620245    1.532383    0.208138   -0.020896    0.015354    0.007596
C    -0.868841    1.229760    1.725475   -0.009106   -0.029520    0.008692
O     4.915469    1.163210    0.466953    0.002270    0.000020    0.009478
O     4.196437    3.643165    3.163347    0.001538   -0.000622    0.010494
C    -3.145130    1.515793   -1.098885   -0.006978    0.001906   -0.002842
O    -3.060013    2.710139   -3.222073    0.005924   -0.003968   -0.004062
O     0.331675    0.671742    1.909194    0.005146    0.015094   -0.000032
O    -1.596939    1.543109    2.631370   -0.000826    0.033934   -0.005670
C     6.075487    1.053969    1.252022    0.000054    0.001650    0.001212
O    -2.843718    0.359508   -1.815030    0.007916   -0.007086    0.010512
C     0.554508    0.014221    3.147043   -0.070126   -0.068934   -0.036226
C     7.144679    0.363331    0.391596   -0.000846    0.000512   -0.000268
O     5.865924    0.333976    2.432965    0.004860    0.002224    0.010668
C    -3.718404   -0.761327   -1.756221    0.004292   -0.003034   -0.001568
C    -0.173009   -1.326244    3.141597   -0.374172   -0.032548   -0.236480
O     7.415328    1.078569   -0.781895   -0.002686   -0.002458    0.000998
C     6.659580   -1.059555    0.080552    0.000186   -0.001492   -0.001956
C     5.382670   -0.999522    2.275483    0.007670    0.003710    0.006648
C    -3.461103   -1.474760   -3.094282   -0.008096   -0.002092   -0.006736
C    -3.453649   -1.679387   -0.544870   -0.015200   -0.000948    0.006168
C     0.514986   -2.561566    3.659142   -0.055978    0.062218   -0.100176
O    -1.139950   -1.486239    2.132806    0.897874   -0.062538   -1.204610
O    -1.593279   -1.282348    3.273111   -0.002498    0.032274    0.678864
O     7.641675   -1.794438   -0.601434    0.000488   -0.002156    0.000266
C     6.297768   -1.831938    1.357365    0.000242    0.001072    0.000750
C     5.334751   -1.548293    3.712232    0.001356   -0.001830    0.003186
C    -4.039673   -2.895038   -3.140170   -0.004538   -0.001792   -0.001024
O    -3.995444   -0.668705   -4.113811   -0.004524    0.012348    0.007730
O    -4.008727   -2.976639   -0.751068   -0.014586    0.007962    0.000614
C    -4.130117   -1.182603    0.736109   -0.001554    0.013422    0.007134
O     1.687506   -2.751265    2.872527   -0.022326    0.030112   -0.033540
O     5.667337   -3.003212    0.855887   -0.009748    0.001802    0.009886
O     6.613263   -1.646713    4.276016   -0.001366    0.001832    0.009568
C    -3.536444   -3.637576   -1.891412   -0.001050    0.005138    0.002690
O    -3.678433   -3.544547   -4.326491    0.005402   -0.003870    0.007106
O    -3.838427   -2.084065    1.778023   -0.075874   -0.058106   -0.038588
C     2.041172   -3.996017    2.582257   -0.005524    0.021494    0.016272
C     5.585454   -4.156616    1.630934   -0.001332   -0.000042    0.003240
O    -2.141602   -3.674262   -1.985195   -0.000476    0.008094    0.012222
C     3.247798   -4.010117    1.655061    0.004814    0.006806    0.012006
O     1.491391   -4.976935    3.007471    0.013454    0.002190    0.008762
C     5.587357   -5.332578    0.633865   -0.001838    0.001896    0.001078
O     4.415970   -4.216703    2.428858   -0.004270   -0.007370    0.015946
C    -1.424665   -4.795331   -1.509982   -0.006006   -0.003998    0.003038
C     3.072245   -5.125177    0.615117    0.003036    0.018280    0.000498
O     6.746996   -5.355707   -0.144229   -0.000218    0.001720    0.002298
C     4.332012   -5.220743   -0.251856    0.002052    0.004942   -0.002890
C    -0.163379   -4.822007   -2.383201   -0.010006   -0.002934   -0.006896
C    -1.012116   -4.715147   -0.027590   -0.008922   -0.017482    0.007982
O     1.951712   -4.832948   -0.213778    0.000040    0.026846   -0.001140
O     4.204305   -6.340780   -1.096720   -0.000586    0.003674    0.001948
C     0.761119   -5.972453   -1.972107   -0.008140    0.002804    0.002712
O    -0.566004   -4.956968   -3.721705   -0.013616    0.006066    0.002466
O    -0.116637   -5.786413    0.279139   -0.007666   -0.010766    0.008218
C    -2.181859   -4.909307    0.956200   -0.018384    0.021802    0.004534
C     1.054839   -5.890040   -0.465813    0.003632    0.010064    0.001778
O     1.917118   -5.927676   -2.764258   -0.017600    0.005366   -0.005324
O    -1.933590   -4.344818    2.216714    0.001228    0.020350    0.014908
C     1.189551   -1.039186   -0.680789    0.129134   -0.076226    0.211570
H     1.561096   -0.125219   -0.104701   -0.207238   -0.007094    0.059340
C     1.446870   -0.764900   -2.144025   -0.116684   -0.041024    0.064854
C     2.728550   -0.670373   -2.657095   -0.080574   -0.034408    0.093462
C     0.357136   -0.591999   -2.981106   -0.078598   -0.010342    0.036098
C     2.918829   -0.409195   -3.999873   -0.039428   -0.019180    0.088610
C     0.540458   -0.320291   -4.323564   -0.004270   -0.013156    0.027738
C     1.825447   -0.230558   -4.832216   -0.003286   -0.014016    0.042902
H     0.962625    4.465350    0.098234    0.008468    0.004854    0.004250
H     3.343918    4.699017   -0.571779   -0.007358   -0.001664    0.008176
H    -0.852389    3.487464    0.093051   -0.005998    0.019814    0.007022
H     1.450105    3.832841   -2.403181   -0.014882    0.007964    0.011152
H     3.085689    1.720486   -1.232947    0.012038    0.007568   -0.014878
H     2.510871    1.351671    1.332451   -0.016328    0.017646    0.074908
H    -0.704122    1.701672   -2.383364   -0.010564    0.020428   -0.005326
H    -0.891232    0.420776   -0.216737   -0.107086    0.077378   -0.057624
H     4.493205    3.258511   -2.560534   -0.008340   -0.031774   -0.014550
H     4.861631    3.205957    0.767133   -0.009440    0.002734    0.007684
H     4.208694    1.635375    3.169143   -0.005724    0.003196    0.012662
H     2.636925    2.366601    3.606489   -0.004588   -0.012984    0.007164
H    -2.894958    3.635405   -1.446814   -0.014878   -0.005354    0.005888
H    -0.989941    3.944575   -3.311281    0.050888   -0.046048   -0.030504
H     3.578398    4.380104    3.045263    0.014138    0.000256   -0.043032
H    -4.230574    1.620530   -0.959010   -0.006744    0.003744   -0.014286
H    -3.108957    1.801402   -3.560453    0.009654   -0.014540    0.010908
H     6.418561    2.044197    1.581595    0.005428   -0.002138    0.004668
H     1.629576   -0.169248    3.216108   -0.090356   -0.155768   -0.050682
H     0.179584    0.622108    3.985680   -0.005954   -0.081734   -0.019804
H     8.086542    0.310684    0.947711   -0.005014    0.001016    0.006912
H    -4.759382   -0.406134   -1.737606    0.002206   -0.010036    0.007258
H     6.585439    1.415136   -1.159863   -0.005138    0.006254    0.004324
H     5.738714   -0.990302   -0.523432    0.008086   -0.001212   -0.004368
H     4.375491   -0.984218    1.831277   -0.002764    0.008084    0.040658
H    -2.368967   -1.562526   -3.204597   -0.018600   -0.016290   -0.032902
H    -2.363620   -1.754386   -0.403416   -0.037626   -0.018930    0.099602
H     0.806773   -2.393608    4.705624   -0.106630    0.214596   -0.122414
H    -0.145175   -3.442860    3.575841    0.025518    0.014250    0.028314
H     8.026751   -1.222610   -1.285975   -0.025282   -0.010108   -0.020726
H     7.213721   -2.106621    1.899033   -0.001260    0.004078    0.002648
H     4.696976   -0.880792    4.303373   -0.014580   -0.015824    0.007180
H     4.905063   -2.549528    3.715209    0.001354   -0.002468    0.007360
H    -5.133453   -2.854647   -3.121414   -0.004930   -0.013650    0.008846
H    -4.084951   -1.211383   -4.915976    0.048082    0.031804   -0.008252
H    -3.760015   -0.180236    0.976803    0.061392   -0.027980    0.067646
H    -5.209850   -1.157968    0.546116   -0.012646    0.089206    0.027554
H     6.985957   -0.754999    4.352922    0.006716    0.001826   -0.028976
H    -3.956775   -4.652405   -1.837161   -0.007478    0.008972    0.008544
H    -2.753616   -3.835045   -4.264676    0.012380    0.003882    0.025992
H    -4.412537   -1.872679    2.540745    0.458734    0.285544    0.156362
H     6.415931   -4.230636    2.345462    0.000010   -0.004066   -0.000050
H     3.299594   -3.039686    1.146133    0.046296    0.019338    0.056248
H     5.555769   -6.276441    1.187186   -0.002650    0.005500    0.007194
H    -2.011771   -5.709954   -1.682739   -0.009134   -0.002542    0.013802
H     2.905946   -6.072437    1.144321    0.004042    0.024684    0.008436
H     6.946001   -4.454255   -0.448195   -0.008126    0.002810   -0.006072
H     4.393791   -4.296772   -0.846807    0.029760   -0.004612   -0.009998
H     0.360578   -3.862724   -2.231150   -0.016426   -0.002932   -0.026934
H    -0.531234   -3.732687    0.127526   -0.028196   -0.037192    0.095434
H     5.087323   -6.548504   -1.452338   -0.011396    0.022938   -0.028870
H     0.224226   -6.918106   -2.155012   -0.000748   -0.007402    0.032280
H     0.222400   -5.153174   -4.255646   -0.004060    0.071710   -0.003408
H    -2.287845   -5.985893    1.112859   -0.071900    0.035676    0.060284
H    -3.096283   -4.491503    0.532768   -0.016754    0.055636    0.030218
H     1.502902   -6.835300   -0.128331    0.013278    0.016358   -0.002192
H     2.709139   -6.152768   -2.234114   -0.017540   -0.006586   -0.021988
H    -2.197217   -3.411742    2.173619    0.375058    0.111192   -0.028198
O    -0.009843   -1.463835   -0.356573   -0.070170   -0.067436    0.190058
H     3.561082   -0.817084   -1.979702   -0.076030   -0.029954    0.072934
H    -0.619060   -0.697190   -2.522020   -0.141778    0.073392   -0.119546
H     3.920461   -0.344548   -4.397044   -0.021256   -0.010772    0.145770
H    -0.316197   -0.184177   -4.966621    0.011880   -0.007868    0.015010
H     1.974012   -0.022532   -5.880164    0.031382   -0.011252    0.049526
H     1.930704   -2.884044   -0.482814    0.093132   -0.001280   -0.033656
O     2.282682   -2.017675   -0.219524   -0.082652    0.058312    0.003280
147
* Frequency(6) -387.0800
C     1.607132    3.578026    0.029066    0.000668    0.001548    0.003274
O     0.869632    2.470441   -0.436570   -0.010336   -0.003136    0.019204
C     2.767617    3.840469   -0.941908   -0.001108   -0.002076   -0.002260
O     2.095264    3.386035    1.323669    0.002690    0.009686    0.005762
C    -0.539163    2.571645   -0.433124   -0.009748    0.018278    0.011736
O     2.352131    4.162116   -2.238597   -0.000846   -0.009684    0.000380
C     3.674363    2.602789   -0.928873    0.006066   -0.001544   -0.004074
C     3.021615    2.310282    1.494938   -0.001220    0.013522    0.004592
C    -1.040371    2.622967   -1.884186   -0.000016    0.011638    0.004886
C    -1.209350    1.370678    0.259810   -0.028334    0.019450   -0.001372
O     4.783074    2.765444   -1.774557    0.005838   -0.001124   -0.001342
C     4.189503    2.378750    0.496598   -0.001510    0.000666   -0.000020
C     3.508728    2.441216    2.947185   -0.002052    0.004784    0.004562
C    -2.577007    2.695092   -1.911170   -0.001806    0.002390   -0.001924
O    -0.478079    3.752162   -2.505850    0.010392   -0.000726    0.002274
O    -2.618345    1.530987    0.207447   -0.020896    0.015354    0.007596
C    -0.868013    1.232444    1.724685   -0.009106   -0.029520    0.008692
O     4.915262    1.163208    0.466091    0.002270    0.000020    0.009478
O     4.196297    3.643221    3.162393    0.001538   -0.000622    0.010494
C    -3.144495    1.515620   -1.098626   -0.006978    0.001906   -0.002842
O    -3.060551    2.710500   -3.221704    0.005924   -0.003968   -0.004062
O     0.331207    0.670369    1.909197    0.005146    0.015094   -0.000032
O    -1.596864    1.540024    2.631885   -0.000826    0.033934   -0.005670
C     6.075482    1.053819    1.251912    0.000054    0.001650    0.001212
O    -2.844437    0.360153   -1.815986    0.007916   -0.007086    0.010512
C     0.560884    0.020489    3.150336   -0.070126   -0.068934   -0.036226
C     7.144756    0.363284    0.391620   -0.000846    0.000512   -0.000268
O     5.865483    0.333773    2.431995    0.004860    0.002224    0.010668
C    -3.718794   -0.761051   -1.756078    0.004292   -0.003034   -0.001568
C    -0.138988   -1.323285    3.163098   -0.374172   -0.032548   -0.236480
O     7.415573    1.078793   -0.781986   -0.002686   -0.002458    0.000998
C     6.659563   -1.059420    0.080730    0.000186   -0.001492   -0.001956
C     5.381973   -0.999859    2.274878    0.007670    0.003710    0.006648
C    -3.460367   -1.474569   -3.093669   -0.008096   -0.002092   -0.006736
C    -3.452267   -1.679301   -0.545431   -0.015200   -0.000948    0.006168
C     0.520076   -2.567223    3.668251   -0.055978    0.062218   -0.100176
O    -1.221587   -1.480553    2.242331    0.897874   -0.062538   -1.204610
O    -1.593052   -1.285283    3.211387   -0.002498    0.032274    0.678864
O     7.641630   -1.794242   -0.601458    0.000488   -0.002156    0.000266
C     6.297746   -1.832035    1.357297    0.000242    0.001072    0.000750
C     5.334628   -1.548127    3.711943    0.001356   -0.001830    0.003186
C    -4.039260   -2.894876   -3.140077   -0.004538   -0.001792   -0.001024
O    -3.995033   -0.669828   -4.114514   -0.004524    0.012348    0.007730
O    -4.007401   -2.977363   -0.751124   -0.014586    0.007962    0.000614
C    -4.129976   -1.183823    0.735460   -0.001554    0.013422    0.007134
O     1.689536   -2.754003    2.875577   -0.022326    0.030112   -0.033540
O     5.668223   -3.003376    0.854988   -0.009748    0.001802    0.009886
O     6.613387   -1.646880    4.275146   -0.001366    0.001832    0.009568
C    -3.536349   -3.638043   -1.891657   -0.001050    0.005138    0.002690
O    -3.678924   -3.544195   -4.327137    0.005402   -0.003870    0.007106
O    -3.831528   -2.078782    1.781532   -0.075874   -0.058106   -0.038588
C     2.041674   -3.997971    2.580778   -0.005524    0.021494    0.016272
C     5.585575   -4.156612    1.630640   -0.001332   -0.000042    0.003240
O    -2.141558   -3.674998   -1.986306   -0.000476    0.008094    0.012222
C     3.247360   -4.010736    1.653969    0.004814    0.006806    0.012006
O     1.490168   -4.977134    3.006675    0.013454    0.002190    0.008762
C     5.587524   -5.332750    0.633767   -0.001838    0.001896    0.001078
O     4.416359   -4.216033    2.427408   -0.004270   -0.007370    0.015946
C    -1.424118   -4.794968   -1.510258   -0.006006   -0.003998    0.003038
C     3.071969   -5.126839    0.615072    0.003036    0.018280    0.000498
O     6.747016   -5.355863   -0.144438   -0.000218    0.001720    0.002298
C     4.331826   -5.221193   -0.251593    0.002052    0.004942   -0.002890
C    -0.162469   -4.821740   -2.382574   -0.010006   -0.002934   -0.006896
C    -1.011305   -4.713557   -0.028315   -0.008922   -0.017482    0.007982
O     1.951709   -4.835389   -0.213674    0.000040    0.026846   -0.001140
O     4.204358   -6.341114   -1.096897   -0.000586    0.003674    0.001948
C     0.761859   -5.972708   -1.972353   -0.008140    0.002804    0.002712
O    -0.564766   -4.957520   -3.721929   -0.013616    0.006066    0.002466
O    -0.115940   -5.785434    0.278392   -0.007666   -0.010766    0.008218
C    -2.180187   -4.911289    0.955787   -0.018384    0.021802    0.004534
C     1.054509   -5.890956   -0.465975    0.003632    0.010064    0.001778
O     1.918718   -5.928164   -2.763774   -0.017600    0.005366   -0.005324
O    -1.933701   -4.346668    2.215358    0.001228    0.020350    0.014908
C     1.177810   -1.032256   -0.700025    0.129134   -0.076226    0.211570
H     1.579938   -0.124574   -0.110096   -0.207238   -0.007094    0.059340
C     1.457480   -0.761170   -2.149922   -0.116684   -0.041024    0.064854
C     2.735876   -0.667245   -2.665593   -0.080574   -0.034408    0.093462
C     0.364282   -0.591059   -2.984388   -0.078598   -0.010342    0.036098
C     2.922414   -0.407451   -4.007929   -0.039428   -0.019180    0.088610
C     0.540847   -0.319095   -4.326086   -0.004270   -0.013156    0.027738
C     1.825746   -0.229284   -4.836116   -0.003286   -0.014016    0.042902
H     0.961855    4.464909    0.097848    0.008468    0.004854    0.004250
H     3.344587    4.699168   -0.572522   -0.007358   -0.001664    0.008176
H    -0.851843    3.485663    0.092413   -0.005998    0.019814    0.007022
H     1.451458    3.832117   -2.404195   -0.014882    0.007964    0.011152
H     3.084594    1.719798   -1.231594    0.012038    0.007568   -0.014878
H     2.512356    1.350066    1.325640   -0.016328    0.017646    0.074908
H    -0.703162    1.699815   -2.382880   -0.010564    0.020428   -0.005326
H    -0.881496    0.413741   -0.211498   -0.107086    0.077378   -0.057624
H     4.493964    3.261400   -2.559211   -0.008340   -0.031774   -0.014550
H     4.862489    3.205708    0.766434   -0.009440    0.002734    0.007684
H     4.209214    1.635084    3.167991   -0.005724    0.003196    0.012662
H     2.637342    2.367781    3.605837   -0.004588   -0.012984    0.007164
H    -2.893605    3.635892   -1.447349   -0.014878   -0.005354    0.005888
H    -0.994568    3.948762   -3.308507    0.050888   -0.046048   -0.030504
H     3.577112    4.380081    3.049176    0.014138    0.000256   -0.043032
H    -4.229960    1.620190   -0.957711   -0.006744    0.003744   -0.014286
H    -3.109835    1.802724   -3.561445    0.009654   -0.014540    0.010908
H     6.418067    2.044392    1.581171    0.005428   -0.002138    0.004668
H     1.637791   -0.155085    3.220716   -0.090356   -0.155768   -0.050682
H     0.180125    0.629540    3.987481   -0.005954   -0.081734   -0.019804
H     8.086998    0.310591    0.947082   -0.005014    0.001016    0.006912
H    -4.759583   -0.405222   -1.738266    0.002206   -0.010036    0.007258
H     6.585906    1.414568   -1.160256   -0.005138    0.006254    0.004324
H     5.737979   -0.990192   -0.523035    0.008086   -0.001212   -0.004368
H     4.375743   -0.984953    1.827580   -0.002764    0.008084    0.040658
H    -2.367275   -1.561045   -3.201606   -0.018600   -0.016290   -0.032902
H    -2.360199   -1.752664   -0.412472   -0.037626   -0.018930    0.099602
H     0.816468   -2.413119    4.716754   -0.106630    0.214596   -0.122414
H    -0.147495   -3.444155    3.573267    0.025518    0.014250    0.028314
H     8.029049   -1.221691   -1.284091   -0.025282   -0.010108   -0.020726
H     7.213835   -2.106992    1.898792   -0.001260    0.004078    0.002648
H     4.698301   -0.879353    4.302720   -0.014580   -0.015824    0.007180
H     4.904940   -2.549303    3.714540    0.001354   -0.002468    0.007360
H    -5.133005   -2.853406   -3.122218   -0.004930   -0.013650    0.008846
H    -4.089322   -1.214275   -4.915226    0.048082    0.031804   -0.008252
H    -3.765597   -0.177692    0.970653    0.061392   -0.027980    0.067646
H    -5.208701   -1.166079    0.543611   -0.012646    0.089206    0.027554
H     6.985347   -0.755165    4.355556    0.006716    0.001826   -0.028976
H    -3.956095   -4.653220   -1.837938   -0.007478    0.008972    0.008544
H    -2.754742   -3.835398   -4.267039    0.012380    0.003882    0.025992
H    -4.454246   -1.898642    2.526528    0.458734    0.285544    0.156362
H     6.415930   -4.230266    2.345467    0.000010   -0.004066   -0.000050
H     3.295385   -3.041445    1.141019    0.046296    0.019338    0.056248
H     5.556010   -6.276941    1.186532   -0.002650    0.005500    0.007194
H    -2.010941   -5.709722   -1.683994   -0.009134   -0.002542    0.013802
H     2.905578   -6.074681    1.143554    0.004042    0.024684    0.008436
H     6.946739   -4.454511   -0.447642   -0.008126    0.002810   -0.006072
H     4.391085   -4.296352   -0.845897    0.029760   -0.004612   -0.009998
H     0.362072   -3.862457   -2.228701   -0.016426   -0.002932   -0.026934
H    -0.528670   -3.729306    0.118849   -0.028196   -0.037192    0.095434
H     5.088360   -6.550590   -1.449713   -0.011396    0.022938   -0.028870
H     0.224294   -6.917433   -2.157947   -0.000748   -0.007402    0.032280
H     0.222769   -5.159694   -4.255336   -0.004060    0.071710   -0.003408
H    -2.281308   -5.989137    1.107378   -0.071900    0.035676    0.060284
H    -3.094760   -4.496561    0.530021   -0.016754    0.055636    0.030218
H     1.501695   -6.836787   -0.128132    0.013278    0.016358   -0.002192
H     2.710734   -6.152169   -2.232115   -0.017540   -0.006586   -0.021988
H    -2.231318   -3.421851    2.176183    0.375058    0.111192   -0.028198
O    -0.003463   -1.457704   -0.373854   -0.070170   -0.067436    0.190058
H     3.567995   -0.814361   -1.986334   -0.076030   -0.029954    0.072934
H    -0.606170   -0.703863   -2.511151   -0.141778    0.073392   -0.119546
H     3.922393   -0.343568   -4.410297   -0.021256   -0.010772    0.145770
H    -0.317277   -0.183462   -4.967986    0.011880   -0.007868    0.015010
H     1.971159   -0.021509   -5.884667    0.031382   -0.011252    0.049526
H     1.922236   -2.883927   -0.479753    0.093132   -0.001280   -0.033656
O     2.290197   -2.022977   -0.219823   -0.082652    0.058312    0.003280
147
* Frequency(6) -387.0800
C     1.607090    3.577929    0.028860    0.000668    0.001548    0.003274
O     0.870283    2.470638   -0.437780   -0.010336   -0.003136    0.019204
C     2.767687    3.840599   -0.941766   -0.001108   -0.002076   -0.002260
O     2.095095    3.385424    1.323306    0.002690    0.009686    0.005762
C    -0.538549    2.570494   -0.433864   -0.009748    0.018278    0.011736
O     2.352184    4.162726   -2.238621   -0.000846   -0.009684    0.000380
C     3.673981    2.602886   -0.928616    0.006066   -0.001544   -0.004074
C     3.021692    2.309430    1.494648   -0.001220    0.013522    0.004592
C    -1.040370    2.622234   -1.884494   -0.000016    0.011638    0.004886
C    -1.207564    1.369452    0.259897   -0.028334    0.019450   -0.001372
O     4.782706    2.765515   -1.774473    0.005838   -0.001124   -0.001342
C     4.189598    2.378708    0.496599   -0.001510    0.000666   -0.000020
C     3.508858    2.440915    2.946898   -0.002052    0.004784    0.004562
C    -2.576893    2.694941   -1.911048   -0.001806    0.002390   -0.001924
O    -0.478734    3.752208   -2.505993    0.010392   -0.000726    0.002274
O    -2.617028    1.530020    0.206968   -0.020896    0.015354    0.007596
C    -0.867439    1.234305    1.724137   -0.009106   -0.029520    0.008692
O     4.915119    1.163207    0.465494    0.002270    0.000020    0.009478
O     4.196200    3.643260    3.161731    0.001538   -0.000622    0.010494
C    -3.144055    1.515500   -1.098447   -0.006978    0.001906   -0.002842
O    -3.060925    2.710750   -3.221448    0.005924   -0.003968   -0.004062
O     0.330883    0.669418    1.909199    0.005146    0.015094   -0.000032
O    -1.596812    1.537885    2.632242   -0.000826    0.033934   -0.005670
C     6.075479    1.053715    1.251836    0.000054    0.001650    0.001212
O    -2.844936    0.360599   -1.816648    0.007916   -0.007086    0.010512
C     0.565303    0.024833    3.152619   -0.070126   -0.068934   -0.036226
C     7.144809    0.363252    0.391637   -0.000846    0.000512   -0.000268
O     5.865176    0.333633    2.431323    0.004860    0.002224    0.010668
C    -3.719065   -0.760860   -1.755979    0.004292   -0.003034   -0.001568
C    -0.115409   -1.321234    3.178001   -0.374172   -0.032548   -0.236480
O     7.415742    1.078948   -0.782049   -0.002686   -0.002458    0.000998
C     6.659551   -1.059326    0.080853    0.000186   -0.001492   -0.001956
C     5.381490   -1.000093    2.274459    0.007670    0.003710    0.006648
C    -3.459857   -1.474437   -3.093245   -0.008096   -0.002092   -0.006736
C    -3.451309   -1.679241   -0.545820   -0.015200   -0.000948    0.006168
C     0.523603   -2.571144    3.674563   -0.055978    0.062218   -0.100176
O    -1.278168   -1.476612    2.318242    0.897874   -0.062538   -1.204610
O    -1.592894   -1.287316    3.168607   -0.002498    0.032274    0.678864
O     7.641600   -1.794106   -0.601475    0.000488   -0.002156    0.000266
C     6.297730   -1.832103    1.357250    0.000242    0.001072    0.000750
C     5.334542   -1.548011    3.711742    0.001356   -0.001830    0.003186
C    -4.038974   -2.894763   -3.140013   -0.004538   -0.001792   -0.001024
O    -3.994748   -0.670606   -4.115001   -0.004524    0.012348    0.007730
O    -4.006482   -2.977865   -0.751163   -0.014586    0.007962    0.000614
C    -4.129878   -1.184669    0.735010   -0.001554    0.013422    0.007134
O     1.690943   -2.755901    2.877690   -0.022326    0.030112   -0.033540
O     5.668837   -3.003490    0.854365   -0.009748    0.001802    0.009886
O     6.613473   -1.646995    4.274543   -0.001366    0.001832    0.009568
C    -3.536282   -3.638367   -1.891826   -0.001050    0.005138    0.002690
O    -3.679264   -3.543952   -4.327585    0.005402   -0.003870    0.007106
O    -3.826747   -2.075120    1.783963   -0.075874   -0.058106   -0.038588
C     2.042023   -3.999325    2.579752   -0.005524    0.021494    0.016272
C     5.585659   -4.156610    1.630436   -0.001332   -0.000042    0.003240
O    -2.141528   -3.675508   -1.987076   -0.000476    0.008094    0.012222
C     3.247057   -4.011164    1.653213    0.004814    0.006806    0.012006
O     1.489320   -4.977272    3.006123    0.013454    0.002190    0.008762
C     5.587640   -5.332870    0.633699   -0.001838    0.001896    0.001078
O     4.416628   -4.215569    2.426403   -0.004270   -0.007370    0.015946
C    -1.423740   -4.794716   -1.510450   -0.006006   -0.003998    0.003038
C     3.071778   -5.127991    0.615040    0.003036    0.018280    0.000498
O     6.747030   -5.355971   -0.144583   -0.000218    0.001720    0.002298
C     4.331696   -5.221504   -0.251411    0.002052    0.004942   -0.002890
C    -0.161839   -4.821556   -2.382140   -0.010006   -0.002934   -0.006896
C    -1.010742   -4.712456   -0.028818   -0.008922   -0.017482    0.007982
O     1.951706   -4.837081   -0.213603    0.000040    0.026846   -0.001140
O     4.204395   -6.341346   -1.097019   -0.000586    0.003674    0.001948
C     0.762372   -5.972885   -1.972524   -0.008140    0.002804    0.002712
O    -0.563908   -4.957902   -3.722084   -0.013616    0.006066    0.002466
O    -0.115457   -5.784755    0.277874   -0.007666   -0.010766    0.008218
C    -2.179029   -4.912663    0.955502   -0.018384    0.021802    0.004534
C     1.054280   -5.891590   -0.466087    0.003632    0.010064    0.001778
O     1.919827   -5.928502   -2.763439   -0.017600    0.005366   -0.005324
O    -1.933779   -4.347951    2.214419    0.001228    0.020350    0.014908
C     1.169672   -1.027452   -0.713358    0.129134   -0.076226    0.211570
H     1.592998   -0.124127   -0.113836   -0.207238   -0.007094    0.059340
C     1.464833   -0.758585   -2.154009   -0.116684   -0.041024    0.064854
C     2.740954   -0.665077   -2.671483   -0.080574   -0.034408    0.093462
C     0.369235   -0.590407   -2.986663   -0.078598   -0.010342    0.036098
C     2.924898   -0.406242   -4.013513   -0.039428   -0.019180    0.088610
C     0.541116   -0.318266   -4.327834   -0.004270   -0.013156    0.027738
C     1.825953   -0.228401   -4.838820   -0.003286   -0.014016    0.042902
H     0.961322    4.464603    0.097580    0.008468    0.004854    0.004250
H     3.345050    4.699273   -0.573038   -0.007358   -0.001664    0.008176
H    -0.851466    3.484414    0.091970   -0.005998    0.019814    0.007022
H     1.452396    3.831615   -2.404897   -0.014882    0.007964    0.011152
H     3.083836    1.719321   -1.230656    0.012038    0.007568   -0.014878
H     2.513384    1.348954    1.320919   -0.016328    0.017646    0.074908
H    -0.702496    1.698527   -2.382544   -0.010564    0.020428   -0.005326
H    -0.874748    0.408865   -0.207866   -0.107086    0.077378   -0.057624
H     4.494489    3.263402   -2.558294   -0.008340   -0.031774   -0.014550
H     4.863084    3.205536    0.765950   -0.009440    0.002734    0.007684
H     4.209575    1.634883    3.167194   -0.005724    0.003196    0.012662
H     2.637632    2.368600    3.605386   -0.004588   -0.012984    0.007164
H    -2.892667    3.636229   -1.447720   -0.014878   -0.005354    0.005888
H    -0.997775    3.951663   -3.306585    0.050888   -0.046048   -0.030504
H     3.576221    4.380065    3.051888    0.014138    0.000256   -0.043032
H    -4.229535    1.619954   -0.956811   -0.006744    0.003744   -0.014286
H    -3.110443    1.803640   -3.562132    0.009654   -0.014540    0.010908
H     6.417725    2.044526    1.580877    0.005428   -0.002138    0.004668
H     1.643485   -0.145269    3.223910   -0.090356   -0.155768   -0.050682
H     0.180500    0.634690    3.988729   -0.005954   -0.081734   -0.019804
H     8.087314    0.310527    0.946647   -0.005014    0.001016    0.006912
H    -4.759722   -0.404589   -1.738723    0.002206   -0.010036    0.007258
H     6.586230    1.414173   -1.160529   -0.005138    0.006254    0.004324
H     5.737469   -0.990116   -0.522760    0.008086   -0.001212   -0.004368
H     4.375917   -0.985462    1.825018   -0.002764    0.008084    0.040658
H    -2.366103   -1.560019   -3.199532   -0.018600   -0.016290   -0.032902
H    -2.357828   -1.751472   -0.418748   -0.037626   -0.018930    0.099602
H     0.823187   -2.426642    4.724468   -0.106630    0.214596   -0.122414
H    -0.149103   -3.445053    3.571483    0.025518    0.014250    0.028314
H     8.030642   -1.221054   -1.282785   -0.025282   -0.010108   -0.020726
H     7.213915   -2.107249    1.898625   -0.001260    0.004078    0.002648
H     4.699220   -0.878356    4.302268   -0.014580   -0.015824    0.007180
H     4.904855   -2.549148    3.714076    0.001354   -0.002468    0.007360
H    -5.132694   -2.852546   -3.122775   -0.004930   -0.013650    0.008846
H    -4.092352   -1.216279   -4.914706    0.048082    0.031804   -0.008252
H    -3.769465   -0.175929    0.966390    0.061392   -0.027980    0.067646
H    -5.207904   -1.171700    0.541874   -0.012646    0.089206    0.027554
H     6.984923   -0.755280    4.357382    0.006716    0.001826   -0.028976
H    -3.955624   -4.653786   -1.838477   -0.007478    0.008972    0.008544
H    -2.755522   -3.835642   -4.268677    0.012380    0.003882    0.025992
H    -4.483154   -1.916636    2.516675    0.458734    0.285544    0.156362
H     6.415930   -4.230010    2.345470    0.000010   -0.004066   -0.000050
H     3.292467   -3.042663    1.137474    0.046296    0.019338    0.056248
H     5.556177   -6.277288    1.186078   -0.002650    0.005500    0.007194
H    -2.010365   -5.709562   -1.684864   -0.009134   -0.002542    0.013802
H     2.905323   -6.076237    1.143022    0.004042    0.024684    0.008436
H     6.947252   -4.454688   -0.447260   -0.008126    0.002810   -0.006072
H     4.389209   -4.296062   -0.845267    0.029760   -0.004612   -0.009998
H     0.363107   -3.862272   -2.227004   -0.016426   -0.002932   -0.026934
H    -0.526894   -3.726962    0.112835   -0.028196   -0.037192    0.095434
H     5.089078   -6.552035   -1.447894   -0.011396    0.022938   -0.028870
H     0.224341   -6.916967   -2.159981   -0.000748   -0.007402    0.032280
H     0.223025   -5.164213   -4.255122   -0.004060    0.071710   -0.003408
H    -2.276777   -5.991385    1.103579   -0.071900    0.035676    0.060284
H    -3.093704   -4.500067    0.528117   -0.016754    0.055636    0.030218
H     1.500858   -6.837818   -0.127993    0.013278    0.016358   -0.002192
H     2.711839   -6.151754   -2.230729   -0.017540   -0.006586   -0.021988
H    -2.254953   -3.428858    2.177960    0.375058    0.111192   -0.028198
O     0.000959   -1.453454   -0.385831   -0.070170   -0.067436    0.190058
H     3.572786   -0.812473   -1.990930   -0.076030   -0.029954    0.072934
H    -0.597235   -0.708488   -2.503617   -0.141778    0.073392   -0.119546
H     3.923733   -0.342889   -4.419483   -0.021256   -0.010772    0.145770
H    -0.318026   -0.182966   -4.968932    0.011880   -0.007868    0.015010
H     1.969181   -0.020800   -5.887788    0.031382   -0.011252    0.049526
H     1.916367   -2.883847   -0.477633    0.093132   -0.001280   -0.033656
O     2.295406   -2.026651   -0.220029   -0.082652    0.058312    0.003280
147
* Frequency(6) -387.0800
C     1.607071    3.577885    0.028767    0.000668    0.001548    0.003274
O     0.870575    2.470727   -0.438323   -0.010336   -0.003136    0.019204
C     2.767718    3.840658   -0.941702   -0.001108   -0.002076   -0.002260
O     2.095019    3.385150    1.323143    0.002690    0.009686    0.005762
C    -0.538273    2.569977   -0.434196   -0.009748    0.018278    0.011736
O     2.352208    4.163000   -2.238632   -0.000846   -0.009684    0.000380
C     3.673809    2.602930   -0.928501    0.006066   -0.001544   -0.004074
C     3.021727    2.309047    1.494518   -0.001220    0.013522    0.004592
C    -1.040369    2.621905   -1.884632   -0.000016    0.011638    0.004886
C    -1.206763    1.368902    0.259936   -0.028334    0.019450   -0.001372
O     4.782541    2.765547   -1.774435    0.005838   -0.001124   -0.001342
C     4.189641    2.378689    0.496600   -0.001510    0.000666   -0.000020
C     3.508916    2.440779    2.946769   -0.002052    0.004784    0.004562
C    -2.576842    2.694873   -1.910994   -0.001806    0.002390   -0.001924
O    -0.479028    3.752228   -2.506057    0.010392   -0.000726    0.002274
O    -2.616437    1.529585    0.206753   -0.020896    0.015354    0.007596
C    -0.867182    1.235140    1.723891   -0.009106   -0.029520    0.008692
O     4.915055    1.163206    0.465226    0.002270    0.000020    0.009478
O     4.196157    3.643278    3.161435    0.001538   -0.000622    0.010494
C    -3.143858    1.515446   -1.098367   -0.006978    0.001906   -0.002842
O    -3.061092    2.710862   -3.221333    0.005924   -0.003968   -0.004062
O     0.330737    0.668991    1.909200    0.005146    0.015094   -0.000032
O    -1.596789    1.536926    2.632403   -0.000826    0.033934   -0.005670
C     6.075477    1.053668    1.251801    0.000054    0.001650    0.001212
O    -2.845160    0.360800   -1.816946    0.007916   -0.007086    0.010512
C     0.567286    0.026782    3.153644   -0.070126   -0.068934   -0.036226
C     7.144833    0.363237    0.391644   -0.000846    0.000512   -0.000268
O     5.865039    0.333570    2.431021    0.004860    0.002224    0.010668
C    -3.719186   -0.760774   -1.755935    0.004292   -0.003034   -0.001568
C    -0.104826   -1.320313    3.184689   -0.374172   -0.032548   -0.236480
O     7.415818    1.079017   -0.782077   -0.002686   -0.002458    0.000998
C     6.659546   -1.059284    0.080908    0.000186   -0.001492   -0.001956
C     5.381273   -1.000198    2.274271    0.007670    0.003710    0.006648
C    -3.459628   -1.474378   -3.093054   -0.008096   -0.002092   -0.006736
C    -3.450879   -1.679214   -0.545994   -0.015200   -0.000948    0.006168
C     0.525186   -2.572904    3.677397   -0.055978    0.062218   -0.100176
O    -1.303564   -1.474843    2.352313    0.897874   -0.062538   -1.204610
O    -1.592824   -1.288229    3.149406   -0.002498    0.032274    0.678864
O     7.641586   -1.794045   -0.601483    0.000488   -0.002156    0.000266
C     6.297724   -1.832133    1.357228    0.000242    0.001072    0.000750
C     5.334504   -1.547960    3.711652    0.001356   -0.001830    0.003186
C    -4.038846   -2.894712   -3.139984   -0.004538   -0.001792   -0.001024
O    -3.994620   -0.670955   -4.115219   -0.004524    0.012348    0.007730
O    -4.006069   -2.978090   -0.751180   -0.014586    0.007962    0.000614
C    -4.129834   -1.185049    0.734809   -0.001554    0.013422    0.007134
O     1.691574   -2.756752    2.878639   -0.022326    0.030112   -0.033540
O     5.669113   -3.003541    0.854086   -0.009748    0.001802    0.009886
O     6.613511   -1.647047    4.274273   -0.001366    0.001832    0.009568
C    -3.536253   -3.638512   -1.891902   -0.001050    0.005138    0.002690
O    -3.679417   -3.543842   -4.327786    0.005402   -0.003870    0.007106
O    -3.824601   -2.073476    1.785055   -0.075874   -0.058106   -0.038588
C     2.042179   -3.999933    2.579292   -0.005524    0.021494    0.016272
C     5.585697   -4.156608    1.630344   -0.001332   -0.000042    0.003240
O    -2.141515   -3.675737   -1.987422   -0.000476    0.008094    0.012222
C     3.246921   -4.011357    1.652873    0.004814    0.006806    0.012006
O     1.488939   -4.977334    3.005875    0.013454    0.002190    0.008762
C     5.587692   -5.332923    0.633669   -0.001838    0.001896    0.001078
O     4.416748   -4.215360    2.425952   -0.004270   -0.007370    0.015946
C    -1.423570   -4.794602   -1.510536   -0.006006   -0.003998    0.003038
C     3.071692   -5.128508    0.615026    0.003036    0.018280    0.000498
O     6.747036   -5.356020   -0.144648   -0.000218    0.001720    0.002298
C     4.331638   -5.221644   -0.251329    0.002052    0.004942   -0.002890
C    -0.161556   -4.821473   -2.381945   -0.010006   -0.002934   -0.006896
C    -1.010490   -4.711961   -0.029044   -0.008922   -0.017482    0.007982
O     1.951705   -4.837840   -0.213570    0.000040    0.026846   -0.001140
O     4.204411   -6.341450   -1.097074   -0.000586    0.003674    0.001948
C     0.762602   -5.972964   -1.972601   -0.008140    0.002804    0.002712
O    -0.563523   -4.958074   -3.722154   -0.013616    0.006066    0.002466
O    -0.115240   -5.784451    0.277642   -0.007666   -0.010766    0.008218
C    -2.178509   -4.913280    0.955374   -0.018384    0.021802    0.004534
C     1.054177   -5.891874   -0.466137    0.003632    0.010064    0.001778
O     1.920325   -5.928654   -2.763288   -0.017600    0.005366   -0.005324
O    -1.933813   -4.348526    2.213997    0.001228    0.020350    0.014908
C     1.166019   -1.025296   -0.719342    0.129134   -0.076226    0.211570
H     1.598860   -0.123927   -0.115514   -0.207238   -0.007094    0.059340
C     1.468133   -0.757425   -2.155843   -0.116684   -0.041024    0.064854
C     2.743233   -0.664103   -2.674126   -0.080574   -0.034408    0.093462
C     0.371458   -0.590115   -2.987684   -0.078598   -0.010342    0.036098
C     2.926014   -0.405700   -4.016020   -0.039428   -0.019180    0.088610
C     0.541236   -0.317894   -4.328618   -0.004270   -0.013156    0.027738
C     1.826046   -0.228004   -4.840033   -0.003286   -0.014016    0.042902
H     0.961082    4.464466    0.097460    0.008468    0.004854    0.004250
H     3.345259    4.699320   -0.573269   -0.007358   -0.001664    0.008176
H    -0.851296    3.483854    0.091772   -0.005998    0.019814    0.007022
H     1.452817    3.831390   -2.405213   -0.014882    0.007964    0.011152
H     3.083495    1.719107   -1.230235    0.012038    0.007568   -0.014878
H     2.513846    1.348455    1.318801   -0.016328    0.017646    0.074908
H    -0.702197    1.697950   -2.382393   -0.010564    0.020428   -0.005326
H    -0.871719    0.406676   -0.206236   -0.107086    0.077378   -0.057624
H     4.494725    3.264301   -2.557883   -0.008340   -0.031774   -0.014550
H     4.863351    3.205458    0.765733   -0.009440    0.002734    0.007684
H     4.209737    1.634792    3.166835   -0.005724    0.003196    0.012662
H     2.637761    2.368967    3.605183   -0.004588   -0.012984    0.007164
H    -2.892246    3.636380   -1.447887   -0.014878   -0.005354    0.005888
H    -0.999214    3.952966   -3.305722    0.050888   -0.046048   -0.030504
H     3.575822    4.380058    3.053105    0.014138    0.000256   -0.043032
H    -4.229345    1.619848   -0.956407   -0.006744    0.003744   -0.014286
H    -3.110716    1.804052   -3.562441    0.009654   -0.014540    0.010908
H     6.417572    2.044587    1.580745    0.005428   -0.002138    0.004668
H     1.646041   -0.140863    3.225343   -0.090356   -0.155768   -0.050682
H     0.180669    0.637002    3.989289   -0.005954   -0.081734   -0.019804
H     8.087456    0.310499    0.946451   -0.005014    0.001016    0.006912
H    -4.759784   -0.404305   -1.738929    0.002206   -0.010036    0.007258
H     6.586375    1.413997   -1.160651   -0.005138    0.006254    0.004324
H     5.737241   -0.990081   -0.522636    0.008086   -0.001212   -0.004368
H     4.375995   -0.985691    1.823868   -0.002764    0.008084    0.040658
H    -2.365577   -1.559558   -3.198602   -0.018600   -0.016290   -0.032902
H    -2.356764   -1.750936   -0.421566   -0.037626   -0.018930    0.099602
H     0.826203   -2.432712    4.727931   -0.106630    0.214596   -0.122414
H    -0.149825   -3.445456    3.570682    0.025518    0.014250    0.028314
H     8.031357   -1.220768   -1.282199   -0.025282   -0.010108   -0.020726
H     7.213950   -2.107364    1.898550   -0.001260    0.004078    0.002648
H     4.699633   -0.877909    4.302065   -0.014580   -0.015824    0.007180
H     4.904817   -2.549078    3.713868    0.001354   -0.002468    0.007360
H    -5.132554   -2.852160   -3.123026   -0.004930   -0.013650    0.008846
H    -4.093712   -1.217178   -4.914473    0.048082    0.031804   -0.008252
H    -3.771202   -0.175137    0.964477    0.061392   -0.027980    0.067646
H    -5.207546   -1.174223    0.541095   -0.012646    0.089206    0.027554
H     6.984733   -0.755332    4.358202    0.006716    0.001826   -0.028976
H    -3.955413   -4.654039   -1.838718   -0.007478    0.008972    0.008544
H    -2.755872   -3.835752   -4.269412    0.012380    0.003882    0.025992
H    -4.496129   -1.924712    2.512252    0.458734    0.285544    0.156362
H     6.415930   -4.229895    2.345471    0.000010   -0.004066   -0.000050
H     3.291158   -3.043210    1.135883    0.046296    0.019338    0.056248
H     5.556252   -6.277443    1.185875   -0.002650    0.005500    0.007194
H    -2.010107   -5.709490   -1.685254   -0.009134   -0.002542    0.013802
H     2.905209   -6.076935    1.142783    0.004042    0.024684    0.008436
H     6.947481   -4.454767   -0.447088   -0.008126    0.002810   -0.006072
H     4.388368   -4.295931   -0.844985    0.029760   -0.004612   -0.009998
H     0.363571   -3.862189   -2.226242   -0.016426   -0.002932   -0.026934
H    -0.526096   -3.725910    0.110136   -0.028196   -0.037192    0.095434
H     5.089400   -6.552684   -1.447077   -0.011396    0.022938   -0.028870
H     0.224362   -6.916757   -2.160894   -0.000748   -0.007402    0.032280
H     0.223140   -5.166241   -4.255025   -0.004060    0.071710   -0.003408
H    -2.274743   -5.992394    1.101874   -0.071900    0.035676    0.060284
H    -3.093230   -4.501641    0.527262   -0.016754    0.055636    0.030218
H     1.500483   -6.838281   -0.127931    0.013278    0.016358   -0.002192
H     2.712335   -6.151568   -2.230107   -0.017540   -0.006586   -0.021988
H    -2.265561   -3.432003    2.178758    0.375058    0.111192   -0.028198
O     0.002944   -1.451547   -0.391206   -0.070170   -0.067436    0.190058
H     3.574937   -0.811626   -1.992993   -0.076030   -0.029954    0.072934
H    -0.593225   -0.710563   -2.500236   -0.141778    0.073392   -0.119546
H     3.924334   -0.342585   -4.423606   -0.021256   -0.010772    0.145770
H    -0.318362   -0.182744   -4.969357    0.011880   -0.007868    0.015010
H     1.968294   -0.020481   -5.889189    0.031382   -0.011252    0.049526
H     1.913733   -2.883811   -0.476681    0.093132   -0.001280   -0.033656
O     2.297743   -2.028300   -0.220122   -0.082652    0.058312    0.003280
147
* Frequency(6) -387.0800
C     1.607077    3.577900    0.028798    0.000668    0.001548    0.003274
O     0.870477    2.470697   -0.438141   -0.010336   -0.003136    0.019204
C     2.767708    3.840638   -0.941723   -0.001108   -0.002076   -0.002260
O     2.095044    3.385243    1.323198    0.002690    0.009686    0.005762
C    -0.538366    2.570150   -0.434084   -0.009748    0.018278    0.011736
O     2.352200    4.162908   -2.238628   -0.000846   -0.009684    0.000380
C     3.673867    2.602915   -0.928540    0.006066   -0.001544   -0.004074
C     3.021715    2.309176    1.494562   -0.001220    0.013522    0.004592
C    -1.040370    2.622015   -1.884586   -0.000016    0.011638    0.004886
C    -1.207033    1.369087    0.259923   -0.028334    0.019450   -0.001372
O     4.782596    2.765536   -1.774448    0.005838   -0.001124   -0.001342
C     4.189626    2.378695    0.496600   -0.001510    0.000666   -0.000020
C     3.508896    2.440825    2.946812   -0.002052    0.004784    0.004562
C    -2.576859    2.694896   -1.911012   -0.001806    0.002390   -0.001924
O    -0.478929    3.752221   -2.506036    0.010392   -0.000726    0.002274
O    -2.616636    1.529732    0.206826   -0.020896    0.015354    0.007596
C    -0.867268    1.234859    1.723974   -0.009106   -0.029520    0.008692
O     4.915077    1.163206    0.465316    0.002270    0.000020    0.009478
O     4.196171    3.643272    3.161534    0.001538   -0.000622    0.010494
C    -3.143924    1.515464   -1.098394   -0.006978    0.001906   -0.002842
O    -3.061036    2.710824   -3.221372    0.005924   -0.003968   -0.004062
O     0.330786    0.669135    1.909200    0.005146    0.015094   -0.000032
O    -1.596797    1.537249    2.632349   -0.000826    0.033934   -0.005670
C     6.075478    1.053684    1.251813    0.000054    0.001650    0.001212
O    -2.845085    0.360732   -1.816846    0.007916   -0.007086    0.010512
C     0.566619    0.026127    3.153299   -0.070126   -0.068934   -0.036226
C     7.144825    0.363242    0.391642   -0.000846    0.000512   -0.000268
O     5.865085    0.333591    2.431122    0.004860    0.002224    0.010668
C    -3.719145   -0.760803   -1.755950    0.004292   -0.003034   -0.001568
C    -0.108386   -1.320623    3.182439   -0.374172   -0.032548   -0.236480
O     7.415792    1.078994   -0.782068   -0.002686   -0.002458    0.000998
C     6.659548   -1.059298    0.080890    0.000186   -0.001492   -0.001956
C     5.381346   -1.000163    2.274334    0.007670    0.003710    0.006648
C    -3.459705   -1.474398   -3.093119   -0.008096   -0.002092   -0.006736
C    -3.451024   -1.679223   -0.545936   -0.015200   -0.000948    0.006168
C     0.524654   -2.572312    3.676444   -0.055978    0.062218   -0.100176
O    -1.295021   -1.475438    2.340852    0.897874   -0.062538   -1.204610
O    -1.592847   -1.287922    3.155865   -0.002498    0.032274    0.678864
O     7.641590   -1.794065   -0.601480    0.000488   -0.002156    0.000266
C     6.297726   -1.832123    1.357236    0.000242    0.001072    0.000750
C     5.334517   -1.547977    3.711682    0.001356   -0.001830    0.003186
C    -4.038889   -2.894729   -3.139994   -0.004538   -0.001792   -0.001024
O    -3.994663   -0.670838   -4.115146   -0.004524    0.012348    0.007730
O    -4.006208   -2.978014   -0.751174   -0.014586    0.007962    0.000614
C    -4.129849   -1.184921    0.734877   -0.001554    0.013422    0.007134
O     1.691362   -2.756466    2.878320   -0.022326    0.030112   -0.033540
O     5.669020   -3.003523    0.854180   -0.009748    0.001802    0.009886
O     6.613498   -1.647030    4.274364   -0.001366    0.001832    0.009568
C    -3.536263   -3.638463   -1.891877   -0.001050    0.005138    0.002690
O    -3.679366   -3.543879   -4.327718    0.005402   -0.003870    0.007106
O    -3.825323   -2.074029    1.784688   -0.075874   -0.058106   -0.038588
C     2.042126   -3.999729    2.579447   -0.005524    0.021494    0.016272
C     5.585684   -4.156609    1.630375   -0.001332   -0.000042    0.003240
O    -2.141519   -3.675660   -1.987306   -0.000476    0.008094    0.012222
C     3.246967   -4.011292    1.652987    0.004814    0.006806    0.012006
O     1.489067   -4.977313    3.005958    0.013454    0.002190    0.008762
C     5.587675   -5.332905    0.633679   -0.001838    0.001896    0.001078
O     4.416708   -4.215430    2.426104   -0.004270   -0.007370    0.015946
C    -1.423627   -4.794641   -1.510507   -0.006006   -0.003998    0.003038
C     3.071721   -5.128334    0.615031    0.003036    0.018280    0.000498
O     6.747034   -5.356004   -0.144626   -0.000218    0.001720    0.002298
C     4.331658   -5.221597   -0.251356    0.002052    0.004942   -0.002890
C    -0.161651   -4.821501   -2.382010   -0.010006   -0.002934   -0.006896
C    -1.010575   -4.712128   -0.028968   -0.008922   -0.017482    0.007982
O     1.951705   -4.837585   -0.213581    0.000040    0.026846   -0.001140
O     4.204406   -6.341415   -1.097056   -0.000586    0.003674    0.001948
C     0.762525   -5.972937   -1.972575   -0.008140    0.002804    0.002712
O    -0.563652   -4.958016   -3.722131   -0.013616    0.006066    0.002466
O    -0.115313   -5.784553    0.277720   -0.007666   -0.010766    0.008218
C    -2.178683   -4.913072    0.955417   -0.018384    0.021802    0.004534
C     1.054212   -5.891779   -0.466120    0.003632    0.010064    0.001778
O     1.920158   -5.928603   -2.763339   -0.017600    0.005366   -0.005324
O    -1.933802   -4.348333    2.214139    0.001228    0.020350    0.014908
C     1.167248   -1.026021   -0.717329    0.129134   -0.076226    0.211570
H     1.596888   -0.123994   -0.114949   -0.207238   -0.007094    0.059340
C     1.467023   -0.757815   -2.155226   -0.116684   -0.041024    0.064854
C     2.742466   -0.664431   -2.673237   -0.080574   -0.034408    0.093462
C     0.370711   -0.590213   -2.987341   -0.078598   -0.010342    0.036098
C     2.925639   -0.405882   -4.015176   -0.039428   -0.019180    0.088610
C     0.541196   -0.318019   -4.328354   -0.004270   -0.013156    0.027738
C     1.826015   -0.228138   -4.839625   -0.003286   -0.014016    0.042902
H     0.961163    4.464512    0.097500    0.008468    0.004854    0.004250
H     3.345188    4.699305   -0.573191   -0.007358   -0.001664    0.008176
H    -0.851353    3.484042    0.091839   -0.005998    0.019814    0.007022
H     1.452675    3.831466   -2.405107   -0.014882    0.007964    0.011152
H     3.083610    1.719179   -1.230377    0.012038    0.007568   -0.014878
H     2.513691    1.348623    1.319513   -0.016328    0.017646    0.074908
H    -0.702298    1.698144   -2.382444   -0.010564    0.020428   -0.005326
H    -0.872738    0.407412   -0.206785   -0.107086    0.077378   -0.057624
H     4.494646    3.263999   -2.558021   -0.008340   -0.031774   -0.014550
H     4.863261    3.205484    0.765806   -0.009440    0.002734    0.007684
H     4.209682    1.634823    3.166956   -0.005724    0.003196    0.012662
H     2.637718    2.368843    3.605251   -0.004588   -0.012984    0.007164
H    -2.892388    3.636330   -1.447831   -0.014878   -0.005354    0.005888
H    -0.998730    3.952528   -3.306012    0.050888   -0.046048   -0.030504
H     3.575956    4.380060    3.052695    0.014138    0.000256   -0.043032
H    -4.229409    1.619884   -0.956543   -0.006744    0.003744   -0.014286
H    -3.110625    1.803913   -3.562337    0.009654   -0.014540    0.010908
H     6.417623    2.044566    1.580789    0.005428   -0.002138    0.004668
H     1.645181   -0.142345    3.224861   -0.090356   -0.155768   -0.050682
H     0.180612    0.636225    3.989100   -0.005954   -0.081734   -0.019804
H     8.087408    0.310508    0.946517   -0.005014    0.001016    0.006912
H    -4.759763   -0.404401   -1.738860    0.002206   -0.010036    0.007258
H     6.586326    1.414056   -1.160610   -0.005138    0.006254    0.004324
H     5.737318   -0.990093   -0.522678    0.008086   -0.001212   -0.004368
H     4.375969   -0.985614    1.824255   -0.002764    0.008084    0.040658
H    -2.365754   -1.559713   -3.198915   -0.018600   -0.016290   -0.032902
H    -2.357122   -1.751116   -0.420618   -0.037626   -0.018930    0.099602
H     0.825189   -2.430670    4.726766   -0.106630    0.214596   -0.122414
H    -0.149582   -3.445321    3.570951    0.025518    0.014250    0.028314
H     8.031117   -1.220864   -1.282396   -0.025282   -0.010108   -0.020726
H     7.213939   -2.107326    1.898576   -0.001260    0.004078    0.002648
H     4.699494   -0.878059    4.302133   -0.014580   -0.015824    0.007180
H     4.904830   -2.549102    3.713938    0.001354   -0.002468    0.007360
H    -5.132601   -2.852290   -3.122941   -0.004930   -0.013650    0.008846
H    -4.093255   -1.216876   -4.914551    0.048082    0.031804   -0.008252
H    -3.770618   -0.175404    0.965120    0.061392   -0.027980    0.067646
H    -5.207666   -1.173375    0.541357   -0.012646    0.089206    0.027554
H     6.984797   -0.755315    4.357926    0.006716    0.001826   -0.028976
H    -3.955484   -4.653954   -1.838637   -0.007478    0.008972    0.008544
H    -2.755754   -3.835715   -4.269165    0.012380    0.003882    0.025992
H    -4.491764   -1.921995    2.513740    0.458734    0.285544    0.156362
H     6.415930   -4.229933    2.345471    0.000010   -0.004066   -0.000050
H     3.291598   -3.043026    1.136419    0.046296    0.019338    0.056248
H     5.556227   -6.277391    1.185943   -0.002650    0.005500    0.007194
H    -2.010194   -5.709515   -1.685123   -0.009134   -0.002542    0.013802
H     2.905248   -6.076700    1.142864    0.004042    0.024684    0.008436
H     6.947404   -4.454740   -0.447146   -0.008126    0.002810   -0.006072
H     4.388651   -4.295975   -0.845080    0.029760   -0.004612   -0.009998
H     0.363415   -3.862217   -2.226499   -0.016426   -0.002932   -0.026934
H    -0.526364   -3.726264    0.111044   -0.028196   -0.037192    0.095434
H     5.089292   -6.552466   -1.447352   -0.011396    0.022938   -0.028870
H     0.224355   -6.916828   -2.160587   -0.000748   -0.007402    0.032280
H     0.223102   -5.165558   -4.255058   -0.004060    0.071710   -0.003408
H    -2.275427   -5.992055    1.102447   -0.071900    0.035676    0.060284
H    -3.093390   -4.501112    0.527549   -0.016754    0.055636    0.030218
H     1.500609   -6.838125   -0.127952    0.013278    0.016358   -0.002192
H     2.712168   -6.151630   -2.230317   -0.017540   -0.006586   -0.021988
H    -2.261992   -3.430945    2.178489    0.375058    0.111192   -0.028198
O     0.002276   -1.452189   -0.389398   -0.070170   -0.067436    0.190058
H     3.574213   -0.811911   -1.992299   -0.076030   -0.029954    0.072934
H    -0.594574   -0.709865   -2.501373   -0.141778    0.073392   -0.119546
H     3.924132   -0.342687   -4.422219   -0.021256   -0.010772    0.145770
H    -0.318249   -0.182818   -4.969214    0.011880   -0.007868    0.015010
H     1.968592   -0.020588   -5.888718    0.031382   -0.011252    0.049526
H     1.914619   -2.883823   -0.477001    0.093132   -0.001280   -0.033656
O     2.296957   -2.027746   -0.220091   -0.082652    0.058312    0.003280
147
* Frequency(6) -387.0800
C     1.607108    3.577971    0.028950    0.000668    0.001548    0.003274
O     0.869999    2.470552   -0.437252   -0.010336   -0.003136    0.019204
C     2.767657    3.840542   -0.941828   -0.001108   -0.002076   -0.002260
O     2.095169    3.385691    1.323465    0.002690    0.009686    0.005762
C    -0.538817    2.570996   -0.433541   -0.009748    0.018278    0.011736
O     2.352161    4.162459   -2.238610   -0.000846   -0.009684    0.000380
C     3.674148    2.602843   -0.928728    0.006066   -0.001544   -0.004074
C     3.021658    2.309802    1.494775   -0.001220    0.013522    0.004592
C    -1.040370    2.622554   -1.884360   -0.000016    0.011638    0.004886
C    -1.208344    1.369987    0.259859   -0.028334    0.019450   -0.001372
O     4.782866    2.765484   -1.774510    0.005838   -0.001124   -0.001342
C     4.189556    2.378726    0.496599   -0.001510    0.000666   -0.000020
C     3.508801    2.441046    2.947023   -0.002052    0.004784    0.004562
C    -2.576943    2.695007   -1.911101   -0.001806    0.002390   -0.001924
O    -0.478448    3.752188   -2.505930    0.010392   -0.000726    0.002274
O    -2.617603    1.530442    0.207177   -0.020896    0.015354    0.007596
C    -0.867690    1.233493    1.724376   -0.009106   -0.029520    0.008692
O     4.915182    1.163207    0.465755    0.002270    0.000020    0.009478
O     4.196242    3.643243    3.162020    0.001538   -0.000622    0.010494
C    -3.144247    1.515553   -1.098525   -0.006978    0.001906   -0.002842
O    -3.060762    2.710641   -3.221560    0.005924   -0.003968   -0.004062
O     0.331024    0.669833    1.909198    0.005146    0.015094   -0.000032
O    -1.596835    1.538819    2.632086   -0.000826    0.033934   -0.005670
C     6.075480    1.053761    1.251869    0.000054    0.001650    0.001212
O    -2.844718    0.360404   -1.816359    0.007916   -0.007086    0.010512
C     0.563373    0.022936    3.151623   -0.070126   -0.068934   -0.036226
C     7.144786    0.363266    0.391630   -0.000846    0.000512   -0.000268
O     5.865310    0.333694    2.431616    0.004860    0.002224    0.010668
C    -3.718947   -0.760943   -1.756023    0.004292   -0.003034   -0.001568
C    -0.125704   -1.322129    3.171495   -0.374172   -0.032548   -0.236480
O     7.415668    1.078880   -0.782021   -0.002686   -0.002458    0.000998
C     6.659557   -1.059367    0.080799    0.000186   -0.001492   -0.001956
C     5.381701   -0.999991    2.274642    0.007670    0.003710    0.006648
C    -3.460080   -1.474495   -3.093430   -0.008096   -0.002092   -0.006736
C    -3.451727   -1.679267   -0.545650   -0.015200   -0.000948    0.006168
C     0.522063   -2.569432    3.671807   -0.055978    0.062218   -0.100176
O    -1.253466   -1.478333    2.285101    0.897874   -0.062538   -1.204610
O    -1.592963   -1.286429    3.187284   -0.002498    0.032274    0.678864
O     7.641613   -1.794165   -0.601468    0.000488   -0.002156    0.000266
C     6.297737   -1.832073    1.357270    0.000242    0.001072    0.000750
C     5.334580   -1.548062    3.711829    0.001356   -0.001830    0.003186
C    -4.039099   -2.894812   -3.140041   -0.004538   -0.001792   -0.001024
O    -3.994872   -0.670266   -4.114788   -0.004524    0.012348    0.007730
O    -4.006883   -2.977646   -0.751146   -0.014586    0.007962    0.000614
C    -4.129921   -1.184300    0.735207   -0.001554    0.013422    0.007134
O     1.690329   -2.755072    2.876767   -0.022326    0.030112   -0.033540
O     5.668569   -3.003440    0.854637   -0.009748    0.001802    0.009886
O     6.613435   -1.646945    4.274806   -0.001366    0.001832    0.009568
C    -3.536311   -3.638225   -1.891752   -0.001050    0.005138    0.002690
O    -3.679116   -3.544058   -4.327389    0.005402   -0.003870    0.007106
O    -3.828834   -2.076718    1.782902   -0.075874   -0.058106   -0.038588
C     2.041871   -3.998734    2.580200   -0.005524    0.021494    0.016272
C     5.585622   -4.156611    1.630525   -0.001332   -0.000042    0.003240
O    -2.141542   -3.675286   -1.986740   -0.000476    0.008094    0.012222
C     3.247189   -4.010977    1.653543    0.004814    0.006806    0.012006
O     1.489690   -4.977212    3.006364    0.013454    0.002190    0.008762
C     5.587590   -5.332818    0.633729   -0.001838    0.001896    0.001078
O     4.416510   -4.215772    2.426842   -0.004270   -0.007370    0.015946
C    -1.423905   -4.794826   -1.510366   -0.006006   -0.003998    0.003038
C     3.071861   -5.127488    0.615054    0.003036    0.018280    0.000498
O     6.747024   -5.355924   -0.144519   -0.000218    0.001720    0.002298
C     4.331753   -5.221368   -0.251490    0.002052    0.004942   -0.002890
C    -0.162114   -4.821636   -2.382329   -0.010006   -0.002934   -0.006896
C    -1.010988   -4.712937   -0.028599   -0.008922   -0.017482    0.007982
O     1.951707   -4.836342   -0.213634    0.000040    0.026846   -0.001140
O     4.204379   -6.341245   -1.096966   -0.000586    0.003674    0.001948
C     0.762148   -5.972808   -1.972450   -0.008140    0.002804    0.002712
O    -0.564282   -4.957735   -3.722017   -0.013616    0.006066    0.002466
O    -0.115668   -5.785051    0.278100   -0.007666   -0.010766    0.008218
C    -2.179534   -4.912063    0.955627   -0.018384    0.021802    0.004534
C     1.054380   -5.891313   -0.466038    0.003632    0.010064    0.001778
O     1.919343   -5.928354   -2.763585   -0.017600    0.005366   -0.005324
O    -1.933745   -4.347391    2.214829    0.001228    0.020350    0.014908
C     1.173225   -1.029549   -0.707537    0.129134   -0.076226    0.211570
H     1.587296   -0.124322   -0.112203   -0.207238   -0.007094    0.059340
C     1.461622   -0.759714   -2.152225   -0.116684   -0.041024    0.064854
C     2.738737   -0.666023   -2.668911   -0.080574   -0.034408    0.093462
C     0.367073   -0.590692   -2.985670   -0.078598   -0.010342    0.036098
C     2.923814   -0.406770   -4.011075   -0.039428   -0.019180    0.088610
C     0.540998   -0.318628   -4.327070   -0.004270   -0.013156    0.027738
C     1.825863   -0.228786   -4.837640   -0.003286   -0.014016    0.042902
H     0.961555    4.464737    0.097697    0.008468    0.004854    0.004250
H     3.344848    4.699228   -0.572813   -0.007358   -0.001664    0.008176
H    -0.851631    3.484959    0.092163   -0.005998    0.019814    0.007022
H     1.451987    3.831834   -2.404591   -0.014882    0.007964    0.011152
H     3.084167    1.719530   -1.231066    0.012038    0.007568   -0.014878
H     2.512935    1.349440    1.322980   -0.016328    0.017646    0.074908
H    -0.702787    1.699089   -2.382690   -0.010564    0.020428   -0.005326
H    -0.877694    0.410994   -0.209452   -0.107086    0.077378   -0.057624
H     4.494260    3.262528   -2.558695   -0.008340   -0.031774   -0.014550
H     4.862824    3.205611    0.766162   -0.009440    0.002734    0.007684
H     4.209417    1.634971    3.167542   -0.005724    0.003196    0.012662
H     2.637505    2.368242    3.605583   -0.004588   -0.012984    0.007164
H    -2.893077    3.636082   -1.447558   -0.014878   -0.005354    0.005888
H    -0.996375    3.950396   -3.307424    0.050888   -0.046048   -0.030504
H     3.576610    4.380072    3.050704    0.014138    0.000256   -0.043032
H    -4.229721    1.620057   -0.957204   -0.006744    0.003744   -0.014286
H    -3.110178    1.803240   -3.561832    0.009654   -0.014540    0.010908
H     6.417875    2.044467    1.581005    0.005428   -0.002138    0.004668
H     1.640999   -0.149555    3.222515   -0.090356   -0.155768   -0.050682
H     0.180337    0.632442    3.988184   -0.005954   -0.081734   -0.019804
H     8.087176    0.310555    0.946837   -0.005014    0.001016    0.006912
H    -4.759661   -0.404865   -1.738524    0.002206   -0.010036    0.007258
H     6.586088    1.414346   -1.160410   -0.005138    0.006254    0.004324
H     5.737692   -0.990149   -0.522880    0.008086   -0.001212   -0.004368
H     4.375841   -0.985240    1.826137   -0.002764    0.008084    0.040658
H    -2.366615   -1.560467   -3.200437   -0.018600   -0.016290   -0.032902
H    -2.358863   -1.751992   -0.416008   -0.037626   -0.018930    0.099602
H     0.820253   -2.420738    4.721100   -0.106630    0.214596   -0.122414
H    -0.148401   -3.444661    3.572262    0.025518    0.014250    0.028314
H     8.029947   -1.221332   -1.283355   -0.025282   -0.010108   -0.020726
H     7.213880   -2.107137    1.898698   -0.001260    0.004078    0.002648
H     4.698819   -0.878791    4.302465   -0.014580   -0.015824    0.007180
H     4.904892   -2.549216    3.714278    0.001354   -0.002468    0.007360
H    -5.132829   -2.852921   -3.122532   -0.004930   -0.013650    0.008846
H    -4.091029   -1.215404   -4.914933    0.048082    0.031804   -0.008252
H    -3.767776   -0.176699    0.968251    0.061392   -0.027980    0.067646
H    -5.208252   -1.169246    0.542632   -0.012646    0.089206    0.027554
H     6.985108   -0.755230    4.356585    0.006716    0.001826   -0.028976
H    -3.955830   -4.653539   -1.838241   -0.007478    0.008972    0.008544
H    -2.755181   -3.835535   -4.267962    0.012380    0.003882    0.025992
H    -4.470533   -1.908780    2.520977    0.458734    0.285544    0.156362
H     6.415930   -4.230122    2.345469    0.000010   -0.004066   -0.000050
H     3.293741   -3.042131    1.139022    0.046296    0.019338    0.056248
H     5.556104   -6.277137    1.186276   -0.002650    0.005500    0.007194
H    -2.010617   -5.709632   -1.684484   -0.009134   -0.002542    0.013802
H     2.905435   -6.075558    1.143254    0.004042    0.024684    0.008436
H     6.947028   -4.454610   -0.447427   -0.008126    0.002810   -0.006072
H     4.390028   -4.296189   -0.845543    0.029760   -0.004612   -0.009998
H     0.362655   -3.862353   -2.227745   -0.016426   -0.002932   -0.026934
H    -0.527669   -3.727985    0.115461   -0.028196   -0.037192    0.095434
H     5.088764   -6.551404   -1.448688   -0.011396    0.022938   -0.028870
H     0.224320   -6.917170   -2.159093   -0.000748   -0.007402    0.032280
H     0.222914   -5.162240   -4.255215   -0.004060    0.071710   -0.003408
H    -2.278755   -5.990403    1.105237   -0.071900    0.035676    0.060284
H    -3.094165   -4.498537    0.528948   -0.016754    0.055636    0.030218
H     1.501223   -6.837368   -0.128054    0.013278    0.016358   -0.002192
H     2.711356   -6.151935   -2.231334   -0.017540   -0.006586   -0.021988
H    -2.244634   -3.425799    2.177184    0.375058    0.111192   -0.028198
O    -0.000972   -1.455310   -0.380602   -0.070170   -0.067436    0.190058
H     3.570694   -0.813297   -1.988923   -0.076030   -0.029954    0.072934
H    -0.601136   -0.706468   -2.506906   -0.141778    0.073392   -0.119546
H     3.923148   -0.343186   -4.415473   -0.021256   -0.010772    0.145770
H    -0.317699   -0.183183   -4.968519    0.011880   -0.007868    0.015010
H     1.970045   -0.021109   -5.886426    0.031382   -0.011252    0.049526
H     1.918930   -2.883882   -0.478559    0.093132   -0.001280   -0.033656
O     2.293132   -2.025047   -0.219939   -0.082652    0.058312    0.003280
147
* Frequency(6) -387.0800
C     1.607160    3.578092    0.029205    0.000668    0.001548    0.003274
O     0.869192    2.470307   -0.435753   -0.010336   -0.003136    0.019204
C     2.767570    3.840380   -0.942004   -0.001108   -0.002076   -0.002260
O     2.095379    3.386447    1.323914    0.002690    0.009686    0.005762
C    -0.539577    2.572423   -0.432625   -0.009748    0.018278    0.011736
O     2.352095    4.161704   -2.238581   -0.000846   -0.009684    0.000380
C     3.674621    2.602723   -0.929046    0.006066   -0.001544   -0.004074
C     3.021563    2.310857    1.495133   -0.001220    0.013522    0.004592
C    -1.040372    2.623462   -1.883978   -0.000016    0.011638    0.004886
C    -1.210555    1.371505    0.259752   -0.028334    0.019450   -0.001372
O     4.783322    2.765397   -1.774615    0.005838   -0.001124   -0.001342
C     4.189439    2.378778    0.496597   -0.001510    0.000666   -0.000020
C     3.508641    2.441420    2.947379   -0.002052    0.004784    0.004562
C    -2.577084    2.695193   -1.911251   -0.001806    0.002390   -0.001924
O    -0.477637    3.752131   -2.505753    0.010392   -0.000726    0.002274
O    -2.619234    1.531640    0.207770   -0.020896    0.015354    0.007596
C    -0.868400    1.231189    1.725054   -0.009106   -0.029520    0.008692
O     4.915359    1.163209    0.466494    0.002270    0.000020    0.009478
O     4.196362    3.643195    3.162839    0.001538   -0.000622    0.010494
C    -3.144792    1.515701   -1.098747   -0.006978    0.001906   -0.002842
O    -3.060300    2.710331   -3.221877    0.005924   -0.003968   -0.004062
O     0.331426    0.671011    1.909196    0.005146    0.015094   -0.000032
O    -1.596899    1.541467    2.631644   -0.000826    0.033934   -0.005670
C     6.075484    1.053889    1.251963    0.000054    0.001650    0.001212
O    -2.844101    0.359851   -1.815539    0.007916   -0.007086    0.010512
C     0.557901    0.017557    3.148796   -0.070126   -0.068934   -0.036226
C     7.144720    0.363306    0.391609   -0.000846    0.000512   -0.000268
O     5.865689    0.333868    2.432449    0.004860    0.002224    0.010668
C    -3.718612   -0.761180   -1.756145    0.004292   -0.003034   -0.001568
C    -0.154902   -1.324669    3.153041   -0.374172   -0.032548   -0.236480
O     7.415458    1.078688   -0.781944   -0.002686   -0.002458    0.000998
C     6.659571   -1.059483    0.080646    0.000186   -0.001492   -0.001956
C     5.382299   -0.999702    2.275161    0.007670    0.003710    0.006648
C    -3.460712   -1.474658   -3.093956   -0.008096   -0.002092   -0.006736
C    -3.452913   -1.679341   -0.545169   -0.015200   -0.000948    0.006168
C     0.517695   -2.564577    3.663990   -0.055978    0.062218   -0.100176
O    -1.183401   -1.483213    2.191100    0.897874   -0.062538   -1.204610
O    -1.593158   -1.283910    3.240259   -0.002498    0.032274    0.678864
O     7.641651   -1.794334   -0.601447    0.000488   -0.002156    0.000266
C     6.297756   -1.831989    1.357329    0.000242    0.001072    0.000750
C     5.334685   -1.548205    3.712078    0.001356   -0.001830    0.003186
C    -4.039453   -2.894952   -3.140121   -0.004538   -0.001792   -0.001024
O    -3.995225   -0.669303   -4.114185   -0.004524    0.012348    0.007730
O    -4.008021   -2.977025   -0.751098   -0.014586    0.007962    0.000614
C    -4.130042   -1.183252    0.735763   -0.001554    0.013422    0.007134
O     1.688587   -2.752722    2.874150   -0.022326    0.030112   -0.033540
O     5.667809   -3.003299    0.855409   -0.009748    0.001802    0.009886
O     6.613329   -1.646802    4.275553   -0.001366    0.001832    0.009568
C    -3.536393   -3.637825   -1.891542   -0.001050    0.005138    0.002690
O    -3.678694   -3.544360   -4.326835    0.005402   -0.003870    0.007106
O    -3.834755   -2.081253    1.779890   -0.075874   -0.058106   -0.038588
C     2.041440   -3.997057    2.581470   -0.005524    0.021494    0.016272
C     5.585518   -4.156614    1.630777   -0.001332   -0.000042    0.003240
O    -2.141579   -3.674654   -1.985786   -0.000476    0.008094    0.012222
C     3.247565   -4.010446    1.654480    0.004814    0.006806    0.012006
O     1.490740   -4.977041    3.007047    0.013454    0.002190    0.008762
C     5.587446   -5.332670    0.633813   -0.001838    0.001896    0.001078
O     4.416177   -4.216347    2.428086   -0.004270   -0.007370    0.015946
C    -1.424374   -4.795138   -1.510129   -0.006006   -0.003998    0.003038
C     3.072098   -5.126062    0.615093    0.003036    0.018280    0.000498
O     6.747007   -5.355790   -0.144340   -0.000218    0.001720    0.002298
C     4.331913   -5.220982   -0.251716    0.002052    0.004942   -0.002890
C    -0.162895   -4.821865   -2.382868   -0.010006   -0.002934   -0.006896
C    -1.011684   -4.714301   -0.027976   -0.008922   -0.017482    0.007982
O     1.951710   -4.834247   -0.213723    0.000040    0.026846   -0.001140
O     4.204333   -6.340958   -1.096814   -0.000586    0.003674    0.001948
C     0.761513   -5.972589   -1.972238   -0.008140    0.002804    0.002712
O    -0.565345   -4.957262   -3.721824   -0.013616    0.006066    0.002466
O    -0.116266   -5.785892    0.278741   -0.007666   -0.010766    0.008218
C    -2.180969   -4.910362    0.955980   -0.018384    0.021802    0.004534
C     1.054663   -5.890528   -0.465899    0.003632    0.010064    0.001778
O     1.917970   -5.927936   -2.764000   -0.017600    0.005366   -0.005324
O    -1.933649   -4.345803    2.215992    0.001228    0.020350    0.014908
C     1.183301   -1.035497   -0.691027    0.129134   -0.076226    0.211570
H     1.571125   -0.124876   -0.107573   -0.207238   -0.007094    0.059340
C     1.452517   -0.762915   -2.147164   -0.116684   -0.041024    0.064854
C     2.732449   -0.668708   -2.661618   -0.080574   -0.034408    0.093462
C     0.360940   -0.591499   -2.982853   -0.078598   -0.010342    0.036098
C     2.920737   -0.408267   -4.004161   -0.039428   -0.019180    0.088610
C     0.540665   -0.319655   -4.324906   -0.004270   -0.013156    0.027738
C     1.825606   -0.229880   -4.834292   -0.003286   -0.014016    0.042902
H     0.962216    4.465116    0.098028    0.008468    0.004854    0.004250
H     3.344274    4.699098   -0.572175   -0.007358   -0.001664    0.008176
H    -0.852099    3.486505    0.092711   -0.005998    0.019814    0.007022
H     1.450825    3.832456   -2.403720   -0.014882    0.007964    0.011152
H     3.085106    1.720120   -1.232227    0.012038    0.007568   -0.014878
H     2.511661    1.350817    1.328826   -0.016328    0.017646    0.074908
H    -0.703611    1.700684   -2.383106   -0.010564    0.020428   -0.005326
H    -0.886050    0.417032   -0.213948   -0.107086    0.077378   -0.057624
H     4.493609    3.260049   -2.559830   -0.008340   -0.031774   -0.014550
H     4.862087    3.205824    0.766761   -0.009440    0.002734    0.007684
H     4.208971    1.635220    3.168530   -0.005724    0.003196    0.012662
H     2.637147    2.367229    3.606142   -0.004588   -0.012984    0.007164
H    -2.894238    3.635664   -1.447099   -0.014878   -0.005354    0.005888
H    -0.992404    3.946803   -3.309804    0.050888   -0.046048   -0.030504
H     3.577714    4.380092    3.047346    0.014138    0.000256   -0.043032
H    -4.230247    1.620349   -0.958319   -0.006744    0.003744   -0.014286
H    -3.109424    1.802106   -3.560981    0.009654   -0.014540    0.010908
H     6.418298    2.044301    1.581369    0.005428   -0.002138    0.004668
H     1.633948   -0.161710    3.218560   -0.090356   -0.155768   -0.050682
H     0.179872    0.626064    3.986638   -0.005954   -0.081734   -0.019804
H     8.086785    0.310635    0.947376   -0.005014    0.001016    0.006912
H    -4.759489   -0.405649   -1.737957    0.002206   -0.010036    0.007258
H     6.585688    1.414834   -1.160073   -0.005138    0.006254    0.004324
H     5.738323   -0.990243   -0.523221    0.008086   -0.001212   -0.004368
H     4.375625   -0.984609    1.829310   -0.002764    0.008084    0.040658
H    -2.368066   -1.561738   -3.203005   -0.018600   -0.016290   -0.032902
H    -2.361799   -1.753470   -0.408236   -0.037626   -0.018930    0.099602
H     0.811933   -2.403993    4.711548   -0.106630    0.214596   -0.122414
H    -0.146410   -3.443549    3.574471    0.025518    0.014250    0.028314
H     8.027974   -1.222121   -1.284972   -0.025282   -0.010108   -0.020726
H     7.213782   -2.106819    1.898905   -0.001260    0.004078    0.002648
H     4.697681   -0.880026    4.303025   -0.014580   -0.015824    0.007180
H     4.904998   -2.549408    3.714853    0.001354   -0.002468    0.007360
H    -5.133214   -2.853987   -3.121842   -0.004930   -0.013650    0.008846
H    -4.087277   -1.212922   -4.915577    0.048082    0.031804   -0.008252
H    -3.762986   -0.178882    0.973530    0.061392   -0.027980    0.067646
H    -5.209238   -1.162285    0.544783   -0.012646    0.089206    0.027554
H     6.985632   -0.755088    4.354324    0.006716    0.001826   -0.028976
H    -3.956413   -4.652839   -1.837575   -0.007478    0.008972    0.008544
H    -2.754215   -3.835233   -4.265934    0.012380    0.003882    0.025992
H    -4.434736   -1.886498    2.533178    0.458734    0.285544    0.156362
H     6.415931   -4.230439    2.345465    0.000010   -0.004066   -0.000050
H     3.297354   -3.040622    1.143411    0.046296    0.019338    0.056248
H     5.555898   -6.276707    1.186837   -0.002650    0.005500    0.007194
H    -2.011329   -5.709831   -1.683407   -0.009134   -0.002542    0.013802
H     2.905750   -6.073631    1.143912    0.004042    0.024684    0.008436
H     6.946394   -4.454391   -0.447901   -0.008126    0.002810   -0.006072
H     4.392350   -4.296549   -0.846323    0.029760   -0.004612   -0.009998
H     0.361373   -3.862582   -2.229847   -0.016426   -0.002932   -0.026934
H    -0.529870   -3.730888    0.122908   -0.028196   -0.037192    0.095434
H     5.087875   -6.549614   -1.450941   -0.011396    0.022938   -0.028870
H     0.224262   -6.917748   -2.156574   -0.000748   -0.007402    0.032280
H     0.222597   -5.156644   -4.255481   -0.004060    0.071710   -0.003408
H    -2.284365   -5.987619    1.109941   -0.071900    0.035676    0.060284
H    -3.095472   -4.494195    0.531306   -0.016754    0.055636    0.030218
H     1.502260   -6.836092   -0.128225    0.013278    0.016358   -0.002192
H     2.709988   -6.152449   -2.233050   -0.017540   -0.006586   -0.021988
H    -2.215367   -3.417122    2.174984    0.375058    0.111192   -0.028198
O    -0.006447   -1.460572   -0.365771   -0.070170   -0.067436    0.190058
H     3.564762   -0.815635   -1.983232   -0.076030   -0.029954    0.072934
H    -0.612199   -0.700741   -2.516235   -0.141778    0.073392   -0.119546
H     3.921489   -0.344026   -4.404098   -0.021256   -0.010772    0.145770
H    -0.316772   -0.183797   -4.967348    0.011880   -0.007868    0.015010
H     1.972494   -0.021987   -5.882561    0.031382   -0.011252    0.049526
H     1.926197   -2.883982   -0.481185    0.093132   -0.001280   -0.033656
O     2.286682   -2.020497   -0.219683   -0.082652    0.058312    0.003280
147
* Frequency(6) -387.0800
C     1.607228    3.578249    0.029537    0.000668    0.001548    0.003274
O     0.868145    2.469989   -0.433807   -0.010336   -0.003136    0.019204
C     2.767458    3.840170   -0.942233   -0.001108   -0.002076   -0.002260
O     2.095651    3.387428    1.324498    0.002690    0.009686    0.005762
C    -0.540565    2.574275   -0.431436   -0.009748    0.018278    0.011736
O     2.352009    4.160723   -2.238542   -0.000846   -0.009684    0.000380
C     3.675236    2.602566   -0.929459    0.006066   -0.001544   -0.004074
C     3.021440    2.312227    1.495598   -0.001220    0.013522    0.004592
C    -1.040373    2.624641   -1.883483   -0.000016    0.011638    0.004886
C    -1.213426    1.373476    0.259613   -0.028334    0.019450   -0.001372
O     4.783914    2.765283   -1.774750    0.005838   -0.001124   -0.001342
C     4.189286    2.378845    0.496595   -0.001510    0.000666   -0.000020
C     3.508433    2.441904    2.947842   -0.002052    0.004784    0.004562
C    -2.577267    2.695435   -1.911446   -0.001806    0.002390   -0.001924
O    -0.476584    3.752058   -2.505522    0.010392   -0.000726    0.002274
O    -2.621351    1.533196    0.208540   -0.020896    0.015354    0.007596
C    -0.869323    1.228198    1.725935   -0.009106   -0.029520    0.008692
O     4.915589    1.163211    0.467455    0.002270    0.000020    0.009478
O     4.196518    3.643132    3.163902    0.001538   -0.000622    0.010494
C    -3.145499    1.515894   -1.099035   -0.006978    0.001906   -0.002842
O    -3.059699    2.709929   -3.222288    0.005924   -0.003968   -0.004062
O     0.331947    0.672541    1.909193    0.005146    0.015094   -0.000032
O    -1.596983    1.544906    2.631069   -0.000826    0.033934   -0.005670
C     6.075490    1.054056    1.252086    0.000054    0.001650    0.001212
O    -2.843299    0.359133   -1.814474    0.007916   -0.007086    0.010512
C     0.550795    0.010572    3.145125   -0.070126   -0.068934   -0.036226
C     7.144634    0.363358    0.391581   -0.000846    0.000512   -0.000268
O     5.866182    0.334093    2.433530    0.004860    0.002224    0.010668
C    -3.718177   -0.761487   -1.756304    0.004292   -0.003034   -0.001568
C    -0.192816   -1.327967    3.129079   -0.374172   -0.032548   -0.236480
O     7.415186    1.078439   -0.781842   -0.002686   -0.002458    0.000998
C     6.659590   -1.059634    0.080448    0.000186   -0.001492   -0.001956
C     5.383076   -0.999326    2.275834    0.007670    0.003710    0.006648
C    -3.461532   -1.474870   -3.094638   -0.008096   -0.002092   -0.006736
C    -3.454454   -1.679437   -0.544544   -0.015200   -0.000948    0.006168
C     0.512023   -2.558273    3.653839   -0.055978    0.062218   -0.100176
O    -1.092420   -1.489550    2.069038    0.897874   -0.062538   -1.204610
O    -1.593411   -1.280640    3.309048   -0.002498    0.032274    0.678864
O     7.641701   -1.794552   -0.601420    0.000488   -0.002156    0.000266
C     6.297780   -1.831881    1.357405    0.000242    0.001072    0.000750
C     5.334823   -1.548390    3.712401    0.001356   -0.001830    0.003186
C    -4.039913   -2.895133   -3.140225   -0.004538   -0.001792   -0.001024
O    -3.995684   -0.668051   -4.113401   -0.004524    0.012348    0.007730
O    -4.009499   -2.976218   -0.751036   -0.014586    0.007962    0.000614
C    -4.130199   -1.181892    0.736486   -0.001554    0.013422    0.007134
O     1.686324   -2.749671    2.870752   -0.022326    0.030112   -0.033540
O     5.666821   -3.003117    0.856411   -0.009748    0.001802    0.009886
O     6.613190   -1.646616    4.276523   -0.001366    0.001832    0.009568
C    -3.536500   -3.637304   -1.891270   -0.001050    0.005138    0.002690
O    -3.678147   -3.544752   -4.326115    0.005402   -0.003870    0.007106
O    -3.842443   -2.087141    1.775980   -0.075874   -0.058106   -0.038588
C     2.040880   -3.994879    2.583119   -0.005524    0.021494    0.016272
C     5.585383   -4.156618    1.631106   -0.001332   -0.000042    0.003240
O    -2.141627   -3.673834   -1.984548   -0.000476    0.008094    0.012222
C     3.248053   -4.009756    1.655697    0.004814    0.006806    0.012006
O     1.492103   -4.976819    3.007935    0.013454    0.002190    0.008762
C     5.587260   -5.332477    0.633922   -0.001838    0.001896    0.001078
O     4.415744   -4.217093    2.429702   -0.004270   -0.007370    0.015946
C    -1.424982   -4.795543   -1.509821   -0.006006   -0.003998    0.003038
C     3.072406   -5.124209    0.615143    0.003036    0.018280    0.000498
O     6.746985   -5.355615   -0.144107   -0.000218    0.001720    0.002298
C     4.332121   -5.220482   -0.252009    0.002052    0.004942   -0.002890
C    -0.163909   -4.822163   -2.383566   -0.010006   -0.002934   -0.006896
C    -1.012588   -4.716072   -0.027167   -0.008922   -0.017482    0.007982
O     1.951714   -4.831527   -0.213838    0.000040    0.026846   -0.001140
O     4.204274   -6.340586   -1.096616   -0.000586    0.003674    0.001948
C     0.760688   -5.972305   -1.971963   -0.008140    0.002804    0.002712
O    -0.566725   -4.956647   -3.721574   -0.013616    0.006066    0.002466
O    -0.117043   -5.786982    0.279574   -0.007666   -0.010766    0.008218
C    -2.182832   -4.908153    0.956440   -0.018384    0.021802    0.004534
C     1.055031   -5.889508   -0.465719    0.003632    0.010064    0.001778
O     1.916186   -5.927392   -2.764540   -0.017600    0.005366   -0.005324
O    -1.933525   -4.343741    2.217503    0.001228    0.020350    0.014908
C     1.196387   -1.043221   -0.669589    0.129134   -0.076226    0.211570
H     1.550126   -0.125595   -0.101560   -0.207238   -0.007094    0.059340
C     1.440694   -0.767072   -2.140592   -0.116684   -0.041024    0.064854
C     2.724285   -0.672195   -2.652147   -0.080574   -0.034408    0.093462
C     0.352975   -0.592547   -2.979195   -0.078598   -0.010342    0.036098
C     2.916742   -0.410210   -3.995182   -0.039428   -0.019180    0.088610
C     0.540232   -0.320988   -4.322095   -0.004270   -0.013156    0.027738
C     1.825273   -0.231300   -4.829945   -0.003286   -0.014016    0.042902
H     0.963074    4.465607    0.098459    0.008468    0.004854    0.004250
H     3.343528    4.698929   -0.571346   -0.007358   -0.001664    0.008176
H    -0.852706    3.488513    0.093423   -0.005998    0.019814    0.007022
H     1.449317    3.833263   -2.402590   -0.014882    0.007964    0.011152
H     3.086326    1.720887   -1.233734    0.012038    0.007568   -0.014878
H     2.510007    1.352605    1.336416   -0.016328    0.017646    0.074908
H    -0.704681    1.702753   -2.383646   -0.010564    0.020428   -0.005326
H    -0.896901    0.424872   -0.219787   -0.107086    0.077378   -0.057624
H     4.492764    3.256829   -2.561304   -0.008340   -0.031774   -0.014550
H     4.861131    3.206101    0.767540   -0.009440    0.002734    0.007684
H     4.208391    1.635544    3.169813   -0.005724    0.003196    0.012662
H     2.636682    2.365914    3.606868   -0.004588   -0.012984    0.007164
H    -2.895745    3.635121   -1.446502   -0.014878   -0.005354    0.005888
H    -0.987247    3.942137   -3.312895    0.050888   -0.046048   -0.030504
H     3.579146    4.380118    3.042985    0.014138    0.000256   -0.043032
H    -4.230931    1.620729   -0.959766   -0.006744    0.003744   -0.014286
H    -3.108446    1.800632   -3.559876    0.009654   -0.014540    0.010908
H     6.418848    2.044084    1.581843    0.005428   -0.002138    0.004668
H     1.624792   -0.177494    3.213425   -0.090356   -0.155768   -0.050682
H     0.179269    0.617782    3.984632   -0.005954   -0.081734   -0.019804
H     8.086277    0.310738    0.948076   -0.005014    0.001016    0.006912
H    -4.759266   -0.406665   -1.737222    0.002206   -0.010036    0.007258
H     6.585167    1.415467   -1.159634   -0.005138    0.006254    0.004324
H     5.739142   -0.990366   -0.523664    0.008086   -0.001212   -0.004368
H     4.375345   -0.983790    1.833429   -0.002764    0.008084    0.040658
H    -2.369951   -1.563389   -3.206339   -0.018600   -0.016290   -0.032902
H    -2.365612   -1.755388   -0.398143   -0.037626   -0.018930    0.099602
H     0.801128   -2.382248    4.699144   -0.106630    0.214596   -0.122414
H    -0.143824   -3.442105    3.577340    0.025518    0.014250    0.028314
H     8.025412   -1.223145   -1.287073   -0.025282   -0.010108   -0.020726
H     7.213654   -2.106405    1.899173   -0.001260    0.004078    0.002648
H     4.696204   -0.881630    4.303753   -0.014580   -0.015824    0.007180
H     4.905135   -2.549659    3.715599    0.001354   -0.002468    0.007360
H    -5.133714   -2.855370   -3.120945   -0.004930   -0.013650    0.008846
H    -4.082405   -1.209699   -4.916413    0.048082    0.031804   -0.008252
H    -3.756765   -0.181717    0.980384    0.061392   -0.027980    0.067646
H    -5.210520   -1.153246    0.547575   -0.012646    0.089206    0.027554
H     6.986313   -0.754903    4.351388    0.006716    0.001826   -0.028976
H    -3.957171   -4.651930   -1.836709   -0.007478    0.008972    0.008544
H    -2.752961   -3.834839   -4.263300    0.012380    0.003882    0.025992
H    -4.388253   -1.857564    2.549022    0.458734    0.285544    0.156362
H     6.415932   -4.230851    2.345460    0.000010   -0.004066   -0.000050
H     3.302045   -3.038663    1.149111    0.046296    0.019338    0.056248
H     5.555629   -6.276150    1.187566   -0.002650    0.005500    0.007194
H    -2.012255   -5.710088   -1.682009   -0.009134   -0.002542    0.013802
H     2.906160   -6.071130    1.144767    0.004042    0.024684    0.008436
H     6.945570   -4.454106   -0.448516   -0.008126    0.002810   -0.006072
H     4.395366   -4.297016   -0.847336    0.029760   -0.004612   -0.009998
H     0.359709   -3.862879   -2.232576   -0.016426   -0.002932   -0.026934
H    -0.532727   -3.734656    0.132578   -0.028196   -0.037192    0.095434
H     5.086720   -6.547290   -1.453866   -0.011396    0.022938   -0.028870
H     0.224186   -6.918498   -2.153303   -0.000748   -0.007402    0.032280
H     0.222185   -5.149377   -4.255827   -0.004060    0.071710   -0.003408
H    -2.291651   -5.984004    1.116050   -0.071900    0.035676    0.060284
H    -3.097170   -4.488558    0.534368   -0.016754    0.055636    0.030218
H     1.503605   -6.834434   -0.128447    0.013278    0.016358   -0.002192
H     2.708210   -6.153117   -2.235278   -0.017540   -0.006586   -0.021988
H    -2.177362   -3.405855    2.172127    0.375058    0.111192   -0.028198
O    -0.013558   -1.467405   -0.346512   -0.070170   -0.067436    0.190058
H     3.557057   -0.818670   -1.975842   -0.076030   -0.029954    0.072934
H    -0.626566   -0.693305   -2.528348   -0.141778    0.073392   -0.119546
H     3.919336   -0.345118   -4.389327   -0.021256   -0.010772    0.145770
H    -0.315568   -0.184594   -4.965827    0.011880   -0.007868    0.015010
H     1.975674   -0.023127   -5.877542    0.031382   -0.011252    0.049526
H     1.935634   -2.884112   -0.484595    0.093132   -0.001280   -0.033656
O     2.278307   -2.014588   -0.219351   -0.082652    0.058312    0.003280
147
* Frequency(6) -387.0800
C     1.607304    3.578425    0.029909    0.000668    0.001548    0.003274
O     0.866970    2.469633   -0.431625   -0.010336   -0.003136    0.019204
C     2.767332    3.839934   -0.942490   -0.001108   -0.002076   -0.002260
O     2.095957    3.388529    1.325153    0.002690    0.009686    0.005762
C    -0.541673    2.576352   -0.430102   -0.009748    0.018278    0.011736
O     2.351913    4.159622   -2.238499   -0.000846   -0.009684    0.000380
C     3.675925    2.602391   -0.929922    0.006066   -0.001544   -0.004074
C     3.021301    2.313764    1.496120   -0.001220    0.013522    0.004592
C    -1.040375    2.625964   -1.882928   -0.000016    0.011638    0.004886
C    -1.216646    1.375686    0.259457   -0.028334    0.019450   -0.001372
O     4.784577    2.765155   -1.774903    0.005838   -0.001124   -0.001342
C     4.189114    2.378921    0.496593   -0.001510    0.000666   -0.000020
C     3.508200    2.442448    2.948360   -0.002052    0.004784    0.004562
C    -2.577472    2.695707   -1.911665   -0.001806    0.002390   -0.001924
O    -0.475403    3.751975   -2.505264    0.010392   -0.000726    0.002274
O    -2.623726    1.534941    0.209403   -0.020896    0.015354    0.007596
C    -0.870358    1.224843    1.726923   -0.009106   -0.029520    0.008692
O     4.915847    1.163213    0.468532    0.002270    0.000020    0.009478
O     4.196693    3.643061    3.165095    0.001538   -0.000622    0.010494
C    -3.146292    1.516111   -1.099358   -0.006978    0.001906   -0.002842
O    -3.059026    2.709478   -3.222750    0.005924   -0.003968   -0.004062
O     0.332532    0.674256    1.909189    0.005146    0.015094   -0.000032
O    -1.597077    1.548762    2.630425   -0.000826    0.033934   -0.005670
C     6.075496    1.054244    1.252224    0.000054    0.001650    0.001212
O    -2.842399    0.358328   -1.813279    0.007916   -0.007086    0.010512
C     0.542826    0.002738    3.141008   -0.070126   -0.068934   -0.036226
C     7.144538    0.363416    0.391551   -0.000846    0.000512   -0.000268
O     5.866734    0.334346    2.434742    0.004860    0.002224    0.010668
C    -3.717689   -0.761832   -1.756482    0.004292   -0.003034   -0.001568
C    -0.235339   -1.331666    3.102204   -0.374172   -0.032548   -0.236480
O     7.414881    1.078160   -0.781729   -0.002686   -0.002458    0.000998
C     6.659611   -1.059804    0.080226    0.000186   -0.001492   -0.001956
C     5.383948   -0.998904    2.276590    0.007670    0.003710    0.006648
C    -3.462452   -1.475108   -3.095404   -0.008096   -0.002092   -0.006736
C    -3.456181   -1.679545   -0.543843   -0.015200   -0.000948    0.006168
C     0.505661   -2.551202    3.642455   -0.055978    0.062218   -0.100176
O    -0.990381   -1.496657    1.932140    0.897874   -0.062538   -1.204610
O    -1.593695   -1.276972    3.386197   -0.002498    0.032274    0.678864
O     7.641756   -1.794797   -0.601390    0.000488   -0.002156    0.000266
C     6.297808   -1.831759    1.357490    0.000242    0.001072    0.000750
C     5.334977   -1.548598    3.712763    0.001356   -0.001830    0.003186
C    -4.040429   -2.895337   -3.140341   -0.004538   -0.001792   -0.001024
O    -3.996198   -0.666648   -4.112523   -0.004524    0.012348    0.007730
O    -4.011157   -2.975313   -0.750966   -0.014586    0.007962    0.000614
C    -4.130376   -1.180367    0.737297   -0.001554    0.013422    0.007134
O     1.683787   -2.746249    2.866940   -0.022326    0.030112   -0.033540
O     5.665713   -3.002912    0.857534   -0.009748    0.001802    0.009886
O     6.613035   -1.646408    4.277610   -0.001366    0.001832    0.009568
C    -3.536619   -3.636720   -1.890964   -0.001050    0.005138    0.002690
O    -3.677533   -3.545192   -4.325307    0.005402   -0.003870    0.007106
O    -3.851066   -2.093744    1.771595   -0.075874   -0.058106   -0.038588
C     2.040252   -3.992436    2.584968   -0.005524    0.021494    0.016272
C     5.585232   -4.156623    1.631474   -0.001332   -0.000042    0.003240
O    -2.141681   -3.672914   -1.983159   -0.000476    0.008094    0.012222
C     3.248600   -4.008983    1.657061    0.004814    0.006806    0.012006
O     1.493632   -4.976570    3.008931    0.013454    0.002190    0.008762
C     5.587051   -5.332262    0.634045   -0.001838    0.001896    0.001078
O     4.415259   -4.217931    2.431514   -0.004270   -0.007370    0.015946
C    -1.425665   -4.795997   -1.509476   -0.006006   -0.003998    0.003038
C     3.072751   -5.122132    0.615200    0.003036    0.018280    0.000498
O     6.746960   -5.355420   -0.143846   -0.000218    0.001720    0.002298
C     4.332354   -5.219920   -0.252337    0.002052    0.004942   -0.002890
C    -0.165046   -4.822496   -2.384350   -0.010006   -0.002934   -0.006896
C    -1.013602   -4.718059   -0.026260   -0.008922   -0.017482    0.007982
O     1.951719   -4.828476   -0.213968    0.000040    0.026846   -0.001140
O     4.204207   -6.340168   -1.096395   -0.000586    0.003674    0.001948
C     0.759763   -5.971986   -1.971655   -0.008140    0.002804    0.002712
O    -0.568272   -4.955958   -3.721294   -0.013616    0.006066    0.002466
O    -0.117914   -5.788206    0.280508   -0.007666   -0.010766    0.008218
C    -2.184921   -4.905675    0.956955   -0.018384    0.021802    0.004534
C     1.055444   -5.888364   -0.465517    0.003632    0.010064    0.001778
O     1.914186   -5.926782   -2.765145   -0.017600    0.005366   -0.005324
O    -1.933385   -4.341428    2.219197    0.001228    0.020350    0.014908
C     1.211062   -1.051884   -0.645545    0.129134   -0.076226    0.211570
H     1.526574   -0.126401   -0.094816   -0.207238   -0.007094    0.059340
C     1.427433   -0.771734   -2.133222   -0.116684   -0.041024    0.064854
C     2.715128   -0.676105   -2.641526   -0.080574   -0.034408    0.093462
C     0.344043   -0.593722   -2.975093   -0.078598   -0.010342    0.036098
C     2.912261   -0.412390   -3.985112   -0.039428   -0.019180    0.088610
C     0.539747   -0.322483   -4.318943   -0.004270   -0.013156    0.027738
C     1.824900   -0.232893   -4.825069   -0.003286   -0.014016    0.042902
H     0.964036    4.466159    0.098942    0.008468    0.004854    0.004250
H     3.342692    4.698740   -0.570417   -0.007358   -0.001664    0.008176
H    -0.853388    3.490765    0.094221   -0.005998    0.019814    0.007022
H     1.447626    3.834168   -2.401323   -0.014882    0.007964    0.011152
H     3.087694    1.721747   -1.235425    0.012038    0.007568   -0.014878
H     2.508151    1.354610    1.344929   -0.016328    0.017646    0.074908
H    -0.705882    1.705075   -2.384251   -0.010564    0.020428   -0.005326
H    -0.909071    0.433666   -0.226336   -0.107086    0.077378   -0.057624
H     4.491816    3.253218   -2.562958   -0.008340   -0.031774   -0.014550
H     4.860058    3.206412    0.768413   -0.009440    0.002734    0.007684
H     4.207740    1.635907    3.171252   -0.005724    0.003196    0.012662
H     2.636161    2.364438    3.607682   -0.004588   -0.012984    0.007164
H    -2.897436    3.634513   -1.445833   -0.014878   -0.005354    0.005888
H    -0.981464    3.936904   -3.316362    0.050888   -0.046048   -0.030504
H     3.580753    4.380147    3.038095    0.014138    0.000256   -0.043032
H    -4.231697    1.621154   -0.961390   -0.006744    0.003744   -0.014286
H    -3.107349    1.798980   -3.558636    0.009654   -0.014540    0.010908
H     6.419465    2.043841    1.582373    0.005428   -0.002138    0.004668
H     1.614524   -0.195196    3.207665   -0.090356   -0.155768   -0.050682
H     0.178592    0.608493    3.982381   -0.005954   -0.081734   -0.019804
H     8.085707    0.310853    0.948862   -0.005014    0.001016    0.006912
H    -4.759015   -0.407806   -1.736397    0.002206   -0.010036    0.007258
H     6.584583    1.416178   -1.159143   -0.005138    0.006254    0.004324
H     5.740061   -0.990504   -0.524160    0.008086   -0.001212   -0.004368
H     4.375031   -0.982871    1.838050   -0.002764    0.008084    0.040658
H    -2.372065   -1.565240   -3.210078   -0.018600   -0.016290   -0.032902
H    -2.369888   -1.757539   -0.386824   -0.037626   -0.018930    0.099602
H     0.789010   -2.357860    4.685232   -0.106630    0.214596   -0.122414
H    -0.140924   -3.440486    3.580558    0.025518    0.014250    0.028314
H     8.022539   -1.224294   -1.289428   -0.025282   -0.010108   -0.020726
H     7.213511   -2.105942    1.899474   -0.001260    0.004078    0.002648
H     4.694547   -0.883428    4.304569   -0.014580   -0.015824    0.007180
H     4.905289   -2.549939    3.716435    0.001354   -0.002468    0.007360
H    -5.134274   -2.856921   -3.119940   -0.004930   -0.013650    0.008846
H    -4.076941   -1.206085   -4.917351    0.048082    0.031804   -0.008252
H    -3.749788   -0.184897    0.988072    0.061392   -0.027980    0.067646
H    -5.211957   -1.143108    0.550706   -0.012646    0.089206    0.027554
H     6.987076   -0.754695    4.348095    0.006716    0.001826   -0.028976
H    -3.958021   -4.650910   -1.835738   -0.007478    0.008972    0.008544
H    -2.751554   -3.834398   -4.260346    0.012380    0.003882    0.025992
H    -4.336120   -1.825113    2.566792    0.458734    0.285544    0.156362
H     6.415933   -4.231313    2.345454    0.000010   -0.004066   -0.000050
H     3.307306   -3.036465    1.155503    0.046296    0.019338    0.056248
H     5.555328   -6.275525    1.188384   -0.002650    0.005500    0.007194
H    -2.013293   -5.710377   -1.680440   -0.009134   -0.002542    0.013802
H     2.906619   -6.068325    1.145726    0.004042    0.024684    0.008436
H     6.944647   -4.453787   -0.449206   -0.008126    0.002810   -0.006072
H     4.398748   -4.297540   -0.848472    0.029760   -0.004612   -0.009998
H     0.357842   -3.863212   -2.235637   -0.016426   -0.002932   -0.026934
H    -0.535931   -3.738883    0.143424   -0.028196   -0.037192    0.095434
H     5.085425   -6.544683   -1.457147   -0.011396    0.022938   -0.028870
H     0.224101   -6.919339   -2.149635   -0.000748   -0.007402    0.032280
H     0.221724   -5.141228   -4.256214   -0.004060    0.071710   -0.003408
H    -2.299822   -5.979950    1.122901   -0.071900    0.035676    0.060284
H    -3.099074   -4.482235    0.537802   -0.016754    0.055636    0.030218
H     1.505114   -6.832575   -0.128696    0.013278    0.016358   -0.002192
H     2.706217   -6.153865   -2.237777   -0.017540   -0.006586   -0.021988
H    -2.134739   -3.393219    2.168922    0.375058    0.111192   -0.028198
O    -0.021532   -1.475069   -0.324913   -0.070170   -0.067436    0.190058
H     3.548417   -0.822074   -1.967553   -0.076030   -0.029954    0.072934
H    -0.642678   -0.684964   -2.541934   -0.141778    0.073392   -0.119546
H     3.916920   -0.346342   -4.372761   -0.021256   -0.010772    0.145770
H    -0.314218   -0.185488   -4.964121    0.011880   -0.007868    0.015010
H     1.979240   -0.024406   -5.871914    0.031382   -0.011252    0.049526
H     1.946218   -2.884257   -0.488420    0.093132   -0.001280   -0.033656
O     2.268914   -2.007961   -0.218978   -0.082652    0.058312    0.003280
