147
Coordinates from ORCA-job job
  C           1.60730396546494      3.57842546572870      0.02990948797128
  O           0.86696955892097      2.46963282342236     -0.43162526925753
  C           2.76733220909083      3.83993373192468     -0.94248993386384
  O           2.09595725363911      3.38852879838532      1.32515338627979
  C          -0.54167331861542      2.57635237887535     -0.43010167341009
  O           2.35191340207599      4.15962187551410     -2.23849947238532
  C           3.67592544570501      2.60239095688172     -0.92992213351660
  C           3.02130052381168      2.31376354848129      1.49611991947150
  C          -1.04037489794356      2.62596378662092     -1.88292753172452
  C          -1.21664580610601      1.37568644516380      0.25945733931563
  O           4.78457699462376      2.76515526841079     -1.77490304079522
  C           4.18911374877524      2.37892138666620      0.49659266314688
  C           3.50820014524148      2.44244797630034      2.94835968272845
  C          -2.57747192444547      2.69570743787123     -1.91166493565349
  O          -0.47540291736959      3.75197479637660     -2.50526394736102
  O          -2.62372562031019      1.53494088537350      0.20940334127676
  C          -0.87035773203951      1.22484320211133      1.72692315412266
  O           4.91584708140342      1.16321310290048      0.46853210965938
  O           4.19669282980752      3.64306110273516      3.16509495877753
  C          -3.14629206689277      1.51611111942991     -1.09935761363763
  O          -3.05902628540942      2.70947784769729     -3.22274975454924
  O           0.33253178767972      0.67425583771900      1.90918858373776
  O          -1.59707696304498      1.54876216546354      2.63042487751841
  C           6.07549645156659      1.05424448238027      1.25222369316064
  O          -2.84239878257644      0.35832838620696     -1.81327934830324
  C           0.54282591814827      0.00273799738279      3.14100792527000
  C           7.14453839600109      0.36341640177329      0.39155147117027
  O           5.86673405543322      0.33434555854824      2.43474215605621
  C          -3.71768878443028     -0.76183235404266     -1.75648193500132
  C          -0.23533935629013     -1.33166554352096      3.10220435873645
  O           7.41488062800519      1.07815982960115     -0.78172914323143
  C           6.65961133193068     -1.05980412978084      0.08022632479267
  C           5.38394800253378     -0.99890398527261      2.27659048848650
  C          -3.46245232002699     -1.47510782338819     -3.09540377877164
  C          -3.45618077223297     -1.67954460555496     -0.54384275359780
  C           0.50566056455861     -2.55120193566827      3.64245456631186
  O          -0.99038144721018     -1.49665688864148      1.93214042762919
  O          -1.59369542554607     -1.27697246645359      3.38619682165009
  O           7.64175625787577     -1.79479720093752     -0.60138991152853
  C           6.29780766114368     -1.83175917458129      1.35748991928660
  C           5.33497675778705     -1.54859813329589      3.71276282253194
  C          -4.04042889767719     -2.89533679286125     -3.14034071390946
  O          -3.99619763955033     -0.66664751208371     -4.11252304858116
  O          -4.01115707056529     -2.97531298661441     -0.75096617146549
  C          -4.13037627613341     -1.18036747197100      0.73729662633825
  O           1.68378698544686     -2.74624883625144      2.86694045617120
  O           5.66571262780858     -3.00291217980846      0.85753427041855
  O           6.61303454281171     -1.64640771965882      4.27760982931086
  C          -3.53661935535667     -3.63671963693348     -1.89096407225028
  O          -3.67753269619905     -3.54519201100786     -4.32530743480108
  O          -3.85106647111795     -2.09374367761342      1.77159498327911
  C           2.04025181747505     -3.99243633784383      2.58496799371805
  C           5.58523174578736     -4.15662337713318      1.63147366911013
  O          -2.14168103539835     -3.67291428018793     -1.98315851132797
  C           3.24859987035766     -4.00898308801017      1.65706119831166
  O           1.49363242588069     -4.97656950395034      3.00893139386734
  C           5.58705102907695     -5.33226224797638      0.63404462010188
  O           4.41525897319577     -4.21793075310647      2.43151442498239
  C          -1.42566506913218     -4.79599702353971     -1.50947645256380
  C           3.07275132478638     -5.12213167360119      0.61519963807926
  O           6.74696017954386     -5.35541972119607     -0.14384590233123
  C           4.33235391623841     -5.21992003163834     -0.25233728436809
  C          -0.16504613025961     -4.82249552725559     -2.38434962838972
  C          -1.01360150839556     -4.71805920483018     -0.02625963518236
  O           1.95171898278422     -4.82847629928986     -0.21396786982545
  O           4.20420736511123     -6.34016827841113     -1.09639499531862
  C           0.75976269078630     -5.97198634161621     -1.97165486949064
  O          -0.56827195299155     -4.95595832520437     -3.72129434861189
  O          -0.11791388705923     -5.78820551213501      0.28050785301481
  C          -2.18492142537846     -4.90567472683422      0.95695513533729
  C           1.05544441135637     -5.88836354599185     -0.46551697608680
  O           1.91418622106457     -5.92678246605157     -2.76514509660877
  O          -1.93338523491304     -4.34142848748008      2.21919682637177
  C           1.21106249222662     -1.05188399885373     -0.64554456946076
  H           1.52657396432753     -0.12640115920838     -0.09481638284052
  C           1.42743311311409     -0.77173387657287     -2.13322195430214
  C           2.71512834720664     -0.67610481539751     -2.64152557462331
  C           0.34404274461964     -0.59372196083992     -2.97509323314558
  C           2.91226126685322     -0.41238958750104     -3.98511249045273
  C           0.53974727216016     -0.32248286215845     -4.31894284471872
  C           1.82489954529412     -0.23289250510752     -4.82506915316304
  H           0.96403574012044      4.46615897063820      0.09894179626022
  H           3.34269164896922      4.69874004098901     -0.57041692035918
  H          -0.85338811987658      3.49076527314951      0.09422115494890
  H           1.44762575080737      3.83416806121162     -2.40132282180723
  H           3.08769433489758      1.72174745076961     -1.23542528028507
  H           2.50815071794309      1.35461025357728      1.34492881037402
  H          -0.70588174067189      1.70507515548085     -2.38425093530592
  H          -0.90907096019109      0.43366586302092     -0.22633617065689
  H           4.49181623655414      3.25321772877400     -2.56295772103277
  H           4.86005826960567      3.20641160110478      0.76841308926239
  H           4.20774049754257      1.63590731254705      3.17125240067080
  H           2.63616068583773      2.36443763347751      3.60768172276794
  H          -2.89743554851420      3.63451346740242     -1.44583339008963
  H          -0.98146442085949      3.93690436356587     -3.31636173576004
  H           3.58075257609228      4.38014710720021      3.03809541775180
  H          -4.23169743743741      1.62115441967389     -0.96138995034425
  H          -3.10734891039642      1.79898038754887     -3.55863638794297
  H           6.41946450620553      2.04384131426690      1.58237266475100
  H           1.61452424144312     -0.19519602473350      3.20766484746655
  H           0.17859158251515      0.60849261958224      3.98238109694974
  H           8.08570685091457      0.31085333242802      0.94886191120028
  H          -4.75901464611425     -0.40780590830058     -1.73639738464297
  H           6.58458281543481      1.41617801208842     -1.15914331966367
  H           5.74006143654966     -0.99050351372366     -0.52416003026265
  H           4.37503058639570     -0.98287126700790      1.83805013975942
  H          -2.37206525865897     -1.56523958311924     -3.21007835703602
  H          -2.36988840957914     -1.75753885535009     -0.38682382727827
  H           0.78900953662430     -2.35785976365207      4.68523235597726
  H          -0.14092370412808     -3.44048583138378      3.58055770509295
  H           8.02253891263496     -1.22429398291549     -1.28942763102553
  H           7.21351063331848     -2.10594192315676      1.89947428143352
  H           4.69454706206960     -0.88342826039184      4.30456855635228
  H           4.90528901965543     -2.54993939820287      3.71643549164852
  H          -5.13427363311099     -2.85692091559042     -3.11993956663154
  H          -4.07694144295421     -1.20608471902556     -4.91735113202437
  H          -3.74978834563389     -0.18489699614707      0.98807174871839
  H          -5.21195675298163     -1.14310848054812      0.55070609003654
  H           6.98707605915679     -0.75469473786930      4.34809515136227
  H          -3.95802114232593     -4.65091019530627     -1.83573764631576
  H          -2.75155422148796     -3.83439846331930     -4.26034646106745
  H          -4.33612035844528     -1.82511309874465      2.56679209140576
  H           6.41593304426717     -4.23131336288646      2.34545384142919
  H           3.30730567557978     -3.03646536732551      1.15550285862163
  H           5.55532844930422     -6.27552476189348      1.18838393385025
  H          -2.01329261866409     -5.71037728958734     -1.68043996983288
  H           2.90661893842243     -6.06832508698635      1.14572553445500
  H           6.94464704943135     -4.45378724823218     -0.44920607448455
  H           4.39874750119241     -4.29754039971515     -0.84847191128615
  H           0.35784166806708     -3.86321202600851     -2.23563735664915
  H          -0.53593134151726     -3.73888262758388      0.14342383341100
  H           5.08542460882583     -6.54468255198896     -1.45714695926063
  H           0.22410101510514     -6.91933872852692     -2.14963502628180
  H           0.22172413397782     -5.14122830772558     -4.25621379004702
  H          -2.29982167208629     -5.97994957663396      1.12290124283536
  H          -3.09907359496040     -4.48223503281429      0.53780170849971
  H           1.50511431423924     -6.83257477703591     -0.12869572477201
  H           2.70621707338446     -6.15386488175298     -2.23777740628586
  H          -2.13473941367578     -3.39321926841753      2.16892154605683
  O          -0.02153216887720     -1.47506915355788     -0.32491274762587
  H           3.54841691322961     -0.82207365539782     -1.96755294123393
  H          -0.64267847811486     -0.68496407444778     -2.54193440329042
  H           3.91691960530947     -0.34634166432732     -4.37276115350205
  H          -0.31421790412129     -0.18548788355675     -4.96412101938380
  H           1.97923954336561     -0.02440571678869     -5.87191372052736
  H           1.94621834921122     -2.88425715889128     -0.48842039079763
  O           2.26891434636379     -2.00796067900720     -0.21897750534917
