139
Coordinates from ORCA-job job E -262.789609590810
  C           0.68840980151844      4.78109076507548     -0.36888512597537
  C          -4.27471489295963      3.19810986787038      0.43304576385148
  C          -5.07986874202720     -1.85221562273319     -0.46302630578916
  C          -0.79005534684308     -4.87827932431843     -0.69950704906357
  C           4.12305724974806     -3.19989643519087      0.11794960384721
  C           5.09510743761349      1.89691426507529     -0.46296152109165
  O          -0.18835440829302      3.68318913153647     -0.20772009350663
  O          -4.26801249008203      2.15095831698880     -0.48382472438120
  O          -3.70698820824653     -2.02285678138062     -0.74536613279133
  O           0.08063648816314     -3.78739021776912     -0.52313532174384
  O           4.06598878659374     -2.05096956773424     -0.67234749984508
  O           3.74925528757995      2.12141793796509     -0.77109963633789
  C           1.32671706989426      4.74430464814985     -1.77141112684418
  C          -3.88407927501988      4.48145128141136     -0.32843873976618
  C          -5.72522543527486     -1.05985924755417     -1.61321534803459
  C          -1.49201279684921     -4.71368407677963     -2.05989624640158
  C           3.77753830618250     -4.39343404577999     -0.79158592886948
  C           5.71621460881191      1.12538914710154     -1.63962268764164
  O           0.36230900415261      4.62785630141876     -2.78193064785074
  O          -4.75730496503625      4.75125412876276     -1.38783571735684
  O          -5.61123231847881     -1.71550649955508     -2.84637966670640
  O          -0.60108397662736     -4.69281888021001     -3.14416878650135
  O           4.63819678175130     -4.48667403873053     -1.89282495913597
  O           5.64718684162226      1.85233873328135     -2.83539901598782
  C           2.28013785138887      3.55016128885507     -1.89614622482032
  C          -2.43590589813269      4.36761732530037     -0.84367016646791
  C          -5.08735099029614      0.33510373349645     -1.66507820583930
  C          -2.24866911619773     -3.38102944038304     -2.01617903786260
  C           2.31972820155568     -4.25837289561451     -1.24947983535828
  C           4.98167533669103     -0.21728295633715     -1.76234520343741
  O           3.09651732348196      3.64791476052670     -3.04123299353581
  O          -2.02142212118731      5.58382629193552     -1.42914603247755
  O          -5.73905974013729      1.16400415172226     -2.59622443495187
  O          -3.02246186934556     -3.15494187857791     -3.16792722902921
  O           1.91758198265637     -5.38866279102235     -1.99580942331360
  O           5.57624803146810     -1.04617134868124     -2.73018967499738
  C           3.22343877602636      3.43853298852732     -0.69182124633071
  C          -1.48039422210715      3.99007500295954      0.30231310975269
  C          -5.14061937957890      1.03983394929143     -0.30152167259859
  C          -3.18973387220964     -3.34356705719406     -0.80648495607446
  C           1.38073135161185     -4.07577471241542     -0.04683625664315
  C           4.97833660417997     -0.98437009267033     -0.43231809771920
  C           2.51132509621864      3.66084229607830      0.65403948761107
  C          -2.04861482237497      2.73390707789013      0.97187677462477
  C          -4.70821070688233      0.11420148845064      0.85619729682178
  C          -2.46521032474292     -3.73673343523875      0.49678977499373
  C           1.89342149795915     -2.90734872186065      0.79698857730864
  C           4.56326537752811     -0.08794818193654      0.75125703755139
  O           1.66759305168029      4.80825353037287      0.62688413227188
  O          -3.35036923799025      2.98393260395467      1.48303390076737
  O          -5.27685953017257     -1.19631594413074      0.75032679179239
  O          -1.75268346172638     -4.95869952178280      0.31456488408680
  O           3.22620061438690     -3.15549828859069      1.20391680561709
  O           5.23786320631413      1.17080621054462      0.72742411471414
  C           3.52454363747071      3.89345584434801      1.78468003282272
  C          -1.22358325935119      2.20860631641293      2.14390479134785
  C          -5.19021852496262      0.61857095898884      2.22836282262748
  C          -3.45448021536695     -3.96499627519223      1.64562083621372
  C           1.04706566494889     -2.67339598552117      2.10026695045359
  C           4.92918572694820     -0.70132251153741      2.11189476844527
  O           4.39029312252607      4.96602648735889      1.51435908729447
  O          -1.52815598076317      0.93319580705870      2.32313708317593
  O          -6.56663966166996      0.90115877062108      2.24568797682458
  O          -4.38464389026633     -4.97726067504720      1.35483045412307
  O           1.97662585078071     -2.10957039444498      3.04242939417198
  O           6.27893026985910     -1.08443301345387      2.17653692405414
  H           0.13712366059761      5.72059977178241     -0.25054269122027
  H          -5.25129191306253      3.31661193810639      0.91783761429171
  H          -5.57549734706974     -2.82391772963733     -0.34969845034836
  H          -0.24600832311354     -5.82921466115924     -0.65994717495541
  H           5.11550777847019     -3.32864681395751      0.56978995981415
  H           5.63227740377708      2.83888143148610     -0.29348442589491
  H           1.90974588170440      5.67188205496842     -1.88932870802236
  H          -3.95397311705384      5.32996493433502      0.36091326392444
  H          -6.79777426854416     -0.95959429864136     -1.41459500310346
  H          -2.20303773980746     -5.54475551886167     -2.18221204090129
  H           3.89148830887730     -5.31774089397341     -0.21526463334164
  H           6.77760298812447      0.94420974356941     -1.44205147429984
  H          -0.40812741492639      5.18140700029669     -2.56235590338388
  H          -4.93019984010345      3.92756849201504     -1.87370745945532
  H          -4.71337551332903     -2.08480492358345     -2.95276734470209
  H           0.27809132319813     -5.00244477825832     -2.85803474403961
  H           4.78827179099538     -3.59617479333404     -2.25508306116503
  H           4.77846849362833      2.29129528866286     -2.90788201538977
  H           1.68737321147244      2.62961671703911     -1.95295683074997
  H          -2.39708770654370      3.56830939928716     -1.59832201480355
  H          -4.02975293574771      0.22325726687922     -1.94433666883803
  H          -1.48454605828998     -2.59766035851633     -1.91676210819455
  H           2.23440118899523     -3.35773574868808     -1.87624098690465
  H           3.93316914399259     -0.01782094529173     -2.03039885814641
  H           2.52361501989430      3.77239284091606     -3.81328426525463
  H          -2.78708742146749      5.96239688305693     -1.89220800175318
  H          -5.87886438250308      0.65444551088740     -3.40965347870123
  H          -2.48201493337742     -3.36955252439165     -3.94396663099780
  H           2.67019353710563     -5.65819061135846     -2.55015050587317
  H           5.75832847618656     -0.50701078101296     -3.51680829332673
  H           4.02562191639664      4.17943423803066     -0.80273786914419
  H          -1.41525962988773      4.80399964609069      1.03300304611372
  H          -6.16333984072542      1.39639631105827     -0.11872738320168
  H          -4.00191176904424     -4.06111556420877     -0.97818615173966
  H           1.36799977293409     -4.97157256165777      0.58572838436664
  H           5.98115223684121     -1.39143012756736     -0.24310413207365
  H           1.91659201998218      2.77204430879812      0.89166746715974
  H          -2.12129338604935      1.92936447049259      0.22881286391729
  H          -3.61590615595005      0.03773434386335      0.87013996526663
  H          -1.74800020232548     -2.96638991509647      0.80214089219685
  H           1.86108543997825     -1.98940101774348      0.19745136199974
  H           3.47901425204954      0.07376432691553      0.71027625019941
  H           4.15236766387237      3.00675713218633      1.89351822471086
  H           2.96996991966440      4.06615154453369      2.71398008764907
  H          -4.94105403230880     -0.15118508065996      2.96749947171943
  H          -4.67623169441389      1.54167057337192      2.49320998069449
  H          -4.03242985470204     -3.05401848280111      1.81425748597676
  H          -2.87191740564903     -4.20192907337024      2.54300754649695
  H           4.70372025952294      0.04301057954986      2.88453819741997
  H           4.32643148172730     -1.59128610044409      2.29824338853455
  H           3.86850172957636      5.78134677113983      1.48971528756658
  H          -7.05144517762016      0.07124390188669      2.13378408703712
  H          -3.90336438935660     -5.81185424560690      1.26483643102526
  H           6.82288605107979     -0.28449528222201      2.11617830073404
  C           1.30868550295893     -1.12052350165597      3.77635484342766
  H           2.06207047367839     -0.47763392839350      4.22714812417478
  H           0.65794146601380     -1.56911270680061      4.53760567914825
  O           0.30469344385101     -3.59521814731822      2.51935057939641
  C          -0.82994362042394      0.18480469964699      3.30634715502353
  H          -1.49081382468007     -0.62361992483253      3.61458494791028
  H          -0.56338687989499      0.82252473948079      4.15323722940866
  O          -0.43247366110800      2.84066990359188      2.79817778594618
  C           0.45745803322401     -0.41823463084155      2.69508815525077
  O           0.19080968034450     -1.40449739135467      1.76522378238439
  H          -1.04510226452601     -0.89509106419354      0.54802323718005
  O          -1.50416547154557     -0.34748081074350     -0.12594825097534
  H          -0.59053975229409      0.26328737230027     -0.59086465675278
  O           0.45139327825615      0.97419976935003     -0.72792795071147
  H           0.92176012909807      0.77579667882247      0.10202763456218
  O           1.18943846507578      0.58820071203044      2.01425799108187
  H           1.37857528303747      1.31623840197406      2.62535680098105
  H           0.16558284680901      1.90784310941136     -0.66956149760055
  H          -2.01432017235970     -0.93635331559891     -0.70939319441241
