139
 xtb: 6.7.1 (edcfbbe)
C            0.68738919463485        4.78058230783881       -0.36917596604869
C           -4.27498553559718        3.19840841887317        0.43197358141973
C           -5.07917090128609       -1.85170293822352       -0.46326022540415
C           -0.79062953324638       -4.87999964543689       -0.69925216421128
C            4.12288398267846       -3.20023861029209        0.11888555083595
C            5.09529054608424        1.89676253452871       -0.46254854411269
O           -0.18855840472771        3.69088399795986       -0.20611126963913
O           -4.26609967358811        2.15131382198594       -0.48265161531840
O           -3.70142361375232       -2.01857672803574       -0.74303087987913
O            0.08078822815480       -3.78617256455376       -0.52171275590899
O            4.06689272365089       -2.05052031775770       -0.67298887527824
O            3.74989951048182        2.12274952791747       -0.77222283407075
C            1.32663976736523        4.74332810941554       -1.77118286469323
C           -3.88458649105436        4.48171123113769       -0.32850827083683
C           -5.72524515003926       -1.06046012390763       -1.61343096060704
C           -1.49244451082597       -4.71476355942465       -2.05981268407745
C            3.77712975960857       -4.39330251076340       -0.79153446077165
C            5.71608972268650        1.12502848133524       -1.63948598442023
O            0.36297252071042        4.62911559074798       -2.78222829198472
O           -4.75750064130620        4.75137136438622       -1.38778966642489
O           -5.61131567076644       -1.71562046721974       -2.84675455293221
O           -0.60077886568743       -4.69259855844000       -3.14457559502268
O            4.63819722528262       -4.48664881367338       -1.89288648814911
O            5.64717996968941        1.85231201111960       -2.83526081290582
C            2.27931985511463        3.54949369630371       -1.89477494512413
C           -2.43620731251464        4.36795347459396       -0.84342796265891
C           -5.08778818887910        0.33544165687141       -1.66560818971438
C           -2.24890438327858       -3.38184637889048       -2.01680285595307
C            2.31963217968761       -4.25824604391191       -1.24948326241546
C            4.98169097007192       -0.21721007483866       -1.76205380695516
O            3.09584460573619        3.64799909141866       -3.04063950375063
O           -2.02157924063326        5.58412574700988       -1.42920935916891
O           -5.73966646532949        1.16455724179781       -2.59677182778223
O           -3.02239578026652       -3.15389441048353       -3.16831545547609
O            1.91776028216984       -5.38859811465774       -1.99576627971702
O            5.57600570892922       -1.04587865395402       -2.72983903371756
C            3.22331754702481        3.43848215366203       -0.69173146358774
C           -1.48100250187702        3.99223561726973        0.30333333941798
C           -5.14139916672563        1.03969586392147       -0.30130713280613
C           -3.18962735626188       -3.34329195835802       -0.80665172383868
C            1.38007266355429       -4.07566113379548       -0.04756768640825
C            4.97781888632433       -0.98462950687234       -0.43246357926881
C            2.51153626286665        3.66081170533268        0.65354385220066
C           -2.04895903235239        2.73675807087959        0.97284044978075
C           -4.70974569006101        0.11391032259949        0.85671535286108
C           -2.46477107851865       -3.73635482363239        0.49745656173024
C            1.89309777720374       -2.90645809762447        0.79599100695211
C            4.56262019474696       -0.08812342960354        0.75105631189572
O            1.66909228218502        4.80836390537067        0.62657852925507
O           -3.35017196134570        2.98328147607150        1.48297792843325
O           -5.27535892596141       -1.19685436387990        0.75031001556906
O           -1.75173067013363       -4.95938866342650        0.31426265160351
O            3.22652047457538       -3.15563205630974        1.20341295060739
O            5.23846382714666        1.17048692602282        0.72719278854790
C            3.52428184162454        3.89334705381582        1.78420179095330
C           -1.22145594249233        2.20946759665083        2.14105604723576
C           -5.19077547677552        0.61868615452864        2.22907467213396
C           -3.45465628990098       -3.96471787954784        1.64649240529869
C            1.05011433384949       -2.67747013641008        2.10162128459671
C            4.92933455918442       -0.70139555070271        2.11173356287367
O            4.38973635229149        4.96551942327796        1.51455794245213
O           -1.52629024520022        0.93266562347348        2.31922023431079
O           -6.56758971409461        0.90160372523845        2.24595946246401
O           -4.38514474618806       -4.97758246682821        1.35451778957962
O            1.97640082230651       -2.10973132109810        3.04143973698522
O            6.27849285826934       -1.08421411267401        2.17640578893946
H            0.13754101510927        5.72112818230395       -0.25021453248582
H           -5.25115703965247        3.31685325332859        0.91774019011485
H           -5.57512797103283       -2.82356349439406       -0.35012835047233
H           -0.24595118836667       -5.82942153541770       -0.66056935439645
H            5.11563333319622       -3.32854661184788        0.56974353635570
H            5.63207725491192        2.83907962908294       -0.29333902963559
H            1.91004571627549        5.67153667081953       -1.88944638025121
H           -3.95347358141213        5.33013910937308        0.36076647752149
H           -6.79771128722112       -0.95952257019574       -1.41462215830438
H           -2.20262948146910       -5.54546723464211       -2.18242407011897
H            3.89170639526334       -5.31775443872646       -0.21533192362051
H            6.77763540260056        0.94429757589225       -1.44214631989693
H           -0.40869531863912        5.18069421712033       -2.56106954749497
H           -4.92989631692012        3.92757973552338       -1.87397930704778
H           -4.71345300580243       -2.08514303010166       -2.95311037930917
H            0.27774530920525       -5.00268061676518       -2.85828364207799
H            4.78839811716599       -3.59629146750763       -2.25493149901395
H            4.77856101894324        2.29109297351943       -2.90774502487561
H            1.68663354296321        2.62910516255262       -1.94913050848764
H           -2.39526974220170        3.56857247911024       -1.59822565812564
H           -4.03055811512477        0.22463271779412       -1.94660681662421
H           -1.48173850902645       -2.60045500247277       -1.91941887977683
H            2.23499897531148       -3.35744355115284       -1.87610718820310
H            3.93294598457435       -0.01711939337015       -2.02944135797279
H            2.52313391814701        3.77190242689007       -3.81307302886461
H           -2.78755361560202        5.96185540941443       -1.89241215796758
H           -5.87912747796328        0.65447673542873       -3.40956871266255
H           -2.48322187346727       -3.37011988896626       -3.94425756848994
H            2.66998655622722       -5.65852933207789       -2.55004036085681
H            5.75838707734033       -0.50709815677640       -3.51683672608706
H            4.02598494528945        4.17916289338693       -0.80300170931574
H           -1.41539717031150        4.80510784949485        1.03305374299072
H           -6.16343872795488        1.39638596797431       -0.11896678611878
H           -4.00143193662067       -4.06107261068702       -0.97820609345326
H            1.36827340775826       -4.97151446108728        0.58550846286752
H            5.98105546441414       -1.39153054222805       -0.24305545458802
H            1.91616062560337        2.77121094432782        0.88787162843718
H           -2.12067055354924        1.93567386766392        0.22484170143503
H           -3.61715238939218        0.03868780260720        0.87404488408995
H           -1.74630141648038       -2.96886840547652        0.80487879338094
H            1.86155628351364       -1.98829687867718        0.19775830209057
H            3.47878816180270        0.07445403530106        0.70905485535796
H            4.15190324152051        3.00649033467273        1.89322932442570
H            2.96969036779701        4.06605007146122        2.71365713968633
H           -4.94156431398467       -0.15112529602755        2.96780953712680
H           -4.67631915996758        1.54173312511316        2.49342455254168
H           -4.03333183502054       -3.05442431511640        1.81461642658913
H           -2.87218790115125       -4.20207455885872        2.54335382618779
H            4.70342754778922        0.04311863027980        2.88421247048628
H            4.32649088424416       -1.59132912715476        2.29799370495419
H            3.86843132303868        5.78129849100288        1.48935702377917
H           -7.05129408218111        0.07111310866708        2.13420131961432
H           -3.90357789004709       -5.81181414271736        1.26511746892441
H            6.82306991740219       -0.28469335925956        2.11606381538763
C            1.30726848572573       -1.12178794126121        3.77593860138229
H            2.06122522238063       -0.47770175524680        4.22730657421949
H            0.65781291546849       -1.56994628871445        4.53747653901076
O            0.30454729068086       -3.59328545993251        2.51822245811399
C           -0.83080759438917        0.18366967620363        3.30661368703485
H           -1.49210229695347       -0.62336736135164        3.61421284887728
H           -0.56358277968790        0.82151018526268        4.15350215090345
O           -0.43362572432530        2.84042410194744        2.79872325418369
C            0.45716506569375       -0.41759853969650        2.69580336872801
O            0.18154232563185       -1.39868079407592        1.76110665518489
H           -1.03694484354144       -0.90024664791675        0.56221723025380
O           -1.48554861031992       -0.34562461326840       -0.12067001697050
H           -0.79847442912555        0.11618263468174       -0.54884530770156
O            0.48147916835508        0.99104725641924       -0.74279320606931
H            0.91678337524674        0.77705864758360        0.09304763149866
O            1.19261924448867        0.58853512151982        2.02153612703514
H            1.37832528510265        1.31578609326411        2.62751408632709
H            0.17807694920851        1.90143528439994       -0.66673451977505
H           -2.00934315768651       -0.93386872656589       -0.72646679764821
