139
 xtb: 6.7.1 (edcfbbe)
C            0.60368240547755        4.87232491765635       -0.34780996338876
C           -4.34002977256445        3.22880591973354        0.40205157023883
C           -5.04215828838397       -1.78915215396113       -0.54030361350306
C           -0.75908274156159       -4.81515465436687       -0.66777792827192
C            4.16876375373460       -3.21811638239089        0.14310814485077
C            4.92144038996854        1.86982768184331       -0.62614430012581
O           -0.28782818521349        3.78517625051165       -0.27201397440734
O           -4.35607000703977        2.23054400064382       -0.56884271745231
O           -3.65930215313104       -1.91492455236286       -0.79102001388190
O            0.14476131728147       -3.76556335625170       -0.47169776572835
O            4.09447954840913       -2.12378051289682       -0.72217786009172
O            3.54000173422978        2.05529227177161       -0.84257827899598
C            1.26338389326912        4.86997757987077       -1.73768631435292
C           -3.97356586421559        4.54481611187807       -0.31188192193649
C           -5.69014626791825       -1.02663037987570       -1.70775695497690
C           -1.41748495488295       -4.61382328622637       -2.04484542821617
C            3.82310122400521       -4.46127509658394       -0.69680803329976
C            5.50633820858965        1.11771843104744       -1.83176842876636
O            0.33168112151143        4.96561601869001       -2.78144686672151
O           -4.87230943964190        4.85029621953249       -1.33958095122484
O           -5.52506111176828       -1.68370313476396       -2.93484390785473
O           -0.49061522871437       -4.61092402498731       -3.09845271035207
O            4.68843608296717       -4.62269526618007       -1.78744155746411
O            5.32293314272712        1.81692182586139       -3.03209454073568
C            2.02997860109826        3.54985197520956       -1.88636988537707
C           -2.53978105751425        4.44198574507063       -0.85646402540248
C           -5.10211936202549        0.38932414083365       -1.75109216399256
C           -2.13455764002961       -3.25898551641001       -2.00784615653903
C            2.37179459223962       -4.31810749968973       -1.16868605144871
C            4.87249960304329       -0.28067736478615       -1.89810206657683
O            2.77652702907814        3.48357658821652       -3.07560111450741
O           -2.12779048818834        5.66543288413723       -1.42719504656495
O           -5.77148763610932        1.19280532997720       -2.69105864966581
O           -2.86165491188374       -3.00070301528293       -3.18453477680867
O            1.95491676059062       -5.46039964872062       -1.89130765124569
O            5.48858914614074       -1.07393026046746       -2.88336049066607
C            3.00719673866945        3.37028650678645       -0.71825382092779
C           -1.56754311827569        4.05051721162689        0.26736172952459
C           -5.19510294473029        1.09546124889610       -0.39039212852541
C           -3.11580119741016       -3.22671491670060       -0.83299027066141
C            1.42762165373264       -4.09049233445687        0.02616720534766
C            4.99160332321670       -1.02948160411589       -0.56113668217528
C            2.30712161306723        3.57050805418623        0.63986661137959
C           -2.08975717106023        2.76546361627100        0.91947003648136
C           -4.75644439381392        0.18860758665836        0.77873827853140
C           -2.42240238605394       -3.61117452647498        0.48750876831855
C            1.92397193842967       -2.90126515680642        0.85967432331226
C            4.61312422851729       -0.14184736334956        0.63948717998077
O            1.58017073132740        4.79644038190718        0.65226620416262
O           -3.40492818195009        2.95980117870427        1.42583829048950
O           -5.28970484109782       -1.13402520668908        0.66370662026502
O           -1.74367342285954       -4.85534356320698        0.32935606444525
O            3.28489327321006       -3.10627379987780        1.24214377705083
O            5.16988321915700        1.17234926705745        0.55709407485003
C            3.31473305606579        3.65020203226402        1.79510417104318
C           -1.25509066359937        2.31104796464479        2.11467213708683
C           -5.28020548950974        0.67179570678521        2.14422400747417
C           -3.43164103854600       -3.80532651549781        1.62382411748066
C            1.10076183540738       -2.74171951740691        2.17821262693400
C            5.12128594532933       -0.69970721497497        1.98140979626468
O            4.21291762832088        4.71772734822884        1.64152098770370
O           -1.48654621968022        1.02091381678406        2.33909489539313
O           -6.65669200246941        0.94958309878255        2.12597610368370
O           -4.37917586522830       -4.80196605163709        1.32985033849046
O            1.95612218585871       -2.07120359730374        3.11741196352371
O            6.47945004180929       -1.05238107663106        1.93831659821817
H            0.08287184795207        5.82597257968037       -0.18610494973938
H           -5.30868040136829        3.32234160628048        0.90680859942208
H           -5.50598878381445       -2.77680361075787       -0.42441791210687
H           -0.25894335574689       -5.79126805104386       -0.61869682849347
H            5.16663519122088       -3.31413925430061        0.58999263201928
H            5.42960453739868        2.83632427885374       -0.50059660944948
H            1.96620194869417        5.71649576755072       -1.79246052286829
H           -4.02962809230945        5.36770911575992        0.40596063943830
H           -6.77035122507941       -0.96503356436870       -1.52988985365038
H           -2.15610330422167       -5.41820781260636       -2.19904854812115
H            3.92303112646687       -5.35451743271746       -0.07355724581477
H            6.58791970452086        1.01363392674103       -1.69615257824288
H           -0.50185963657690        5.34704867080796       -2.45578076971987
H           -5.04366087743567        4.04391041956675       -1.85852302745131
H           -4.61238060598362       -2.01474403855705       -3.02216236537830
H            0.35683020620301       -4.98282070600677       -2.79398726279062
H            4.81538302794294       -3.75756303232429       -2.21720454977188
H            4.43366411553538        2.22107100076211       -3.05890407001242
H            1.28155283076100        2.74683124175236       -1.87032738989597
H           -2.50972018845897        3.65057587275536       -1.62230323455339
H           -4.03661846157745        0.31445966886792       -2.01200770172787
H           -1.36597135768637       -2.48942820372861       -1.86168793362029
H            2.30493698139878       -3.43008330985532       -1.82039540408131
H            3.80016132391877       -0.17230435489386       -2.12310316136429
H            2.21149879000223        3.77436573067176       -3.81046718949415
H           -2.89327509007300        6.04741002624299       -1.89508689487148
H           -5.87802639776936        0.67772311067557       -3.50754638965981
H           -2.29472434470051       -3.21261207647886       -3.94029303086263
H            2.71490307666144       -5.75641081395352       -2.42815318737831
H            5.56655356931382       -0.53923797556549       -3.69289714384144
H            3.80997289884309        4.11753072095766       -0.82333640957784
H           -1.51213381964613        4.84937537221786        1.01650167783524
H           -6.23016675435953        1.42486213065378       -0.22220133972130
H           -3.91402239296930       -3.95463298053794       -1.02637901500043
H            1.38384377986887       -4.98465724018483        0.66141908450671
H            6.01803852717458       -1.40072467428463       -0.44439722923631
H            1.60960971448476        2.75841832715594        0.82686554150368
H           -2.08428776098627        1.95265109926463        0.17728139339027
H           -3.65939496150960        0.14503285749417        0.80844805147626
H           -1.69230474892304       -2.84533062410537        0.78379679535545
H            1.83373788735793       -1.98997303017002        0.25022759174554
H            3.52386374189087       -0.07490690996589        0.66827921864400
H            3.92327561161083        2.75441747317322        1.81448625436260
H            2.75678481552353        3.75859138239868        2.72780524021974
H           -5.04616597486324       -0.10951236858737        2.87590518662247
H           -4.77272853768483        1.59198442467532        2.44136821864464
H           -3.98683788801024       -2.87893365129672        1.77983307927296
H           -2.86298861230005       -4.04487807942144        2.53378062904879
H            4.95881239572638        0.06855281000967        2.74608455349933
H            4.57286564375774       -1.60090071826299        2.24674871419607
H            3.71665286936805        5.55513513706377        1.65791714568859
H           -7.13339390496225        0.12067497008590        1.99219154161650
H           -3.90793571468314       -5.64399608546104        1.25327793170136
H            7.00711578367365       -0.24024734194680        1.82555814851518
C            1.15939414864253       -1.25360681483302        3.92558669585312
H            1.74658845603338       -0.70476574132327        4.61676401952025
H            0.39203540624916       -1.88825974308303        4.49074455697698
O            0.41670102425541       -3.69082501171921        2.61751544432928
C           -0.80110444059312        0.35335134279244        3.38159180703374
H           -1.52660708033762       -0.31289626972863        3.85589025899323
H           -0.40819815893661        1.09756285375777        4.09296160765839
O           -0.52021133509229        3.00824138505443        2.76551264679379
C            0.42394329914396       -0.44714871422467        2.80628389222076
O            0.08651430083720       -1.44635631322611        1.88937330583450
H           -1.04456644787965       -0.68714973476968        0.47733037331972
O           -1.34965859338328       -0.14653682129823       -0.28476545097339
H            0.53682395690533        0.32908199375698       -0.52252614733304
O            1.40930585059451        0.27214004851054       -0.05975276900757
H            1.27430967982721        0.38266545010731        1.05932895720132
O            1.22671653651281        0.49021450328778        2.24998691791358
H            2.16251315293409        0.14137117404707        2.61068276422693
H            2.02980018823684        0.99597452370059       -0.45754547356553
H           -2.02660492224792       -0.68163274678289       -0.73321982694724
