14
Coordinates from ORCA-job job.QMRegion
  C           0.45865174069298     -0.43653523044844      2.75356839416427
  O           0.24238276002916     -1.42048859215750      1.79817619946849
  H          -0.90420123539924     -0.69054863645156      0.28588702930644
  O          -1.15821192676268     -0.14453850636938     -0.47344655893515
  H           0.39108226839307      0.23365810522755     -0.81835362488740
  O           1.34946754452848      0.27751473715052     -0.48962586935750
  H           1.26074471726895      0.39443403042666      0.50385935407887
  O           1.25938765727418      0.58366979954551      2.16907334285690
  H           2.19073237430887      0.40953506379317      2.38086339954251
  H           1.87584596385326      1.03706570525843     -0.83224063836209
  H          -1.87765631409394     -0.61754832132955     -0.90596324605767
  H           1.01435227423794     -0.95048368845052      3.54177651953592
  H          -0.46318608407508      0.02129572467842      3.12075237943288
  H           0.78227978712574     -2.19256084329394      2.02683216798111
