139
Coordinates from ORCA-job job
  C           0.58955455349258      4.92169372231816     -0.23723181687546
  C          -4.34751378964414      3.22845326743307      0.43265078920925
  C          -5.03074850958623     -1.77978916136459     -0.63784122174818
  C          -0.76280356191413     -4.83924459378907     -0.58712001677409
  C           4.18061364429686     -3.25997306813435      0.16765341791934
  C           4.83207776190603      1.84344284285759     -0.58731533548467
  O          -0.28340326907677      3.82371543930884     -0.10477714507009
  O          -4.31708896576619      2.24850388506873     -0.55638840956512
  O          -3.64521376640500     -1.93003405293906     -0.84579284037196
  O           0.15386945826965     -3.79096405730234     -0.42431023363424
  O           4.09080883654300     -2.18342171722993     -0.71412792385913
  O           3.44612646615851      2.05325782493748     -0.75301803565959
  C           1.20054889055935      4.89006913623693     -1.65048717782864
  C          -3.97723009766206      4.56843190483387     -0.23279620165975
  C          -5.62266081933371     -0.98123080548979     -1.81066483863818
  C          -1.41140068611131     -4.69103725312345     -1.97574646111225
  C           3.82431589646866     -4.52658447663697     -0.63125947239725
  C           5.38271593225894      1.10815162454487     -1.82026024973434
  O           0.23354908311936      4.96877523467053     -2.66327847828412
  O          -4.84334044795262      4.89120173354779     -1.28364700440681
  O          -5.42284699937864     -1.61260133223320     -3.04509936348899
  O          -0.47643863280719     -4.72515841380471     -3.02093784566776
  O           4.68140169187955     -4.72218387715884     -1.72146085811876
  O           5.14897396766542      1.81283755169782     -3.00775960400593
  C           1.92849906005976      3.54810740658810     -1.79066736483246
  C          -2.52287170069317      4.51846327788234     -0.73142294688038
  C          -5.01282102516334      0.42681151114864     -1.80200388694594
  C          -2.12737053822219     -3.33581411514567     -2.00064048033588
  C           2.36877909693439     -4.41186880365989     -1.09851550758452
  C           4.78061088582200     -0.30420111238933     -1.88268227082820
  O           2.61624197606499      3.41350256204431     -3.00916370876782
  O          -2.12856152273039      5.77741619777254     -1.23566876977116
  O          -5.63125287889262      1.25604542523334     -2.75340132217264
  O          -2.84712524606975     -3.12692987765623     -3.19028624008219
  O           1.95034928336939     -5.58913694226232     -1.76021846232873
  O           5.39163655751262     -1.06999780138112     -2.89227887298310
  C           2.95444511006131      3.38694708347488     -0.66276357910120
  C          -1.57520678082363      4.09057701814925      0.40233544591782
  C          -5.15436887885786      1.10478979246381     -0.43137014387913
  C          -3.11353189701620     -3.24612238662318     -0.83194733950073
  C           1.43216845719676     -4.12562103497317      0.08428339541039
  C           4.95651337789672     -1.06143185892205     -0.55708405757467
  C           2.34674483914174      3.66320941454816      0.72685489973458
  C          -2.11259347718216      2.77939440899907      0.98301238254981
  C          -4.75111069850404      0.16700375276142      0.72668521945442
  C          -2.42846334007067     -3.58212400306386      0.50634053091071
  C           1.96165255880960     -2.92733276594185      0.87220627317934
  C           4.58980108033010     -0.19435723763673      0.66327323351714
  O           1.60331144136589      4.88098134646400      0.72702979437025
  O          -3.43454306009566      2.94973359628583      1.47465886835586
  O          -5.30638405482438     -1.14159839425341      0.57097418942158
  O          -1.75514400821976     -4.83394022437291      0.40237261540033
  O           3.30566850366514     -3.12889155786317      1.26825048264724
  O           5.11119635942606      1.13313725935779      0.58168315620389
  C           3.44768313832565      3.82607014740186      1.78556671068039
  C          -1.30844758322701      2.24860902960692      2.16791561662930
  C          -5.29295030456003      0.62624097893879      2.09333662165982
  C          -3.44254250033292     -3.72755986858913      1.64629867661892
  C           1.11234123364227     -2.66456063443150      2.16661904572662
  C           5.15376125537391     -0.75226494564413      1.98394524016009
  O           4.34349853890044      4.86018182964336      1.46248616450001
  O          -1.47903438372295      0.93613928030252      2.23288885906783
  O          -6.66600882369191      0.91595811175166      2.05473308291246
  O          -4.37291480724603     -4.75069704448785      1.40054182602083
  O           2.02434341739227     -2.04369618142867      3.10271648787823
  O           6.51081578445282     -1.10197168781277      1.88760853187069
  H           0.06484094730737      5.86841505399782     -0.06911110382293
  H          -5.33228416676014      3.29453961500453      0.91200404476443
  H          -5.52003185485956     -2.75864444787965     -0.56108662948524
  H          -0.27074365249028     -5.81490543446642     -0.49387398873331
  H           5.18447248499725     -3.34657888533564      0.60313987522579
  H           5.35176430548128      2.80122885193421     -0.46490680721669
  H           1.91581209909474      5.72231429944866     -1.73796523898092
  H          -4.07545577783488      5.36562732795274      0.51206506823164
  H          -6.70673977216255     -0.90343255126484     -1.67325345423161
  H          -2.14595061804642     -5.50164665062646     -2.10222667932508
  H           3.93159689091121     -5.39806710138262      0.02257206234527
  H           6.47020212356893      1.02141545753876     -1.71895771005562
  H          -0.54206953807701      5.46071220645362     -2.34090792071539
  H          -4.97775073309225      4.10306760177042     -1.83577337799920
  H          -4.52241999624002     -1.98689212144355     -3.09375896382016
  H           0.34795756348674     -5.14542319043630     -2.71344914936714
  H           4.79759939662912     -3.87449108908124     -2.18425646686338
  H           4.25040038869148      2.19645468554083     -3.00780464865589
  H           1.15112357116623      2.77551677374907     -1.71059323495698
  H          -2.45257759260522      3.76504838197535     -1.53021064602036
  H          -3.93788214167763      0.34382218267827     -2.02119340098813
  H          -1.35436916409623     -2.56470634561198     -1.88302361140105
  H           2.29268891687202     -3.56057352007598     -1.79178572536612
  H           3.70163833054651     -0.22991983949219     -2.07923833475193
  H           2.02675260147490      3.68858527110306     -3.72733822854706
  H          -2.89910411782746      6.17091233314238     -1.67871269129372
  H          -5.71917823032545      0.75486759377029     -3.57985409839061
  H          -2.27268092042860     -3.36528183953283     -3.93492962133123
  H           2.70512927006879     -5.91644372750194     -2.27961338384986
  H           5.44101843568566     -0.52667412469816     -3.69502469534770
  H           3.76851756301773      4.10069246874499     -0.83721787894307
  H          -1.53667812256117      4.85859450627019      1.18444605763040
  H          -6.19617422015211      1.42426165283591     -0.28960557115474
  H          -3.91636628745235     -3.97573027447951     -0.99926530621867
  H           1.36580682126850     -4.98777290574178      0.75884091729413
  H           5.99555664131894     -1.40515516595379     -0.46692814473766
  H           1.68373195301817      2.84187216570251      1.02475976649942
  H          -2.10199810059499      2.00958957799593      0.19970472982229
  H          -3.65726177631686      0.09960854391327      0.77537451239308
  H          -1.69648556213610     -2.81106284258419      0.77606850125012
  H           1.89703379684884     -2.04566475404652      0.22547652916596
  H           3.49841018811116     -0.16065458785725      0.73343301107479
  H           4.04175761180133      2.91182333168246      1.83723706526780
  H           2.97027453811393      4.00719756946739      2.75426994059296
  H          -5.08339376553861     -0.17517989394259      2.81124502464253
  H          -4.78558790685979      1.53250614158790      2.42006179109741
  H          -4.01709995767277     -2.80464914428017      1.74575738507004
  H          -2.88056699914887     -3.91371282723147      2.56889984254779
  H           5.01003851838206      0.01245873382984      2.75640002288367
  H           4.60585226418674     -1.65063293618051      2.27332093347510
  H           3.86208188983953      5.69934256472816      1.48683730454115
  H          -7.14872532012651      0.09325995055843      1.89022797667349
  H          -3.89160926880266     -5.58946801451620      1.35503138630121
  H           7.03018468631774     -0.29095054913073      1.78280065274691
  C           1.24203478919452     -1.16105947596954      3.86472241838002
  H           1.90096064114006     -0.51568810754476      4.44062082267114
  H           0.55543108746768     -1.71352354555206      4.51638173260965
  O           0.39594335624287     -3.59046649229208      2.62343812967484
  C          -0.83719072415364      0.20704521009591      3.26972491078626
  H          -1.52436678756868     -0.57816537377383      3.58249431969897
  H          -0.59062131134486      0.87825243067077      4.09641220475715
  O          -0.66194991796858      2.91191381058860      2.93508292066533
  C           0.45865174069298     -0.43653523044844      2.75356839416427
  O           0.24238276002916     -1.42048859215750      1.79817619946849
  H          -0.90420123539924     -0.69054863645156      0.28588702930644
  O          -1.15821192676268     -0.14453850636938     -0.47344655893515
  H           0.39108226839307      0.23365810522755     -0.81835362488740
  O           1.34946754452848      0.27751473715052     -0.48962586935750
  H           1.26074471726895      0.39443403042666      0.50385935407887
  O           1.25938765727418      0.58366979954551      2.16907334285690
  H           2.19073237430887      0.40953506379317      2.38086339954251
  H           1.87584596385326      1.03706570525843     -0.83224063836209
  H          -1.87765631409394     -0.61754832132955     -0.90596324605767
