137
Coordinates from ORCA-job job_IRC_F
  C           0.54197189698658      5.14507656997687     -0.17760502508516
  C          -4.41065979396439      3.37545133685028      0.47877176198051
  C          -5.07119909997076     -1.72555258714111     -0.25612812882778
  C          -0.86041477913532     -4.89269600469638     -0.57773686768262
  C           4.13880986349769     -3.28097467935665     -0.04348819225718
  C           4.70053638907366      1.93548867541571     -0.61550020395096
  O          -0.34070074665359      4.05075405467220     -0.04755759755450
  O          -4.36893223871857      2.32545812308243     -0.43516572665470
  O          -3.69642339202147     -1.89700639146873     -0.52061116649020
  O           0.14275768163203     -3.92693570002786     -0.39611799273892
  O           3.80212088025400     -2.07234569447647     -0.65005850180763
  O           3.31850422575569      2.21897026969266     -0.72973785387504
  C           1.14409977201185      5.12126505592435     -1.59343310845796
  C          -4.06273286937925      4.67355355361384     -0.28104409309850
  C          -5.70889046652923     -0.98322371982563     -1.44264213611453
  C          -1.55818021378833     -4.61243782710696     -1.91930414938542
  C           3.80848818374090     -4.38639941347236     -1.06800058377573
  C           5.13268309696220      1.16334773587092     -1.87654416070825
  O           0.17614099624821      5.24000467179236     -2.60162619665538
  O          -4.90698537155925      4.87470176461417     -1.37685526745047
  O          -5.56831800220528     -1.68271151426578     -2.64700863101705
  O          -0.66573418061822     -4.59634876497351     -3.00083833616000
  O           4.53420101495604     -4.20343655339180     -2.25147605369708
  O           4.86543222848845      1.88082386707259     -3.04972887377727
  C           1.86176211607043      3.77591982958521     -1.75682346132166
  C          -2.59072278759313      4.64923296157306     -0.73957526688090
  C          -5.05965954382575      0.40374870551049     -1.53604884681589
  C          -2.24402907594539     -3.24305387935100     -1.81918078090686
  C           2.29713863352578     -4.34697339664951     -1.35650515298544
  C           4.41910280988710     -0.19602545988942     -1.88114727215107
  O           2.55719651941360      3.67784486207955     -2.97710861553928
  O          -2.22291235416323      5.89559867823353     -1.28404754670417
  O          -5.65831185788640      1.17159361896792     -2.54869864394600
  O          -2.98392377297090     -2.94596251181719     -2.97616786103564
  O           1.89415086842052     -5.43302715216696     -2.15917868551878
  O           4.85671779852613     -1.01225614673992     -2.94103638897997
  C           2.88627583107250      3.57080334510880     -0.63512041985452
  C          -1.64710901930112      4.30669995726040      0.42644443242197
  C          -5.17420686624442      1.17219297771516     -0.21318630370419
  C          -3.19697067502542     -3.21760184964283     -0.62172214120426
  C           1.45557374594523     -4.36266463722268     -0.07186965091935
  C           4.67853972078630     -0.95523265552644     -0.57446848725849
  C           2.29345262198234      3.85769471930963      0.75781818889359
  C          -2.17596571304947      3.00488182564984      1.03746048130102
  C          -4.71273643693684      0.30079122071197      0.97688960950007
  C          -2.44919883598255     -3.62955670492497      0.65736359090600
  C           2.02245853854677     -3.34081745596314      0.91934643950015
  C           4.38604353746735     -0.07543137747727      0.65351740010956
  O           1.56377929910825      5.08286615378413      0.77372671724728
  O          -3.48541430602170      3.18707187849410      1.53287831607200
  O          -5.27290943226140     -1.01319865282845      0.92357808272904
  O          -1.78995031962626     -4.87809758541264      0.46940279146085
  O           3.40353349704088     -3.48970124473751      1.14674940089214
  O           4.98712252822645      1.21833471174969      0.54225354581194
  C           3.40418854159572      3.99504366714691      1.80841025449473
  C          -1.38358954345353      2.45317584820257      2.20834598466102
  C          -5.20323380994649      0.82869102504042      2.33843688404285
  C          -3.40816994763301     -3.82798805607373      1.83752718289503
  C           1.28050471602636     -3.32503780166386      2.24231471259740
  C           4.95680262205251     -0.68450749145875      1.94508358341633
  O           4.30393158679516      5.02219291503804      1.48017074090516
  O          -1.49709989723220      1.11170781063809      2.18087524491398
  O          -6.58126809406348      1.08357539521935      2.33076105633209
  O          -4.38750507129392     -4.78856179656835      1.55310328056801
  O           1.74230504175406     -2.32623023858980      3.01865623365891
  O           6.31369284042567     -1.02555510295286      1.81451739114053
  H           0.02394409587793      6.09392500883313      0.00410443550071
  H          -5.39301981262336      3.45791789596143      0.96072839561311
  H          -5.56314239898058     -2.69349829441130     -0.09694732421335
  H          -0.43695545035436     -5.90489484658211     -0.56807339515384
  H           5.19351093283617     -3.31836133487076      0.25252342580399
  H           5.27521378898811      2.86562312558239     -0.52961048612117
  H           1.87351079005682      5.94228755829877     -1.67521750066259
  H          -4.20998467472261      5.52460937169282      0.39264637253855
  H          -6.78436579690557     -0.87324156441951     -1.26714786260136
  H          -2.32559077869284     -5.38502216879856     -2.08252195912895
  H           4.08566084580512     -5.36479325828147     -0.66477350692157
  H           6.21566586094143      0.99941860411650     -1.84730949603884
  H          -0.64715166319930      5.60106592797819     -2.22070874104604
  H          -4.97321228664341      4.04171689101800     -1.86960494461417
  H          -4.64734892413220     -1.99323600451151     -2.73412941690124
  H           0.19157598268160     -4.98231458965396     -2.73185543454309
  H           4.48521632599644     -3.26373296816159     -2.50125152050638
  H           3.99833692867130      2.32189045957754     -2.97556329046916
  H           1.08999054451054      2.99483779894052     -1.69810960309814
  H          -2.47714623858825      3.86210132844107     -1.50211726280210
  H          -3.98655271864014      0.26529316160898     -1.75051132731499
  H          -1.46773973336540     -2.47931762187897     -1.65611449447586
  H           2.07887344936592     -3.40006891046233     -1.87539781703299
  H           3.33517516763512     -0.02572754232587     -1.97284576386445
  H           1.96503845847269      3.96957001962101     -3.68450297024840
  H          -2.94784064029801      6.18920065428115     -1.86018039831921
  H          -5.80919456466520      0.58016544906875     -3.30285274790258
  H          -2.44168100555048     -3.18334743915593     -3.74344590928486
  H           2.52591452162480     -5.50464233611020     -2.89271835717108
  H           4.93853640584877     -0.45186050840516     -3.72701830897414
  H           3.72947188388592      4.25044985683878     -0.81156435857740
  H          -1.64403409342333      5.10713568236674      1.17647754523376
  H          -6.21739935689473      1.48029892926821     -0.05480144227490
  H          -4.01734532548007     -3.92402371792943     -0.80255416478313
  H           1.43901018538517     -5.36414335396299      0.37212637812062
  H           5.72225448638234     -1.29462544153686     -0.55358795286673
  H           1.61490802922934      3.04738029123452      1.04207533443352
  H          -2.17710904004486      2.23294578717275      0.25247702990671
  H          -3.61636863542482      0.23331560968709      0.96858591952668
  H          -1.71347323283732     -2.85149172159657      0.90347634981853
  H           1.83248612783462     -2.34403217032703      0.48208452611981
  H           3.30072071758427      0.01968354494855      0.75716973008032
  H           3.98604486941840      3.07287855943703      1.84398988741881
  H           2.93477834107377      4.17339622318856      2.78229997835893
  H          -4.95211546862553      0.06933163360442      3.08879626217334
  H          -4.70618512870414      1.76278768717520      2.59451538717151
  H          -3.93034311874570     -2.89159446983127      2.04179382534171
  H          -2.81282063763067     -4.11783573877099      2.71202830901759
  H           4.82409231774685      0.04305497166603      2.75292026579034
  H           4.41808427177092     -1.60195977077867      2.19079555189200
  H           3.80198163886665      5.84757993602145      1.43983528496371
  H          -7.03298429916841      0.25097018930542      2.13176936631639
  H          -3.93010887535182     -5.61747354072294      1.35037054375520
  H           6.80209279209361     -0.21042214628300      1.63169906348673
  C           0.74773709916997     -1.57196082728707      3.70846010094726
  H           1.28531204385834     -0.96631978326312      4.43082485920863
  H           0.02822556430826     -2.21854781684319      4.20898059793299
  O           0.39733677708837     -4.09270582440710      2.57243377123002
  C          -0.91781181986020      0.32393655102621      3.23738204719083
  H          -1.73829619787530     -0.21394599735194      3.70688028325729
  H          -0.42604897766002      0.97326037813402      3.95682231970620
  O          -0.79791435826987      3.10842182633870      3.04141415203953
  C          -0.01006878774463     -0.74952651728870      2.66108824265056
  O          -0.23080033303121     -1.26324714744562      1.54312280363502
  H           0.72019007978221      0.14788552975906     -0.44275215327051
  O           0.84768921320779      1.06827789586206     -0.16518318637599
  H           1.20307924528626      0.72918923427688      1.31948093919206
  O           1.50695140815448      0.33071354322918      2.20043554920399
  O           1.80554954566983      1.46997451234745      3.04685769011806
  H           2.68299516970908      1.16170082404786      3.34993616131110
  H           1.74071798987610      1.30174387753524     -0.50020447506365
