23
Coordinates from ORCA-job job_IRC_F.QMRegion
  C          -1.38358954345353      2.45317584820257      2.20834598466102
  C           1.28050471602636     -3.32503780166386      2.24231471259740
  O          -1.49709989723220      1.11170781063809      2.18087524491398
  O           1.74230504175406     -2.32623023858980      3.01865623365891
  C           0.74773709916997     -1.57196082728707      3.70846010094726
  H           1.28531204385834     -0.96631978326312      4.43082485920863
  H           0.02822556430826     -2.21854781684319      4.20898059793299
  O           0.39733677708837     -4.09270582440710      2.57243377123002
  C          -0.91781181986020      0.32393655102621      3.23738204719083
  H          -1.73829619787530     -0.21394599735194      3.70688028325729
  H          -0.42604897766002      0.97326037813402      3.95682231970620
  O          -0.79791435826987      3.10842182633870      3.04141415203953
  C          -0.01006878774463     -0.74952651728870      2.66108824265056
  O          -0.23080033303121     -1.26324714744562      1.54312280363502
  H           0.72019007978221      0.14788552975906     -0.44275215327051
  O           0.84768921320779      1.06827789586206     -0.16518318637599
  H           1.20307924528626      0.72918923427688      1.31948093919206
  O           1.50695140815448      0.33071354322918      2.20043554920399
  O           1.80554954566983      1.46997451234745      3.04685769011806
  H           2.68299516970908      1.16170082404786      3.34993616131110
  H           1.74071798987610      1.30174387753524     -0.50020447506365
  H          -1.95115136231089      2.84835084216298      1.36966616128925
  H           1.80975747723342     -3.33629379274483      1.29861095331554
