23
Coordinates from ORCA-job job_IRC_B.QMRegion
  C          -1.37954178861241      2.44142067893928      2.23093292211949
  C           1.21269961379201     -3.24624172446919      2.25125236812077
  O          -1.43719074015335      1.07479411894689      2.17110775682388
  O           1.74056991912802     -2.38295785910235      3.14546527104889
  C           0.78230153906813     -1.60198792183948      3.82783497255337
  H           1.32428551349696     -1.02203472501490      4.55988567831424
  H          -0.02777173111092     -2.20116812307895      4.23803550173651
  O           0.33985777600642     -4.06946123872808      2.55824733130965
  C          -0.90875025968570      0.29352708845499      3.25031969011735
  H          -1.71288015144358     -0.31987588023741      3.64352770038132
  H          -0.51567296181807      0.95509104173259      4.01597328296058
  O          -0.87794923963653      3.09215417485243      3.11298872884441
  C           0.17199292900726     -0.65220127766854      2.69211945443115
  O          -0.24360632101127     -1.50330235423698      1.75075105469557
  H           0.97930757706902      0.29675348273062     -1.00388358032946
  O           0.93306572459615      1.15656169706184     -0.51441596743344
  H           1.07008980254735      0.84811867109406      0.37471342526020
  O           1.28771466208074      0.10629717198110      2.23877503436915
  O           1.64061444741250      1.10812306464065      3.23093740237124
  H           2.61301032781546      0.99961292583264      3.20050100820708
  H           1.88614276533993      1.35662927343068     -0.74436611668830
  H          -1.93492226084427      2.83315704143230      1.38011360057453
  H           1.76023235106117     -3.27361929236682      1.31296809739631
