137
Coordinates from ORCA-job job_IRC_B
  C           0.54325141833296      5.16145145594600     -0.17029369433199
  C          -4.39732382459744      3.36265842565741      0.49326031667729
  C          -5.07360780973672     -1.72890355626371     -0.25334059302700
  C          -0.86889533986471     -4.89747521681045     -0.57906615347735
  C           4.11589199180951     -3.27473852779909     -0.00669268300929
  C           4.72140804067095      1.94714225071587     -0.60341706444069
  O          -0.33702069556742      4.06758954909865     -0.03824003626265
  O          -4.36320126335608      2.31554445358379     -0.42270798868410
  O          -3.69898751516420     -1.90304461708902     -0.51218594875319
  O           0.12229179828990     -3.92595493144978     -0.39271807581642
  O           3.79607381075274     -2.07603422402688     -0.61619489192978
  O           3.35623827371301      2.26501526744725     -0.70170816213290
  C           1.15100927674303      5.14172324927569     -1.58505247395818
  C          -4.05697311248673      4.66156486153325     -0.27066736973133
  C          -5.70760315632855     -0.98455771646352     -1.44132467881403
  C          -1.56620732494464     -4.61783197381381     -1.92045024676657
  C           3.79408193869030     -4.37494858759568     -1.04247178734647
  C           5.12237833734563      1.16067011748165     -1.86974150071669
  O           0.18451220118371      5.27894242825186     -2.59533995317859
  O          -4.91068012319909      4.85556334060935     -1.36113149549589
  O          -5.56785630302663     -1.68742568920060     -2.64266002605258
  O          -0.67839662296477     -4.61609689258882     -3.00343769627455
  O           4.52870070882967     -4.18407287770340     -2.21904220884874
  O           4.84595702434929      1.88948790487404     -3.03288330903243
  C           1.88524756850055      3.80457332134460     -1.76743006734900
  C          -2.58739864963802      4.64445025757924     -0.73179922999393
  C          -5.06114405441037      0.40359087134329     -1.53742762611936
  C          -2.25061428951131     -3.24562459902976     -1.82489096607227
  C           2.28511476554336     -4.32858465055405     -1.33902877942350
  C           4.40083975110892     -0.20011960373313     -1.87479535992950
  O           2.59915492554175      3.76200568382009     -2.98446880085970
  O          -2.22678459333790      5.89968005534063     -1.26584552237825
  O          -5.67145725737338      1.17145593567489     -2.54271194204723
  O          -2.99650863884984     -2.95950944018466     -2.97916009623233
  O           1.88443845724235     -5.42754842173109     -2.12954995927814
  O           4.86460512011234     -1.01459453380458     -2.93408910736124
  C           2.90137603246867      3.60692120723723     -0.63149467648290
  C          -1.64051320895114      4.30355491284351      0.43539448463112
  C          -5.17481234569991      1.16796572707781     -0.21218698171717
  C          -3.20273893532881     -3.22261101532297     -0.62672398681584
  C           1.43745573274005     -4.32937198315783     -0.05460959076489
  C           4.66886319470414     -0.94874492068514     -0.56390225549785
  C           2.29412475256198      3.88019531969773      0.76051786723910
  C          -2.15491151334377      2.98832596412668      1.04309939874882
  C          -4.71724293188247      0.29507410480026      0.97811951440589
  C          -2.46202095898786     -3.64052965389315      0.65259282914025
  C           1.98027994052550     -3.28462204601278      0.93588161844899
  C           4.38617725810604     -0.05965321402879      0.66106070053191
  O           1.55967024719226      5.10600916789628      0.79115057343656
  O          -3.46538956317941      3.16396258893212      1.54486279459405
  O          -5.27700406102693     -1.01925989610542      0.93001898053368
  O          -1.80464375751012     -4.89137518901761      0.46924793475573
  O           3.35321636654561     -3.47904025146005      1.18682222759812
  O           5.01257988533359      1.22510428563233      0.55897959940690
  C           3.40342698487693      3.99772887479811      1.81340211151912
  C          -1.37954178861241      2.44142067893928      2.23093292211949
  C          -5.20590883523777      0.82677784273089      2.33795672375337
  C          -3.41948305560459     -3.83372797624379      1.83232228623626
  C           1.21269961379201     -3.24624172446919      2.25125236812077
  C           4.95134120832238     -0.68190856312700      1.94825747213739
  O           4.30726126727620      5.03281109203843      1.51114033414157
  O          -1.43719074015335      1.07479411894689      2.17110775682388
  O          -6.58336574597509      1.07971864958457      2.33528240921885
  O          -4.39663705903602     -4.79721815691206      1.56164903934274
  O           1.74056991912802     -2.38295785910235      3.14546527104889
  O           6.31037673838575     -1.02819286994826      1.82593364735161
  H           0.02445921707824      6.11112122959179      0.00286040071768
  H          -5.37813827297962      3.44973492743142      0.97773917320428
  H          -5.56881102725008     -2.69573743083685     -0.09781365168390
  H          -0.43999976089963     -5.90802774337425     -0.56853493113978
  H           5.16778377100809     -3.32427174665908      0.29956374618604
  H           5.31819237882579      2.86316160416976     -0.53066752587179
  H           1.87804536035821      5.96456222657233     -1.65957287257837
  H          -4.20907298735319      5.51474341977064      0.39934922196550
  H          -6.78327553581432     -0.87520101129580     -1.26573729063034
  H          -2.33623808461304     -5.38855014590606     -2.07771478647483
  H           4.06917067645868     -5.35781853342869     -0.64962072230238
  H           6.20381956503563      0.98868804083090     -1.85109225132716
  H          -0.65721513060252      5.56637865061508     -2.20056456924584
  H          -4.94159049338448      4.03318344392791     -1.87608988301973
  H          -4.64033712142848     -1.97774040956714     -2.74269518555092
  H           0.19604342556439     -4.95821698374242     -2.73118050165833
  H           4.45258177892834     -3.24610188517074     -2.48428104612085
  H           3.93731025638101      2.25097690530343     -2.94748828709597
  H           1.11950295406908      3.02024436717105     -1.74733449799170
  H          -2.47125767994947      3.86583969360755     -1.50169196906395
  H          -3.98977572400984      0.26883452307889     -1.75771794656651
  H          -1.47642152583415     -2.48110697535093     -1.66359087667763
  H           2.07218805982895     -3.39097327452554     -1.87576074794335
  H           3.31609392146536     -0.04395828251581     -1.97851732885204
  H           1.95712297966586      3.88142588943881     -3.69486998734446
  H          -2.92938203269641      6.17431109030119     -1.87618461259584
  H          -5.78553259584847      0.59305130978318     -3.31330725407233
  H          -2.42803873929356     -3.13217969717647     -3.74651135096273
  H           2.49186382664223     -5.46992683605607     -2.88827394602048
  H           4.84915187402114     -0.45797246540543     -3.72646275846980
  H           3.73613707631737      4.29487784321115     -0.80215883853845
  H          -1.65397144509616      5.10340657227316      1.18632298512201
  H          -6.21775212162345      1.47792263407834     -0.05526749805474
  H          -4.02472936756212     -3.92631632276831     -0.81095071542959
  H           1.44038279803054     -5.32755660683642      0.40048212595992
  H           5.71391834412640     -1.28493335472721     -0.54996746541856
  H           1.61822121234149      3.06731341982213      1.04319119628926
  H          -2.15477639557625      2.22130672685380      0.25166332906215
  H          -3.62083695366037      0.22519918298218      0.97492045530447
  H          -1.72556231749663     -2.86821277254549      0.91652187563858
  H           1.84047778570135     -2.29688163033133      0.45791236260251
  H           3.30245160963010      0.04920731422262      0.76876928579565
  H           3.98708906833740      3.07564935831804      1.83090858765056
  H           2.93886142484923      4.15839257239130      2.79334179066202
  H          -4.94853415469016      0.07128653418627      3.09109088440670
  H          -4.71121970067261      1.76266518893020      2.59217750961135
  H          -3.94102866568294     -2.89630027101421      2.03445911533556
  H          -2.81696140605525     -4.11034495993727      2.70765264655341
  H           4.82435666733301      0.03832237447436      2.76428273533206
  H           4.41320243331168     -1.60025387143547      2.19214022115104
  H           3.79083696837348      5.84254708672007      1.40380576063379
  H          -7.03698665747847      0.25297908808160      2.11642090062698
  H          -3.94308888201177     -5.62036522510726      1.32733749467455
  H           6.78847511699059     -0.21844906910315      1.59035767649468
  C           0.78230153906813     -1.60198792183948      3.82783497255337
  H           1.32428551349696     -1.02203472501490      4.55988567831424
  H          -0.02777173111092     -2.20116812307895      4.23803550173651
  O           0.33985777600642     -4.06946123872808      2.55824733130965
  C          -0.90875025968570      0.29352708845499      3.25031969011735
  H          -1.71288015144358     -0.31987588023741      3.64352770038132
  H          -0.51567296181807      0.95509104173259      4.01597328296058
  O          -0.87794923963653      3.09215417485243      3.11298872884441
  C           0.17199292900726     -0.65220127766854      2.69211945443115
  O          -0.24360632101127     -1.50330235423698      1.75075105469557
  H           0.97930757706902      0.29675348273062     -1.00388358032946
  O           0.93306572459615      1.15656169706184     -0.51441596743344
  H           1.07008980254735      0.84811867109406      0.37471342526020
  O           1.28771466208074      0.10629717198110      2.23877503436915
  O           1.64061444741250      1.10812306464065      3.23093740237124
  H           2.61301032781546      0.99961292583264      3.20050100820708
  H           1.88614276533993      1.35662927343068     -0.74436611668830
