133
Coordinates from ORCA-job job E -252.583550655210
  C          -0.36781159852415      4.22650058884842      5.35844581021700
  C           1.01194431987642      1.13552141745221      9.36292557041099
  C          -0.83375793656852     -3.77596490036039      9.65637712983570
  C          -1.64195856353062     -5.51121397114164      4.81914380340169
  C          -0.73356966883038     -2.68269524138468      0.49595933314008
  C          -1.34146314875481      2.47502447930171      0.52803060195241
  O          -0.17988141008012      2.92308605270275      5.85597152478863
  O          -0.02283824984550      0.21642346230426      9.17283317235518
  O          -1.52643187443378     -3.68726822295807      8.44490218360851
  O          -1.38627302689955     -4.22210802752710      4.30907474711521
  O          -1.56720922805444     -1.59714941798581      0.76822135315623
  O          -1.59323095542368      2.42106897872210      1.90642659878712
  C          -1.85185745533523      4.42559561807107      5.01056477466250
  C           0.36122216161671      2.51595294081479      9.55183915648264
  C          -1.55184600943936     -2.83428441538608     10.64090774433076
  C          -2.98377876830811     -5.49160277331925      5.56286936761424
  C          -1.60234648406866     -3.95283099533064      0.55503943111030
  C          -2.56190518447097      1.85159347372321     -0.17068927055482
  O          -2.70707196085434      4.21653343385200      6.10324245277488
  O          -0.51597989144108      2.54023906203579     10.64226664016052
  O          -2.89431763930176     -3.18944349514657     10.81909922057335
  O          -4.04589800737468     -5.07123995841755      4.74836213918138
  O          -2.67844157597004     -3.89576295662872     -0.33652384963414
  O          -3.74108101716181      2.55164537094033      0.11818522297593
  C          -2.21976410479293      3.42979808432018      3.90657493674812
  C          -0.36908128497260      2.88179419273111      8.25304633641760
  C          -1.42433621715504     -1.40025034969152     10.10725331563332
  C          -2.85943736747989     -4.51884298714942      6.73851677624141
  C          -2.10046930507722     -4.15338182566650      1.99607356856128
  C          -2.66728140436776      0.38592257261167      0.27422795750759
  O          -3.52152953917551      3.63869308512784      3.42096993879324
  O          -0.91358334914953      4.18199763735271      8.33242269602210
  O          -1.93181443247031     -0.45575786152659     11.01679244911742
  O          -3.99670178016360     -4.54525739084743      7.56230860472844
  O          -2.82941794117030     -5.35551655170767      2.10699025844863
  O          -3.65794485038615     -0.30381683815457     -0.44565527444638
  C          -1.26172515379688      3.53734224822580      2.71440755691261
  C           0.57846294102220      2.80285461596458      7.04446906927104
  C           0.04017912406990     -1.03788076814876      9.83532209562594
  C          -1.64593426014099     -4.83996771803651      7.62178443324183
  C          -0.91319163010567     -4.16984949050600      2.97867387741799
  C          -1.34669397382379     -0.37148224328186      0.08080977578209
  C           0.20864938366354      3.52681308783478      3.17178605040816
  C           1.28630125639054      1.43938582142770      7.03543314294426
  C           0.73704503714776     -2.11525212224312      8.98687553157370
  C          -0.37347394700979     -5.10527011652931      6.79509971091756
  C          -0.12055225700222     -2.86692111324577      2.76318890717443
  C          -0.14389816001310      0.42201445153705      0.62656154073547
  O           0.41643528971347      4.46398964423856      4.22709917783843
  O           1.90577706656767      1.16963820119610      8.27780918308016
  O           0.51741044490641     -3.41159629134592      9.53846354443669
  O          -0.62834482246228     -5.95142080369511      5.67253204133312
  O           0.32350961279923     -2.78209718900500      1.42625717384807
  O          -0.17985391292265      1.77671362991862      0.17775151291381
  C           1.18110332510494      3.95035333052067      2.06178697781998
  C           2.40064833347017      1.35821988703898      5.97838364970554
  C           2.26182962252549     -1.93597968843522      8.95046090252555
  C           0.70736655048457     -5.84752775491328      7.59626276915472
  C           1.09027631593904     -2.69550322825186      3.67198621846406
  C           1.21232382487594     -0.11438617553821      0.13823835135926
  O           0.83766109253149      5.18846435271286      1.49437951283567
  O           3.46029197449819      0.65245084282820      6.47370334033002
  O           2.82162640897908     -1.91388128245067     10.23634675840484
  O           0.22885189651740     -7.04068281229495      8.16027563990837
  O           2.08342397922802     -2.11747978422877      3.02199300864073
  O           1.24731127304888     -0.29660481780714     -1.25315198099029
  H          -0.04900890963469      4.97436881849762      6.09487691134721
  H           1.63149801619073      0.87135558066717     10.22931673938284
  H          -0.82498070953771     -4.80609497291118     10.03742661533483
  H          -1.67085694199864     -6.24964435202834      4.00870476094829
  H          -0.24870738443197     -2.58565247238419     -0.48309050955639
  H          -1.18128651174962      3.50679136811867      0.18986529479654
  H          -1.97599978918678      5.45144088151215      4.62779149822669
  H           1.14158867548512      3.25717844030137      9.75402406163365
  H          -1.07672102512268     -2.90274766630212     11.62453584955570
  H          -3.17792853766183     -6.50492236729058      5.94882276737542
  H          -0.99510361527318     -4.81514135415155      0.26010857973513
  H          -2.42898723385608      1.89871316255099     -1.25595857612630
  H          -2.21914142853017      4.36452085140283      6.93492826046336
  H          -1.03665022055811      1.71758875182968     10.66219225257663
  H          -3.28767294354660     -3.39080686512267      9.95398664709486
  H          -3.86179635336387     -5.31823311070560      3.82420618873530
  H          -3.08578473022029     -3.01436052208772     -0.29195999065560
  H          -3.76997694296452      2.75240735841583      1.06895427344479
  H          -2.12455224302129      2.41596302475015      4.32505174576206
  H          -1.17589555186190      2.15152693884608      8.08746542023238
  H          -1.96688327197171     -1.33545810898995      9.15117982913830
  H          -2.70798833408943     -3.51119619747597      6.32218968851503
  H          -2.74687910190854     -3.30522206314039      2.26943786317234
  H          -2.90015622298538      0.37190782148529      1.35088241854691
  H          -4.12083274619686      3.70238426281301      4.18091912106978
  H          -1.22723404483812      4.31355098573333      9.24467573428835
  H          -2.76963956583710     -0.79413587506125     11.37210821802734
  H          -4.78139839474070     -4.45079574740854      6.99975720502041
  H          -3.33379743008329     -5.46863433097150      1.28207031068488
  H          -4.45260532257247      0.25188503103972     -0.48255542837145
  H          -1.46801353607791      4.46889508180464      2.16934418047682
  H           1.33064355254362      3.60038098811512      7.09993933825243
  H           0.57023710976767     -0.93023594982904     10.79107256841530
  H          -1.87346646342456     -5.71840375645285      8.24234388241847
  H          -0.26315220098510     -5.02972017647432      2.76975095947768
  H          -1.19600801116242     -0.57033221038868     -0.98893040091810
  H           0.46178911434039      2.52049720792286      3.53094667427329
  H           0.54012836661197      0.66752025612424      6.80257167092594
  H           0.33934947583705     -2.07226938464707      7.96346838565434
  H           0.01869972777506     -4.14485404760152      6.44020470860098
  H          -0.79234552659472     -2.02469090093987      2.99803051740816
  H          -0.17349784762553      0.39921450692065      1.72481493540272
  H           1.16084422830296      3.21988852292267      1.25272145548808
  H           2.18084681628726      3.99066436261140      2.50655818074425
  H           2.67979790453422     -2.75510701888855      8.35344671633741
  H           2.51268604600075     -0.98396783788457      8.47949930094087
  H           1.05138523315845     -5.22440683518042      8.42065062764757
  H           1.54457342459184     -6.04349198955412      6.91699734218495
  H           1.97398687749393      0.60273777801137      0.46043853163616
  H           1.41793070982087     -1.08205651755086      0.59461277645963
  H           0.92354516646054      5.87048771300568      2.17590256771842
  H           2.66807350610963     -2.77532280106799     10.65265727091071
  H          -0.01053557881328     -7.64371090847046      7.44152380323043
  H           1.18721141578911      0.57033087276469     -1.67993032482779
  C           3.24384184897783     -1.76581145774595      3.77000441438325
  H           4.06472427660068     -1.74512330564239      3.05645612477334
  H           3.41081878227710     -2.51234191289868      4.55462566107611
  O           1.13962117706646     -3.03011865161710      4.83102741537193
  C           4.17966160092155      0.02288180610352      5.43114068518755
  H           4.68870605706201     -0.83018424310948      5.87758506156701
  H           4.89761330726800      0.70943573659394      4.97875781099567
  O           2.56538620576188      2.23494576396129      5.12140059441321
  C           3.04306223641212     -0.42187919926128      4.45955967166528
  O           1.89880896424935     -0.11242704251650      4.90212194813142
  O           3.27876853028842      0.71455485254666      3.09688117584999
  H           3.04387606543507      1.54501305937617      3.59283683122644
  H           4.20750636633814      0.78215838293608      2.79920429026782
