133
 xtb: 6.7.1 (edcfbbe)
C           -0.36707857565181        4.22588489545824        5.35795232380432
C            1.01750231763998        1.13311306008936        9.35137994437111
C           -0.83374863217694       -3.77577598664711        9.65624895077735
C           -1.64204669299325       -5.51118008565351        4.81923328665847
C           -0.73351429783438       -2.68274684840680        0.49572764859465
C           -1.34154055236389        2.47528806942449        0.52782891727833
O           -0.18365095627604        2.91962908376651        5.84943971907050
O           -0.02212544262635        0.21693547196087        9.17339812497950
O           -1.52650917349710       -3.68719120587023        8.44498789456765
O           -1.38635201618112       -4.22231138371078        4.30884616779890
O           -1.56700999933721       -1.59727173355168        0.76849832908127
O           -1.59303362022006        2.42089474931513        1.90657901466134
C           -1.85145566239330        4.42610129824405        5.01057114926477
C            0.36799704551078        2.51386343584194        9.54458166733433
C           -1.55152898235637       -2.83406031279629       10.64086949945066
C           -2.98386072048382       -5.49155827357804        5.56291821318637
C           -1.60222598645774       -3.95296860532097        0.55477672498819
C           -2.56193317566192        1.85168192595292       -0.17079064008794
O           -2.70689471825204        4.21759386021729        6.10335230720443
O           -0.50923390512459        2.53829232027199       10.63438324695808
O           -2.89399058741871       -3.18893839100785       10.81898871633334
O           -4.04581660593382       -5.07101429789329        4.74830004440163
O           -2.67817460540672       -3.89567160561983       -0.33693430213490
O           -3.74120796146171        2.55166357572627        0.11816669488485
C           -2.21970164301453        3.43030261959599        3.90662794356210
C           -0.36029301606722        2.87780117089705        8.24506931257485
C           -1.42344414461873       -1.39988731619015       10.10735239410533
C           -2.85947947615701       -4.51884595270035        6.73861180884333
C           -2.10070924521394       -4.15376179991861        1.99576108529131
C           -2.66737248361412        0.38593853327166        0.27416281070955
O           -3.52170871952204        3.63875372239586        3.42118527441101
O           -0.90504544964762        4.17777212556502        8.32393583130549
O           -1.93133636507155       -0.45571939646016       11.01680759540417
O           -3.99677965627503       -4.54530448532875        7.56234710504166
O           -2.82961841231661       -5.35590178457395        2.10657668029101
O           -3.65808067437695       -0.30381572095223       -0.44575336442172
C           -1.26196900668784        3.53742860755210        2.71436042553885
C            0.58421505168846        2.78772932739257        7.03098116753454
C            0.04147759273836       -1.03780661668888        9.83550812226131
C           -1.64600684528312       -4.84009843369438        7.62191867031784
C           -0.91345978811772       -4.17065308541333        2.97828251525765
C           -1.34694610880928       -0.37166982717888        0.08058686108834
C            0.20844368653317        3.52735726772847        3.17188289021688
C            1.27079589734176        1.41080053437376        7.01600677514582
C            0.73767726954936       -2.11530100728398        8.98698249785593
C           -0.37355172261162       -5.10541859008980        6.79533105395697
C           -0.12125477686036       -2.86775840203732        2.76275111817979
C           -0.14447404958650        0.42197884331103        0.62669001580728
O            0.41523119578355        4.46636572083367        4.22609731517420
O            1.90486094350040        1.16157230588417        8.25411844779514
O            0.51762740358209       -3.41165807307557        9.53827153700845
O           -0.62827300012131       -5.95119619874791        5.67253384389624
O            0.32383994665426       -2.78144145547299        1.42635903790189
O           -0.18014404457669        1.77696581393545        0.17817104510582
C            1.18130536425802        3.95009890073503        2.06193181434276
C            2.35381721413071        1.26682643534560        5.90974553101096
C            2.26236454122632       -1.93649754934708        8.95018244012409
C            0.70732050230729       -5.84772483014612        7.59636042013823
C            1.08545834787895       -2.69312982344290        3.67465130568999
C            1.21237553556779       -0.11311271230579        0.13787394256628
O            0.83820160485960        5.18856848070755        1.49436568445616
O            3.47791893884332        0.64901327769904        6.47031748563578
O            2.82197451506451       -1.91360978624906       10.23618640750265
O            0.22877450302970       -7.04086395092531        8.16044621360839
O            2.07391006221762       -2.09470434545265        3.03261955838307
O            1.24719981503766       -0.29795793401892       -1.25318654984088
H           -0.04822908338350        4.97323627897531        6.09545338642208
H            1.63517493775538        0.87062753861090       10.22451147240257
H           -0.82495455138491       -4.80602401546902       10.03741787968437
H           -1.67092207941978       -6.24968470833770        4.00879428839186
H           -0.24872257169652       -2.58568428915695       -0.48316264156123
H           -1.18136571047083        3.50688556516974        0.18985282668540
H           -1.97575485607298        5.45166265516174        4.62792556094965
H            1.14365801706846        3.25644441744448        9.75191012926924
H           -1.07660542251413       -2.90267664567135       11.62451933821253
H           -3.17799406851630       -6.50486935196804        5.94888017951511
H           -0.99516444653723       -4.81522610979144        0.26001630708938
H           -2.42909588941742        1.89876670228953       -1.25600577540879
H           -2.21850209458880        4.36329554637948        6.93487316229229
H           -1.03474360893459        1.71699174572476       10.66037209655548
H           -3.28760827894269       -3.39056810686120        9.95395854509939
H           -3.86194928339222       -5.31855144992170        3.82426827490993
H           -3.08592342320544       -3.01442764953696       -0.29183836880895
H           -3.76989153967478        2.75258459414844        1.06891318284699
H           -2.12444199539310        2.41623699557766        4.32534916493911
H           -1.17385870169142        2.15072126265568        8.08591529369011
H           -1.96645716575585       -1.33520682621245        9.15113590492146
H           -2.70796203160562       -3.51114164200428        6.32232490415069
H           -2.74696464348664       -3.30533554550795        2.26940949668759
H           -2.90021335833025        0.37200037823044        1.35087161534486
H           -4.12075715363754        3.70284338061358        4.18100190817617
H           -1.22391219971483        4.31239023319430        9.24298727860443
H           -2.76948655160265       -0.79422738350132       11.37208238487603
H           -4.78141924908739       -4.45071087697399        6.99979543771136
H           -3.33390432231538       -5.46872769500741        1.28201334013175
H           -4.45264221441135        0.25186382606293       -0.48257171878282
H           -1.46812627198056        4.46890425509022        2.16930739024023
H            1.33649827771469        3.59205837238077        7.09439209997668
H            0.57074213294043       -0.93011247999100       10.79107450643827
H           -1.87353088895389       -5.71837455583674        8.24244726410180
H           -0.26333674829832       -5.03002742915630        2.76971246576214
H           -1.19624380340783       -0.57044023103410       -0.98899960848144
H            0.46166703547390        2.52113255091145        3.53224944099902
H            0.52959493937739        0.66185059403304        6.80801140867615
H            0.33958430376201       -2.07198263589972        7.96352332657519
H            0.01865916031206       -4.14481153385017        6.44052666901572
H           -0.79294077806436       -2.02512562733629        2.99781207252298
H           -0.17429515445226        0.39928019558207        1.72486059458812
H            1.16062835337113        3.22012087357830        1.25247497299879
H            2.18068342569318        3.99060923933679        2.50706919051241
H            2.67992219258645       -2.75558286222399        8.35377700324459
H            2.51299927817230       -0.98443618657289        8.47870006323359
H            1.05141929892362       -5.22442109210400        8.42063396605072
H            1.54454017672055       -6.04358607442001        6.91702758437965
H            1.97316586449907        0.60460975346397        0.45892223630142
H            1.41857839015328       -1.08148832432287        0.59473154322269
H            0.92352404864032        5.87038870560458        2.17598548726188
H            2.66801460655082       -2.77524616389057       10.65266866908611
H           -0.01051708214707       -7.64377725930619        7.44157552155875
H            1.18621671242320        0.56962665809650       -1.68051227356880
C            3.22732811629631       -1.73890086689541        3.78860735982049
H            4.06432502534456       -1.75300461793200        3.06596960417786
H            3.39546829808215       -2.49543220702237        4.57026871440765
O            1.13624341298624       -3.03156499957537        4.83141575950216
C            4.20120461734392        0.02581037264717        5.43139788964229
H            4.68487236603057       -0.83749136984870        5.87325407326647
H            4.91268099352553        0.70994154398754        4.99127844464120
O            2.55929578040386        2.21739162607177        5.10071394126908
C            3.07762214834278       -0.33500342421862        4.39586172257078
O            1.92407083280820       -0.02577548518671        4.96612566436646
O            3.24559113168031        0.67290547018433        3.21990466224638
H            3.03629761747382        1.53998308287025        3.63526995923801
H            4.20063577645507        0.76562556317953        2.82639303342214
