24
Coordinates from ORCA-job job
  C          -2.02198232228632     -0.56193724704233     -0.08701318782017
  H          -1.66923076672711      0.78357290222431     -1.44308127711161
  H          -2.22854680481205     -1.36379963346937     -0.81651460323896
  C          -3.49840368647398      1.28946640798469      0.78831645292811
  O          -1.19726803929591      0.45326015680526     -0.66307098327848
  H          -1.43343263924532     -1.00076913904081      0.73155390894084
  H          -6.68364583477171      1.21924339080120      1.91117275716591
  H          -4.25380915858870     -1.98125808639800      0.45764581574776
  H          -6.39250722772614     -1.17274117756247      1.38184131874361
  H          -4.81982123558860      2.79412894827521      1.53425054732867
  H          -2.67534703041958      1.96915911733664      0.62476087099245
  C          -3.33223213592665     -0.05305956691038      0.47825021527007
  C          -4.38217506354221     -0.93604565427034      0.69764076743878
  C          -5.58158468300250     -0.47971470518442      1.21473204383775
  C          -5.74544001936457      0.86382474493958      1.51277350085781
  C          -4.70082663716775      1.74695630837829      1.29999607148217
  C          -4.52505678839380      0.81066205224134     -2.78135717610901
  O          -4.59969091065672     -1.50175998581763     -2.99779152768740
  H          -5.08561736758689      1.68002546958131     -3.15152748087723
  O          -3.13415522453847      0.97962212100161     -2.90256982499466
  O          -5.03707882570667     -0.22590913993260     -3.58761753658266
  H          -4.72980413763445      0.62245287809589     -1.72205744075544
  H          -2.93201575265120      1.29075946648746     -3.79839305427004
  H          -5.43245208361500     -2.00378498434806     -3.09111886733130
