134
Coordinates from ORCA-job job E -256.608604179430
  C          -0.55874729710649      4.61203361963940      0.95822488973636
  C           4.53247964453542      3.31448388196455      0.49940568477120
  C           5.03171745918156     -1.77921998488605     -0.11871915167594
  C           0.66796561990680     -4.74367848339585     -0.20580753528070
  C          -4.23343152776800     -3.21611078895686     -1.34612296202134
  C          -4.87001358205350      1.82392439559712     -0.25204241641878
  O           0.41787640619194      3.64415112048601      0.66329637193449
  O           4.41507304554908      2.05628039206476      1.08451807608700
  O           3.61375295869463     -1.87119375171877     -0.07929353602782
  O          -0.23730783059640     -3.70768158997517     -0.49742747211203
  O          -4.22666561901449     -2.18666919436647     -0.40773509569916
  O          -3.50869424112546      1.85349879887122      0.11360387423264
  C          -1.37455333545359      4.12183996415919      2.16726873176148
  C           4.01667600714605      4.34873554895050      1.52051954059568
  C           5.61577353320807     -1.43713892536036      1.26554637006424
  C           1.24599061895825     -4.47482010853586      1.19335695352643
  C          -3.91336813743181     -4.51828655046046     -0.58365938891468
  C          -5.67039363032985      1.00828782160917      0.78049007728517
  O          -0.56855484388956      3.84415692895772      3.28157708341519
  O           4.72902422476950      4.30302764406981      2.72307394315549
  O           5.40686331633121     -2.42941425353208      2.22916725232194
  O           0.24706164895008     -4.39364621074212      2.17446539687689
  O          -4.85777319429045     -4.79044157566885      0.41076171093611
  O          -5.66343207162113      1.58237794350690      2.05739600013393
  C          -2.10877118447643      2.83754838435024      1.76366748391915
  C           2.51554241649241      4.11967118019898      1.77063443864298
  C           5.03335778474107     -0.09099144473350      1.70792369972637
  C           1.98771887601492     -3.13279751973557      1.14683793514791
  C          -2.50135345258598     -4.41122555444357      0.02236385850695
  C          -5.09532195923957     -0.41310374830329      0.80623329672484
  O          -2.96120813234357      2.38052966161322      2.78497143820932
  O           1.98516281807180      5.11469248132736      2.61780546987830
  O           5.60375843094625      0.33998008649359      2.91773978571025
  O           2.62011350303361     -2.84495927365780      2.36980728209824
  O          -2.12883845575235     -5.60417484428225      0.67243850463934
  O          -5.85242149632046     -1.26272432590521      1.63067900160450
  C          -2.95249159315578      3.09548510181668      0.51144112414059
  C           1.73739593329556      4.10898084366200      0.44419266404981
  C           5.27950933496227      1.00419240203666      0.65996532741015
  C           3.05067777382821     -3.17266795943475      0.04247039491467
  C          -1.47720227963340     -4.07509121939685     -1.07385387111279
  C          -5.05280508155494     -1.04071272780771     -0.59478145803903
  C          -2.07723176641876      3.69210235492353     -0.60556049670402
  C           2.41993413248808      3.10577045063523     -0.48847572276397
  C           4.99477597385039      0.53346386713744     -0.78232116707196
  C           2.42268203631785     -3.60253470069659     -1.29773833418369
  C          -1.97770739673223     -2.83505469978732     -1.82052098155233
  C          -4.49589630484894     -0.06752171268440     -1.65486132645240
  O          -1.39772119711669      4.85426795898213     -0.13465767941554
  O           3.78284506670321      3.42150927275364     -0.69588137790687
  O           5.41610791894136     -0.81176337429385     -1.03777115364454
  O           1.69820927086843     -4.82008490755558     -1.15054006224782
  O          -3.26757358270932     -3.01904022144025     -2.36389813992355
  O          -5.02166958474005      1.25126488384157     -1.51681915048840
  C          -2.91799059667576      4.12896911936647     -1.81099802488301
  C           1.74504330614194      2.98702887204608     -1.85220315108691
  C           5.76148156745470      1.36062473118490     -1.83291437400650
  C           3.49248978153905     -3.83831131910569     -2.37142477735129
  C          -1.02534952509921     -2.40492383749906     -2.93281458983811
  C          -4.86956209558613     -0.47810075856084     -3.09088770642149
  O          -3.89746112618605      5.07393312086718     -1.46393047717879
  O           2.21821091236216      1.91180227171599     -2.46605975161576
  O           7.12730616983433      1.48043403840197     -1.53399688214907
  O           4.46874833812625     -4.76161674549488     -1.96501873936762
  O          -1.31322698834570     -1.16157515386795     -3.30374024518227
  O          -6.24633909261572     -0.70591007634492     -3.23578296341524
  H          -0.09328891772185      5.57941156942418      1.18397415861898
  H           5.56919073406431      3.53471344287775      0.21373201760912
  H           5.45865118498367     -2.72061807413370     -0.48825786975041
  H           0.17061465012056     -5.72004494592607     -0.23676279502830
  H          -5.19442703441329     -3.28911972347249     -1.86991204555170
  H          -5.27763380780815      2.83852213199119     -0.33997119063765
  H          -2.11712937429266      4.89584041969226      2.42002667218032
  H           4.16368841758945      5.35161471619472      1.10553001226080
  H           6.70247785029177     -1.34832112267623      1.15769032972122
  H           1.96030619969969     -5.27753723781170      1.43597707637976
  H          -3.94485162082608     -5.35716465664839     -1.28681184995987
  H          -6.71909964364836      0.97496100087796      0.46654547516810
  H           0.22492507949492      4.40870732451971      3.26221069252031
  H           4.83636018944642      3.37647412193854      2.99370862313880
  H           4.44740026729641     -2.57979605203957      2.35082393348017
  H          -0.46337366484301     -5.02277369423620      1.96826871479907
  H          -5.04992208993488     -3.97427163517761      0.90155084489992
  H          -4.74789683479153      1.79148269558828      2.32776035327806
  H          -1.35436008208735      2.07350558631840      1.52604902549175
  H           2.38500111530689      3.13089692732482      2.23709145493642
  H           3.94307755097030     -0.20503399958142      1.82525721595677
  H           1.25486702762989     -2.34806049208719      0.90918241194777
  H          -2.49584705539307     -3.58176025364745      0.74676485505456
  H          -4.05828520391118     -0.35440387686947      1.17498070967929
  H          -2.45891240052728      2.37275650919645      3.61516314761273
  H           2.66559888008221      5.33575500554374      3.27703682452406
  H           5.68954058770742     -0.42993862275173      3.50333221629732
  H           1.98351565795905     -2.99861366126735      3.08577224526255
  H          -2.92509658834911     -5.97401049819457      1.09138059221166
  H          -6.08454516815095     -0.77450971957526      2.43705402176381
  H          -3.75076813020210      3.80579846567887      0.76092108264592
  H           1.72730595610363      5.10678059391258     -0.01023204799279
  H           6.32427129533115      1.33905605295533      0.73205928754222
  H           3.82767851730307     -3.89361577803872      0.32136239272859
  H          -1.35118808049019     -4.91724877838301     -1.76429963658534
  H          -6.06452688224693     -1.35593608853004     -0.88346335021962
  H          -1.34318031330156      2.94432924730681     -0.92823049568498
  H           2.33034758153935      2.11082960952247     -0.02466685160711
  H           3.92068691534727      0.62676856835474     -0.97567716724895
  H           1.73820234417805     -2.82146910190964     -1.64810341008851
  H          -2.00296107322402     -2.01015838604130     -1.09169885992695
  H          -3.40338789081920     -0.03129516484652     -1.55137276047999
  H          -3.44765389246494      3.26217489336326     -2.21022998152635
  H          -2.23771076663082      4.52400408835560     -2.57291169275306
  H           5.61398103250675      0.87124231597264     -2.80132819672188
  H           5.35390012619305      2.36956107643306     -1.88155872524529
  H           4.01226398621178     -2.89824676893705     -2.56640476572223
  H           2.98673309736270     -4.16758578165177     -3.28492018982131
  H          -4.53298388834870      0.32190851831260     -3.75906237461836
  H          -4.36453632365971     -1.40526576290978     -3.36029261956066
  H          -3.44846410645298      5.87661981827808     -1.16110733578167
  H           7.54118374955175      0.61011905137288     -1.62519548801859
  H           4.05385744666848     -5.63292842614961     -1.88758412889263
  H          -6.71179119093896      0.13509681973557     -3.11977404280671
  C          -0.32225867621315     -0.42480362022027     -4.02046005086298
  H          -0.84373298466846      0.24214059575688     -4.70388207109784
  H           0.35710811235916     -1.10395403513424     -4.53720406366573
  O          -0.13468584950041     -3.07012168906562     -3.38756072909129
  C           1.47443677485546      1.35764273306657     -3.54618035796686
  H           2.18499592373876      0.81628404444965     -4.16739940937488
  H           0.95626612363035      2.14712882224027     -4.09455337202403
  O           0.91507227688980      3.73448931722820     -2.29666770947790
  C           0.43049399779382      0.39359625109959     -2.94268066591698
  O           1.03726025791772     -0.63417708645894     -2.16203391003273
  O          -0.44880342104897      1.14945638856219     -2.18714409545594
  O           1.52080633044643     -0.15213969422675     -0.90949706328188
  H          -1.21317429888471      0.60299590802924     -1.94469124490862
  H           2.26523069310442     -0.76650175937587     -0.70737659752568
