134
 xtb: 6.7.1 (edcfbbe)
C           -0.56036937425599        4.62140963828023        0.95484135738766
C            4.53116382170275        3.31820517058037        0.49804014765933
C            5.02368473186503       -1.77628123135878       -0.12918434073178
C            0.66258749290046       -4.75398837814551       -0.17919957879711
C           -4.23041399786722       -3.20749884190882       -1.36207939556801
C           -4.86756985625218        1.82643289152074       -0.25070969464828
O            0.41649072545385        3.65423425771426        0.66412211150062
O            4.41370068666598        2.05924628653044        1.08087510415077
O            3.60504997277638       -1.87288687299568       -0.07655768774215
O           -0.25562805369519       -3.72333271224935       -0.43470671859600
O           -4.22899047215966       -2.18736070515277       -0.41418082799704
O           -3.50873118425938        1.85823672307365        0.12411436889197
C           -1.37584710067125        4.13586502912550        2.16606557753288
C            4.01695591551349        4.35247435771188        1.51994090173403
C            5.62003482460944       -1.43357775199216        1.24973952065501
C            1.27416184925190       -4.49864518081941        1.21034299837056
C           -3.93156128935573       -4.52135317753787       -0.61306121854857
C           -5.67097082185999        1.00825420160724        0.77724311998194
O           -0.57037928360525        3.86453597506467        3.28103190939185
O            4.72902452122203        4.30507838082298        2.72295993064252
O            5.42854674004464       -2.42744396361459        2.21182623125504
O            0.31547661505667       -4.44308939957287        2.22960756654776
O           -4.89553638004706       -4.79753628323846        0.36093947049603
O           -5.66630795861665        1.58006909636798        2.05449034392848
C           -2.11078958631585        2.85024037442050        1.76784637654294
C            2.51511289836866        4.12723040214579        1.77016396679584
C            5.03704589023957       -0.08971460820848        1.69872875495403
C            2.00018554918437       -3.14906226066985        1.16366608519396
C           -2.52468718489503       -4.44521729949019        0.01170335682240
C           -5.09729930568683       -0.41384578206444        0.80147309752475
O           -2.96623711484031        2.40161743216324        2.79006209493235
O            1.98720174804182        5.12548779235421        2.61627160267804
O            5.61536370213392        0.33924272684636        2.90429595083703
O            2.65083353155926       -2.86594931523628        2.38094089447412
O           -2.18478264963140       -5.67399558444264        0.61640290377773
O           -5.86084640626924       -1.26429962863411        1.61811908764000
C           -2.95323858794933        3.10215628614151        0.51363283239442
C            1.73650397336533        4.11696792623160        0.44396487749712
C            5.27615309646979        1.00725617765537        0.65106875378039
C            3.04765696420425       -3.17625558805423        0.04409645776183
C           -1.47843490018968       -4.08582510477940       -1.05711323174493
C           -5.04895245036022       -1.03740186553675       -0.60109838716590
C           -2.07756645482102        3.69364968345093       -0.60554265649250
C            2.41787772190920        3.11300179555545       -0.48845604381881
C            4.98375090641435        0.53869446465577       -0.79053364305148
C            2.40025962387578       -3.59883905853073       -1.28956145142546
C           -1.96448478024782       -2.83813941512482       -1.80080149472095
C           -4.48343801773212       -0.06207387675971       -1.65466033202299
O           -1.39955357780875        4.85938780483295       -0.13984222086661
O            3.78053478563965        3.42839477037114       -0.69640277701183
O            5.39564947840483       -0.80717820219706       -1.05348555080955
O            1.67540814073442       -4.81785415160821       -1.14152492841430
O           -3.24534719360185       -3.00656600402414       -2.36324579211367
O           -5.01011939030704        1.25635260653470       -1.51802037253698
C           -2.91687410090714        4.12411581154478       -1.81428154069655
C            1.74290033106291        2.99284066826218       -1.85189957864999
C            5.74983921892901        1.36458799644482       -1.84268592443801
C            3.45544961479130       -3.82609115205075       -2.37963629269567
C           -1.00413816458498       -2.40582589241555       -2.90496051854133
C           -4.84448522975548       -0.46842184359617       -3.09517422638318
O           -3.89734222273844        5.06983432302642       -1.47491244113604
O            2.21860683812361        1.91956205948936       -2.46503828182315
O            7.11591819338890        1.47760321434030       -1.55119580844817
O            4.42961889089508       -4.75456903632056       -1.99952111096924
O           -1.30180003546896       -1.17004263472379       -3.28665021114796
O           -6.21526889715497       -0.70381055416752       -3.25363846551413
H           -0.09348292957387        5.58287228898292        1.18000985240754
H            5.56920659929854        3.53575516083759        0.21141572476547
H            5.45511284057263       -2.71957441265888       -0.49037233245676
H            0.16941598189585       -5.72384351860349       -0.23017245763511
H           -5.19175611187774       -3.28191012801011       -1.88036131501189
H           -5.27770911426186        2.83848852288690       -0.33516436911458
H           -2.11482106274438        4.90107973728038        2.42037685612579
H            4.16508303857926        5.35380852247772        1.10184053512630
H            6.70198799178985       -1.34569773519539        1.15196852234962
H            1.97135103136539       -5.28359671262111        1.43102789726038
H           -3.95101858297323       -5.35527430890946       -1.30116414266514
H           -6.71934739216291        0.97387195985685        0.46790260361512
H            0.22599463169647        4.41739456244807        3.26205825379119
H            4.83636765075136        3.38026961639586        2.99225124430869
H            4.45118903385242       -2.58019148862731        2.34993978064714
H           -0.42639972075620       -5.06904473542227        2.00989952677575
H           -5.05806201144771       -3.97839756745471        0.89009312292615
H           -4.74794465875600        1.78975442581631        2.32896603583270
H           -1.35442779638428        2.07671089528065        1.53094616762148
H            2.38472283664737        3.13626280656873        2.23678018823776
H            3.94315285064061       -0.20381384362291        1.82473161408965
H            1.25371829717066       -2.35474403494098        0.91804750226410
H           -2.50287765157203       -3.59931396114485        0.75005602043564
H           -4.05995157619537       -0.35833595406888        1.17638640683081
H           -2.45807808745435        2.37774879618586        3.61899826252386
H            2.66801171791304        5.34272518428150        3.27279918169796
H            5.69281781807625       -0.42869449194669        3.50014157189604
H            1.99105423463575       -3.00517530777529        3.09097013061391
H           -2.94171357032256       -5.98938236154436        1.07412665768725
H           -6.08619507548281       -0.78169135683306        2.43483747171072
H           -3.75049199987667        3.80819307501984        0.76339690705909
H            1.72720478300517        5.10945559664645       -0.01292811245241
H            6.32311174487196        1.33992277620032        0.72809036530426
H            3.82746960414308       -3.89454788651530        0.31855001524610
H           -1.34548762707706       -4.91793662866027       -1.76326105770145
H           -6.06257101239271       -1.35320265993433       -0.88872658029167
H           -1.34386431451192        2.94301244263326       -0.92536248563217
H            2.32956373322012        2.11343131960285       -0.02500069881338
H            3.91697467670518        0.62957741104963       -0.97646648083319
H            1.73049900870439       -2.81980889036390       -1.64135470966020
H           -1.99994922374425       -2.01294018122683       -1.08592018462499
H           -3.39878368494439       -0.02807728990833       -1.54585190093004
H           -3.44877986685137        3.25733963030915       -2.20770681795650
H           -2.23909586408781        4.51852890097678       -2.57332871360827
H            5.60901251840597        0.87124267441535       -2.80387765115961
H            5.35146972665141        2.37011077031510       -1.88429907216866
H            4.00192329438004       -2.89433098396425       -2.56661387389857
H            2.97360648522367       -4.16129161401732       -3.28541401247977
H           -4.52162271632597        0.32976536563175       -3.75666825761601
H           -4.35262879236770       -1.39820393809360       -3.36151048926342
H           -3.44975487129328        5.87398997857433       -1.16408238363707
H            7.53701993959586        0.60826452165468       -1.62992052556177
H            4.04454754962261       -5.63090464777901       -1.89547431201648
H           -6.70233258464069        0.13914599154600       -3.12519901755475
C           -0.31636088507602       -0.43005909932750       -4.00898101564375
H           -0.84212049258085        0.23830164996566       -4.70288956963104
H            0.36071656565566       -1.10566156764517       -4.53405897733706
O           -0.09797691982251       -3.06429558853534       -3.34110681826474
C            1.47450008218546        1.35998223693148       -3.54272601459170
H            2.18611373524235        0.81612787263236       -4.16653750630151
H            0.95636345858721        2.14604795614768       -4.09530321186199
O            0.91006589851966        3.73859863889209       -2.29590012392100
C            0.43310174786055        0.39600152366444       -2.93482877605802
O            1.04262107601458       -0.62570592442488       -2.14738430955138
O           -0.44875889934774        1.15341751625105       -2.18237696127976
O            1.52489616499460       -0.13804207131698       -0.89638707081340
H           -1.21191518153202        0.60274967874930       -1.94344387631291
H            2.26374855146687       -0.76482093630287       -0.70227726160418
