21
Coordinates from ORCA-job job
  C          -2.25211028843653     -0.38041937823654     -0.00223375250622
  H          -1.15393163174167     -1.99013027431836     -0.03900985546532
  H          -1.45033391061147      0.42657273306602     -0.09387879221493
  O          -0.39151520570847      1.55706558461412      0.36049259419519
  O          -1.71228403646995     -1.53018431709078      0.60158262200251
  H          -2.59525434778043     -0.55805854919555     -1.03337823228102
  H          -6.16950510486199      1.83228946172294      2.91034045679560
  C          -0.29528009713530      1.62326726936953      1.75313951486296
  O           0.61563514102515      2.54956924868363      1.25992423318377
  H          -5.83333833752554      2.50804744139972      0.56229158518267
  H          -4.03273866565702      1.48451004143064     -0.77047840047610
  C          -3.35576402411807      0.22172733912280      0.82155609647966
  C          -3.54375833362353     -0.15052014986471      2.14697659998239
  C          -4.55741605636923      0.42386273678571      2.89350134981713
  C          -5.38180181477524      1.38140904174547      2.32647686812508
  C          -5.19278160285117      1.76148578557526      1.00625254082261
  C          -4.18482550974353      1.18609088816530      0.25594642759024
  H          -2.89785312164722     -0.89937267850804      2.57773399471581
  H          -4.70160135015953      0.12497600384856      3.92041582314305
  H          -1.17600841931985      2.04216222779859      2.25563989477036
  H           0.13950685484309      0.73551148117604      2.22698584802479
