11
Coordinates from ORCA-job job.QMRegion
  C          -2.25211028843653     -0.38041937823654     -0.00223375250622
  H          -1.15393163174167     -1.99013027431836     -0.03900985546532
  H          -1.45033391061147      0.42657273306602     -0.09387879221493
  O          -0.39151520570847      1.55706558461412      0.36049259419519
  O          -1.71228403646995     -1.53018431709078      0.60158262200251
  H          -2.59525434778043     -0.55805854919555     -1.03337823228102
  C          -0.29528009713530      1.62326726936953      1.75313951486296
  O           0.61563514102515      2.54956924868363      1.25992423318377
  H          -1.17600841931985      2.04216222779859      2.25563989477036
  H           0.13950685484309      0.73551148117604      2.22698584802479
  H          -3.04384316063026      0.05154522678745      0.58873194817966
