11
Coordinates from ORCA-job job.QMRegion
  C          -0.22516763965151      0.60283684605894     -2.83126577172379
  O          -0.10359523778775      1.03365503386100     -1.53638511252682
  O           1.05218801536318     -0.74937958496342     -0.33067557443115
  H          -0.46398431094578      0.97668985613104      0.80589136457472
  O          -0.03375045719646      0.34861691713542      1.40048370279684
  C           1.21929389627076     -0.06451274381708      0.78592819855855
  H           1.75985079320311      0.92290450298068      0.57097557610249
  O          -1.02187594199617      1.65761275354248     -2.43908215583796
  H          -0.73607300256340     -0.39670671254995     -2.97524874142552
  H           0.63413016513254      0.84960589805079     -3.52520671713946
  H           1.78164282110583     -0.54260966608709      1.59299730088049
