23
Coordinates from ORCA-job job.QMRegion
  C          -1.36708569414798      2.46368591708051      2.22348346472859
  C           1.22952313953301     -3.23635199635653      2.23453370925804
  O          -1.41433816031198      1.09897061981260      2.15456438725145
  O           1.76778520965517     -2.37156595623911      3.11976510500611
  C           0.81131847560777     -1.58096073729040      3.78742229668000
  H           1.35018779381742     -0.99990433156141      4.52090498552281
  H          -0.00262301027368     -2.17727638060445      4.19416804789779
  O           0.34926326867857     -4.04927788731133      2.54804064234709
  C          -0.87537396364159      0.31029781611939      3.22071708276329
  H          -1.67591015567134     -0.31136755040164      3.60916140364334
  H          -0.48482661673091      0.96325485524426      3.99319084733181
  O          -0.86370955229124      3.11502278149111      3.10407987514174
  C           0.20851045413586     -0.62606472996961      2.64863990574733
  O          -0.20996941082110     -1.46891727427297      1.69939678528030
  H           0.92713838470400      0.27042711772895     -0.98439912058213
  O           0.88359059873242      1.13229941166466     -0.49517490271032
  H           1.00847415027219      0.81494007439264      0.39950753377643
  O           1.19380509431624      0.03825936329377      2.26086678561949
  O           1.54685670038146      1.02693698550074      3.26564341411510
  H           2.52059621938859      0.90858905511472      3.24016655286268
  H           1.84415160163297      1.33240663243741     -0.72753265806966
  H          -1.93065398459411      2.85179995850025      1.37648773384533
  H           1.77915789550660     -3.27292709432297      1.29307035773482
