137
Coordinates from ORCA-job job
  C           0.53741524398581      5.16542577042195     -0.17362649867773
  C          -4.39802022245782      3.37084746077995      0.49818226932430
  C          -5.05364033405469     -1.71995441165921     -0.25025008209603
  C          -0.85547951017525     -4.88667298314513     -0.58707387032279
  C           4.12704035419058     -3.29033823645555     -0.00772982861360
  C           4.69065704788259      1.93151084973953     -0.59242481267919
  O          -0.34748638908115      4.08089470911204     -0.03604232725297
  O          -4.36126623126273      2.32602720633739     -0.41972251600992
  O          -3.67959592858223     -1.88851788001954     -0.51411138082653
  O           0.13696311121743     -3.91773613543967     -0.40307268948355
  O           3.80593361818956     -2.09295936243644     -0.61400791205566
  O           3.32262654154116      2.24004747193940     -0.69028035802911
  C           1.13745430767713      5.12526849486730     -1.58893009344770
  C          -4.06464454970916      4.67260850471412     -0.26509322363901
  C          -5.69545537487596     -0.97829281710297     -1.43536355429492
  C          -1.55488274628603     -4.60769499189059     -1.92679831063210
  C           3.80698499671847     -4.38762564306854     -1.04639610505576
  C           5.10738522645236      1.14801630319236     -1.85446848525460
  O           0.16649057062472      5.26096497025965     -2.59548220603084
  O          -4.92080685262798      4.86545222688572     -1.35360421983507
  O          -5.55733854712939     -1.68052831448355     -2.63741103992096
  O          -0.66928828932358     -4.60937349689374     -3.01178827786902
  O           4.54431066152510     -4.19815842351658     -2.22037304354859
  O           4.83060869507740      1.87381764263497     -3.01776406817412
  C           1.85999595516473      3.77885391877676     -1.76091663773039
  C          -2.59635797236270      4.65945032362630     -0.72924477942461
  C          -5.05541776718341      0.41238868631210     -1.53345230575705
  C          -2.23649898077982     -3.23397725478038     -1.83078059354362
  C           2.29846896321669     -4.33292934861914     -1.34648621487127
  C           4.40152086425515     -0.21748187007975     -1.86578590831760
  O           2.56828780854124      3.72221890034997     -2.98113097772877
  O          -2.23781207448707      5.91481654488890     -1.26414941005290
  O          -5.67303759366690      1.17794651948234     -2.53604230520812
  O          -2.98499402547551     -2.94815591062520     -2.98344057997058
  O           1.89305908229986     -5.42840238907433     -2.13969894822949
  O           4.88145858457295     -1.02684562387851     -2.92215521957443
  C           2.87747275523425      3.58608089113513     -0.62591678860175
  C          -1.64758614921745      4.31974239019412      0.43613002193133
  C          -5.16700594168157      1.17546531105368     -0.20727248269997
  C          -3.18498856468757     -3.20782967191513     -0.62953923823471
  C           1.44808188685693     -4.32933679432288     -0.06508889802200
  C           4.66731506188084     -0.96112242356974     -0.55392925271337
  C           2.28037760494677      3.87917435517251      0.76429772972511
  C          -2.15325738420587      3.00510082109616      1.04193355053241
  C          -4.70021562195223      0.30422705753178      0.98076938583480
  C          -2.44113398646847     -3.62476795734432      0.64824888320457
  C           1.99491018005778     -3.28728419393900      0.92351063338198
  C           4.36387850009100     -0.07377681031343      0.67037975418113
  O           1.55679757487707      5.11147546185460      0.78471844871940
  O          -3.46293699990638      3.17399861466388      1.54734848830551
  O          -5.25466488605780     -1.01216609765499      0.93434198813701
  O          -1.78736083618727     -4.87691886716942      0.46393209211893
  O           3.36291257772835     -3.48859440664408      1.18127349805665
  O           4.98029729969088      1.21619789021696      0.57309280942238
  C           3.40250680213036      4.00035997356363      1.80506735219663
  C          -1.36708569414798      2.46368591708051      2.22348346472859
  C          -5.18398697354391      0.83225392098915      2.34369452587615
  C          -3.39519806766162     -3.81486549149820      1.83129224427705
  C           1.22952313953301     -3.23635199635653      2.23453370925804
  C           4.91773214424096     -0.68425576757711      1.96725574945415
  O           4.31152140640558      5.02348919765978      1.47678330667671
  O          -1.41433816031198      1.09897061981260      2.15456438725145
  O          -6.56254381451146      1.07928719861550      2.34881708318039
  O          -4.37513072296573     -4.77682583162194      1.56503620929924
  O           1.76778520965517     -2.37156595623911      3.11976510500611
  O           6.28180435798002     -1.01832861849055      1.86632102470034
  H           0.02704203158955      6.12086308485098     -0.00688029936727
  H          -5.37797091698399      3.45270562477510      0.98534767624072
  H          -5.54416767759353     -2.68892203677854     -0.09309946367973
  H          -0.42866279978554     -5.89810046088954     -0.57583680256603
  H           5.17744141155994     -3.34106567905657      0.30345359687455
  H           5.27965121847466      2.85277143815363     -0.52176494601038
  H           1.87154248321165      5.94085030408219     -1.67478102018856
  H          -4.21787724410397      5.52466781106178      0.40609142869210
  H          -6.77089338436874     -0.87355492275500     -1.25546376492499
  H          -2.32685632280854     -5.37708416085581     -2.08106317935175
  H           4.07671370606660     -5.37210713561470     -0.65382366310289
  H           6.19047595834596      0.98723714121892     -1.82815894473232
  H          -0.67125697378540      5.56008527093815     -2.19828292813772
  H          -4.95009469525071      4.04346734612002     -1.86934485003023
  H          -4.62873253629041     -1.96704406507232     -2.74120111603661
  H           0.20550201084330     -4.95308293059062     -2.74069724744972
  H           4.47089940570595     -3.25967112456672     -2.48219230912324
  H           3.91789387874408      2.22328735887350     -2.93355219855370
  H           1.08926641398544      2.99525037741426     -1.73582985237665
  H          -2.48040335750983      3.88089407311715     -1.49922055924015
  H          -3.98435605099099      0.28239132173605     -1.75814499855332
  H          -1.46058395470982     -2.47047951902072     -1.67291286922321
  H           2.09113075081409     -3.39185453302689     -1.88172962749306
  H           3.31588188494198     -0.07280128647134     -1.97745225761354
  H           1.92375418590811      3.83982742307132     -3.68957579803802
  H          -2.94242346203469      6.18759236339640     -1.87321138321461
  H          -5.78763871501504      0.59926374497332     -3.30635923537905
  H          -2.41848020046670     -3.12309978607598     -3.75179493653130
  H           2.50179983597159     -5.47303585386819     -2.89724389851595
  H           4.86630774433134     -0.47174878705428     -3.71535775706617
  H           3.71643528206839      4.26702172081069     -0.80431154951966
  H          -1.66038127931480      5.12010034781899      1.18653112305786
  H          -6.21059448274699      1.48101537733274     -0.04596025103781
  H          -4.00851271892873     -3.91070517852201     -0.81009239805036
  H           1.44304990123557     -5.32701785342965      0.39115851337921
  H           5.71505688039222     -1.28863507247360     -0.53217365925579
  H           1.59872463905705      3.07590243490602      1.06085889648370
  H          -2.15049401791496      2.23962013700334      0.24900684274017
  H          -3.60351917563673      0.23915556064601      0.97220375269779
  H          -1.70141663017820     -2.85269701237123      0.90936496871333
  H           1.86306959663043     -2.30005879432617      0.44214838310556
  H           3.27791950164899      0.02461674845292      0.76619607654135
  H           3.97886300447358      3.07378614771866      1.82943158698848
  H           2.95466481889393      4.18503412378871      2.78765089079490
  H          -4.91885718864870      0.07678810622708      3.09449590139108
  H          -4.69197643155858      1.76998581361040      2.59633708905163
  H          -3.91432492216863     -2.87621352661437      2.03399223859618
  H          -2.79035391637112     -4.09155692522251      2.70500041509010
  H           4.77004108538454      0.04090979248051      2.77730006629477
  H           4.38486838879328     -1.60637086397718      2.20858286612418
  H           3.80102992055848      5.83615487182711      1.36339701742757
  H          -7.01380744497301      0.25086533581826      2.13142459973389
  H          -3.92406322216112     -5.60119240850276      1.33025046977231
  H           6.75558045569364     -0.20538126393857      1.63298459579212
  C           0.81131847560777     -1.58096073729040      3.78742229668000
  H           1.35018779381742     -0.99990433156141      4.52090498552281
  H          -0.00262301027368     -2.17727638060445      4.19416804789779
  O           0.34926326867857     -4.04927788731133      2.54804064234709
  C          -0.87537396364159      0.31029781611939      3.22071708276329
  H          -1.67591015567134     -0.31136755040164      3.60916140364334
  H          -0.48482661673091      0.96325485524426      3.99319084733181
  O          -0.86370955229124      3.11502278149111      3.10407987514174
  C           0.20851045413586     -0.62606472996961      2.64863990574733
  O          -0.20996941082110     -1.46891727427297      1.69939678528030
  H           0.92713838470400      0.27042711772895     -0.98439912058213
  O           0.88359059873242      1.13229941166466     -0.49517490271032
  H           1.00847415027219      0.81494007439264      0.39950753377643
  O           1.19380509431624      0.03825936329377      2.26086678561949
  O           1.54685670038146      1.02693698550074      3.26564341411510
  H           2.52059621938859      0.90858905511472      3.24016655286268
  H           1.84415160163297      1.33240663243741     -0.72753265806966
