139
 xtb: 6.7.1 (edcfbbe)
C            0.57355392457437        4.88836757624984       -0.36010317816394
C           -4.38207816021411        3.29845075842441        0.43219345043021
C           -4.97334889093802       -1.76848566342717       -0.55427946025426
C           -0.70089944095627       -4.83024775877684       -0.67288657391970
C            4.27315571797366       -3.33501162558376        0.08793589097317
C            4.83352531320324        1.80533547602290       -0.50252804869078
O           -0.33708900811765        3.83265779788923       -0.15952124604931
O           -4.31279037726372        2.26443749026151       -0.49889794250177
O           -3.59238893356388       -1.89422459293841       -0.80464286936882
O            0.25512882465538       -3.82630687536746       -0.48445677352331
O            4.15462906541505       -2.21781775468894       -0.73430662918688
O            3.43875971022053        1.96756788801224       -0.67883507290341
C            1.18485781356505        4.73758373194046       -1.76520139629120
C           -4.02037169634124        4.59653950088396       -0.31764101146381
C           -5.61112014249988       -0.98214476590663       -1.71233551680398
C           -1.35239362966828       -4.60063696040909       -2.04889807879931
C            3.92248154245600       -4.55704139590831       -0.78435580914019
C            5.42930528572196        1.11052096770413       -1.73838005764970
O            0.21939733350708        4.76898647310821       -2.78298840134391
O           -4.88927476059792        4.84713664285838       -1.38607993564548
O           -5.42819320230088       -1.61304235783534       -2.95062890589637
O           -0.41603090500220       -4.59261748017033       -3.09420161363423
O            4.76546965318924       -4.67225581309658       -1.89827116647220
O            5.22721333076150        1.84362823703180       -2.91448986681873
C            1.89575107076482        3.37860770478432       -1.81133420953522
C           -2.56797849220138        4.50078546540918       -0.81437416309218
C           -5.02552149039131        0.43558321857113       -1.72057303024048
C           -2.05388359427900       -3.23792078967082       -2.00587396044291
C            2.45812498979326       -4.42514430918983       -1.22367536060471
C            4.83401244408787       -0.30046948399678       -1.84731558798212
O            2.57726111894515        3.16173512821140       -3.02157901695643
O           -2.16225539162049        5.70631298474622       -1.42770870006392
O           -5.68496418652412        1.25604758885378       -2.65306449413295
O           -2.76562711937785       -2.96428108457407       -3.18741659820740
O            2.03357150687627       -5.56269946799576       -1.94749237552894
O            5.45080611992248       -1.03880914953497       -2.87413261756384
C            2.92118908767215        3.29401046264134       -0.67526021053119
C           -1.61478740633812        4.16746276639032        0.34540990756795
C           -5.13518847768621        1.11361039979918       -0.34708650763586
C           -3.04160819000611       -3.20246223187295       -0.83649978894431
C            1.53172413749767       -4.20972980960319       -0.01380282088760
C            5.00536644101933       -1.09103862475451       -0.54081949453339
C            2.28101708785314        3.63577313625718        0.68476229410020
C           -2.15546531838245        2.92039603567746        1.05462863710648
C           -4.68534420042864        0.18365711310739        0.79894880013310
C           -2.34090549542944       -3.57539571915872        0.48241559311420
C            2.05789281463024       -3.04353927663856        0.82564980676036
C            4.61077049660772       -0.26210791596338        0.69711718176731
O            1.58186065743093        4.87660589484384        0.61031926482051
O           -3.48479621530696        3.11370647471341        1.50710018412111
O           -5.22770840321001       -1.13196852550384        0.66021689454857
O           -1.67460524675698       -4.82906127070671        0.33292085832710
O            3.40911693219424       -3.27268587810029        1.20874307688654
O            5.10797332927402        1.07770195287025        0.65425248636270
C            3.34204609045544        3.79221125665492        1.78381890420658
C           -1.31432874234130        2.48508661079083        2.25303441971866
C           -5.18798935769540        0.64713835701264        2.17704404838707
C           -3.34370302203621       -3.75456557315711        1.62649818462004
C            1.16524118407564       -2.78971747224069        2.09464998809003
C            5.18121488274089       -0.84374775775461        2.00434278925273
O            4.27674002212943        4.79628457403989        1.47862515526104
O           -1.70061177156579        1.28226269749281        2.63012109638699
O           -6.57413556938968        0.87792579587691        2.19054349155244
O           -4.28877097451618       -4.75808612721860        1.35398320630677
O            1.79928050590865       -1.90467086146721        2.86415973459329
O            6.55537863342731       -1.11726774473869        1.91391396509696
H            0.08111665448853        5.86381377196853       -0.26220722080864
H           -5.37587857315107        3.37124087219849        0.89070515005523
H           -5.44319601634236       -2.75723655073629       -0.46068194337284
H           -0.24475949475051       -5.82785807737033       -0.62696513068367
H            5.28188452824201       -3.42713204253592        0.50605539103976
H            5.31963772720128        2.77991398345370       -0.35310503179550
H            1.91769517388480        5.54762926795886       -1.91591362180179
H           -4.11667120859470        5.44105997436619        0.37219961942245
H           -6.69423881802298       -0.92591317690233       -1.54712746074540
H           -2.10055019269795       -5.39443525502775       -2.21833025272169
H            4.04916017814541       -5.46658732722849       -0.19331760521879
H            6.51485471921939        1.03205699591931       -1.61020369672428
H           -0.56537997358990        5.25994447122846       -2.47889747191143
H           -5.03040398292833        4.01963662856545       -1.87741101771221
H           -4.51702080817227       -1.94727932349485       -3.02694360876282
H            0.39745705786835       -5.04997916116344       -2.81526838898860
H            4.86475828218441       -3.79127407233293       -2.30747587226655
H            4.30552517860859        2.16477593252708       -2.96388873917181
H            1.12185090855339        2.61328306242698       -1.67469934620554
H           -2.50468129910374        3.67815992001184       -1.54278078349879
H           -3.95740387604053        0.36784498814887       -1.96999245382162
H           -1.28156550521625       -2.47760663693115       -1.84526122987438
H            2.36789056884384       -3.53128641639204       -1.86250094033049
H            3.75440259285294       -0.21488062745997       -2.04593422733389
H            1.98188735426446        3.38757767241446       -3.75212405114399
H           -2.92812763022675        6.06241697430465       -1.91132498591843
H           -5.78753720592456        0.75556083855214       -3.47638738023163
H           -2.19277062641663       -3.17570245176499       -3.94110274545356
H            2.77724071416378       -5.84461077842608       -2.50856113572626
H            5.52326457687531       -0.46695633444027       -3.65531344351882
H            3.72413538972852        4.01621300189424       -0.88162023998860
H           -1.54877589347311        5.00923927239880        1.04549041518542
H           -6.17500508185209        1.42049949598379       -0.17139188141095
H           -3.83794531058446       -3.93726727177593       -1.02813335803759
H            1.46583344562976       -5.11620482767756        0.59915862843482
H            6.04721456737561       -1.42315994977929       -0.45147432129185
H            1.57087006159591        2.85573441221721        0.97336668439351
H           -2.12297772596302        2.08617563673571        0.33519941698487
H           -3.58791278897950        0.12643410457083        0.81436025368846
H           -1.61553321022056       -2.80624256202576        0.76683905111670
H            1.99771657333367       -2.14113089987974        0.20203978386008
H            3.52132284142491       -0.24778550162802        0.75565844400598
H            3.91536433248331        2.87102908489133        1.87523408872699
H            2.82901314061536        4.01362963451259        2.72591033108118
H           -4.90569760891985       -0.13006336969129        2.90219132001896
H           -4.70043116678840        1.57943428794613        2.46095047545505
H           -3.90205225736001       -2.82969336316414        1.76852856648902
H           -2.77496338458267       -3.98114646030702        2.53476235324580
H            4.99698462164883       -0.11849495009746        2.80544861626273
H            4.68792808241461       -1.78146000280062        2.24431070842349
H            3.81455541078870        5.65086022297347        1.45161797529451
H           -7.01960899922834        0.03124347768838        2.05127004631160
H           -3.81561022631241       -5.60172866931515        1.27586657461678
H            7.03648688513005       -0.27744581823237        1.82711983600947
C            0.92245183554825       -1.22255423281365        3.73860960675889
H            1.50112756416980       -0.71765211947170        4.50077452103186
H            0.19285083867223       -1.93253754332254        4.18114693012125
O            0.44202109168806       -3.68220495661978        2.52629471421221
C           -0.90109015477448        0.53049584122153        3.54839376100678
H           -1.55899693190149       -0.13725277269100        4.09192619794432
H           -0.39528746716178        1.23336384463637        4.21740532102876
O           -0.41512403450684        3.12016031028100        2.74725180423060
C            0.20088263104698       -0.26732454885247        2.73547398115345
O           -0.38145620101602       -1.17060922894383        1.82632192735776
H           -1.09065499454012       -0.37236607649249        0.44940833177779
O           -1.28592270983369        0.06093238470207       -0.40789830998287
H            0.43755328143325        0.12971665905762       -0.52386317442152
O            1.33438787347693        0.10336113908404       -0.15582252537787
H            1.04163103611969        0.22134871547486        0.87601211104351
O            0.88414051589610        0.48724927490496        2.13506745138077
H            1.83063359233001        0.32838577304558        2.47335585811502
H            1.88612159459108        0.86791131146354       -0.47409184516629
H           -1.88672103558319       -0.51644695293928       -0.85049976974333
