139
Coordinates from ORCA-job job E -262.788400263940
  C           0.59321258475450      4.91354929487607     -0.25395704521205
  C          -4.32745117537315      3.21098790518965      0.49027745453769
  C          -5.03101227835111     -1.78071789537520     -0.64458614063612
  C          -0.77559753829765     -4.85617295615253     -0.60766512210870
  C           4.16560276699777     -3.27452684349524      0.17244814527227
  C           4.83448225034359      1.83684276127671     -0.58104264786189
  O          -0.27114605467859      3.81000049288258     -0.10658413703155
  O          -4.30754179851181      2.24716606338262     -0.51423939596334
  O          -3.64653841719725     -1.93497392486834     -0.85297523847803
  O           0.14361083476318     -3.81005937038008     -0.44896002135221
  O           4.07221509751411     -2.18515572175336     -0.69162527174119
  O           3.45376634756832      2.05523396177424     -0.77850284844255
  C           1.19038938901726      4.87848262436449     -1.67278088973093
  C          -3.96577731161848      4.56089737330710     -0.16027572792262
  C          -5.61651234131809     -0.96546273360338     -1.80900912990521
  C          -1.42823601351767     -4.70470581351250     -1.99394951241399
  C           3.81740574076748     -4.52986020158440     -0.64945527645307
  C           5.39614957243247      1.08975946215357     -1.80191131646721
  O           0.20909277933561      4.94053774404313     -2.67307599367410
  O          -4.84890539125936      4.90176370534704     -1.19079868550481
  O          -5.41487167209331     -1.58197556508500     -3.05069171881559
  O          -0.49714669763793     -4.74507296074877     -3.04246468864101
  O           4.67698635790168     -4.70113646873189     -1.74198753296857
  O           5.17775720536798      1.78894822469858     -2.99616459173026
  C           1.93275859928604      3.54419787891479     -1.81571289440327
  C          -2.52069360442609      4.51194961791218     -0.68552225818282
  C          -5.00017582443056      0.43970542486309     -1.78124680802022
  C          -2.13770295955177     -3.34559662018908     -2.01451792571318
  C           2.36182594475145     -4.41452620262866     -1.11729185894665
  C           4.78337122056068     -0.31734815719448     -1.85867700132995
  O           2.61565578620218      3.41519986832506     -3.03711242212361
  O          -2.13097188230810      5.77314622208096     -1.18722274701374
  O          -5.61268519653944      1.28334101095787     -2.72369663862333
  O          -2.85931340448827     -3.12974203532018     -3.20161775402476
  O           1.94624396079576     -5.58417753567557     -1.79434202409320
  O           5.40155447225680     -1.09997895877999     -2.85178730198837
  C           2.96741442695192      3.39092206698363     -0.69421027647185
  C          -1.55362848251393      4.07028457846175      0.42694838406363
  C          -5.14282610301156      1.10078928121259     -0.40242555166246
  C          -3.11953781754469     -3.25284341868754     -0.84228923611711
  C           1.41980577983951     -4.14365106296601      0.06530673967295
  C           4.93511975852468     -1.06308633205130     -0.52365397890856
  C           2.36489750826562      3.67107450181913      0.69533950679404
  C          -2.08639464727057      2.75155632437150      0.99756414815641
  C          -4.73730527887765      0.14675387955892      0.74114990086220
  C          -2.42934948160872     -3.59159259770459      0.49248172943207
  C           1.94754364989438     -2.95038483674934      0.86218158602323
  C           4.56321881168367     -0.18891440640724      0.69079149107007
  O           1.61630302007002      4.88498934092995      0.70065838035760
  O          -3.39812662575207      2.91808411922346      1.51462620271812
  O          -5.30537800408449     -1.15426662618250      0.57117229049714
  O          -1.76477006931334     -4.84756835697855      0.38511934091648
  O           3.28510169857909     -3.16862561150861      1.27100433646554
  O           5.09292840301461      1.13608846363993      0.59819507483302
  C           3.46441705278696      3.82977887225611      1.75555808257092
  C          -1.25351203299792      2.18180895380263      2.13974329278262
  C          -5.26179751119075      0.59187377928178      2.11898392828878
  C          -3.43597307153156     -3.73064503870525      1.63963711315186
  C           1.09060308187853     -2.66363155193574      2.14556770913034
  C           5.12746248171971     -0.74545105015677      2.01008987033265
  O           4.38437236324847      4.83781333770583      1.41818499424569
  O          -1.54477736251557      0.89807563458010      2.28281879358039
  O          -6.63101863595767      0.90094499540152      2.09724050297321
  O          -4.36857831410172     -4.75437465207516      1.40487306404426
  O           2.00612201992876     -2.07666466093541      3.08757228745733
  O           6.49384456593482     -1.06222810214733      1.92624700296883
  H           0.06331364380278      5.85737955652043     -0.08646074832993
  H          -5.30519350895842      3.26840638375642      0.98448984535967
  H          -5.52586314584015     -2.75765887620226     -0.57940319211681
  H          -0.28609130761654     -5.83338459980015     -0.51653221514795
  H           5.16854406428039     -3.36331362561533      0.60981777275657
  H           5.35800045634172      2.79279647764908     -0.45842304552021
  H           1.89517417610841      5.71815241094265     -1.77324144166975
  H          -4.04887332216845      5.34742617833593      0.59762832979362
  H          -6.70072395126669     -0.88454120451427     -1.67380014694701
  H          -2.16730781801839     -5.51124564767784     -2.11895256517302
  H           3.92860379270872     -5.41212247121075     -0.01090562243962
  H           6.48181541160889      0.99704031976644     -1.68960662113437
  H          -0.55985958951940      5.44026248556820     -2.34807059246871
  H          -4.99097827820851      4.12392935064925     -1.75547903318490
  H          -4.52000924172493     -1.96979762911340     -3.09632247140031
  H           0.33766230306094     -5.14064993639785     -2.72937481431789
  H           4.79631979309262     -3.84262612433881     -2.18387770955635
  H           4.27901849327087      2.17091265867746     -3.00828954220797
  H           1.16458381560707      2.76296028602333     -1.72936881181929
  H          -2.46778107376242      3.76479555027066     -1.49161302132769
  H          -3.92489535889063      0.35360057144551     -1.99853660799724
  H          -1.35979757312865     -2.57904828263700     -1.89782148979133
  H           2.28543294483837     -3.55469413892869     -1.79985754977779
  H           3.70810059504480     -0.23701605645112     -2.07111272788086
  H           2.01670730572776      3.67161239885355     -3.75429769213576
  H          -2.90863216511053      6.17420092606438     -1.61049418803714
  H          -5.69405612621128      0.79482874401974     -3.55834235891914
  H          -2.28975139809674     -3.37374037182047     -3.94831941264006
  H           2.69967100304965     -5.89955200388905     -2.32288277157957
  H           5.46194846235906     -0.56771588073947     -3.66116449790390
  H           3.78215585309520      4.10113032190670     -0.87900290512367
  H          -1.50037433600225      4.82982400669392      1.21658321480853
  H          -6.18494609711211      1.41675648803530     -0.25571514220257
  H          -3.92548816538365     -3.97977533507001     -1.00638669392632
  H           1.35338699973510     -5.01196228517171      0.73158663953127
  H           5.97255415858184     -1.40829481202858     -0.41629837192291
  H           1.70245074363269      2.84570021354818      0.97980414943605
  H          -2.09573419968612      1.99905235653486      0.19609844264349
  H          -3.64384607007306      0.06841454141670      0.77842649778434
  H          -1.69070313614381     -2.82474993567167      0.75611910531583
  H           1.90403144540798     -2.06855289439703      0.21499457029398
  H           3.47429777397548     -0.14904700105584      0.78481156617638
  H           4.03594929268512      2.90252170530972      1.82865215509463
  H           2.98726259086136      4.04350864357549      2.71800590891581
  H          -5.05676872472737     -0.22358908149838      2.82228242181125
  H          -4.73936452454895      1.48585501777070      2.45550950867319
  H          -4.00970102434306     -2.80719647125574      1.73880151553928
  H          -2.86692589502822     -3.91306772484452      2.55878302580250
  H           4.95224347649537      0.00518459064789      2.78886776152146
  H           4.59389406022942     -1.65726043056185      2.28279131241607
  H           3.92461996079657      5.68929827775951      1.43426822607434
  H          -7.12667258508796      0.08801402369454      1.92296735799188
  H          -3.88684631129856     -5.59267111904176      1.35498670467771
  H           6.99108860654046     -0.23741533868406      1.82103362035499
  C           1.28584277632567     -1.12828242919475      3.82585228455914
  H           2.00226703090913     -0.47697473770063      4.32118386386169
  H           0.61832779536588     -1.61558052707433      4.54712573313563
  O           0.32919426832836     -3.56083921591138      2.58757933734678
  C          -0.86220278255129      0.14893485827847      3.28231289165936
  H          -1.51747915967467     -0.67738819946631      3.55342705760575
  H          -0.64805907250674      0.78404560211088      4.14616395675708
  O          -0.46115816343967      2.79297771425669      2.81260228976631
  C           0.46006764154449     -0.42231651315704      2.72434565169970
  O           0.26313912862330     -1.38756624312284      1.75789303296418
  H          -0.89309189353418     -0.61538483062138      0.31796677516241
  O          -1.12746713294458     -0.10948172531521     -0.47571147791499
  H           0.40454864399750      0.20747854880213     -0.84481322578332
  O           1.39006745164808      0.22449853451436     -0.57657039314497
  H           1.36266926225980      0.28139498426143      0.41456629129883
  O           1.21424839243042      0.60469085226193      2.10007472984127
  H           1.32726322754401      1.35251853318120      2.70654942593963
  H           1.90091129127567      1.00553325261891     -0.89509335577562
  H          -1.78704253364974     -0.63823516084969     -0.93858125967286
