147
Coordinates from ORCA-job job
  C          -3.39009097836369      2.44138492405188     -1.71763257331288
  O          -3.27353435042740      1.18037538488878     -1.09633136214406
  C          -2.86516103108577      2.34660651260803     -3.16055453812603
  O          -2.70119885684465      3.42184021602246     -0.99897817927238
  C          -4.40982014932487      0.72251114154773     -0.38720858075344
  O          -3.50148230809234      1.33775725730966     -3.89664482844016
  C          -1.36385560234729      2.03792972208280     -3.12635856292742
  C          -1.30371452952608      3.16899529612379     -0.85639919858810
  C          -5.30347907400492     -0.12064790824334     -1.31026474560176
  C          -3.92574890413632     -0.16521930437297      0.77417410364840
  O          -0.77367872459671      2.10648432685001     -4.39876544072141
  C          -0.62868038559156      3.04357476587593     -2.23262039702368
  C          -0.73632134075344      4.34562755831216     -0.04810512137480
  C          -6.40861865160105     -0.82006972794139     -0.49862622506187
  O          -5.85070847645961      0.71292012739358     -2.30608698869884
  O          -5.01601535317009     -0.72508918327012      1.46935638524800
  C          -3.06762865617707      0.63160354014879      1.74783749229241
  O           0.70520670385015      2.56688354153391     -2.12324487763263
  O          -0.82526822237079      5.55914762414226     -0.74751345607029
  C          -5.75016820420000     -1.61285881040578      0.64790603168245
  O          -7.18829676567843     -1.63335762715874     -1.32580377470561
  O          -1.79847560430987      0.50548460660974      1.40091887682420
  O          -3.47232926423932      1.30794568959710      2.65788018370392
  C           1.75320763524557      3.51798764894031     -2.07848262934464
  O          -4.94210353682349     -2.57627099863496      0.04651459427503
  C          -0.78010256313947      1.01108236427534      2.24863975224833
  C           2.77711582883391      3.14580012932934     -3.16212923777176
  O           2.36211489040814      3.57754686490338     -0.82723973884676
  C          -4.73419594800099     -3.83686201735900      0.67344025611292
  C          -0.40191546650356     -0.06235549129981      3.26743629068506
  O           2.21241344684150      3.13985449929591     -4.44484780175469
  C           3.37048713819937      1.77565501081722     -2.81323070647693
  C           2.97000677905364      2.37368201464120     -0.34754303435693
  C          -4.36393778321567     -4.75021517126612     -0.50399776196703
  C          -3.62407766886054     -3.80228368781382      1.74357225258463
  C           1.04222976771682      0.01583245648500      3.77549696333190
  O          -0.11198583257972     -1.75408618193982      0.31978751362880
  O          -1.18388863896156     -0.92667727018364      3.59889420060475
  O           4.42362210369942      1.43411611268349     -3.67896528459524
  C           3.91496726050423      1.72362251421538     -1.37768992681574
  C           3.71211724355584      2.79915642595616      0.93312936652314
  C          -3.83880457134407     -6.11216256367874     -0.03196668610157
  O          -5.50218122173857     -4.88062156543429     -1.31667533700984
  O          -3.16487578006296     -5.11560233262237      2.05829568409188
  C          -4.11359027172956     -3.23291748788532      3.08526872645938
  O           1.90821709230419     -0.04647574796110      2.63826307982706
  O           4.08654448129784      0.32671468896716     -1.15086420835425
  O           4.85052614628600      3.57556903558440      0.66406327605511
  C          -2.69502552437401     -5.85282945662286      0.96361054141402
  O          -3.41513605748182     -6.89105263714112     -1.11675285019945
  O          -5.20878663771573     -3.95264837209139      3.58580172553300
  C           2.26804076799737     -1.24969854780398      2.21967148066060
  C           4.88812646335519     -0.11595620489669     -0.10115653222721
  O          -1.69045739234154     -5.17407357369518      0.25999607462877
  C           3.04888334695624     -1.16944681917971      0.91214671775059
  O           2.00031183764910     -2.27687086131976      2.79007092644627
  C           5.50370436693104     -1.45625903057984     -0.54906435951328
  O           4.16195337624783     -0.31351221122722      1.09768031489420
  C          -0.34559172599093     -5.59843878538321      0.39254667731418
  C           3.46877794650518     -2.56931502693555      0.44269576371384
  O           6.30128251749312     -1.31971012931864     -1.68922690163350
  C           4.36361182483113     -2.45744315903896     -0.80053571766237
  C           0.29757964921028     -5.23787753184123     -0.95223737894511
  C           0.37510975094710     -4.91739051843201      1.56878476435711
  O           2.29311838942416     -3.30941824727780      0.12827533145070
  O           4.86648830736705     -3.73321359861545     -1.13106739735150
  C           1.81412106588475     -5.43127355090301     -0.91086591783437
  O          -0.30414307910406     -6.04652249183830     -1.93307577703788
  O           1.78233699480938     -5.13374955401761      1.49263776588350
  C          -0.05328222454040     -5.49161888300392      2.92700147464209
  C           2.39550515063344     -4.70728686596730      0.31577458681963
  O           2.35514538447045     -4.94864949602766     -2.11064766670792
  O           0.12778303368190     -6.88181001002779      2.99844110527457
  C          -0.29344905059951     -0.87409536302123     -0.77990308842060
  O           0.60329246550389      0.22236223659309     -0.56264934407883
  C          -0.07749877689045     -1.58654051103977     -2.08875656832720
  C           1.16285010560312     -1.59095550390716     -2.70938881085634
  C          -1.12886069458434     -2.30912016611336     -2.63971553469691
  C           1.35341101555135     -2.31570397114213     -3.87280205811034
  C          -0.93520544804582     -3.03489003918420     -3.80108891638807
  C           0.30674127152941     -3.03973996214020     -4.41622674545609
  H          -4.43602843711049      2.77093161536953     -1.72608123684974
  H          -3.02100085148432      3.32667380167165     -3.64013243452086
  H          -4.98196540443468      1.56621737315011      0.02016842959205
  H          -4.40680606631505      1.20217215067582     -3.56195072876999
  H          -1.24636447534481      1.02516642111733     -2.71105471568115
  H          -1.15858769270089      2.23173582754434     -0.30688328265234
  H          -4.67181826010984     -0.89098737254462     -1.77805373801227
  H          -3.29691176739111     -0.96393908683873      0.35902753336852
  H          -1.34262514188483      1.64201352000394     -5.03210902779587
  H          -0.63617126468265      4.02214737406966     -2.72940030506319
  H           0.32430922819715      4.17550891041044      0.14485740073917
  H          -1.27721292397521      4.40023951324260      0.90305595062743
  H          -7.07784930789199     -0.06664863628789     -0.07008003347917
  H          -6.64193821645570      0.27117484503095     -2.66035978769372
  H          -1.75907440915789      5.79693136806177     -0.84121349553177
  H          -6.50211739823261     -2.06082141051880      1.30893291377337
  H          -6.71969870981006     -2.46835213213737     -1.49388655920759
  H           1.36180263723256      4.52757226363676     -2.25452223001918
  H           0.07626412906885      1.24466250618230      1.60717899023979
  H          -1.12911403696115      1.90326521135863      2.78831746328518
  H           3.57329252458720      3.89710841443468     -3.17839548489800
  H          -5.66910060537135     -4.18533314659517      1.13228946001262
  H           1.34822555216306      2.69092988003282     -4.42997837911761
  H           2.56472051771927      1.02985078577904     -2.89212655443934
  H           2.19212313122331      1.65013718174897     -0.08133422221726
  H          -3.55425548724661     -4.25265649157704     -1.06205040747500
  H          -2.78331423704609     -3.20045369679614      1.37027017964165
  H           1.23281674565371      0.98172171120987      4.25216058960192
  H           1.23900584145471     -0.81851299424609      4.45841014183823
  H           4.16742457454169      1.67936991730844     -4.58238761081641
  H           4.89168363419304      2.22580101019839     -1.34582688307461
  H           3.00249846365643      3.35014808016089      1.55922848985013
  H           4.04830963749052      1.91444786939867      1.47400006509767
  H          -4.64071512706801     -6.66878753221036      0.46255057215062
  H          -5.35318944168216     -5.61623083133639     -1.93275189869412
  H          -3.27076505717815     -3.24981465697210      3.78610488877809
  H          -4.44042845528388     -2.20033781106527      2.96315642807331
  H           4.56536631617760      4.43091166178131      0.31166010738488
  H          -2.32281366382239     -6.79536204810596      1.38505399556790
  H          -2.54769526234610     -6.57242091652599     -1.42288004240419
  H          -4.91369503074808     -4.85335250894600      3.78609249810132
  H           5.67036800051389      0.61056595531979      0.15166534640837
  H           2.37272745484677     -0.72251673969611      0.16804127911988
  H           6.15336278317953     -1.83293530356616      0.24778133134603
  H          -0.30742683297273     -6.68811609306350      0.52931872219638
  H           4.01497534998110     -3.06892622473864      1.25259304809407
  H           5.84420766614209     -0.75488917068365     -2.33416856400377
  H           3.74844460971276     -2.08619708952208     -1.63182632355083
  H           0.08407913210470     -4.18001887269429     -1.16036585811057
  H           0.15317018454340     -3.84362417954704      1.55599423068594
  H           5.67116022821953     -3.60306132810879     -1.66219710112858
  H           2.02718851540349     -6.50665960577631     -0.79350113441650
  H           0.22002068039302     -5.97582101036940     -2.74537304120560
  H          -1.11531143436650     -5.29995111530506      3.08456341589782
  H           0.52383755503748     -4.97491989109220      3.70174705740822
  H           3.44948816451735     -4.98722003107119      0.43363067651980
  H           3.30388382256256     -4.76969624399227     -1.98158701529860
  H           1.07753633421800     -7.06693895323841      2.95695616241486
  H           0.67267390136989     -2.30476625581092      0.13363647427594
  H           1.97084385988543     -1.02037986908732     -2.27493272750787
  H          -2.09015098452750     -2.30117163681334     -2.14481155970935
  H           2.31914448011728     -2.31791325785822     -4.35197544909401
  H          -1.75368289872555     -3.59536917993651     -4.22435984733204
  H           0.45704781435214     -3.60759347534766     -5.32070999678039
  H          -1.32991827469176     -0.51107048258133     -0.70469987567612
  H           0.54301646411156      0.86177003312529     -1.29848180117640
