11
Coordinates from ORCA-job job.QMRegion
  C          -0.40191546650356     -0.06235549129981      3.26743629068506
  O          -0.11198583257972     -1.75408618193982      0.31978751362880
  O          -1.18388863896156     -0.92667727018364      3.59889420060475
  C          -0.29344905059951     -0.87409536302123     -0.77990308842060
  O           0.60329246550389      0.22236223659309     -0.56264934407883
  H           0.67267390136989     -2.30476625581092      0.13363647427594
  H          -1.32991827469176     -0.51107048258133     -0.70469987567612
  H           0.54301646411156      0.86177003312529     -1.29848180117640
  H          -0.66697257827595      0.68997672784995      2.55340011556477
  H           0.61770886373518     -0.00715167107195      3.62614745822759
  H          -0.12612704160992     -1.42611019224045     -1.79402541375760
