139
Coordinates from ORCA-job job
  C           0.43592449667801      4.76708340283389     -0.06798498948698
  C          -4.57863221664872      3.37868993511893      0.41770494154924
  C          -4.86702975504691     -1.66818415627596     -0.77613093683194
  C          -0.65200105384299     -4.81055232754048     -0.56153815518907
  C           4.39461391156374     -3.50218998741401      0.09982488474880
  C           4.66205665665566      1.65830329208360     -0.50791437537097
  O          -0.49611639430235      3.77911912574906      0.32089190441806
  O          -4.37007819598825      2.38907072095329     -0.53721790743765
  O          -3.46216268065331     -1.78127414999592     -0.84780041682188
  O           0.34656634296491     -3.86588474914037     -0.28538207265386
  O           4.23064714477374     -2.41362056684637     -0.74724275034136
  O           3.25621863754549      1.76932398203495     -0.56385479894013
  C           0.90084926417562      4.48275410468824     -1.51545982250526
  C          -4.11548821793327      4.70811535722346     -0.20074172399848
  C          -5.37269208549095     -0.86264239263396     -1.98421202743645
  C          -1.20909266720850     -4.53313827078605     -1.97108736855949
  C           3.97736349618899     -4.75506403500005     -0.69654011107345
  C           5.17731007287852      1.00767639794443     -1.80544980593766
  O          -0.13323373650504      4.51514828605886     -2.45840642955704
  O          -4.82398628060833      5.04529588702802     -1.35851823331718
  O          -5.03556851700437     -1.45211506690945     -3.20795995228414
  O          -0.21799250314060     -4.55917785925123     -2.96028528358605
  O           4.76987116049293     -4.94643520018464     -1.83292617525256
  O           4.77442277124597      1.72133703211411     -2.94235487557382
  C           1.49406961912216      3.06991067662111     -1.49525811670644
  C          -2.61298797903953      4.61317565439491     -0.50949363370026
  C          -4.83030316994668      0.56867320621393     -1.88330678111702
  C          -1.83702153118220     -3.13367961028602     -1.95202615152442
  C           2.49538251877190     -4.62669132052357     -1.09067569629107
  C           4.71664026068362     -0.45633601744199     -1.87967136922414
  O           1.91378472523785      2.60484007621318     -2.75521258843624
  O          -2.14811041358406      5.85428603121337     -1.00108382285986
  O          -5.38334064447208      1.38965874342322     -2.88106703122973
  O          -2.43601197219525     -2.79821380363536     -3.17729417853183
  O           2.04091258241633     -5.79851433586830     -1.73505980653716
  O           5.35019200068028     -1.12833971028856     -2.94169284525189
  C           2.69956283378048      3.07605433458178     -0.55107967526829
  C          -1.78342153440575      4.18856295397361      0.72269102237797
  C          -5.15579621780337      1.20360254163203     -0.52332085674037
  C          -2.91237666899321     -3.09175653814313     -0.86291283679235
  C           1.61082912057426     -4.34452856614699      0.13634717182397
  C           5.02335637088603     -1.23693698161211     -0.59228346821017
  C           2.23409208928049      3.51244312346809      0.85141295192363
  C          -2.46445148142540      2.94456649616910      1.33411892184897
  C          -4.83190182635663      0.25955766071817      0.65373518111211
  C          -2.31425236613148     -3.48861226532994      0.49845281704902
  C           2.23095695924603     -3.19082794597089      0.93002185620826
  C           4.66097929817810     -0.43583933902647      0.67387133207004
  O           1.54636952766432      4.76850170861096      0.78420026404325
  O          -3.82894318329213      3.16289813333009      1.59580236651499
  O          -5.28604833048464     -1.07350871394030      0.41395728831179
  O          -1.67819582180923     -4.76034813745245      0.39291694198036
  O           3.58369852500886     -3.40986018103136      1.26270048954695
  O           5.07435202460682      0.93138666908587      0.60990996988806
  C           3.42002475481910      3.72030619816597      1.80049182415371
  C          -1.89758127351153      2.36103379554718      2.61584920152936
  C          -5.54769317806246      0.66024312067967      1.95623034237930
  C          -3.40304409951874     -3.63995797809277      1.56688102575868
  C           1.47779565414748     -2.86601971951128      2.21091065172037
  C           5.35613076795118     -0.97698927141676      1.93707542974059
  O           4.33558584561790      4.66767221330202      1.30761151385372
  O          -0.56063318073648      2.31896394456667      2.63106836917473
  O          -6.92662985457051      0.84304265349288      1.76929045966788
  O          -4.34369184373697     -4.62468564345387      1.22521427907838
  O           1.98125166437307     -1.72458185292213      2.71484964764904
  O           6.73799008315990     -1.15283514158047      1.75775403303921
  H           0.00350995352473      5.77020033251421      0.01325745563208
  H          -5.62672788984878      3.42693913622660      0.73938811811568
  H          -5.33017154145717     -2.66301548091632     -0.76627187754203
  H          -0.25671312647764     -5.83175657636710     -0.50058489531054
  H           5.42385850729991     -3.59325569833461      0.46779524582127
  H           5.12172993255858      2.64662590320256     -0.38557042660815
  H           1.67534211672029      5.22316479456631     -1.77326820328168
  H          -4.29342681036408      5.50949378848081      0.52428471723535
  H          -6.46744970429722     -0.83033705582249     -1.94752280769278
  H          -1.98767863033880     -5.28157931492234     -2.18860391306395
  H           4.11376320588690     -5.63757454166876     -0.06330308558949
  H           6.27222259757478      1.03294248166102     -1.79782326457436
  H          -0.74173475198306      5.24188846140655     -2.24416024426155
  H          -4.88974470118676      4.26104915438311     -1.92837383962469
  H          -4.11393645679790     -1.77786010495108     -3.19111719376021
  H           0.49164654877008     -5.17675921201694     -2.70346095099825
  H           4.85028671826991     -4.10128295651434     -2.30687356678054
  H           3.81730599307536      1.91487705384368     -2.89423537419070
  H           0.70361793909235      2.42413823911597     -1.08635541905494
  H          -2.46976466480843      3.83602468046351     -1.27620945104652
  H          -3.73456538931960      0.54510202105505     -1.98116774506485
  H          -1.04114089289299     -2.41704112055557     -1.70597763014835
  H           2.39157869085112     -3.76912401396699     -1.77269662188741
  H           3.62684431581079     -0.48415719027211     -2.02247082037448
  H           1.24486079533861      2.85628463814369     -3.40997332691997
  H          -2.88502227010119      6.26896498391730     -1.48262516177415
  H          -5.34468317340692      0.90672267502112     -3.72278448970626
  H          -1.79636223372662     -2.98455214273403     -3.88383519554650
  H           2.76748926110062     -6.12801360698678     -2.29104337380443
  H           5.26402996455865     -0.58213747437097     -3.73858840508025
  H           3.43895682066928      3.79644696823617     -0.92345787950588
  H          -1.73361111923299      5.01141881779247      1.44814994637569
  H          -6.22202059792674      1.46796487092726     -0.48687748936075
  H          -3.69609878662250     -3.81648127668354     -1.11863349689998
  H           1.50624855403157     -5.24118608723887      0.75832477861536
  H           6.08743144657073     -1.50580985902153     -0.56881886178142
  H           1.55339956853184      2.75458414461913      1.25322556754288
  H          -2.33960208011061      2.14177407957145      0.57874978356719
  H          -3.74898171213394      0.25245235455247      0.83067650067817
  H          -1.59226543193106     -2.73167991477569      0.83192367863245
  H           2.15093663405837     -2.29915223086146      0.28189616274453
  H           3.57574713028908     -0.49029034205161      0.81158731216867
  H           3.97397266186291      2.78588194054844      1.90390045490242
  H           3.03499491788695      4.02717359473138      2.77948081842856
  H          -5.34961592748436     -0.12705719912548      2.69243532448521
  H          -5.14299365912139      1.59519304320243      2.34170442996828
  H          -3.94919730993207     -2.70000230231348      1.66333859457691
  H          -2.91701209048022     -3.86993564331145      2.52162290179152
  H           5.15987316771854     -0.27095278519716      2.75226785535704
  H           4.94203062197450     -1.94750186090343      2.20773829403048
  H           3.87627604591974      5.51589689880719      1.23003086741338
  H          -7.32415018465888     -0.01545823930764      1.56173247714332
  H          -3.88361471677746     -5.47672160011958      1.18397740685224
  H           7.14181338753694     -0.28368219082559      1.61981090052529
  C           1.17578819689598     -0.89808523921302      3.57179578981744
  H           1.87419348914586     -0.42364190433748      4.25746551899095
  H           0.45336604961868     -1.48931662668199      4.12625606987883
  O           0.59004463570532     -3.52345601392552      2.71175978577698
  C           0.06328763544080      1.37066807210110      3.51778966149599
  H          -0.61164463886621      1.10752518008901      4.32827057579513
  H           0.94815179996802      1.86627247223741      3.90756305447721
  O          -2.61595948396896      1.94412901538758      3.50524747331015
  C           0.41464510209858      0.11821896318660      2.67340165700557
  O          -0.61634087236373     -0.42241456942312      2.04592925593048
  H          -1.10055288700070     -0.00900063440100      0.55044125329942
  O          -1.34205716533507      0.18557588557727     -0.40840111243026
  H           0.19285809807006     -0.04755599142862     -0.91572172447751
  O           1.20350213873437     -0.16708914252728     -0.82822952304825
  H           1.35876713507139      0.08882088365592      0.14189043576310
  O           1.40594912352086      0.62932815758078      1.66375533217839
  H           2.30788204195050      0.56011349482566      2.01026123132412
  H           1.63881165398832      0.54190298838920     -1.33768267329915
  H          -1.95233229407569     -0.52404809752686     -0.66554689854145
