25
Coordinates from ORCA-job job.QMRegion
  C          -1.89758127351153      2.36103379554718      2.61584920152936
  C           1.47779565414748     -2.86601971951128      2.21091065172037
  O          -0.56063318073648      2.31896394456667      2.63106836917473
  O           1.98125166437307     -1.72458185292213      2.71484964764904
  C           1.17578819689598     -0.89808523921302      3.57179578981744
  H           1.87419348914586     -0.42364190433748      4.25746551899095
  H           0.45336604961868     -1.48931662668199      4.12625606987883
  O           0.59004463570532     -3.52345601392552      2.71175978577698
  C           0.06328763544080      1.37066807210110      3.51778966149599
  H          -0.61164463886621      1.10752518008901      4.32827057579513
  H           0.94815179996802      1.86627247223741      3.90756305447721
  O          -2.61595948396896      1.94412901538758      3.50524747331015
  C           0.41464510209858      0.11821896318660      2.67340165700557
  O          -0.61634087236373     -0.42241456942312      2.04592925593048
  H          -1.10055288700070     -0.00900063440100      0.55044125329942
  O          -1.34205716533507      0.18557588557727     -0.40840111243026
  H           0.19285809807006     -0.04755599142862     -0.91572172447751
  O           1.20350213873437     -0.16708914252728     -0.82822952304825
  H           1.35876713507139      0.08882088365592      0.14189043576310
  O           1.40594912352086      0.62932815758078      1.66375533217839
  H           2.30788204195050      0.56011349482566      2.01026123132412
  H           1.63881165398832      0.54190298838920     -1.33768267329915
  H          -1.95233229407569     -0.52404809752686     -0.66554689854145
  H          -2.30558933736557      2.78103478352016      1.69331652562808
  H           2.01988957538934     -3.09980305907101      1.28898061477687
