133
 xtb: 6.7.1 (edcfbbe)
C           -0.36013207735853        4.11510970559007        5.38612439033706
C            0.97802749190687        1.18377575601333        9.50331201301664
C           -0.78989029586087       -3.74511927919289        9.66849534580071
C           -1.64365628132103       -5.41211733722522        4.78568543094781
C           -0.83983145821122       -2.72420962068769        0.35545731236911
C           -1.27881618832503        2.40296521810086        0.50784289354282
O           -0.18537261914247        2.82589457813890        5.92292538189728
O           -0.05695661404601        0.25783949089702        9.34983280277341
O           -1.41690913025360       -3.59003840691777        8.42783889087835
O           -1.39474155905522       -4.14144580358742        4.22895744962887
O           -1.67752380454636       -1.64024679272266        0.61902420606916
O           -1.42809112649451        2.25936040972495        1.89788282665192
C           -1.83646819924155        4.28053037457234        4.98272349194844
C            0.30972384494297        2.56351322599927        9.63610230170641
C           -1.56644467913721       -2.86578231284563       10.66422520290056
C           -2.96420920946920       -5.35862996347878        5.56773016278560
C           -1.69178288732455       -4.00090279290209        0.47449140703887
C           -2.56660691459240        1.87708018598492       -0.14551476344799
O           -2.72145822917123        4.08400101742994        6.05372720755504
O           -0.58297624854161        2.62605754448339       10.71496012592102
O           -2.91095002303025       -3.24883093190802       10.75731410788352
O           -4.04000363119203       -4.93835758027087        4.77204393020782
O           -2.78615477416872       -3.98750950477857       -0.39645759230275
O           -3.68936046405738        2.61626550665761        0.25124678891803
C           -2.15025868357736        3.24972278225934        3.89349097587702
C           -0.40430411095837        2.85901029181001        8.31231503333726
C           -1.43698512614697       -1.40675257678149       10.20444692752898
C           -2.79416031326290       -4.36828015484409        6.72229757685620
C           -2.15961569424933       -4.15845049254974        1.93074092158458
C           -2.71682619075099        0.39621017727924        0.23139110505018
O           -3.44167858627299        3.41077255357574        3.36172559444881
O           -0.98093956756404        4.14923135660221        8.33110532845148
O           -1.99236959152864       -0.51421702199229       11.13830978904455
O           -3.91001470163075       -4.35460714741827        7.57545064041433
O           -2.88275863730098       -5.35799516248455        2.09516493403888
O           -3.77384763509174       -0.20996158502292       -0.46924096001905
C           -1.15691394033687        3.36927368251213        2.73443805943447
C            0.56198929467807        2.73009696865388        7.11817358993818
C            0.02914015325005       -1.00417385029901        9.99605049475154
C           -1.56781772458729       -4.71653449417333        7.57621530536272
C           -0.95073705378587       -4.14000352981177        2.88551205328896
C           -1.44739382456207       -0.41417143883949       -0.06751870779990
C            0.29386377376609        3.35889308424105        3.24840775316605
C            1.24786432224772        1.35316287307702        7.15753771839008
C            0.79508822864346       -2.04370939682309        9.15920669198525
C           -0.31936632937769       -4.96674639895815        6.71146195314815
C           -0.16433715855574       -2.84673042572092        2.61327928042338
C           -0.16542307121760        0.30337409073017        0.39982658002858
O            0.46411511366511        4.32876995632079        4.27878206261417
O            1.88064711147470        1.18214618633573        8.41787031717816
O            0.56043755911780       -3.36511446476772        9.64159652455984
O           -0.60444604090278       -5.83633291582815        5.61734929495871
O            0.24287944043082       -2.78278627447716        1.26119448544456
O           -0.17174394948254        1.68637330732565        0.04300128224194
C            1.29906765117349        3.73349140394424        2.14904002393021
C            2.32791067095386        1.16685271138211        6.02672443385283
C            2.31711996732887       -1.84876962542206        9.23008021572105
C            0.80524919289737       -5.66642251153120        7.48825100761366
C            1.07891505972076       -2.67418032495160        3.47687265214344
C            1.11654868318807       -0.25789487393492       -0.25014407673890
O            1.00824833908405        4.97762538919516        1.56762328537157
O            3.39442008939233        0.43800967881113        6.59455508861566
O            2.78535215692279       -1.83732581953158       10.55363040888571
O            0.38289470351920       -6.87644483030559        8.06088853706413
O            1.93109214859946       -1.82723232559306        2.89273810240355
O            0.97048379554228       -0.50571982531495       -1.62411273553223
H           -0.07825139517889        4.88929633470875        6.11315480916240
H            1.59448021907242        0.95626127268588       10.38030291458323
H           -0.78895996946368       -4.79470661373707        9.98824603176767
H           -1.70640839617866       -6.17548537398617        3.99730628464734
H           -0.37998495236287       -2.64920263085407       -0.63739996562721
H           -1.09965667117722        3.44966359465723        0.22789435344694
H           -1.97047676796431        5.29585404599432        4.57235867335330
H            1.07780985652332        3.32243445698785        9.81798624881793
H           -1.13609686487916       -2.97442997898171       11.66244784642360
H           -3.16138195569722       -6.36356257926113        5.97941320928406
H           -1.07771717472356       -4.86347784152537        0.19468328038911
H           -2.49984828405604        1.97750879164410       -1.23196639959606
H           -2.25825860664642        4.24790868655951        6.89655583843449
H           -1.10231355756238        1.80109437798211       10.75151988678481
H           -3.25568917028395       -3.41940690794319        9.86352686685617
H           -3.91296224555006       -5.26155075675113        3.86036710436691
H           -3.21263769114032       -3.11397488029398       -0.35745628467537
H           -3.66094389471617        2.76605404598489        1.21502181743678
H           -2.04009604496619        2.25023776399450        4.33925978272827
H           -1.19411881373246        2.11033254223458        8.16459831446802
H           -1.94588977950071       -1.30530440928128        9.22968865424254
H           -2.63112812141567       -3.37215140007938        6.28900525416206
H           -2.80275839662741       -3.30319757637985        2.19000311646463
H           -2.89611220298167        0.33954358903612        1.31868924434724
H           -4.06628502202488        3.48208809173886        4.10259969077240
H           -1.30257720073276        4.31131087717200        9.23530930051040
H           -2.84053650365025       -0.87644279167451       11.43392223568333
H           -4.70740242624181       -4.26119748630290        7.02912146159816
H           -3.39549811721234       -5.50117410488825        1.27597651276856
H           -4.54763940540716        0.37284041948174       -0.41825416179964
H           -1.35035369272824        4.30951947744072        2.19583238236717
H            1.33416217818768        3.51847785776358        7.15193601722093
H            0.51941184561105       -0.89013742937154       10.96872209206850
H           -1.78787470467688       -5.61297195634128        8.17507468160631
H           -0.30655095346734       -5.00885227714159        2.69672468297225
H           -1.38995350615647       -0.60359190243706       -1.14625645804343
H            0.51471943469948        2.37127901242090        3.66233734430005
H            0.48767019678634        0.58110196817311        7.01108735688093
H            0.46447028388703       -1.96469052737605        8.11018205864256
H            0.03892517707379       -4.00647069559165        6.32678007609372
H           -0.82281674963486       -1.99821841224704        2.85687608278279
H           -0.10548837791046        0.21718668508240        1.49421453154685
H            1.24574130534206        3.01178022542342        1.33589264080959
H            2.29421497689159        3.75240216334725        2.60026902221055
H            2.78462879389527       -2.65683154450388        8.65209328607551
H            2.59235878846330       -0.89161498645761        8.77718492961748
H            1.13938029313919       -5.03245973959633        8.30524661218396
H            1.63538042506455       -5.83053203800970        6.79077553182471
H            1.91053946824781        0.48312988839336       -0.08185878987542
H            1.38494953351073       -1.20368330433821        0.21738404337705
H            1.09465205963464        5.66767874989968        2.24666135782891
H            2.63122387061377       -2.71190091375221       10.93540733194822
H            0.14658345756832       -7.48797681630855        7.34331098578785
H            0.89411367755467        0.33992851339703       -2.09110696077653
C            3.13103941255485       -1.52479202093984        3.60847934484940
H            3.94047534164800       -1.50592469680903        2.91790131969401
H            3.29207810580284       -2.32099589386824        4.37406964376043
O            1.27234662252757       -3.21039490996338        4.53730473522133
C            4.13053262105399       -0.10499544364652        5.52539786123927
H            4.49896803247028       -1.07643185766115        5.85609857006380
H            4.97483057190399        0.57592511677848        5.23259460288311
O            2.65998388232308        2.22711412434038        5.38727771676545
C            3.04922551349453       -0.14959461251837        4.31335425147058
O            1.87006473994961        0.12801009880892        4.96649489388682
O            3.42531778089105        0.79459299672818        3.57996083804606
H            3.29180863996098        1.60835119994815        4.18203697201793
H            2.71391335386829        1.01134771123988        2.54631012236052
