133
Coordinates from ORCA-job job E -252.644268603460
  C          -0.38671932453611      4.31033662137753      5.22130721333642
  C           1.27326902294085      0.87710468651869      8.80394444077689
  C          -0.96022029950494     -3.78726550926119      9.62568503024124
  C          -1.79814386421277     -5.56073698855763      4.82522176674793
  C          -0.37234565371138     -2.46551897395666      0.83054809799720
  C          -1.62807125112108      2.59853678064947      0.55103174733209
  O          -0.13591191873031      2.95938285198225      5.54046242184387
  O           0.12741134186789      0.07342189390968      8.76256610227002
  O          -1.67894889603881     -3.74938333906542      8.42794644894343
  O          -1.55181806588881     -4.25090507024291      4.37450941216519
  O          -1.35912721422061     -1.49256578117776      1.02180009002210
  O          -2.00674324092846      2.67220493300963      1.89514663590812
  C          -1.90092876606749      4.53158781229773      5.09078505560681
  C           0.81983514575698      2.31192072456597      9.11369571147465
  C          -1.58533987227923     -2.71179370800343     10.53470630027924
  C          -3.13837961949908     -5.57848763602036      5.57760674479102
  C          -1.07820905700292     -3.82185448211936      0.65637608019465
  C          -2.69708875830443      1.76236056525823     -0.17626908955226
  O          -2.60869612501261      4.20921277037779      6.25845963244735
  O           0.11189004437255      2.38926246559718     10.31887886341348
  O          -2.94485173222066     -2.95246135210985     10.76495109071021
  O          -4.21824330565917     -5.16050028166182      4.79054991197893
  O          -1.98118863420353     -3.80231913413322     -0.41264163832803
  O          -3.97611161302075      2.31613919753881     -0.04506538766883
  C          -2.41956099883661      3.64034144299775      3.95856373919013
  C          -0.04393115198581      2.79790495293394      7.94530175591532
  C          -1.36827150645696     -1.33843974965809      9.87897441649864
  C          -3.02506183037893     -4.61278518101089      6.75796504322637
  C          -1.79504503521413     -4.20641278610425      1.96220083559327
  C          -2.66225851551815      0.32428992988174      0.36451553082299
  O          -3.76491494178001      3.91433551136205      3.66202029616864
  O          -0.48154306029870      4.12046793452320      8.16948338113084
  O          -1.76963840525293     -0.28782253920376     10.72294119555683
  O          -4.16310222255807     -4.65704380258428      7.57874738649607
  O          -2.32383291628426     -5.50675192886129      1.86562094975045
  O          -3.48718755722637     -0.52676052045695     -0.39013590342430
  C          -1.62074001372028      3.81078883755408      2.65842353642802
  C           0.74235513570695      2.72064535723091      6.62584862985642
  C           0.10894962157002     -1.11397568333796      9.54203390089220
  C          -1.81207007918495     -4.92776696460257      7.64395589712996
  C          -0.83157201777414     -4.13736844519265      3.16092251647364
  C          -1.24391831327610     -0.25746985301527      0.33034216065682
  C          -0.09792227239132      3.89407237512648      2.89461193141629
  C           1.30455272228281      1.30109695261533      6.45399212034135
  C           0.69804503766949     -2.31168346105918      8.78136763771757
  C          -0.53765657146990     -5.23455069523686      6.83117674831544
  C          -0.14268209891904     -2.75564267657840      3.14914152233552
  C          -0.24218390177892      0.71758376647748      0.97501406106423
  O           0.23184467985220      4.69303143626333      4.02993679533809
  O           1.99328779045319      0.83168622988844      7.59572045136067
  O           0.41044633332580     -3.53543750100664      9.45505648694202
  O          -0.78621694106721     -6.03100539039737      5.67087688605918
  O           0.51743510144204     -2.52154753738093      1.92541743540581
  O          -0.36463710297792      2.00745705913773      0.38099951195808
  C           0.64864169189866      4.57486798064897      1.73255589241548
  C           2.34362862024817      1.16562595746544      5.29854544733557
  C           2.22653923492812     -2.23362635865524      8.67405765097650
  C           0.48424721791415     -6.05253727825568      7.63846943154399
  C           0.86224614441686     -2.60345340497373      4.27909194682222
  C           1.22410415106468      0.30513814668437      0.77837432481543
  O           0.05748315821304      5.78916346044996      1.34915921714688
  O           3.65741540868121      1.19378737781711      5.77755045674711
  O           2.85093124862101     -2.03921563953202      9.91390674219590
  O          -0.06497238633628     -7.24434404265185      8.13483620581242
  O           2.10638822820396     -2.64071740733761      3.84013350247753
  O           1.52505954774198     -0.01023623062262     -0.55448913407341
  H           0.03032848576673      4.97453491444277      5.98731948838516
  H           1.98194872954109      0.52363910032784      9.56320702977240
  H          -1.01838724928964     -4.77894277191018     10.09562459670747
  H          -1.81754970042595     -6.26238342828156      3.98248981212350
  H           0.25266194003071     -2.24128877379403     -0.04205588859524
  H          -1.55235527309850      3.59819549318601      0.10308068930872
  H          -2.06671889468528      5.58831462467040      4.82652292104516
  H           1.69750456873094      2.95766485842550      9.21983486419813
  H          -1.09382990834240     -2.73017713220389     11.51264995362019
  H          -3.29853061876632     -6.59823460280713      5.95954216483113
  H          -0.32901499422545     -4.58475703371151      0.42004274678450
  H          -2.47249167585838      1.74949961929368     -1.24784773849568
  H          -2.03819574435421      4.37108704175369      7.03215760994615
  H          -0.53059289251357      1.65843547257030     10.36925551659174
  H          -3.36514499023544     -3.20745321262515      9.92750057352501
  H          -4.29181272451347     -5.72419637957702      4.00659257243507
  H          -2.52275676594606     -2.99624566715288     -0.36140322972488
  H          -4.11689650992911      2.57162651522936      0.88065620529324
  H          -2.30214874367612      2.59496455609280      4.28377300850462
  H          -0.91553221789259      2.13133726236013      7.85257565487361
  H          -1.93418835840396     -1.30771333338550      8.93539785627601
  H          -2.88000041448678     -3.60268130752511      6.34704271137504
  H          -2.60484220904233     -3.48371203355006      2.14907664174651
  H          -2.99008257745306      0.33919709109174      1.41597952538585
  H          -4.26637425526213      3.90520426684276      4.49229271258749
  H          -0.61761124690385      4.22085428830902      9.12902875857189
  H          -2.63410942613631     -0.51226673896309     11.10324379563146
  H          -4.94629621731091     -4.52615249999803      7.02123523088617
  H          -2.68516089142497     -5.61464049737298      0.96889138645718
  H          -4.33386777408252     -0.07730570895549     -0.54245613061661
  H          -1.95961215176604      4.72418826002600      2.14831817729031
  H           1.56251101274001      3.44925557680121      6.62714746442008
  H           0.66896284501193     -0.95835430060137     10.47390895773021
  H          -2.05200068163914     -5.78255136584148      8.29288684230845
  H          -0.07839507668219     -4.93237277660099      3.08245724895613
  H          -0.95163525295944     -0.44291941569908     -0.71168174282654
  H           0.29372406764788      2.88191277636493      3.05367313226154
  H           0.46393026792842      0.63548277789872      6.21153069065299
  H           0.26719489437897     -2.32580344882692      7.77272570585672
  H          -0.10039959864249     -4.27642404583135      6.52500866612118
  H          -0.92601459026841     -2.00196239781325      3.31799243896641
  H          -0.45390355286264      0.78291193515826      2.05180524368346
  H           0.64501510626230      3.93127118435508      0.85459884646314
  H           1.68040107537245      4.73202493385717      2.06262853947656
  H           2.57800660561548     -3.15757947897081      8.19935551029343
  H           2.49082243211976     -1.37798816335057      8.05030554128565
  H           0.82158570535499     -5.47781314246421      8.50017038430622
  H           1.33826099235223     -6.26051212505565      6.98352615915149
  H           1.84896761981959      1.12754162262278      1.14418121276130
  H           1.42658881213792     -0.58892377292388      1.36870918897407
  H           0.15660605725004      6.42177850659915      2.07490118102335
  H           2.69804991099423     -2.82158674429102     10.46456973938639
  H          -0.30415995262907     -7.80814639876082      7.38474742586594
  H           1.46442275283667      0.79535922211350     -1.08832578979069
  C           3.14644701459878     -2.26242858886482      4.74579586588717
  H           4.03175065666692     -2.83153257601467      4.46428848732823
  H           2.83659131707442     -2.46397761687580      5.77302082313900
  O           0.54556728479897     -2.47703452804013      5.43853281802437
  C           4.26096511162812     -0.08110423696084      5.62884038374492
  H           4.22389893524875     -0.62436302877454      6.57595786455444
  H           5.28412305322531      0.07058852842990      5.28890804647452
  O           2.19060482568772      2.17467652184927      4.38322243203051
  C           3.39951301980701     -0.75654952372339      4.54788924360798
  O           2.14155555791727     -0.09513225326440      4.70216556444261
  O           3.95364070757891     -0.49055857900022      3.30901321848305
  H           3.01815215138840      2.26191115722861      3.87442371212273
  H           3.51516803787340     -1.01122715565233      2.61664951234771
