19
Coordinates from ORCA-job job.QMRegion
  C          -1.37723123179440      2.73884252934023      2.34606415680184
  C           1.10819295321904     -2.94889522049965      1.99293363469092
  O          -1.88356525503788      1.59768825623549      2.82789944905447
  O           1.45685296454401     -1.84274832638779      2.64331172694997
  C           0.49987087147275     -1.20495891818103      3.52122165298283
  H           1.11167520394787     -0.74277495395836      4.29069375164262
  H          -0.21028730524367     -1.93420204868378      3.90167841236731
  O           0.26362055807060     -3.73601072240385      2.35673703682057
  C          -1.02664334506844      0.74361574954014      3.61150328696635
  H          -1.71319047685504      0.17143360484586      4.22518711339379
  H          -0.31791941694127      1.35349648729926      4.17117842595313
  O          -0.42279620987661      3.35248976201501      2.77733473278383
  C          -0.29600230197732     -0.21205576982772      2.66965592434264
  O          -0.99944302417936     -0.81570947729984      1.73113908951906
  O           0.60483042796433      0.63966167883951      1.81442205276406
  O           1.80830021803497      1.01535412128976      2.63588810155169
  H           2.09090252975121      0.07763723805224      2.68583756389898
  H          -1.97313672743075      3.00553798746498      1.48260162782091
  H           1.70617657220571     -3.03295480631674      1.08842455740955
