19
Coordinates from ORCA-job job.QMRegion
  C          -1.58517882625410      2.43614776145023      2.26007817426422
  C           1.31298000399755     -2.96792310348407      2.16234077890775
  O          -1.81503110966188      1.12059814996798      2.34801592930657
  O           1.80122433161492     -1.99965508702245      2.96436337095643
  C           0.81447554296806     -1.25264732569193      3.70644067135782
  H           1.37784403797967     -0.70775156715994      4.45563816184668
  H           0.07786313765548     -1.94337444514128      4.11064198229616
  O           0.42148525006421     -3.72161613595483      2.48267418935859
  C          -1.10734565850697      0.31663705619747      3.32075962848428
  H          -1.80123493460745     -0.49330235919269      3.52517058323166
  H          -0.86874805783720      0.93368284215769      4.18535813488828
  O          -0.86257683709653      3.10500749431623      2.96726601812717
  C           0.14226823823297     -0.30196535420153      2.69829078072712
  O          -0.02447081219990     -0.82366563036942      1.50493350245757
  O           1.04569614431525      1.01219958654618      2.66739885404944
  O           2.46641421385401      0.66982574644253      2.66900004063867
  H           2.47133266050279     -0.24537220924746      2.32142915079509
  H          -2.16420119446943      2.79997688194923      1.42233219880153
  H           1.87114040113988     -3.01820296911189      1.22859228314534
