19
Coordinates from ORCA-job job.QMRegion
  C          -1.40538983182928      2.57704498596052      2.21272513843502
  C           1.20683149187202     -3.03425952796643      2.09880131010757
  O          -1.83579154903522      1.34988057336480      2.52540638094979
  O           1.61130257253883     -1.98625670723486      2.82956731484673
  C           0.61653154907640     -1.28124334452468      3.60393913401251
  H           1.18487200313897     -0.76002338391000      4.36702898885990
  H          -0.11954870052608     -1.98236228846257      3.98854398596733
  O           0.36598809182512     -3.83150378431129      2.44689167282526
  C          -1.05241232011079      0.53827056758059      3.42646532127833
  H          -1.79093106312152     -0.07764701436183      3.93009929720183
  H          -0.48220380696240      1.18978327139227      4.08830243258667
  O          -0.51122180812783      3.20044504276443      2.74689045443217
  C          -0.12300537750120     -0.36102264609359      2.62057384871699
  O          -0.62385136420447     -1.02754254770163      1.61204551237968
  O           0.82746011471567      0.60979873379486      1.88765775532755
  O           2.06724883133413      0.75393997326888      2.69135503632727
  H           2.22424848172240     -0.21626544412512      2.63573235033536
  H          -2.00915050207170      2.90754433049165      1.37786626999671
  H           1.77438076164679     -3.07347762787073      1.17183026686817
