19
Coordinates from ORCA-job job.QMRegion
  C          -1.40062165587793      2.84214910848153      2.40316242254222
  C           1.12313453546954     -2.84879151783316      1.88067876059079
  O          -1.82625648922595      1.67198305342968      2.89376545677832
  O           1.52998382444935     -1.74367154038729      2.48636136545198
  C           0.64399647742645     -1.09086683395445      3.42666768209329
  H           1.31585878581556     -0.62862436750855      4.14263409532266
  H          -0.04397993440414     -1.81463350373185      3.85640670569822
  O           0.23627561291436     -3.58248222515537      2.26257491483636
  C          -0.90332197299570      0.84479396399807      3.63721756115766
  H          -1.54688337119907      0.22528603142663      4.25117251648904
  H          -0.21339853039454      1.47474107540298      4.19640309680778
  O          -0.49160591729128      3.52434956210174      2.82656297811597
  C          -0.16508640694115     -0.06094846752429      2.65010647892791
  O          -0.91809330610533     -0.59190857555604      1.68233875625314
  O           0.78669837110969      0.81018199862838      1.86960520424311
  O           1.83393941953394      1.36557615499142      2.80322271344356
  H           2.51307826890891      0.65760811408813      2.73389475305773
  H          -2.00789755962642      3.06227935784491      1.53375155523136
  H           1.71686325570858     -2.98772641301391      0.97916810843802
