133
Coordinates from ORCA-job job
  C           0.54872108215468      4.95722325895078     -0.31036702272443
  C          -4.43002640082293      3.37772335897946      0.49470397517545
  C          -5.07760892951885     -1.78118980859258     -0.06950721961292
  C          -0.84736671318237     -4.79664870422500     -0.83298932684689
  C           4.12486372440147     -3.22597717360917     -0.08287008494164
  C           4.85824553021963      1.92455259843248     -0.39209455538537
  O          -0.38888682534783      3.91677027093924     -0.11196317793474
  O          -4.33009879334659      2.23434268437121     -0.29511719309072
  O          -3.73440490196169     -1.93909675151943     -0.48131675735433
  O           0.07852173349930     -3.75789800471298     -0.59896606569340
  O           4.00740234767807     -2.04478493171128     -0.81176421631495
  O           3.47292541131694      2.09907418349718     -0.61376806929423
  C           1.16116339842767      4.79634948813480     -1.71036541358739
  C          -4.09040590046269      4.58341123211775     -0.40642441472626
  C          -5.82752762330740     -1.03237076292903     -1.18406221820135
  C          -1.57979757565196     -4.47561281644987     -2.14227289430801
  C           3.76306947341434     -4.37577103341128     -1.04754718540491
  C           5.45963881180322      1.26274358742815     -1.64453232820994
  O           0.19630944558497      4.78458686356923     -2.72572818094364
  O          -4.93754129290610      4.65955709641705     -1.51250077623060
  O          -5.80941087974669     -1.72892278620926     -2.39593894780887
  O          -0.69359551212451     -4.32004124982999     -3.21754697010496
  O           4.59239346879404     -4.38098908119553     -2.16997563436654
  O           5.29276364439049      2.04596660601224     -2.79175566507926
  C           1.92705736426035      3.46912840308535     -1.74027220043534
  C          -2.61963878910914      4.48586773455102     -0.86102560474525
  C          -5.16771074618044      0.34294226437761     -1.33297629156246
  C          -2.35319947037824     -3.16797700503297     -1.93103581279275
  C           2.28716008999953     -4.22513649908527     -1.46423566597008
  C           4.78807379334963     -0.10655642482069     -1.81448567015049
  O           2.61104811611890      3.28520490316982     -2.95108691633877
  O          -2.23424191101901      5.63520998592024     -1.56991480273072
  O          -5.83807771742885      1.13089264596233     -2.27753458339663
  O          -3.16207327062110     -2.85427390093824     -3.03230269010914
  O           1.86199877333622     -5.29516007310604     -2.26779943999231
  O           5.36135934637577     -0.82819611739493     -2.87150825320449
  C           2.95603177258553      3.41664238499742     -0.60804000352003
  C          -1.67811671983318      4.30013155503536      0.33846297121033
  C          -5.14239686911333      1.10462531409388     -0.00266149660242
  C          -3.26268404259898     -3.25741458677071     -0.70099588281818
  C           1.38926142479858     -4.14487444983603     -0.22329692119950
  C           4.88972569887225     -0.95980284591846     -0.54386320692732
  C           2.30149898149490      3.74852898522375      0.74271998867563
  C          -2.21597207506544      3.14111707646162      1.17540058821124
  C          -4.59852677601305      0.22965418162962      1.14877533206887
  C          -2.49691570181440     -3.76858279863835      0.52787115231191
  C           1.92399849223845     -3.03884104354226      0.68751077952626
  C           4.49481147142936     -0.15896132302416      0.71384330239581
  O           1.54983764587850      4.95165666664641      0.66562721301534
  O          -3.53615731489517      3.35089022193535      1.59449190149160
  O          -5.16032525884037     -1.07987686472638      1.13453814606654
  O          -1.75969312762762     -4.94042520312849      0.21934134625247
  O           3.26339164917975     -3.24527718668492      1.04731873162546
  O           5.09558531611167      1.13252449913843      0.73062503423956
  C           3.34996517808419      3.96487636924693      1.84263299455114
  C          -1.37701780863087      2.81695595855391      2.39739982343806
  C          -4.99641563794313      0.77210282799016      2.53376149564586
  C          -3.43741030656007     -4.14797445806037      1.68050706830833
  C           1.08333137536699     -2.88150479288616      1.94460785292731
  C           4.99097125410414     -0.81492954063867      2.01562436649022
  O           4.26665430715057      4.96124544202207      1.49524306953593
  O          -1.85877720326992      1.67921303515098      2.91155507765363
  O          -6.37975709278867      0.93169033350293      2.64045034493468
  O          -4.40068052468455     -5.07719412343811      1.28450096553877
  O           1.45441335929638     -1.77638636375256      2.57661576361000
  O           6.36091228569676     -1.09648261408850      1.95847965538849
  H           0.06104972876580      5.93458007524855     -0.21284587271142
  H          -5.42654568282675      3.47772261594925      0.94285378475918
  H          -5.54117439453914     -2.75432441210400      0.13297780604878
  H          -0.33492053587754     -5.76406889143131     -0.89947211206545
  H           5.13318328876262     -3.35401519167458      0.32948155148208
  H           5.34636725504336      2.88363218091129     -0.18096423298501
  H           1.87186212125294      5.62228430841784     -1.87326866451644
  H          -4.22741432356292      5.50520870551323      0.16881093133524
  H          -6.87886200105971     -0.91202349758712     -0.90366471642088
  H          -2.29624511082532     -5.28410940210967     -2.35523164819770
  H           3.90342200610144     -5.33528039813378     -0.53993971261654
  H           6.53783843526718      1.13100931069903     -1.50687316912199
  H          -0.61630683153342      5.22820469954571     -2.41086204784385
  H          -5.02766242408236      3.77455682483254     -1.89967656756849
  H          -4.89808312070442     -2.01017515973507     -2.59580905423324
  H           0.14701841014401     -4.77246932011993     -3.01194936077271
  H           4.66591433988415     -3.47443711201258     -2.50942091047816
  H           4.37051542383394      2.35546096433320     -2.84089310137943
  H           1.20339653706006      2.65070096354529     -1.57679135463556
  H          -2.51217280007712      3.59215127671004     -1.49800927942088
  H          -4.11686684493077      0.18658973568328     -1.63711591041987
  H          -1.62371563557688     -2.36091721431086     -1.74035224986118
  H           2.17646721400755     -3.27465852503125     -2.01201719367392
  H           3.71357154430606      0.06452032689880     -2.00538295066599
  H           2.02072016367461      3.55420927344436     -3.67204050316738
  H          -2.96518253645945      5.87007149200139     -2.16790802965691
  H          -6.11267476385888      0.54269629728786     -3.00066671538217
  H          -2.64478590476875     -3.00801065511176     -3.83860456134482
  H           2.56571001797880     -5.47079139940347     -2.91659958330683
  H           5.52695459983944     -0.19987386924091     -3.59296623730550
  H           3.75504287166942      4.14105295476681     -0.81275718090701
  H          -1.62199024691781      5.20918268936771      0.94818309079111
  H          -6.15757120305517      1.43807586111578      0.25476353737351
  H          -4.10068253134708     -3.93241667695580     -0.91923293757821
  H           1.37168545219609     -5.09802778353623      0.31827043090271
  H           5.91572998478576     -1.33662537991985     -0.43134094973067
  H           1.64170102071036      2.91571114448510      1.02456628654170
  H          -2.15435467609847      2.22740010136238      0.55397642679589
  H          -3.49827963933042      0.16287505755931      1.07322717765488
  H          -1.82248204785900     -2.96223426724316      0.86366250237617
  H           1.81790925902766     -2.08097673233870      0.14535841537014
  H           3.39836397576694     -0.05746619270612      0.72822706593266
  H           3.90620205737952      3.03786471395657      1.99012239365821
  H           2.81482865029632      4.20698624101916      2.76825922162114
  H          -4.61416232621470      0.06322031415401      3.27892344785261
  H          -4.53230404607542      1.74213177437598      2.70717718738477
  H          -3.95803387188387     -3.25117536969833      2.02174564189677
  H          -2.81490861594873     -4.53248267724275      2.49792494783021
  H           4.76528729880759     -0.12145060302502      2.83517359530194
  H           4.46979918019626     -1.75689870561045      2.18836830099600
  H           3.77081970121733      5.78388600308034      1.36818350125117
  H          -6.78829073164258      0.06680420308593      2.48269558376109
  H          -3.93579036649003     -5.87634993311200      0.99224406501265
  H           6.82624775957574     -0.25670551562633      1.82792019384322
  C           0.52642880253292     -1.14460804027239      3.49132191109471
  H           1.16257955718623     -0.70672153987939      4.25463324689659
  H          -0.18213545978712     -1.87384914033464      3.87522173181720
  O           0.21214187537604     -3.64123716416632      2.30856546487552
  C          -0.96844876238144      0.82983972886448      3.66477952059517
  H          -1.63210680478872      0.24465733333303      4.29091607426686
  H          -0.25140662161918      1.44141329771380      4.21089783516263
  O          -0.43550109152957      3.46188383581108      2.80978512928764
  C          -0.26144698980723     -0.11243600106615      2.69089334334167
  O          -1.01044499908064     -0.66422283863126      1.74139834933375
  O           0.67686628831600      0.72805104705054      1.87007151589954
  O           1.80848730814324      1.19138224327185      2.75108357034072
  H           2.26219995881728      0.32219255633841      2.79840992765428
