19
Coordinates from ORCA-job job.QMRegion
  C          -1.37701780863087      2.81695595855391      2.39739982343806
  C           1.08333137536699     -2.88150479288616      1.94460785292731
  O          -1.85877720326992      1.67921303515098      2.91155507765363
  O           1.45441335929638     -1.77638636375256      2.57661576361000
  C           0.52642880253292     -1.14460804027239      3.49132191109471
  H           1.16257955718623     -0.70672153987939      4.25463324689659
  H          -0.18213545978712     -1.87384914033464      3.87522173181720
  O           0.21214187537604     -3.64123716416632      2.30856546487552
  C          -0.96844876238144      0.82983972886448      3.66477952059517
  H          -1.63210680478872      0.24465733333303      4.29091607426686
  H          -0.25140662161918      1.44141329771380      4.21089783516263
  O          -0.43550109152957      3.46188383581108      2.80978512928764
  C          -0.26144698980723     -0.11243600106615      2.69089334334167
  O          -1.01044499908064     -0.66422283863126      1.74139834933375
  O           0.67686628831600      0.72805104705054      1.87007151589954
  O           1.80848730814324      1.19138224327185      2.75108357034072
  H           2.26219995881728      0.32219255633841      2.79840992765428
  H          -1.97562349243403      3.04824948122971      1.52548616011212
  H           1.68494807027922     -2.99410122161513      1.04497639202527
