133
Coordinates from ORCA-job job
  C           0.56248577119150      4.95654383511182     -0.29045784019860
  C          -4.43044781075141      3.38622880801963      0.47953743729521
  C          -5.06712801074609     -1.76925824322540     -0.03554787920851
  C          -0.83832325278025     -4.79395734646933     -0.79625072689259
  C           4.13464320804892     -3.21264513429396     -0.07031253991854
  C           4.88388975046604      1.94238278495655     -0.46685777907613
  O          -0.38237219210791      3.91528640870686     -0.13886498705345
  O          -4.35250169099191      2.25207323650405     -0.32573881042478
  O          -3.71357756755747     -1.92061261619962     -0.41902364716791
  O           0.09519971403760     -3.76384705932377     -0.55611381865261
  O           3.98634873190499     -2.02237400025555     -0.77909984507023
  O           3.50305601596021      2.12491533324389     -0.69743624501315
  C           1.18277367400847      4.85044790985978     -1.69250494631129
  C          -4.08333007792484      4.60405950186533     -0.40289389704851
  C          -5.81126816292014     -1.04569661610607     -1.17033997205761
  C          -1.57066837694741     -4.45595714664616     -2.10115800200675
  C           3.77881159568487     -4.34787055507776     -1.05404726156089
  C           5.46882988570383      1.24436918575111     -1.70769945370445
  O           0.22213441003578      4.87392867464556     -2.71177085327606
  O          -4.93236145390178      4.70804526526268     -1.50495238153722
  O          -5.78319756917754     -1.76025178115785     -2.37115595726057
  O          -0.68870104075517     -4.30656939564172     -3.18041103645874
  O           4.59491123818689     -4.30898433551004     -2.18608224049732
  O           5.29393721316718      2.00512031143481     -2.86906949019883
  C           1.95435654643318      3.52843541629901     -1.76913292552367
  C          -2.61367400925220      4.50914728797850     -0.86274293655263
  C          -5.15996856640671      0.33170401133106     -1.33773924635708
  C          -2.32516776230760     -3.13945437887601     -1.87668541998070
  C           2.29596272717250     -4.20875630344958     -1.45040316688448
  C           4.78110613363916     -0.12157289035719     -1.83763806362505
  O           2.64985564522785      3.39299241604313     -2.97961294259565
  O          -2.22350940423870      5.67425043327492     -1.54276899361828
  O          -5.82458058261410      1.09062308419651     -2.30969791963970
  O          -3.12126088916054     -2.79968653648403     -2.97967990359783
  O           1.87284883646239     -5.27088317606768     -2.26557691903755
  O           5.33858315919251     -0.88439326405157     -2.87418614497659
  C           2.97613645048047      3.43599496210008     -0.63283780612723
  C          -1.66834615320314      4.28894436870261      0.32841106707015
  C          -5.15914003009325      1.12007454597118     -0.02238986051781
  C          -3.24071958795945     -3.23622206769216     -0.65195766194512
  C           1.40973395748934     -4.15750389793368     -0.20001370059071
  C           4.87938230540359     -0.93962449893538     -0.54404055710749
  C           2.31069142553889      3.70536572970689      0.72600432107395
  C          -2.21240114661986      3.11261995659575      1.13590930495926
  C          -4.62653373943839      0.26862417519441      1.15283546842192
  C          -2.47803748289748     -3.76075168262160      0.57391508437385
  C           1.94378340335312     -3.06635560724070      0.72902084002833
  C           4.49028041263744     -0.10211773464348      0.69001322536304
  O           1.55546417375898      4.90803081169284      0.69305768883591
  O          -3.52654145798894      3.33199824297492      1.57054538821856
  O          -5.17571984173577     -1.04678377845169      1.15287786841649
  O          -1.75031116206727     -4.93703229554384      0.25641196114647
  O           3.28936776849710     -3.26325449317174      1.07049918207968
  O           5.11731564550286      1.17647054943788      0.67600250766432
  C           3.35085967001175      3.88515787948332      1.84046922568468
  C          -1.37723123179440      2.73884252934023      2.34606415680184
  C          -5.05294743536312      0.82523876423975      2.52409247059686
  C          -3.42288231223944     -4.14002447516205      1.72283292532451
  C           1.10819295321904     -2.94889522049965      1.99293363469092
  C           4.95921810215189     -0.73977203438797      2.00909816243547
  O           4.24645590857618      4.91723819473815      1.54748615052058
  O          -1.88356525503788      1.59768825623549      2.82789944905447
  O          -6.43840785027181      0.98478206961008      2.60102528240375
  O          -4.39535661841538     -5.05708817554883      1.32045539578809
  O           1.45685296454401     -1.84274832638779      2.64331172694997
  O           6.33212395119723     -1.01249383038761      1.98480494240775
  H           0.07949245908448      5.93214309623583     -0.15737931336534
  H          -5.42171993328678      3.49245729396713      0.93797674125680
  H          -5.52328981237917     -2.74366398818136      0.17755420236675
  H          -0.33351418312217     -5.76483536662669     -0.87030927086255
  H           5.15044940290210     -3.33078182369468      0.32588787127818
  H           5.38308830690537      2.90128716864430     -0.28205820702052
  H           1.89065647373631      5.68483736989800     -1.82042864418244
  H          -4.21354438022488      5.51599178239092      0.18966783985414
  H          -6.86522383790645     -0.92746766737018     -0.89837294785141
  H          -2.29926563555152     -5.25292204881839     -2.31614443513465
  H           3.94038942022314     -5.31722517714053     -0.57258803383773
  H           6.54706647679229      1.10476029529569     -1.57910259348739
  H          -0.59393048521790      5.30128086795891     -2.38386243638902
  H          -5.02225737776445      3.83356317756546     -1.91472040249104
  H          -4.86708272803818     -2.02685117056632     -2.57036767328574
  H           0.15624676823729     -4.75099547451255     -2.97352024904985
  H           4.66141931312859     -3.38955985199193     -2.49256317250698
  H           4.38266143618623      2.34746385864133     -2.89577585983791
  H           1.23292170137068      2.70173105815129     -1.64230157134370
  H          -2.51233680083524      3.63155077457114     -1.52267616905184
  H          -4.10383643734672      0.17742640648543     -1.62457757687892
  H          -1.58583357563230     -2.34495645725031     -1.67055467222191
  H           2.16865878871775     -3.25097435539821     -1.98147990708866
  H           3.70792951599928      0.05674035547062     -2.02798799493148
  H           2.06022868302715      3.67346466225023     -3.69666250638643
  H          -2.95026350716179      5.92370876530256     -2.13980327627049
  H          -6.08549741475016      0.48125880630466     -3.02051226529215
  H          -2.60670618184041     -2.96953602966773     -3.78471889409778
  H           2.56104708997737     -5.41392016483940     -2.93840945818816
  H           5.50570580878735     -0.28426799695470     -3.61859414394640
  H           3.77069135843020      4.17512775658929     -0.79979080040422
  H          -1.60743022550241      5.18161503310034      0.96148467426847
  H          -6.18038373731160      1.45105804246238      0.21400786195443
  H          -4.07814310975353     -3.90900783457164     -0.87866241469623
  H           1.39873113388089     -5.12172357852367      0.32184418329713
  H           5.90270003708127     -1.31998557779652     -0.42178876332486
  H           1.65419672735852      2.85679559985365      0.97054604226546
  H          -2.17099091004724      2.21762811178359      0.48683840004624
  H          -3.52519365730378      0.20935366665836      1.09502103679477
  H          -1.79739448004406     -2.96283680238673      0.91582936491722
  H           1.82054942585891     -2.09878005509422      0.20797446769182
  H           3.39700075232617      0.02381316411739      0.69328712090829
  H           3.92649391011928      2.96386012676687      1.94300148448200
  H           2.80822019403705      4.06878141750259      2.77531846827399
  H          -4.68672081838735      0.12233697012570      3.28276717857681
  H          -4.59313748021601      1.79672951431046      2.69885434833912
  H          -3.93465130309611     -3.24007817699446      2.06924577433884
  H          -2.80523071845286     -4.53645302321330      2.53814540408157
  H           4.70717484077335     -0.04190965571673      2.81735184600149
  H           4.44150321098634     -1.68466786272221      2.17736152898589
  H           3.73156133518992      5.73303962188219      1.45615702956306
  H          -6.84282687283314      0.11760379571754      2.44616966350060
  H          -3.93809463205461     -5.85889636991272      1.02353614870205
  H           6.79338851262519     -0.17183360429331      1.84540381835962
  C           0.49987087147275     -1.20495891818103      3.52122165298283
  H           1.11167520394787     -0.74277495395836      4.29069375164262
  H          -0.21028730524367     -1.93420204868378      3.90167841236731
  O           0.26362055807060     -3.73601072240385      2.35673703682057
  C          -1.02664334506844      0.74361574954014      3.61150328696635
  H          -1.71319047685504      0.17143360484586      4.22518711339379
  H          -0.31791941694127      1.35349648729926      4.17117842595313
  O          -0.42279620987661      3.35248976201501      2.77733473278383
  C          -0.29600230197732     -0.21205576982772      2.66965592434264
  O          -0.99944302417936     -0.81570947729984      1.73113908951906
  O           0.60483042796433      0.63966167883951      1.81442205276406
  O           1.80830021803497      1.01535412128976      2.63588810155169
  H           2.09090252975121      0.07763723805224      2.68583756389898
