133
Coordinates from ORCA-job job
  C           0.50522180828513      4.91653532976838     -0.40144740445184
  C          -4.45970568277428      3.39658658199659      0.49471121389863
  C          -5.08691107746028     -1.76599898393110     -0.05877598584638
  C          -0.85280191104732     -4.75934941090894     -0.88160184737844
  C           4.15108350984903     -3.27472035027950     -0.14551133515316
  C           4.80334369152302      1.87841455738652     -0.17565757411836
  O          -0.41317915177788      3.88488736237162     -0.09263070264716
  O          -4.36438057733977      2.24591139184310     -0.28444919696968
  O          -3.74679180828587     -1.90410252773280     -0.48821737408682
  O           0.08761988375960     -3.73145444022860     -0.65881599751092
  O           4.06664755315636     -2.08235513022534     -0.86009945073633
  O           3.40510518746684      2.02899051443350     -0.36061588623557
  C           1.11858102438034      4.60857803427664     -1.77517299065272
  C          -4.10498473006824      4.58568737131379     -0.42289236859812
  C          -5.85996665002265     -1.02274005524984     -1.16108173106572
  C          -1.59951438081768     -4.42728554186251     -2.18002901167062
  C           3.76070580212805     -4.40822684649571     -1.11867887156254
  C           5.43865451521693      1.31004450118980     -1.45757957344301
  O           0.15085326224589      4.49204419963744     -2.78202118348834
  O          -4.95391201323464      4.66106131483346     -1.52742517347850
  O          -5.84953551788545     -1.71677060508657     -2.37465299020279
  O          -0.72503138905097     -4.27327401553131     -3.26500828546716
  O           4.58692463347395     -4.43156997482783     -2.24228381926125
  O           5.29477169056034      2.15145957279629     -2.56463625094941
  C           1.87639756322658      3.28118341283167     -1.66003939795287
  C          -2.63804894146801      4.44945422041171     -0.87974502735418
  C          -5.21584742473939      0.35925622845745     -1.31457234478273
  C          -2.36386836012813     -3.11672402257287     -1.95393298565727
  C           2.28722081880124     -4.22440510818713     -1.53140110988435
  C           4.80219998490980     -0.05938448324037     -1.72595263366810
  O           2.54879819311646      2.96232445762124     -2.84970899875716
  O          -2.23704441589476      5.55995518731141     -1.63968877126398
  O          -5.90804057615199      1.14632824065391     -2.24412640135645
  O          -3.18063608015364     -2.79207231639791     -3.04608311804839
  O           1.83951724486505     -5.27814779969115     -2.34367172027276
  O           5.39846790732257     -0.68151604557862     -2.83206794031274
  C           2.90755760728349      3.34580167249674     -0.52911932039517
  C          -1.70407179660612      4.29222064821582      0.32940828642207
  C          -5.17384595790242      1.11713803812212      0.01778735243710
  C          -3.26201128015926     -3.21552293509378     -0.71639135668361
  C           1.39360777892672     -4.13716280037385     -0.28745722095032
  C           4.92429417575246     -0.99712253040859     -0.51785717538197
  C           2.25472343490911      3.83805832874978      0.77387673296084
  C          -2.25172735724017      3.15066474218113      1.18467089105374
  C          -4.61326294339428      0.24323923519182      1.16194344068510
  C          -2.47738102916710     -3.72212074449653      0.50207393064239
  C           1.95277941678381     -3.04293173826285      0.62095580545447
  C           4.51705680961042     -0.29239361352630      0.79399611033336
  O           1.50934863238000      5.02882686232392      0.56314857774816
  O          -3.57054542249045      3.37549247961035      1.59932204125396
  O          -5.16332255076653     -1.07088197634579      1.14926716788382
  O          -1.74950144668354     -4.89723141755829      0.18444178061297
  O           3.28551068638607     -3.28632612625475      0.98224019963470
  O           5.05792187928751      1.02282233576895      0.89250939440096
  C           3.29933755184042      4.15988825276099      1.85104249014168
  C          -1.40062165587793      2.84214910848153      2.40316242254222
  C          -5.00473685144668      0.78108690747524      2.55052410079708
  C          -3.39876212117772     -4.09574443445507      1.67197014035533
  C           1.12313453546954     -2.84879151783316      1.88067876059079
  C           5.06880488701681     -1.00138200184697      2.04692070321765
  O           4.25102113266863      5.07852142445156      1.39794777475279
  O          -1.82625648922595      1.67198305342968      2.89376545677832
  O          -6.38918398170594      0.92074968924871      2.67028453233777
  O          -4.36958461838969     -5.02531192870732      1.29561510486999
  O           1.52998382444935     -1.74367154038729      2.48636136545198
  O           6.43936918089593     -1.25795628587728      1.93122915106231
  H           0.00076871354911      5.88978523962502     -0.40942663554308
  H          -5.45726662588099      3.50905379907595      0.93743845797399
  H          -5.53509702969923     -2.74597948811953      0.14522486253382
  H          -0.35139844108018     -5.73180283976730     -0.95893243837935
  H           5.15492217838644     -3.43292941022280      0.26811893332047
  H           5.26358828607955      2.83548012291380      0.09864287850960
  H           1.83390681377438      5.40817964537335     -2.02536703993496
  H          -4.22320326555711      5.51777832735404      0.13944229787041
  H          -6.90879400655161     -0.91473242518554     -0.86690271553111
  H          -2.32318599209384     -5.23060972790539     -2.38825407962884
  H           3.87965230067358     -5.37240431235723     -0.61415578278858
  H           6.51554084970497      1.19125338541726     -1.29628092587018
  H          -0.64031402422472      5.00614613319662     -2.52872175661103
  H          -5.06163355946240      3.77209022124586     -1.90104523678092
  H          -4.93695834520522     -1.98324247923919     -2.58816135279028
  H           0.11694152625688     -4.72660387770031     -3.06824630920461
  H           4.66914824561880     -3.52887795057752     -2.58832356665707
  H           4.35368284900444      2.37607506577602     -2.68494670129685
  H           1.14943126839530      2.48883799660452     -1.40481614941170
  H          -2.54712688623857      3.52847752980162     -1.47978934077104
  H          -4.16882326205909      0.21336395641135     -1.63656421384622
  H          -1.62916517845015     -2.31411362741710     -1.76389559277763
  H           2.19381128759938     -3.26690357794380     -2.07032695699206
  H           3.72352288532604      0.09675802409211     -1.90934617950467
  H           1.96807517867139      3.18905923903277     -3.59303306540815
  H          -2.98279638584737      5.80248084207011     -2.21643440694195
  H          -6.18548864724719      0.56075674096349     -2.96816978925481
  H          -2.67210724420317     -2.94751342159019     -3.85765459042097
  H           2.53928773364731     -5.46377710143541     -2.99402780015403
  H           5.56650533370838      0.01022027350402     -3.49313235258481
  H           3.71735970101053      4.02838575818802     -0.81552179639696
  H          -1.64625135338360      5.21437823506944      0.91918112407263
  H          -6.18557167360132      1.45022306780290      0.28874897083853
  H          -4.09438528754139     -3.89965182135082     -0.92752025679258
  H           1.36457949300584     -5.09123884799363      0.25159885536037
  H           5.95833409822104     -1.36002302301308     -0.43371970168730
  H           1.58618221309936      3.04749059174935      1.13774875360921
  H          -2.19704035635161      2.22840068452676      0.57590688137787
  H          -3.51282944585124      0.18667616262433      1.07762842199920
  H          -1.79513949793942     -2.91563173336022      0.82339974260420
  H           1.87414711770066     -2.08532755979985      0.07385877442263
  H           3.41685888968954     -0.24844256747065      0.82913089812162
  H           3.82378190496304      3.24183696507799      2.11967385803474
  H           2.76228403178773      4.52972475404676      2.73210760832561
  H          -4.60491992007450      0.07953993078515      3.29341098971222
  H          -4.55357412682845      1.75844721825212      2.71763893998344
  H          -3.91262680778714     -3.19713555377551      2.01856970205640
  H          -2.76264054524575     -4.47754204643093      2.48016038174269
  H           4.86328129336036     -0.35066466672060      2.90573168042505
  H           4.56608689455055     -1.95683173613839      2.19543812901944
  H           3.78740668779991      5.90304326176338      1.18936230173357
  H          -6.78644988202772      0.05024173913137      2.51444579594057
  H          -3.91032364972537     -5.82607490076927      0.99868540817548
  H           6.89100075078356     -0.40645791058499      1.83247730912790
  C           0.64399647742645     -1.09086683395445      3.42666768209329
  H           1.31585878581556     -0.62862436750855      4.14263409532266
  H          -0.04397993440414     -1.81463350373185      3.85640670569822
  O           0.23627561291436     -3.58248222515537      2.26257491483636
  C          -0.90332197299570      0.84479396399807      3.63721756115766
  H          -1.54688337119907      0.22528603142663      4.25117251648904
  H          -0.21339853039454      1.47474107540298      4.19640309680778
  O          -0.49160591729128      3.52434956210174      2.82656297811597
  C          -0.16508640694115     -0.06094846752429      2.65010647892791
  O          -0.91809330610533     -0.59190857555604      1.68233875625314
  O           0.78669837110969      0.81018199862838      1.86960520424311
  O           1.83393941953394      1.36557615499142      2.80322271344356
  H           2.51307826890891      0.65760811408813      2.73389475305773
