133
Coordinates from ORCA-job job
  C           0.54523723517889      4.93620859692633     -0.26402008793330
  C          -4.47069369059260      3.39968099320542      0.44290885655806
  C          -5.10889890697426     -1.73556740516313     -0.03331801992104
  C          -0.83399256029872     -4.73806830747647     -0.70778491812118
  C           4.16706086614207     -3.20448363838325     -0.07600160793902
  C           4.89310999061953      1.95114868746378     -0.51245135503121
  O          -0.40172596892861      3.89234359468098     -0.16377953753335
  O          -4.44531969680091      2.28803830261787     -0.39492765116632
  O          -3.73387740372363     -1.85861531895739     -0.35085144109509
  O           0.12425090987742     -3.72949416669612     -0.46919782570924
  O           3.98808102511647     -2.01004332407621     -0.77257863915042
  O           3.50454610937323      2.12513215777276     -0.69992375509596
  C           1.18720523968213      4.87073631423890     -1.65817073891679
  C          -4.09854618568633      4.63430794294844     -0.40788489154232
  C          -5.83176097437267     -1.05159771668377     -1.20608122376830
  C          -1.56171158910168     -4.38724669346719     -2.01245748434162
  C           3.78881294484271     -4.33387195955361     -1.05672421036640
  C           5.44480616476369      1.24868145027827     -1.76588162662278
  O           0.23883326621079      4.91957223121727     -2.68779779726736
  O          -4.94952542524733      4.78600142008009     -1.50289173265347
  O          -5.75642778040615     -1.78667687065529     -2.39254543148763
  O          -0.68469880603335     -4.25625379730174     -3.09752283004498
  O           4.57547881091620     -4.28756457856664     -2.20908999659809
  O           5.24436157375212      2.00293682804650     -2.92654733894090
  C           1.96043135411046      3.55098904842175     -1.75926068488202
  C          -2.63091944613584      4.53252097995969     -0.87750384083632
  C          -5.20969045185864      0.33867658683255     -1.38364585245004
  C          -2.29251543228016     -3.05767092973733     -1.78749173803170
  C           2.29782141769484     -4.18805440644026     -1.41423413220466
  C           4.75288237944684     -0.11758003429137     -1.87139387969617
  O           2.67101406676583      3.44798251643621     -2.96372566164976
  O          -2.22305147571529      5.71541192837269     -1.51495966772162
  O          -5.87213743202519      1.06011159043997     -2.38608944786335
  O          -3.05654928642763     -2.69092592053713     -2.90469100727152
  O           1.85560523695196     -5.24040009753862     -2.23214584678432
  O           5.27343219657580     -0.88076069305608     -2.92615778263786
  C           2.96722594414969      3.43100590094879     -0.61162934679153
  C          -1.69087065265418      4.25177323781686      0.30474311285269
  C          -5.25381436307541      1.15624287288999     -0.08620255446441
  C          -3.22968342215754     -3.16186477609088     -0.58055243591990
  C           1.43931277674409     -4.15086425046753     -0.14482617127466
  C           4.89735640880792     -0.93235602178183     -0.58041625877932
  C           2.27993703735964      3.65719445737978      0.74447081349720
  C          -2.25156888410143      3.04024445541192      1.04265871825487
  C          -4.75053663714546      0.33311355064582      1.12208338856733
  C          -2.46927366542983     -3.67489892746630      0.65331900667898
  C           1.99989460388168     -3.08906081133264      0.80350136093133
  C           4.55469077825965     -0.09119189746863      0.66336524047737
  O           1.51891369683347      4.85492922628563      0.73820524942734
  O          -3.55027003418644      3.27951280545842      1.51705818080278
  O          -5.28310052616107     -0.99046945295837      1.13087062690249
  O          -1.74648446886057     -4.85935811236613      0.34622484499991
  O           3.36003252954139     -3.27143647681808      1.09051575409595
  O           5.17022848577976      1.19188390691720      0.62572498550826
  C           3.30635200248042      3.81261091462124      1.87569480655866
  C          -1.40538983182928      2.57704498596052      2.21272513843502
  C          -5.22523461853491      0.90568470950018      2.47121089127169
  C          -3.42094378720228     -4.04536392176110      1.79958839211746
  C           1.20683149187202     -3.03425952796643      2.09880131010757
  C           5.07034679590981     -0.72594836960551      1.96600376950915
  O           4.18005377276419      4.87447739230083      1.63153823457840
  O          -1.83579154903522      1.34988057336480      2.52540638094979
  O          -6.61191012842021      1.07786894185622      2.49558189178042
  O          -4.37678503019050     -4.98237180533569      1.40148799443180
  O           1.61130257253883     -1.98625670723486      2.82956731484673
  O           6.44478997209523     -0.98147519573085      1.90083782112824
  H           0.06135246222747      5.90796183293325     -0.10824517489857
  H          -5.45030055060780      3.52696658556356      0.92077830305903
  H          -5.54820198810955     -2.71752428389825      0.18116389179736
  H          -0.35083568795621     -5.72013802444047     -0.77999507706515
  H           5.19587957228084     -3.31708627156442      0.28666811264059
  H           5.39144022078637      2.91411605470978     -0.34715308890320
  H           1.89628005275091      5.70811212463971     -1.75439977971917
  H          -4.21079761811883      5.53113553587434      0.21093873486415
  H          -6.89555604041638     -0.95334006476827     -0.96532533048812
  H          -2.30566148203299     -5.17118149944159     -2.22394585722015
  H           3.96162148756720     -5.30639840583848     -0.58589701487920
  H           6.52559894490250      1.10689744371878     -1.66174155076712
  H          -0.57601418233200      5.35114855744028     -2.36297337818748
  H          -5.05177882775540      3.92624550580050     -1.93993876162164
  H          -4.82724837443752     -2.02188631572302     -2.57092401054312
  H           0.16005893756025     -4.70216186493635     -2.89062101153892
  H           4.62970579348850     -3.36705130537936     -2.51488934827070
  H           4.33881119851924      2.36225169341516     -2.92778408969094
  H           1.23895408091652      2.72044369842347     -1.66255056857968
  H          -2.54521889141373      3.67956474813047     -1.57083518144938
  H          -4.14479500042851      0.20297517866424     -1.64634220577135
  H          -1.54200767181716     -2.28006291051697     -1.55669678916784
  H           2.15914197028917     -3.22328931834482     -1.92970536044802
  H           3.67325932436529      0.05957457488594     -2.02329390205914
  H           2.08638366516572      3.73470543557257     -3.68261355475851
  H          -2.94314084900203      5.99410168532112     -2.10696229387229
  H          -6.07603264455765      0.43436596082210     -3.10099095863098
  H          -2.53668217387724     -2.88872716578513     -3.70010176835589
  H           2.52956581594216     -5.37642399569339     -2.92099334420192
  H           5.42524234172770     -0.27829943539915     -3.67222577516838
  H           3.75924115151693      4.17965914128568     -0.74339071635029
  H          -1.63167532031679      5.11011137073351      0.98399943597666
  H          -6.28356651075369      1.48726698019353      0.11038650277709
  H          -4.04921740962806     -3.85260851924639     -0.81752222098798
  H           1.42206665136279     -5.12708778852933      0.35453246377120
  H           5.92238638396184     -1.31787163823931     -0.49572741859773
  H           1.62598296665039      2.79563427648068      0.95448981877318
  H          -2.25993051577439      2.19083203129073      0.33688445021733
  H          -3.64999197108835      0.28564190770544      1.09712367960953
  H          -1.78290837909128     -2.87957528553422      0.98713663514085
  H           1.83508006656563     -2.10517080096904      0.32505625624586
  H           3.46174272339899      0.02904585249880      0.70224300822444
  H           3.90039202073490      2.89972698297394      1.94682571394345
  H           2.75338416463388      3.94645618071552      2.81317754815620
  H          -4.89704066353284      0.20540887681388      3.24950822522914
  H          -4.76602732985611      1.87533694408935      2.65696184288900
  H          -3.95198977722545     -3.14845842936708      2.12389533574543
  H          -2.80825920164932     -4.42119870814476      2.62828956988843
  H           4.82951935802537     -0.03473767976112      2.78346459650335
  H           4.56911995732929     -1.67768478195382      2.14596253785662
  H           3.64710705121420      5.68191075368884      1.57058620567092
  H          -7.01775256202363      0.21218567177307      2.33791201004277
  H          -3.90474092282475     -5.77836216853820      1.11298473906277
  H           6.89234420603993     -0.13453980778694      1.75516956909252
  C           0.61653154907640     -1.28124334452468      3.60393913401251
  H           1.18487200313897     -0.76002338391000      4.36702898885990
  H          -0.11954870052608     -1.98236228846257      3.98854398596733
  O           0.36598809182512     -3.83150378431129      2.44689167282526
  C          -1.05241232011079      0.53827056758059      3.42646532127833
  H          -1.79093106312152     -0.07764701436183      3.93009929720183
  H          -0.48220380696240      1.18978327139227      4.08830243258667
  O          -0.51122180812783      3.20044504276443      2.74689045443217
  C          -0.12300537750120     -0.36102264609359      2.62057384871699
  O          -0.62385136420447     -1.02754254770163      1.61204551237968
  O           0.82746011471567      0.60979873379486      1.88765775532755
  O           2.06724883133413      0.75393997326888      2.69135503632727
  H           2.22424848172240     -0.21626544412512      2.63573235033536
