19
Coordinates from ORCA-job job.QMRegion
  C          -1.53571009233276      2.45382158471617      2.22976438222569
  C           1.30771952353811     -3.00020579339088      2.15809015068532
  O          -1.80961796953676      1.14610274335099      2.33419661930795
  O           1.78108952839728     -2.00110620753622      2.93115948445779
  C           0.79262192483548     -1.24870078218070      3.66286192198436
  H           1.35747810468940     -0.65884679186309      4.37619626392125
  H           0.07488929622942     -1.93534405563124      4.10486875699785
  O           0.46162910541161     -3.79064175868370      2.51541523025006
  C          -1.10196573296061      0.32852084977143      3.29719814211526
  H          -1.83717845294909     -0.41740857210796      3.58905013920833
  H          -0.75976625747006      0.96462292909112      4.11140499123668
  O          -0.79269702107713      3.10896058754963      2.92829744992456
  C           0.06025138236418     -0.38844569747513      2.62127817924905
  O          -0.21022134568950     -1.03954911409036      1.52077080140858
  O           0.97363553484143      0.86444455864559      2.22022034639243
  O           2.34450356347751      0.66325761798816      2.68076748618826
  H           2.44992941248985     -0.28025326356827      2.42721197853500
  H          -2.11834514189434      2.82261796788276      1.39581675816549
  H           1.85758207142117     -3.04665131920494      1.21931886632415
