133
Coordinates from ORCA-job job
  C           0.49275762200962      4.86744533712651     -0.17986993510441
  C          -4.55123975670022      3.42072388006671      0.44632436025055
  C          -5.13471907398094     -1.68395223303769     -0.14911767555508
  C          -0.81040016379426     -4.66675938320998     -0.61413415783718
  C           4.22999340075219     -3.23324467506908     -0.07171419962823
  C           4.87002159058589      1.91983561480278     -0.56061618644273
  O          -0.45326282143182      3.82453412008542     -0.04994512863711
  O          -4.54336031366146      2.35150852505970     -0.44345706291671
  O          -3.74544503419587     -1.77186731279422     -0.41300709940412
  O           0.18246843898891     -3.68417236401838     -0.41690965863913
  O           4.04989733879514     -2.06782392431371     -0.81709858631837
  O           3.46760414829532      2.06595939723650     -0.65986171546801
  C           1.11124309152596      4.79508850777296     -1.58457457085943
  C          -4.12860109960352      4.68020057115625     -0.34071589868039
  C          -5.82598990029202     -1.00589408284139     -1.34341457345623
  C          -1.52358708248374     -4.34945381368046     -1.93662957441535
  C           3.82259927391646     -4.40378298234623     -0.99030199696717
  C           5.37517542210592      1.23957415973890     -1.84521257711969
  O           0.15006792574783      4.84527624782005     -2.60057532375963
  O          -4.95554845268554      4.90815915528751     -1.44084068444003
  O          -5.68258977512297     -1.72595774580030     -2.53315395433454
  O          -0.63670141795113     -4.27209927530809     -3.01855838791272
  O           4.60312074739709     -4.44872517187257     -2.14575932432080
  O           5.10914069643900      1.99269844931767     -2.99263287586666
  C           1.87425600197163      3.47070714290150     -1.69469088764697
  C          -2.65734668507382      4.55587691581322     -0.79441161823258
  C          -5.23486541105869      0.40266745533891     -1.48129128999131
  C          -2.23725898895677     -3.00138928801448     -1.77086841819711
  C           2.33517930024570     -4.23713178074028     -1.34768437011193
  C           4.71524141316018     -0.14445695890539     -1.93352474504438
  O           2.54104612641544      3.35226281226635     -2.92229439296063
  O          -2.21703206576458      5.75393602828021     -1.38145932765344
  O          -5.87645278252959      1.11686430287890     -2.50311719983998
  O          -2.97780937052543     -2.66516223820046     -2.91306471693274
  O           1.86464073406093     -5.30960716446123     -2.12315449588898
  O           5.19952175207418     -0.86778015754144     -3.03202562232428
  C           2.91556081795126      3.36766254527675     -0.57685828781638
  C          -1.74765354014148      4.20204200170732      0.39192913320549
  C          -5.35098670920336      1.20663972696261     -0.17933639332678
  C          -3.19275658225789     -3.06370642684237     -0.57587103988779
  C           1.48430889985433     -4.13388184896968     -0.07744012103906
  C           4.94911236801758     -0.97384133418679     -0.66417541590986
  C           2.26235024621681      3.60405815402488      0.79561234430676
  C          -2.35228129075248      2.97069489125997      1.06097508382948
  C          -4.89177637479421      0.38247866299328      1.04523235152105
  C          -2.42944299268422     -3.50072352341690      0.68510869087657
  C           2.07606815267960     -3.06510629666462      0.84630117325217
  C           4.65235548530291     -0.14645026484552      0.60047123447173
  O           1.48640236570587      4.79310576074600      0.80270366286536
  O          -3.65212523875643      3.22295189760117      1.52921034102774
  O          -5.38036185233084     -0.95856240163025      1.01386995377072
  O          -1.72606732859049     -4.71279766322207      0.44340409340513
  O           3.44171805935414     -3.25141495950770      1.11063413456720
  O           5.23021378149707      1.15337981117145      0.54896288851776
  C           3.32384231758691      3.78363400683806      1.89067605683895
  C          -1.53571009233276      2.45382158471617      2.22976438222569
  C          -5.45959332622141      0.92157185620811      2.37251127149441
  C          -3.38004675453894     -3.79036742713061      1.85510361036600
  C           1.30771952353811     -3.00020579339088      2.15809015068532
  C           5.23852340711379     -0.77035878430861      1.87857084101083
  O           4.17899634673717      4.85010166502602      1.60622022472430
  O          -1.80961796953676      1.14610274335099      2.33419661930795
  O          -6.85006021741180      1.05805388203793      2.31728068637156
  O          -4.32517580886637     -4.76441549557238      1.52493247823259
  O           1.78108952839728     -2.00110620753622      2.93115948445779
  O           6.60993065791332     -1.01331078900381      1.74613786661213
  H           0.01167930911131      5.83988470322386     -0.02027558531993
  H          -5.53486890559533      3.55645676345973      0.91350642149483
  H          -5.55765418397045     -2.67897553817863      0.03706889976398
  H          -0.36217156749495     -5.66768339562156     -0.64288935565804
  H           5.26414942458773     -3.33999662606467      0.27732526174642
  H           5.35473414644874      2.89227363862381     -0.41138981407041
  H           1.82443134526607      5.62802087533322     -1.69145862048658
  H          -4.22309157880685      5.55114851907075      0.31670535207718
  H          -6.90111395782350     -0.93771033746117     -1.14625918988942
  H          -2.27815914034316     -5.12946939466196     -2.12531220458812
  H           3.97269008490684     -5.35092747462492     -0.46312812030473
  H           6.46271998463451      1.12265684163814     -1.78846363074247
  H          -0.63648752105369      5.33086634946079     -2.27977425440830
  H          -5.07734617278320      4.07158454456033     -1.91651348513961
  H          -4.74458754092112     -1.95851573001621     -2.66180210930821
  H           0.19231725903142     -4.73948079343490     -2.79631344355700
  H           4.65004405867001     -3.55717070888684     -2.52674180650855
  H           4.19454530023276      2.32781475753371     -2.95828340359165
  H           1.15375159683581      2.64402438579243     -1.56409902219620
  H          -2.58369316315387      3.73009216556725     -1.52079014978939
  H          -4.15781823453134      0.29725942583110     -1.70417701112266
  H          -1.47859699227512     -2.22759922540068     -1.55630582679930
  H           2.21599817916200     -3.28991569066692     -1.89907701392074
  H           3.62417990768032      0.00473589047798     -2.02425010884816
  H           1.93425892634756      3.64210899535629     -3.62168958921791
  H          -2.92932794145009      6.07214503758090     -1.96369118038592
  H          -6.02478885429399      0.49536646189519     -3.23483428275615
  H          -2.44240134214562     -2.88694156291754     -3.69141238963826
  H           2.53945576767018     -5.49912205457912     -2.79868002759126
  H           5.29322278869579     -0.24124054161253     -3.76827004922376
  H           3.69594881904612      4.12264888014897     -0.73823737588285
  H          -1.68518395978802      5.02728781009845      1.11151687510992
  H          -6.39316243573300      1.52342421531249     -0.02940036963721
  H          -3.98556557765570     -3.79305983507811     -0.78728145949571
  H           1.43702498681719     -5.09569068311565      0.44752814499144
  H           5.98378885443681     -1.34114390676193     -0.63879585112835
  H           1.62602067920746      2.73842111570388      1.03834575109965
  H          -2.37243165490084      2.15634820385475      0.31786094698780
  H          -3.79237738391285      0.36936419639602      1.07974697070975
  H          -1.72520817476127     -2.69954259663641      0.96465584174346
  H           1.90996924473312     -2.08942641434356      0.35543877615859
  H           3.56045287294694     -0.05131504433526      0.68166163946751
  H           3.92771854557014      2.87621895978367      1.95240171406675
  H           2.80244202435392      3.92261125110555      2.84548546084608
  H          -5.16161363305663      0.21682605505288      3.15902597340508
  H          -5.03887951876636      1.89931873182039      2.60152014083756
  H          -3.92468424827962     -2.87860324742713      2.10786420051756
  H          -2.76799510201339     -4.09743505213566      2.71233339752128
  H           5.03104047246221     -0.07539929271191      2.70243317784918
  H           4.75577422997119     -1.72419048454670      2.09282264674209
  H           3.63717754044884      5.65250540765044      1.55645667877248
  H          -7.22202717240104      0.18370972379017      2.12785879351622
  H          -3.84316397872179     -5.57100108014088      1.28712176238634
  H           7.04345756504362     -0.16285050669479      1.57997366867602
  C           0.79262192483548     -1.24870078218070      3.66286192198436
  H           1.35747810468940     -0.65884679186309      4.37619626392125
  H           0.07488929622942     -1.93534405563124      4.10486875699785
  O           0.46162910541161     -3.79064175868370      2.51541523025006
  C          -1.10196573296061      0.32852084977143      3.29719814211526
  H          -1.83717845294909     -0.41740857210796      3.58905013920833
  H          -0.75976625747006      0.96462292909112      4.11140499123668
  O          -0.79269702107713      3.10896058754963      2.92829744992456
  C           0.06025138236418     -0.38844569747513      2.62127817924905
  O          -0.21022134568950     -1.03954911409036      1.52077080140858
  O           0.97363553484143      0.86444455864559      2.22022034639243
  O           2.34450356347751      0.66325761798816      2.68076748618826
  H           2.44992941248985     -0.28025326356827      2.42721197853500
