133
Coordinates from ORCA-job job_L_QM2_XTB
  C           0.47141050695486      4.79978015282215     -0.16758688296879
  C          -4.58676880113942      3.42516924700693      0.46255661919214
  C          -5.14738771461529     -1.67185569280455     -0.19949486279106
  C          -0.79632058941523     -4.60820454832249     -0.62986491820308
  C           4.25117144016060     -3.24498140762391     -0.04858556279286
  C           4.87912569619581      1.89536645073610     -0.58835558796728
  O          -0.48052235128880      3.76679877541985     -0.01171112058953
  O          -4.58566071146588      2.36156846608994     -0.43359097578837
  O          -3.75738861571197     -1.72909497979524     -0.46443841973453
  O           0.20587181176222     -3.63358996450389     -0.43792514033173
  O           4.08178827916031     -2.08913934616639     -0.80920839793347
  O           3.47321794461527      2.01919321750859     -0.67346150909298
  C           1.07361223827035      4.71449580561777     -1.57876983675117
  C          -4.14490162438627      4.68107571217965     -0.31935406548710
  C          -5.84878486032241     -0.98686551890837     -1.38274658937286
  C          -1.50446649293007     -4.30023594034219     -1.95764244353695
  C           3.83756969446763     -4.42153216459324     -0.95586796234204
  C           5.37928511367254      1.21439602385706     -1.87515048512534
  O           0.10235140971187      4.75488189626212     -2.58470243116026
  O          -4.96445633405644      4.92423464759778     -1.42141450242527
  O          -5.69010021062436     -1.68640988385040     -2.58302772363249
  O          -0.61212783988019     -4.22975091111775     -3.03561592018211
  O           4.63076525149708     -4.49491828685626     -2.10111550123949
  O           5.08671667054127      1.95485187709348     -3.02398302762832
  C           1.83840251392342      3.39157703248091     -1.68791152436402
  C          -2.67462311064034      4.53473155895977     -0.77079091697421
  C          -5.27924300825097      0.43246189899950     -1.49731303901320
  C          -2.22536257841054     -2.95358799691363     -1.80864183277291
  C           2.35861518693979     -4.22841399280772     -1.33223168171028
  C           4.74009951909508     -0.18027768416505     -1.94837715397331
  O           2.48169051549837      3.26249606464311     -2.92683916514897
  O          -2.21911714499561      5.72733150451727     -1.35789222169661
  O          -5.93564136316833      1.15491404260748     -2.50415430410527
  O          -2.97343366436757     -2.63800649718202     -2.95195640164346
  O           1.87358236200110     -5.29695537569086     -2.10473950970622
  O           5.23023643109438     -0.90598374929745     -3.04252230081068
  C           2.90171813688478      3.31138998128228     -0.58900972225377
  C          -1.77290857677136      4.16724342165885      0.41762560965126
  C          -5.39683095981430      1.21550389640044     -0.18189077949139
  C          -3.17562218660960     -3.00881698371903     -0.60917110591215
  C           1.49517316600054     -4.09953659853550     -0.07336960228688
  C           4.98520574903385     -0.99751868190808     -0.67311597153139
  C           2.27009906248418      3.55189778701354      0.79360265670738
  C          -2.39668680106818      2.94605937965689      1.08596543307293
  C          -4.93667938570877      0.37466185897256      1.03215179746594
  C          -2.39858664327609     -3.41219342696209      0.65437526607793
  C           2.09292360560576     -3.03818150892973      0.85757037866118
  C           4.68973643862275     -0.15968488659240      0.58312452018849
  O           1.47795870435891      4.73145714875715      0.80322282810770
  O          -3.69461974795925      3.21583566740919      1.54906084894446
  O          -5.40713892634510     -0.97175371415929      0.97526763198786
  O          -1.71228393650347     -4.63537589781876      0.42805947232343
  O           3.45560378978047     -3.24191685297659      1.12978837282228
  O           5.26381943486595      1.13991396600873      0.52047835237218
  C           3.34956031323458      3.75845787063702      1.86593299609854
  C          -1.58517882625410      2.43614776145023      2.26007817426422
  C          -5.51879226925166      0.87692129165316      2.36755188753375
  C          -3.33626617318493     -3.66538101583162      1.84299133455464
  C           1.31298000399755     -2.96792310348407      2.16234077890775
  C           5.26667528741711     -0.77306032227665      1.86957763007603
  O           4.17906323120409      4.83855723720943      1.55885560014961
  O          -1.81503110966188      1.12059814996798      2.34801592930657
  O          -6.91299727440084      0.97176439241479      2.31499618148255
  O          -4.28512366207685     -4.64793925576608      1.55095587907211
  O           1.80122433161492     -1.99965508702245      2.96436337095643
  O           6.64078154645831     -1.00669500541480      1.75332772877836
  H          -0.00197230096039      5.77652464798535     -0.01068544496368
  H          -5.57124944173776      3.57012111649265      0.92527790234602
  H          -5.55210375739157     -2.67742474670684     -0.03016475980635
  H          -0.35757868605774     -5.61345821570767     -0.64813756061342
  H           5.28248693572221     -3.35621329292828      0.30722325502786
  H           5.35080530310728      2.87584763549436     -0.45069071524117
  H           1.78480100781777      5.54742127695747     -1.70013169332812
  H          -4.22749492558890      5.55140230506309      0.34035530060676
  H          -6.92520911038931     -0.93920878019860     -1.18678517327536
  H          -2.25547469110841     -5.08445442752499     -2.14398623454018
  H           3.96327035576810     -5.36404586840938     -0.41435748451124
  H           6.46921968404804      1.11552129182136     -1.82994617455529
  H          -0.67214624708539      5.26184890300855     -2.26571351949478
  H          -5.09760865645520      4.08994601324679     -1.89832965467352
  H          -4.74923694234576     -1.90994859588142     -2.70746541741559
  H           0.21767116944856     -4.69112627828869     -2.80441770056115
  H           4.69477671874341     -3.60900609625948     -2.49279838571055
  H           4.16773236792261      2.27597748062570     -2.97852440388863
  H           1.12538222160973      2.56230120355477     -1.53420187192616
  H          -2.61224606129547      3.70790995678219     -1.49696409021635
  H          -4.20243279437395      0.34568174164989     -1.72821181042301
  H          -1.46958392475967     -2.17349171621424     -1.61004372928011
  H           2.26449080537323     -3.28355276907545     -1.89217004302888
  H           3.64684496277023     -0.04588847503734     -2.03671758090488
  H           1.86048556426272      3.54219945317770     -3.61772876682181
  H          -2.92834493607590      6.05419023195875     -1.93946883013477
  H          -6.07965220935328      0.54363358127414     -3.24515919310351
  H          -2.43816903325577     -2.86344315016745     -3.72919584803392
  H           2.55056422431875     -5.50511657635086     -2.77233396726452
  H           5.31068838495087     -0.28463465514868     -3.78467965746319
  H           3.66704673121849      4.07726335715347     -0.77073707237069
  H          -1.70079300809721      4.99216555550476      1.13691039714856
  H          -6.43883246126578      1.53142199828264     -0.02916763267440
  H          -3.95296721681746     -3.75933074880529     -0.80319140993692
  H           1.42313211641869     -5.05822177329872      0.45430494624426
  H           6.01963008925405     -1.36469621405202     -0.64924633504710
  H           1.65348637279202      2.67962298502998      1.06479624998351
  H          -2.42374935942669      2.12984578275627      0.34598482712332
  H          -3.83776417480546      0.37557377374859      1.07368784439752
  H          -1.68135752290830     -2.61037787606734      0.90488335159706
  H           1.93853972067650     -2.05927672806017      0.36958615972353
  H           3.59797345680703     -0.06373798360064      0.65994168938441
  H           3.97111776559517      2.86249216181072      1.92037709919277
  H           2.84487565485312      3.89265011805858      2.83037387708956
  H          -5.19670743348147      0.16912394007416      3.14241798151582
  H          -5.12916022238084      1.86311238042471      2.61251664654157
  H          -3.87901564508176     -2.74645337521025      2.07325556941796
  H          -2.71596883773577     -3.94806921131535      2.70280286303490
  H           5.04232547556095     -0.07683259115288      2.68830531328562
  H           4.78780735031243     -1.72877265342806      2.08457101265100
  H           3.62147121933703      5.63036095586873      1.51382898826368
  H          -7.25873013206466      0.08995866383442      2.11117774329965
  H          -3.80626721034204     -5.46144656708811      1.33067167487027
  H           7.06921066605901     -0.15440350691583      1.58342067192055
  C           0.81447554296806     -1.25264732569193      3.70644067135782
  H           1.37784403797967     -0.70775156715994      4.45563816184668
  H           0.07786313765548     -1.94337444514128      4.11064198229616
  O           0.42148525006421     -3.72161613595483      2.48267418935859
  C          -1.10734565850697      0.31663705619747      3.32075962848428
  H          -1.80123493460745     -0.49330235919269      3.52517058323166
  H          -0.86874805783720      0.93368284215769      4.18535813488828
  O          -0.86257683709653      3.10500749431623      2.96726601812717
  C           0.14226823823297     -0.30196535420153      2.69829078072712
  O          -0.02447081219990     -0.82366563036942      1.50493350245757
  O           1.04569614431525      1.01219958654618      2.66739885404944
  O           2.46641421385401      0.66982574644253      2.66900004063867
  H           2.47133266050279     -0.24537220924746      2.32142915079509
