139
Coordinates from ORCA-job job E -262.777376752570
  C           0.58785001982212      4.85946189936734     -0.33711856226748
  C          -4.35832449746319      3.26523738127861      0.47378308675984
  C          -4.98344429458279     -1.77867683500793     -0.58995008484417
  C          -0.69001691801359     -4.82312930551246     -0.70120437291741
  C           4.28159483245458     -3.30920529890798      0.12266001320543
  C           4.87891195590250      1.82318207933518     -0.58613167349215
  O          -0.31478421114776      3.80427942695159     -0.11198146822333
  O          -4.28753292425555      2.24424857877739     -0.47082406268004
  O          -3.60020488567175     -1.91004130604497     -0.83052019801762
  O           0.25385314110951     -3.81292871743278     -0.45837264807961
  O           4.15448310764835     -2.19727326569145     -0.70713167805016
  O           3.49267717174540      1.98812993330411     -0.78264058645832
  C           1.16076297765677      4.72240477372386     -1.75960262267722
  C          -3.99799941725038      4.57513348837845     -0.25331493436454
  C          -5.60692459243448     -0.97278076012094     -1.74153698445241
  C          -1.32166484150077     -4.58055347970762     -2.08350777680052
  C           3.92927996984657     -4.53880860910583     -0.73770995692265
  C           5.46300725145585      1.08814223515516     -1.80477903353128
  O           0.16986839934250      4.74215201837102     -2.75201834831840
  O          -4.86637017977977      4.84493029480444     -1.31693408057173
  O          -5.41847372640105     -1.58932442864382     -2.98602100297737
  O          -0.37183433334694     -4.54834855988492     -3.11549863750695
  O           4.78618601411489     -4.67227182866454     -1.83599416058199
  O           5.24040154606204      1.78754910892772     -2.99921566034930
  C           1.89391957357175      3.37847796830569     -1.83150723487457
  C          -2.54657240752376      4.48621430727356     -0.75220465607043
  C          -5.01568339738548      0.44295547114334     -1.72638360210237
  C          -2.04599817057380     -3.22940347854135     -2.03792480473811
  C           2.47046067387908     -4.40284467083649     -1.20076947018361
  C           4.86428847139987     -0.32353973728555     -1.86763304991284
  O           2.53766383532246      3.17905992077185     -3.06545147747413
  O          -2.14815538099164      5.70040402111573     -1.35320981055056
  O          -5.67218713292252      1.27845698374406     -2.64746888790405
  O          -2.75061881246452     -2.95950252611701     -3.22492505797297
  O           2.05587101363240     -5.53676013240258     -1.93264539165005
  O           5.48763693866874     -1.10021452361239     -2.86095470401487
  C           2.95763992717811      3.30315526950739     -0.73204832940830
  C          -1.59019813466353      4.14189458879227      0.40137995434934
  C          -5.12786298661005      1.10267286398310     -0.34417682371960
  C          -3.05238563729057     -3.21897880209089     -0.88319600642012
  C           1.53354378009826     -4.21168779127801      0.00053046851001
  C           5.01046866282417     -1.07352877329862     -0.53604151040863
  C           2.35149439698689      3.62411191026498      0.64602080461224
  C          -2.12674350225251      2.89379780608525      1.11127218618399
  C          -4.70028874075768      0.15507162761984      0.79492958131131
  C          -2.36950527459849     -3.60888839616329      0.43912727445493
  C           2.06339558768024     -3.07312521248148      0.87922688014852
  C           4.60576974909853     -0.19881261151035      0.66551569755096
  O           1.62680969577944      4.85292706631146      0.59953655581708
  O          -3.46408290820466      3.06598142902981      1.54875630419379
  O          -5.23942418416356     -1.15953738424200      0.63264809841914
  O          -1.68027860468987     -4.84802848537231      0.28794065476042
  O           3.42179949241609     -3.25248360176633      1.24271341401572
  O           5.15264466452148      1.12063675520288      0.58738058985918
  C           3.43695704075987      3.80357826528703      1.71465640570404
  C          -1.30413643059077      2.49884737213956      2.33640795019367
  C          -5.22071171754039      0.60453384885065      2.17156252666866
  C          -3.38590983551983     -3.81311090123325      1.56858480622495
  C           1.24875973563696     -2.92425445169112      2.16329807623593
  C           5.12543149369204     -0.75335161246329      2.00350167614973
  O           4.34388790494883      4.82566979436089      1.38569064157730
  O          -1.72765935927684      1.32918850483884      2.78437997599519
  O          -6.60076109024206      0.86231227383375      2.16489719425716
  O          -4.32758972654156     -4.80876815268684      1.26166000425791
  O           1.64519011168531     -1.85547449592903      2.83431797094437
  O           6.49850709716835     -1.04651742175654      1.96476768312265
  H           0.09488188391455      5.83139542203875     -0.21734222914411
  H          -5.35396582895992      3.33106498681797      0.93084064887536
  H          -5.45814998469263     -2.76501317195687     -0.51605359636010
  H          -0.22337190262265     -5.81529112172604     -0.66733077795430
  H           5.29291508540635     -3.39660613454055      0.53972300077256
  H           5.37049831089380      2.79593459741681     -0.46091425998144
  H           1.87793838722057      5.54229809306110     -1.92415766198564
  H          -4.09223277538085      5.40889914756300      0.45032855747564
  H          -6.68967034610507     -0.91192715171803     -1.58796741308930
  H          -2.05544149452547     -5.37997550730474     -2.27362826027287
  H           4.04331441651978     -5.44587955430378     -0.13554708643938
  H           6.54949820482554      1.01308039416423     -1.68884598713272
  H          -0.60066310144736      5.24860860457829     -2.43556406124430
  H          -5.00201978484511      4.03022719090325     -1.82881191485482
  H          -4.50241437736529     -1.91637170550086     -3.06618167450872
  H           0.43624761249838     -5.01967300990780     -2.83839301152522
  H           4.89912871167524     -3.80315999939148     -2.25645735678143
  H           4.32278123364932      2.11742315703580     -3.02949485657038
  H           1.14192650053753      2.59388214422475     -1.66191795613175
  H          -2.48064081072070      3.67079797251273     -1.48858118811231
  H          -3.94496572029066      0.38017232602490     -1.97430623574565
  H          -1.28673053552905     -2.45404841914605     -1.86159215712638
  H           2.38873788650546     -3.50461965803671     -1.83101699528370
  H           3.78735766127040     -0.23998616221263     -2.07800517705807
  H           1.91086258358070      3.39840832389702     -3.77212257989685
  H          -2.92120547677964      6.06412271262714     -1.81858256258291
  H          -5.76456521967770      0.79449592653184     -3.48354392613017
  H          -2.16001998530269     -3.13658349063118     -3.97356395173645
  H           2.80677936322882     -5.82724328336105     -2.47797111366877
  H           5.55811864990290     -0.56440765476018     -3.66687533230468
  H           3.74424332334903      4.03518052652536     -0.95625831663862
  H          -1.51463317435856      4.97994734242020      1.10524289372007
  H          -6.16568108872298      1.42430173614777     -0.17897001149554
  H          -3.84454012573272     -3.94641024615233     -1.10226284249532
  H           1.46338978861582     -5.13894766933510      0.58245678130362
  H           6.04922348596653     -1.41059270544736     -0.41810310646203
  H           1.67267418182132      2.81812621515885      0.94833240221048
  H          -2.06689936591359      2.05637682018122      0.39901534672180
  H          -3.60577070167745      0.10419046314653      0.82454060411103
  H          -1.65778803151403     -2.82728919894160      0.73000939397485
  H           1.94530066348418     -2.13541097206277      0.31414318754496
  H           3.51249655074830     -0.14457434675568      0.68609405036930
  H           4.02215215620984      2.88600939181846      1.79496756843198
  H           2.94096042518637      4.00905246570543      2.66901861198261
  H          -4.97561705123547     -0.18802151291432      2.88726426532053
  H          -4.72437812049993      1.52481729772856      2.47668518260261
  H          -3.94609581631981     -2.88931367836573      1.72324008047660
  H          -2.83150959414155     -4.06161535165521      2.48013190949964
  H           4.91421469580095     -0.00739276443407      2.77782404365648
  H           4.60897613929915     -1.68151489688007      2.24830292195535
  H           3.86105592664551      5.66456386570156      1.37096756710323
  H          -7.06686572102133      0.02935211125414      2.00328847588860
  H          -3.85786062645276     -5.65136533020872      1.17665361513672
  H           6.98660508539283     -0.21707727810202      1.85976739210212
  C           0.76131493298429     -1.33007511810713      3.82599065199608
  H           1.35446519944355     -0.70016429063584      4.48291990123914
  H           0.28449802723895     -2.14711657237039      4.38011339434998
  O           0.37300204226108     -3.67336669898855      2.51847765749783
  C          -0.94894439596470      0.63916613853966      3.76419475694586
  H          -1.62947414294254      0.29411716872739      4.54665905286488
  H          -0.18907720566646      1.30817266922241      4.17362643072423
  O          -0.41770969722117      3.15215444847060      2.82151404069596
  C          -0.32316542555310     -0.56021078730692      3.07208579563446
  O          -0.75635846128640     -0.99323089259850      2.02594361411548
  H          -1.23132466771738     -0.27039147530898      0.41613300168416
  O          -1.38205778163067      0.03709278033251     -0.49296183564899
  H           0.46208744641011      0.01326901288844     -0.70963868411750
  O           1.39671914614707     -0.07591446199028     -0.44480342135647
  H           1.32829537107669      0.45255182685743      1.19493672667397
  O           1.28513198875793      0.81942955577109      2.10767333351323
  H           2.15126023133879      0.65301266056148      2.49538532685529
  H           1.88359142572064      0.64958653646653     -0.85896278728032
  H          -2.03417716316875     -0.57913546931654     -0.85346798090307
