14
Coordinates from ORCA-job benzaldehyde_es_opt_S2 E -345.405220276272
  O       2.917369      1.201151     -0.495830
  C       2.307425      0.170484     -0.385829
  C       0.849787      0.072973     -0.142110
  C       0.258833     -1.179514     -0.031092
  C      -1.103902     -1.288898      0.196846
  C      -1.873603     -0.141617      0.313219
  C      -1.285825      1.113812      0.202754
  C       0.073157      1.222696     -0.024276
  H       2.829131     -0.806128     -0.464564
  H       0.870891     -2.070912     -0.123264
  H      -1.565322     -2.264805      0.283146
  H      -2.939285     -0.224159      0.490742
  H      -1.893207      2.005911      0.293931
  H       0.554550      2.189007     -0.113673
14
Coordinates from ORCA-job benzaldehyde_es_opt_S2 E -345.410159317805
  O       2.922936      1.226681     -0.498399
  C       2.321257      0.176635     -0.394195
  C       0.883379      0.067894     -0.142885
  C       0.268330     -1.194664     -0.029024
  C      -1.122741     -1.299314      0.199938
  C      -1.906259     -0.143398      0.319837
  C      -1.297599      1.118014      0.208121
  C       0.091116      1.226061     -0.024968
  H       2.850285     -0.796530     -0.466164
  H       0.872656     -2.089718     -0.122957
  H      -1.584924     -2.274571      0.282761
  H      -2.971290     -0.221511      0.492859
  H      -1.899580      2.013427      0.295030
  H       0.572433      2.190995     -0.119956
14
Coordinates from ORCA-job benzaldehyde_es_opt_S2 E -345.410583325912
  O       2.910770      1.242048     -0.523947
  C       2.328090      0.179323     -0.376301
  C       0.903107      0.061939     -0.129721
  C       0.271561     -1.199315     -0.019455
  C      -1.129917     -1.298672      0.199460
  C      -1.920359     -0.143240      0.318713
  C      -1.299225      1.115368      0.209273
  C       0.100235      1.221051     -0.016772
  H       2.858670     -0.787256     -0.488502
  H       0.868083     -2.099231     -0.110746
  H      -1.590558     -2.274867      0.276404
  H      -2.985778     -0.218410      0.482725
  H      -1.894842      2.015182      0.290985
  H       0.580159      2.186079     -0.112116
14
Coordinates from ORCA-job benzaldehyde_es_opt_S2 E -345.410069555026
  O       2.908772      1.259989     -0.475198
  C       2.325360      0.181185     -0.416484
  C       0.918675      0.053715     -0.151083
  C       0.269730     -1.202788     -0.031575
  C      -1.136814     -1.295182      0.201329
  C      -1.932823     -0.142530      0.332436
  C      -1.299802      1.110431      0.211184
  C       0.104758      1.212339     -0.032153
  H       2.881555     -0.774425     -0.451589
  H       0.853866     -2.109728     -0.129256
  H      -1.592564     -2.273400      0.280695
  H      -2.995726     -0.214321      0.505716
  H      -1.884947      2.016707      0.295627
  H       0.579958      2.178009     -0.139648
14
Coordinates from ORCA-job benzaldehyde_es_opt_S2 E -345.410824816895
  O       2.910716      1.250311     -0.501704
  C       2.327897      0.180039     -0.392572
  C       0.907717      0.057195     -0.139497
  C       0.268166     -1.198989     -0.025915
  C      -1.132550     -1.294732      0.200034
  C      -1.924724     -0.142644      0.325419
  C      -1.298691      1.111456      0.209886
  C       0.099557      1.214480     -0.024717
  H       2.874247     -0.780304     -0.470601
  H       0.857294     -2.103737     -0.120275
  H      -1.589342     -2.272993      0.277757
  H      -2.989148     -0.216474      0.494838
  H      -1.887572      2.015807      0.293370
  H       0.576431      2.180585     -0.126023
14
Coordinates from ORCA-job benzaldehyde_es_opt_S2 E -345.410843243924
  O       2.908071      1.252211     -0.502783
  C       2.328680      0.180323     -0.390312
  C       0.908690      0.055614     -0.138932
  C       0.267176     -1.198587     -0.026086
  C      -1.132893     -1.293339      0.199959
  C      -1.925527     -0.142371      0.325937
  C      -1.298017      1.110307      0.210040
  C       0.099214      1.212137     -0.025138
  H       2.877994     -0.777874     -0.470145
  H       0.853653     -2.105137     -0.120942
  H      -1.588102     -2.272520      0.276812
  H      -2.989902     -0.215926      0.495535
  H      -1.884250      2.016467      0.293508
  H       0.575210      2.178698     -0.127451
14
Coordinates from ORCA-job benzaldehyde_es_opt_S2 E -345.410858525382
  O       2.905213      1.255623     -0.500433
  C       2.330072      0.181036     -0.388188
  C       0.910276      0.053083     -0.139379
  C       0.265595     -1.198316     -0.027719
  C      -1.133784     -1.291479      0.200005
  C      -1.927182     -0.141967      0.327622
  C      -1.297297      1.108727      0.210221
  C       0.098632      1.208616     -0.027331
  H       2.884661     -0.773903     -0.467099
  H       0.847376     -2.107836     -0.124492
  H      -1.586262     -2.272114      0.276302
  H      -2.991246     -0.215091      0.498822
  H      -1.879037      2.017823      0.294297
  H       0.572981      2.175799     -0.132628
14
Coordinates from ORCA-job benzaldehyde_es_opt_S2 E -345.410853405863
  O       2.904979      1.256270     -0.499219
  C       2.330430      0.181311     -0.387307
  C       0.910467      0.052665     -0.139557
  C       0.265345     -1.198453     -0.028788
  C      -1.134023     -1.291354      0.199946
  C      -1.927452     -0.141897      0.328214
  C      -1.297262      1.108632      0.210285
  C       0.098496      1.208147     -0.028448
  H       2.886012     -0.773158     -0.464781
  H       0.845908     -2.108584     -0.127107
  H      -1.585900     -2.272240      0.276662
  H      -2.991332     -0.214995      0.500489
  H      -1.878048      2.018279      0.295027
  H       0.572379      2.175376     -0.135415
