14
Coordinates from ORCA-job benzaldehyde_es_opt_S2 E -345.410853405863
  O           2.90497914961245      1.25626981638000     -0.49921891666689
  C           2.33042959062139      0.18131100552219     -0.38730655006484
  C           0.91046688946553      0.05266541339176     -0.13955652688666
  C           0.26534458354896     -1.19845328462528     -0.02878828083707
  C          -1.13402313083548     -1.29135365470798      0.19994556945878
  C          -1.92745248100490     -0.14189708448054      0.32821359140871
  C          -1.29726199950007      1.10863242000468      0.21028490474987
  C           0.09849611341590      1.20814707040784     -0.02844805698747
  H           2.88601246030085     -0.77315754629434     -0.46478120534811
  H           0.84590814941381     -2.10858397577680     -0.12710729289127
  H          -1.58590040270952     -2.27224026426979      0.27666213402235
  H          -2.99133244205422     -0.21499455099529      0.50048920709651
  H          -1.87804779118558      2.01827924921527      0.29502683454710
  H           0.57237931091087      2.17537638622828     -0.13541541160099
