10
Coordinates from ORCA-job job.QMRegion
  C          -1.75897614616900     -0.41667663053166      0.26418284291292
  H          -2.65162444987289     -1.28134311369759     -1.27584009000097
  H          -1.53363904417378     -1.34354690187178      0.81232773365619
  O          -1.88205928608966     -0.71058121026543     -1.14924664617691
  H          -0.89789715941740      0.25594848535589      0.34011512444067
  O          -1.47657726721182      1.68982905536855     -2.53297632321586
  O          -0.36128808398163      2.03882947403143     -1.65481761904361
  H          -1.68521664585974      0.78282550935400     -2.19713111076471
  H           0.39620438808587      1.91867879929364     -2.25739690110420
  H          -2.65182624777911      0.06824045784993      0.67794330609700
