136
Coordinates from ORCA-job job E -257.691960882080
  C          -0.38483376226218      4.20268584866703      5.47914408404409
  C           0.89339653470624      1.30111412014569      9.66567574189610
  C          -0.71221283186303     -3.64451735276889      9.59254339652676
  C          -1.61651889216899     -5.50904419712666      4.75695970399352
  C          -0.90924608490146     -2.87003880346858      0.25452095084411
  C          -1.15237441386147      2.35631891915391      0.63122850624157
  O          -0.18809396629654      2.90927637469996      6.00453505659807
  O          -0.16537935749775      0.40225128891046      9.53507743707263
  O          -1.18218799489528     -3.45999228405497      8.28250208224557
  O          -1.34806571862555     -4.30750246856058      4.07970987801292
  O          -1.53507330032179     -1.71272440140824      0.71641700221658
  O          -1.32104522557070      2.28450792044546      2.02207021351790
  C          -1.85541329033775      4.33725187489605      5.05331065095097
  C           0.28220171112170      2.71312947134274      9.73968146186113
  C          -1.63800617454206     -2.85091216871637     10.52998062016191
  C          -2.90523712142042     -5.33257080671948      5.57775777838726
  C          -1.92957883594582     -4.01962298021689      0.37706556590330
  C          -2.43341703801702      1.80219828124672     -0.01555956713762
  O          -2.74744362380915      4.10659712862662      6.11051516417350
  O          -0.60424226546651      2.85039926821470     10.81274216436231
  O          -2.96561086437609     -3.29269399130315     10.45238602165497
  O          -3.99535453366311     -4.93569138153523      4.78818120108807
  O          -3.08152844890654     -3.77644015354887     -0.37818228820284
  O          -3.56053609661738      2.54539759308291      0.35889671816470
  C          -2.11647081809974      3.29867618719558      3.96021606210526
  C          -0.42779130399825      3.01922862341896      8.41001758352694
  C          -1.52796927050282     -1.36553145494825     10.16022063833282
  C          -2.65498014562462     -4.26016121438645      6.64355975945524
  C          -2.27809167609531     -4.21813958773916      1.86158050494905
  C          -2.57083071015576      0.33226644391289      0.39781174527666
  O          -3.39966300936368      3.41961202773799      3.39772663145154
  O          -0.93662696643203      4.33451874003875      8.40597253516104
  O          -2.22486315282135     -0.55423519894979     11.07159032576622
  O          -3.73345097569674     -4.13824013154783      7.53677018459794
  O          -3.11670821274343     -5.33648876409222      2.04624913870870
  O          -3.63646158280995     -0.30110862642398     -0.26409041386130
  C          -1.11034945722654      3.44331975624296      2.81162234110849
  C           0.53112186689224      2.82609119103211      7.21955300873150
  C          -0.07040300478017     -0.88521796077139     10.13268877357658
  C          -1.40944618956828     -4.59780413844311      7.46972199882898
  C          -1.00718313702313     -4.40422268436190      2.70811854401660
  C          -1.29736850701599     -0.46542564016689      0.07873628657667
  C           0.34223277565445      3.53587701554270      3.31473494287992
  C           1.13036565528173      1.41415021086580      7.33388424859974
  C           0.84029458530025     -1.85301479362583      9.35097004430295
  C          -0.20858497595605     -4.90089573942043      6.55864336276701
  C          -0.03193231510418     -3.26645832800501      2.38793663741272
  C          -0.02856108742296      0.25074135078516      0.58552276320675
  O           0.45696769465448      4.46291837728511      4.39328569396467
  O           1.78391876372491      1.23481619065081      8.57099192825116
  O           0.60933604123284     -3.20894548075336      9.73365659295287
  O          -0.55485705655077     -5.88337057866013      5.58697029831721
  O           0.24589883905838     -3.17671579700989      1.00461357360240
  O          -0.03002944428707      1.63270081129193      0.21688349933296
  C           1.34270357732125      4.02391002755322      2.24566856482412
  C           2.08851806184111      1.02211283986133      6.21977321172146
  C           2.33679803509559     -1.62480994486417      9.62833699318485
  C           0.98218906832456     -5.47315813725735      7.33750133505831
  C           1.29631889401156     -3.35967123490939      3.13092224211089
  C           1.25807540929779     -0.33022464428606     -0.03448103586726
  O           2.09476432566479      3.00135771073041      1.65973653398514
  O           2.93384655033171      0.09014314265088      6.62655167583853
  O           2.62307649561232     -1.57899891640693     11.00111607561202
  O           0.65207285808632     -6.65381798327022      8.02073833247390
  O           2.11163813739112     -2.41025902052559      2.70573159456180
  O           2.39204946656018      0.43036802252786      0.26026928386196
  H          -0.13507783172406      4.96804251626083      6.22322991117799
  H           1.50333076000238      1.08725391394283     10.55175657799472
  H          -0.70054963818473     -4.70712844202383      9.86619135801308
  H          -1.73369922172680     -6.33860821250518      4.04823622301208
  H          -0.56592778859604     -2.76471647031847     -0.78157793473182
  H          -0.98173476017875      3.38750980945828      0.29815215216615
  H          -2.00106217510350      5.34852395674325      4.64078167058579
  H           1.08550615375525      3.44004958801004      9.89909766813927
  H          -1.32094573947560     -2.99589433147270     11.56763601101079
  H          -3.12881043000396     -6.28894843162450      6.07691180021554
  H          -1.48158506280723     -4.93751641319509     -0.01771356348657
  H          -2.35727543404570      1.87491407084324     -1.10512916248784
  H          -2.34091685163114      4.39830823950074      6.94565009487235
  H          -1.17718541495467      2.06669747055016     10.85699100778982
  H          -3.21227008824262     -3.43531861560798      9.52017003809271
  H          -3.85870807421616     -5.22247400282414      3.86609032075966
  H          -3.37089833984516     -2.85762214611913     -0.24318885263676
  H          -3.54571097522059      2.70376324537792      1.32072701213934
  H          -1.98621952146215      2.30158342954812      4.40617518808693
  H          -1.25644675489016      2.30509140577492      8.28388682177103
  H          -1.93696318002666     -1.23486150639946      9.14547194572042
  H          -2.47441731822525     -3.30407297033069      6.12938313826179
  H          -2.78486876385094     -3.31091634872017      2.22515173909480
  H          -2.72383197496290      0.29320893594816      1.48784365877026
  H          -4.04457233254644      3.46571782300227      4.12056888344639
  H          -1.23069389325338      4.53697084095343      9.31144485433501
  H          -3.08510584145486     -0.96743753079365     11.24859777307419
  H          -4.55038461035352     -4.07297740244935      7.01774380275549
  H          -3.75346271931496     -5.35490968129459      1.31117937350129
  H          -4.40583687326120      0.29006503106948     -0.24080953862310
  H          -1.37122256817949      4.34527521192295      2.24064020635478
  H           1.33069232444895      3.57719538921766      7.24670648405218
  H           0.30123543085956     -0.78812521227787     11.16179198414740
  H          -1.62094469633782     -5.47476164038595      8.09589226387333
  H          -0.54074636262806     -5.37284247670799      2.49225973154750
  H          -1.23416815048846     -0.60886570249573     -1.00840768602590
  H           0.64579028274136      2.54165318122696      3.66985514052417
  H           0.29357363460409      0.69915526978073      7.24440729618326
  H           0.64084308856556     -1.73854472428464      8.27616860972170
  H           0.09654361667100     -3.97477961874363      6.05393479474284
  H          -0.49766118087651     -2.32994199151151      2.73642522759961
  H           0.00236780571452      0.17409877223468      1.68236166963922
  H           2.05461060322302      4.67189604728700      2.76276164959908
  H           0.82207852310672      4.61841304020504      1.48557779680747
  H           2.88563190235356     -2.43828917671318      9.14093709855610
  H           2.65633714068965     -0.67431381429587      9.20191350174642
  H           1.30128345620657     -4.75299748848549      8.09267043527038
  H           1.79652527981466     -5.64178897415844      6.62432649099056
  H           1.37637808732595     -1.36781556938195      0.29178939166516
  H           1.15771681046137     -0.29245612032609     -1.12295507019481
  H           1.53824772937305      2.44743160114305      1.07866527244082
  H           2.46639773472789     -2.45645199737911     11.37951805531133
  H           0.42109739202053     -7.32897127589250      7.36578504510801
  H           2.66117177570528      0.33027190453112      1.19874672198448
  C           3.21683147483704     -2.08219953202783      3.54411528697900
  H           3.83974452309554     -1.39187658490184      2.97135309342173
  H           3.77144405812145     -2.97840412982230      3.83811064222192
  O           1.56640788849877     -4.16512045813701      3.98704473434480
  C           3.65014625827008     -0.59707359258367      5.59981702257111
  H           4.36399022643100     -1.24346619287156      6.10959617484189
  H           4.16856483156594      0.10490802309975      4.93585759843279
  O           2.05593266664417      1.46228531225747      5.09618936204136
  C           2.66119858747244     -1.38918870668253      4.77176234717914
  O           1.48125971779026     -1.41866835642944      5.03901471793385
  H           3.88809773691214      2.83500784600988      0.84193881562946
  H           3.18132450182192      1.39106543515322      3.08489842041332
  H           4.31152025188977      1.69087271836666     -0.08567514951488
  O           4.64567544638870      2.28179454940230      0.60044738762338
  H           4.30967365669198      1.25285890024878      2.04269652746955
  O           3.76914770274724      0.74131259460066      2.68283434810306
