136
 xtb: 6.7.1 (edcfbbe)
C           -0.46593679134109        4.13037842625608        5.46197247834629
C            0.91925707661173        1.29224016012173        9.65526547101766
C           -0.64159686899427       -3.68394859712857        9.64166166957641
C           -1.62659577625796       -5.39153755208368        4.77234424765676
C           -0.93145634632714       -2.82385930046139        0.23927930924426
C           -1.09818949411620        2.36875309243527        0.54964827865898
O           -0.26920939061384        2.85164219824826        6.02032493309726
O           -0.09478686162033        0.34528897829782        9.51415047099865
O           -1.20351408853591       -3.48061806227261        8.37330742505973
O           -1.36924567059636       -4.16489305121653        4.13271076961972
O           -1.62827468159916       -1.66633714772976        0.58172282100516
O           -1.29157994287159        2.24454709900425        1.93478567974727
C           -1.92449582006963        4.23928273594857        4.99134410563964
C            0.22758651128456        2.66604637126893        9.74461950821808
C           -1.50021087173867       -2.89122668293562       10.64213268413909
C           -2.91228420484556       -5.25556205042985        5.60441525508002
C           -1.90210061783035       -4.00713774757511        0.41253817944587
C           -2.37831271190766        1.88236249992056       -0.15022008985387
O           -2.84479106445898        3.99184514375027        6.02128984171584
O           -0.65480311491915        2.74062297921384       10.82734215537629
O           -2.83093922117945       -3.33149773770814       10.64776804171920
O           -4.00795540146667       -4.83483426999498        4.83564256987598
O           -3.04790519474738       -3.86521055712570       -0.37613877073992
O           -3.49060438185171        2.65570856565626        0.20790439928680
C           -2.13895922109262        3.20674998266674        3.88169524738318
C           -0.51033570290671        2.92385614781363        8.42106563008688
C           -1.41249924485921       -1.40727735708126       10.26234084320770
C           -2.66408234013291       -4.22781337798150        6.71227984928684
C           -2.26988869982000       -4.13396441452544        1.89884987743115
C           -2.58451776890619        0.40758299548422        0.21537116697661
O           -3.40723849563752        3.32052750735518        3.28443420199114
O           -1.11099320745158        4.19942649736492        8.41230681195696
O           -2.04010072870342       -0.58724884824649       11.21596651452607
O           -3.74301205955890       -4.14529009624308        7.60928464576518
O           -3.08037019240781       -5.26640967432550        2.12212070675702
O           -3.65280695768047       -0.16057408707720       -0.49842000489290
C           -1.09968545521781        3.37560097611969        2.76618208133451
C            0.45881326326667        2.80563840541100        7.23365324549862
C            0.03960937380645       -0.92948692880855       10.12850847115967
C           -1.41725532632870       -4.59481631863143        7.52457660015618
C           -1.00300062383242       -4.23748813571999        2.76696397582156
C           -1.33686058320673       -0.43901829247558       -0.07907579465079
C            0.33121184961907        3.44065510529005        3.33058993553308
C            1.17483005625329        1.44953767409977        7.32180134060707
C            0.89839282704387       -1.90254428193561        9.29811021149528
C           -0.21550010795410       -4.86420396776393        6.60443732808248
C           -0.08390520732563       -3.05475023805648        2.42540356820503
C           -0.04434592098655        0.22803847935856        0.43137057066231
O            0.40700416572086        4.38101882837771        4.39995515768121
O            1.81976289035109        1.28074619564753        8.56770289776649
O            0.69009727563647       -3.25532617850709        9.70125737889946
O           -0.56163024796519       -5.79657949683581        5.58228689282996
O            0.21178505730612       -3.02000744306403        1.04411734247671
O            0.00586979371961        1.62534665544324        0.12834557498053
C            1.39890414936375        3.90232420709319        2.31423689463280
C            2.21117481474468        1.25445405174475        6.22195104568056
C            2.40612136029415       -1.66317457628965        9.48112406456057
C            0.96821606144140       -5.48965407188850        7.35292127889737
C            1.23499594593216       -3.05179284997850        3.19397297031131
C            1.22290834700594       -0.35078970437226       -0.21928920337596
O            2.15364800717638        2.87016073445066        1.75444653515533
O            2.97119696750547        0.20258548511272        6.45053375673366
O            2.78161251295983       -1.66475434390088       10.83302775376672
O            0.62072158060588       -6.69329792703908        7.98733577067197
O            2.14349134476521       -2.31740371155916        2.57980660420003
O            2.37651835530291        0.23782060390106        0.29958382117101
H           -0.25134423028775        4.91399060864928        6.19890774487327
H            1.53698323745153        1.10123695075299       10.54201765386510
H           -0.61698715773974       -4.74901619382338        9.90305965077300
H           -1.74449702654877       -6.19549557586044        4.03424785859599
H           -0.55820225500957       -2.78203306380261       -0.79234501472469
H           -0.88877423428789        3.40723968034989        0.26301942295957
H           -2.07698075747947        5.25062774343441        4.58052510924264
H            0.98339922819853        3.44318674782197        9.90034421924539
H           -1.11464094965956       -3.03814833830203       11.65592140081218
H           -3.12582545038264       -6.23274854649096        6.06582167141013
H           -1.40632455887342       -4.92530695430751        0.08267672488639
H           -2.26539729104824        1.98389259684808       -1.23440323900576
H           -2.44825272502650        4.23062420426901        6.87691162608886
H           -1.16967858823210        1.91700183264980       10.88097559858793
H           -3.13243447571005       -3.45926764192463        9.73144132637148
H           -3.88151460713309       -5.11183073511032        3.90910008935008
H           -3.37752723085484       -2.95205949005667       -0.30309465903404
H           -3.51623200536808        2.76963544794553        1.17622663014680
H           -2.00998588318150        2.20629866176430        4.32061389212375
H           -1.28413844574055        2.15089227355344        8.29606744778535
H           -1.88912861885086       -1.27922309931527        9.27765611704448
H           -2.48410608506166       -3.25098184946941        6.23687253482103
H           -2.80966477605853       -3.22520226242630        2.20881126615690
H           -2.77418198438245        0.34757812722047        1.29888847380873
H           -4.07229143369044        3.35082912774327        3.98992312695031
H           -1.43022930865963        4.37926674586656        9.31490217351268
H           -2.88652453605333       -0.99404859525999       11.45467049438412
H           -4.55776854704483       -4.05801537929833        7.09211726114565
H           -3.68838748029072       -5.34690870506788        1.36548954648156
H           -4.40280730799426        0.45617942371399       -0.46990614319134
H           -1.33140892861869        4.29869116844644        2.21521505783687
H            1.19831626602257        3.61699752425022        7.26458755144674
H            0.48208860823674       -0.81708006765767       11.12753087687238
H           -1.62626689196398       -5.49054401304930        8.12360576852662
H           -0.47846672895475       -5.17911712921718        2.56070718506194
H           -1.27327765552248       -0.60874082671407       -1.16351950083010
H            0.58601702890952        2.44465092606296        3.71270415869830
H            0.42442095348976        0.65937207898317        7.17238294219120
H            0.63409751279193       -1.79014207288934        8.23609329823307
H            0.10137342342813       -3.91867709429748        6.14402118248083
H           -0.60080391946700       -2.13052479567229        2.72913712682268
H           -0.00223176761093        0.09870420762288        1.52099226351552
H            2.09528597760367        4.52812712194100        2.87721293134711
H            0.92975818822533        4.52102064908863        1.53722441346410
H            2.93586204028859       -2.44433970920816        8.92286297295283
H            2.68215212333015       -0.68950255104829        9.07107786188801
H            1.30912200800707       -4.80785866239496        8.13263675626950
H            1.77638922982709       -5.64093669491245        6.62617628651596
H            1.24903054528255       -1.43249086902387       -0.07774408193145
H            1.20632524151337       -0.11230203514779       -1.28910838875970
H            1.63103813230066        2.36395421516033        1.10916985334505
H            2.64085818817217       -2.55354128809226       11.18795536177970
H            0.37274392325527       -7.33299305363447        7.30377529785952
H            2.36560772546175        0.11197508434999        1.25701469623035
C            3.25050817319211       -1.90551790779418        3.37886538411217
H            4.03294530093901       -1.58501534252530        2.70317435834786
H            3.57387242492374       -2.72477757778910        4.01909906116299
O            1.42513883657208       -3.65680182817012        4.22324911173712
C            3.73833474643778       -0.27425799218988        5.34290438479667
H            4.32013257245453       -1.09760154823769        5.72816282874018
H            4.38793187480323        0.51281803064871        4.94282014186139
O            2.32875231172740        1.99079928912376        5.27126195602278
C            2.72023503052833       -0.76729673578267        4.28090676105827
O            1.51715591357372       -0.72713491760874        4.54709056756258
H            4.36008583297711        2.25855748877805        1.54603685852140
H            2.63386869963350        1.40148418326480        3.45194843961259
H            4.43832490914977        0.93615861317432        0.76666987698904
O            4.67856952443677        1.38544901870192        1.56070108476904
H            3.64182104461949        0.71948289269469        2.51224582981036
O            2.93249546314505        0.58797343442126        3.02048439220279
