17
Coordinates from ORCA-job job
  H          -4.08793682343212     -0.15362472208662     -1.67854850074674
  C          -3.55612907061978      0.38907504583092     -0.91185370854387
  C          -3.80628663336564      0.13417795783000      0.42662220077253
  C          -3.11422784672012      0.83271609606058      1.39970174644671
  C          -2.17301683298033      1.78397063254982      1.04134441330130
  C          -1.92485828966396      2.04486973868698     -0.29615029884869
  C          -2.61942847130723      1.34045669283362     -1.27152269981110
  H          -4.53511761129150     -0.60986664091642      0.70858752355989
  H          -3.29746125907473      0.63673638341818      2.44505590888800
  H          -1.63640893233856      2.33544599193553      1.79908852325332
  C          -0.84393233552153      3.01094495174873     -0.74209995446546
  H          -2.40092661917704      1.53809491146594     -2.31199148896160
  O           0.20548491643866      2.29385808705559     -1.39270950156611
  H          -1.21899944139592      3.69582005758833     -1.52049702687938
  O          -0.30785957126710      3.80764156885922      0.30193126724928
  H           0.38231745823393      3.20352182389392      0.65864142180215
  O           0.87086229898299      1.51337300224566     -0.31993665945022
