7
Coordinates from ORCA-job job.QMRegion
  C          -0.84393233552153      3.01094495174873     -0.74209995446546
  O           0.20548491643866      2.29385808705559     -1.39270950156611
  H          -1.21899944139592      3.69582005758833     -1.52049702687938
  O          -0.30785957126710      3.80764156885922      0.30193126724928
  H           0.38231745823393      3.20352182389392      0.65864142180215
  O           0.87086229898299      1.51337300224566     -0.31993665945022
  H          -1.63712932593857      2.30202687222585     -0.41485651715400
