133
Coordinates from ORCA-job job
  C          -0.53529144377125      4.62661609986898      0.89861846505418
  C           4.54556885490487      3.30233058008396      0.44378734734647
  C           5.07925979098117     -1.85653662746162      0.19231390958062
  C           0.69696938550044     -4.74863401982233     -0.34331786527102
  C          -4.24900419399427     -3.21637124830170     -1.32509761735341
  C          -4.85896219434245      1.81596374777417     -0.22083501584086
  O           0.44789159729916      3.66570383856749      0.60102850714607
  O           4.38177398650942      2.05935360557034      1.05117054872466
  O           3.67399026132784     -1.95006546801782      0.25619978705752
  O          -0.23846113405855     -3.71438144241842     -0.52922116702521
  O          -4.23760424108834     -2.20188543382867     -0.37046557165269
  O          -3.48937287086491      1.84794181151963      0.11380461775766
  C          -1.33304451263471      4.13952731629789      2.12105975283851
  C           4.05075980555113      4.36717699479433      1.44342207169898
  C           5.63420907543725     -1.38975554879711      1.55065420614590
  C           1.24504825643461     -4.65656923401192      1.09151090753983
  C          -3.91481906855809     -4.53302193683163     -0.59518206632245
  C          -5.63911901256825      1.00747624357938      0.83227408650873
  O          -0.50870010451245      3.87021157957667      3.22379946846229
  O           4.76722453696186      4.33653088516250      2.64378115011204
  O           5.38561053656702     -2.29885505739249      2.58592559990526
  O           0.22705676234734     -4.68817184267401      2.05616012770754
  O          -4.84002335802004     -4.82608875653444      0.41144232596929
  O          -5.60614070657548      1.58727116006138      2.10609555644405
  C          -2.06732676873435      2.84907917583088      1.73775975844785
  C           2.54752902414283      4.16004440616382      1.70364488725796
  C           5.03062191650766     -0.01447015288589      1.86164341525664
  C           2.00852623707856     -3.33473874042937      1.23643504362679
  C          -2.49136084842294     -4.44521828262592     -0.01465216654840
  C          -5.06870967817587     -0.41599850004471      0.85336813101224
  O          -2.90499948759792      2.39857079072766      2.77367714057490
  O           2.02991447620785      5.17433362479154      2.53491515323029
  O           5.58737401229116      0.54084553955399      3.02610688047160
  O           2.63448984732783     -3.22907574829640      2.49133772811466
  O          -2.10577070220434     -5.66564002785179      0.57644150449313
  O          -5.81088138301565     -1.25613391455899      1.70064053978067
  C          -2.92711859525581      3.09313198104392      0.49353766012535
  C           1.76522812946138      4.13742055949652      0.38031946426108
  C           5.25551362196801      0.98400153622505      0.71684213914215
  C           3.08645149240546     -3.23641088955769      0.15229553521234
  C          -1.48127605777927     -4.06743028359294     -1.11034054099045
  C          -5.06225245150204     -1.05220459877975     -0.54439716766930
  C          -2.06546344345857      3.67988722563188     -0.63947523524615
  C           2.43540687766966      3.12778858418597     -0.55436028313913
  C           4.94797482167208      0.36765231718250     -0.66414230836327
  C           2.46287695923816     -3.44964762452273     -1.23901063186143
  C          -1.99761536128382     -2.81506416753142     -1.82191842848600
  C          -4.52928456221990     -0.08695955261281     -1.62433367943679
  O          -1.38543404553123      4.85024927295924     -0.18903598663420
  O           3.80519620993822      3.41080478523304     -0.75811113881204
  O           5.46349162316478     -0.95534947533587     -0.80272090980341
  O           1.73716448966670     -4.67725193584373     -1.27502769614888
  O          -3.29663539839265     -2.99550016002021     -2.34936089494396
  O          -5.03980717169718      1.23734922950083     -1.47850967210960
  C          -2.92211308227517      4.10004743018015     -1.83993036552365
  C           1.76449396141550      3.05894264847524     -1.92485809069574
  C           5.59847079325974      1.14728767306746     -1.82200243024167
  C           3.53620506879576     -3.54046206402962     -2.33054491783731
  C          -1.09068268245395     -2.37225712459299     -2.96865432326171
  C          -4.95002973250772     -0.49676786361042     -3.04805041185922
  O          -3.90173865100838      5.04403360872496     -1.49139904955469
  O           2.13614234379310      1.93486876018395     -2.52535605111610
  O           6.96861849988985      1.36306896785505     -1.61189426372029
  O           4.45244062432396     -4.57739639118279     -2.09091456546300
  O          -1.34790054378767     -1.09977818488423     -3.24344574518978
  O          -6.33046022600775     -0.72519497901100     -3.14947432833551
  H          -0.07596960162861      5.59979652535383      1.11088567346694
  H           5.58921638921809      3.48447363006213      0.15838273656789
  H           5.52580427730395     -2.81632227195241     -0.09584604715235
  H           0.23042423681841     -5.72778522449937     -0.50657943230455
  H          -5.21609552854046     -3.28512292124778     -1.83863212859700
  H          -5.26745784696395      2.83058928979616     -0.30596445247494
  H          -2.07560932197885      4.91161581943436      2.37936009224596
  H           4.20952999527330      5.35900148135760      1.00702606954731
  H           6.72344698129478     -1.30310266430566      1.47521264097742
  H           1.94441433810569     -5.49378431275371      1.24730440973912
  H          -3.96173657142078     -5.35601864033507     -1.31619069523763
  H          -6.69395391596054      0.97523324622565      0.53914171590896
  H           0.26123124301148      4.46612908413889      3.21124636555785
  H           4.86492939727616      3.41499550395078      2.93534950815680
  H           4.44276873330588     -2.55626256508028      2.58905406984045
  H          -0.51646035155373     -5.22694757546757      1.73179438386150
  H          -5.01935546494426     -4.02123732138386      0.92499158494772
  H          -4.68560271524330      1.80082521909711      2.35558301236746
  H          -1.31422441565496      2.08468686613636      1.49790675271030
  H           2.40897494604793      3.18096017306918      2.18795182446444
  H           3.94243551580558     -0.13865931407513      1.98461240428002
  H           1.29535865557021     -2.50948973777073      1.09598757637410
  H          -2.47273717440195     -3.64673317763462      0.74317066820304
  H          -4.02321067601368     -0.36015652109912      1.19772488288097
  H          -2.39244890563527      2.39641932502630      3.59756567920105
  H           2.71522688873651      5.40189859725688      3.18666343659644
  H           5.66240408603135     -0.16272151928080      3.69090327463129
  H           1.98370542258144     -3.45387480444294      3.17500564154694
  H          -2.88992960201319     -6.04775562650747      1.00704288436376
  H          -6.02373851402122     -0.76035416892044      2.50778906787215
  H          -3.72150070134164      3.80679442637171      0.74550867982208
  H           1.75070046612128      5.13258398712585     -0.07946802997580
  H           6.29675999212740      1.33310706927896      0.73803940094288
  H           3.84053163136676     -4.01336964168119      0.33046130728246
  H          -1.35760397152612     -4.88887880789569     -1.82584165841139
  H          -6.08228901795368     -1.36506581301058     -0.80582705219418
  H          -1.33298810726381      2.93013234330162     -0.96165073769243
  H           2.32907176784790      2.13576863109787     -0.09075065616394
  H           3.85826407092135      0.34460713171708     -0.79523168146202
  H           1.78752783526636     -2.61539580117705     -1.46344917439887
  H          -2.01154361964150     -2.00197945398044     -1.08150378539979
  H          -3.43421130666261     -0.05981901453413     -1.55433903179972
  H          -3.45260906630628      3.22639250951215     -2.22283524427053
  H          -2.25372888029867      4.49065752756285     -2.61476349774942
  H           5.42991800828224      0.57297340131506     -2.73959633612442
  H           5.13504198272767      2.12809421213355     -1.92333032515839
  H           4.11074232287380     -2.61263166358708     -2.34457545638235
  H           3.03167229160951     -3.67229303604438     -3.29371695181609
  H          -4.63598494382029      0.30473877831745     -3.72549919398290
  H          -4.45363519774772     -1.42299391929612     -3.33549427083197
  H          -3.45322969476224      5.85355429902287     -1.20670356477582
  H           7.42356634762800      0.50874048968341     -1.63885482953793
  H           3.97491619382116     -5.41864920907109     -2.13514641895113
  H          -6.79298359434221      0.11628571848803     -3.02522932593450
  C          -0.43796390201265     -0.36065069390804     -4.05603816870272
  H          -1.02595622938925      0.31229023528146     -4.68335730809734
  H           0.18276250180824     -1.03570743068543     -4.65225179200849
  O          -0.28369694571373     -3.05655735549224     -3.53454400089244
  C           1.38866878748799      1.46868234158233     -3.64725560597690
  H           2.08950519474100      1.00741744967410     -4.34567540563554
  H           0.83367155454492      2.29011550095333     -4.10922570817044
  O           1.02496590760347      3.88218268521867     -2.38924003761530
  C           0.42461600316549      0.42536173347167     -3.05040890538479
  O           1.17297367352514     -0.55817025733910     -2.34881388247537
  O          -0.42238498376931      1.16108643407416     -2.17752187001831
  H           1.92380702371882     -0.09923648617780     -1.94296384857702
  H          -1.20522013618219      0.61210214147087     -2.02062507407247
