18
Coordinates from ORCA-job job
  C          -2.04620845617895     -0.58316943319494      0.52275492258127
  O          -2.78758530727753     -0.34745347721155     -1.66523557208038
  H          -2.29889969018928     -1.63686932590933      0.35281848067386
  O          -3.19282917610028     -0.02329436213579      1.12257725977259
  O          -1.73269361513972      0.02790915316618     -0.72083811991149
  H          -2.23572780527868     -0.71464194092590     -2.38523961290927
  H          -2.97926295191360      0.87187217706301      1.42211824843287
  H          -1.53354734929821     -1.86986410967538      2.80247245933119
  C          -0.81164721543102     -0.43850048754214      1.39279540738548
  C           0.20290775348375      0.45130782887288      1.07264902560335
  C           1.29950111473661      0.57543939518787      1.90921856889748
  C           1.37949083144006     -0.17504462715566      3.06841648727357
  C           0.36063886034719     -1.05539872538066      3.39350266922073
  C          -0.73182961314399     -1.19078822078797      2.55658319555381
  H           0.13267948891439      1.03531468229480      0.16889946201268
  H           2.08988473747717      1.26348651105064      1.65355736761180
  H           2.23416895442160     -0.07410261293282      3.71885332726904
  H           0.41712690333053     -1.63935534588322      4.29789831398145
