8
Coordinates from ORCA-job job.QMRegion
  C          -2.04620845617895     -0.58316943319494      0.52275492258127
  O          -2.78758530727753     -0.34745347721155     -1.66523557208038
  H          -2.29889969018928     -1.63686932590933      0.35281848067386
  O          -3.19282917610028     -0.02329436213579      1.12257725977259
  O          -1.73269361513972      0.02790915316618     -0.72083811991149
  H          -2.23572780527868     -0.71464194092590     -2.38523961290927
  H          -2.97926295191360      0.87187217706301      1.42211824843287
  H          -1.15300770111783     -0.47850195520682      1.15222618112335
