147
Coordinates from ORCA-job job E -278.549487558710
  C           1.64870075949020      3.58991032566146     -0.06733528395916
  O           0.85832146246436      2.42916236991078     -0.22215634177214
  C           2.71075138471198      3.65213712129430     -1.17935334817981
  O           2.27783099024023      3.67494235215580      1.17776521456742
  C          -0.54715718009614      2.59897766749760     -0.09708090812825
  O           2.17346372091492      3.54232327949041     -2.47008115609669
  C           3.72482782598279      2.52050219533869     -0.98535640581720
  C           3.19256180039175      2.62016126410789      1.48280347886614
  C          -1.13084340472206      2.80873482950221     -1.50487972813019
  C          -1.21210756356538      1.35155609720778      0.50333794515334
  O           4.79447907474947      2.62752325144129     -1.88820972615240
  C           4.31063219161228      2.50710113923640      0.43220095291640
  C           3.72347084551755      2.95116263187044      2.88432904559645
  C          -2.66385705343426      2.86224514197743     -1.46072647341341
  O          -0.61220573780782      3.99311649801277     -2.06340683299358
  O          -2.61476005540726      1.49305826069129      0.52844582446881
  C          -0.78789504605988      1.07787013534250      1.98241949572594
  O           5.00335592043010      1.27100880948328      0.49924172248585
  O           4.46407671665624      4.14144353093129      2.90504165753497
  C          -3.19398224671563      1.60302133761929     -0.75380096902247
  O          -3.19432969478301      3.01790211983364     -2.74406585004522
  O           0.66129398970579      0.96447640477191      1.95309524628778
  O          -1.25063925133032      1.82363199246149      2.87187737267195
  C           6.05897854147840      1.09707366659225      1.40469961902812
  O          -2.92472315315700      0.51238641410301     -1.58185639748762
  C           1.06665151138541     -0.27758666218727      2.44245056848999
  C           7.13452209299893      0.27816733806142      0.66417808981504
  O           5.67933184279639      0.42983613902835      2.58167565956217
  C          -3.75796175576331     -0.64470306474262     -1.51287998966004
  C          -0.10071884144229     -1.19647571962379      2.06370944679408
  O           7.56763311318103      0.92487650432335     -0.49924703889111
  C           6.54227718420328     -1.10163143742037      0.33496505504616
  C           5.06918596566448     -0.84342587427998      2.37508193746453
  C          -3.45887447319172     -1.36008238714822     -2.84025844142136
  C          -3.47030457647394     -1.51422062246987     -0.27017277365575
  C          -0.03605202076084     -2.49518978175752      2.88526808866345
  O          -0.13695496115354     -1.51339995350539      0.64883519650538
  O          -1.20656171056127     -0.41817041545960      2.23082862523366
  O           7.49521577700985     -1.95685357304524     -0.24252396031968
  C           5.99188517389430     -1.79217183031394      1.58855331893171
  C           4.74075597416335     -1.38122652262641      3.77468136385338
  C          -3.91487636631091     -2.82427261357277     -2.84908820368771
  O          -4.08320465203747     -0.62779590201623     -3.86265957313746
  O          -3.84746400371016     -2.88097497807704     -0.44109289491626
  C          -4.27240561959023     -1.05576950821548      0.96235656318411
  O           1.28688119095564     -2.95446100976862      2.60335104055925
  O           5.30141503702307     -2.93323946653323      1.08875168266078
  O           5.89528551997786     -1.65415035189522      4.52125396361762
  C          -3.37033205304428     -3.52115023956468     -1.59177368599522
  O          -3.50147624886515     -3.46826181570257     -4.02145827176492
  O          -3.83097535922358     -1.66916820672186      2.14648925963968
  C           1.55040455215410     -4.20514672231264      2.24810514650176
  C           5.20133200257797     -4.08378710468862      1.87599211618708
  O          -1.96898478659995     -3.53446822105365     -1.65903902221857
  C           2.88710040434661     -4.20512792594830      1.49951653573126
  O           0.86102617461752     -5.16332197361125      2.46724324119163
  C           5.48762070185624     -5.29415533952486      0.96657605430082
  O           3.92165653994698     -4.23188187747749      2.46386301105621
  C          -1.29475631848113     -4.77726938233583     -1.53881339202970
  C           2.98523732060687     -5.35068937000928      0.48175108019334
  O           6.75840795043965     -5.21759390331289      0.38687879175019
  C           4.39931852157004     -5.38219878952259     -0.12054735481428
  C          -0.09983459559577     -4.70161131105394     -2.49814672111626
  C          -0.80248016611798     -5.05208319845737     -0.10768669371539
  O           2.06164276485177     -5.10966370912728     -0.57941963063447
  O           4.52474502247121     -6.55888236971358     -0.87368187907938
  C           0.74700307622114     -5.97674085892358     -2.37209707647359
  O          -0.59331562546471     -4.54034241870217     -3.80426676147899
  O           0.03993746805281     -6.19803008339943     -0.07793556210717
  C          -1.92153013431480     -5.36232819384233      0.90915768621857
  C           1.17193792930527     -6.14912502536499     -0.90288000930049
  O           1.82810705007667     -5.95949626063437     -3.25605745935007
  O          -2.37025981956332     -4.24910258262336      1.63421975434379
  C           1.80865157195197     -0.86405133183493     -0.61005319986471
  H           1.41902468711226      0.09939889488778     -0.24939337606860
  C           1.66037112681542     -0.94555564087108     -2.11181413818204
  C           2.74657601329978     -0.67731084889758     -2.93498466348543
  C           0.42629701538549     -1.24430903060248     -2.67102505565924
  C           2.59816559470141     -0.71919072921802     -4.31090609940756
  C           0.28519044221065     -1.29221609359808     -4.04713672300101
  C           1.36952490927167     -1.02865616132820     -4.86749458440666
  H           1.00920266299582      4.48142293139108     -0.11423871702435
  H           3.23111535147025      4.61868001883517     -1.07377860044156
  H          -0.77413554938400      3.44744084973668      0.56041078425031
  H           1.22804662812234      3.78145903439541     -2.45498936329420
  H           3.19316982848265      1.56887612737620     -1.13071066903959
  H           2.64879213099914      1.67221981376793      1.51269762983480
  H          -0.82024956563148      1.94389981493470     -2.11375878047943
  H          -0.93487996447888      0.48196804958745     -0.10558548298719
  H           4.43475866721443      2.87163132659269     -2.75613513099449
  H           5.01726459101110      3.34092543896981      0.55066443995919
  H           4.38942115478932      2.15655837783808      3.22219219727622
  H           2.85794983004796      3.00672624288659      3.55579815558892
  H          -2.96952102247318      3.73723968352599     -0.87658767970221
  H          -1.21022182849164      4.26574889541425     -2.78430060702063
  H           3.87306385339947      4.87228257921021      2.67087128895977
  H          -4.27321648463572      1.69486041099035     -0.56513204035869
  H          -3.21615190244958      2.15499700440589     -3.19098389615210
  H           6.45986101646801      2.06328740594041      1.73905165670966
  H           2.01612093012310     -0.56072782695047      1.99153732580342
  H           1.15539769279724     -0.26422914761606      3.53588858729553
  H           8.01350181935626      0.16178376457030      1.30585843697207
  H          -4.81178363411010     -0.33219067600700     -1.50759505378450
  H           6.79667837134618      1.28935684976241     -0.96623752053987
  H           5.69704595850974     -0.94575628656374     -0.35164891497604
  H           4.14466369456882     -0.71409389939360      1.80112804580421
  H          -2.36827378000407     -1.34207846930281     -2.97404039696492
  H          -2.39452464858951     -1.45890618218170     -0.04794393935765
  H          -0.14213746905772     -2.27133636548636      3.94693315355381
  H          -0.79504974249997     -3.21707140580759      2.56571369900535
  H           8.00540341876871     -1.44863012626579     -0.89467792014995
  H           6.82325014520070     -2.11219761258416      2.23008448216369
  H           4.10526546599112     -0.64420824714428      4.28131601367028
  H           4.18661009739630     -2.31748252280667      3.68760039312312
  H          -5.00901982929124     -2.86633233610388     -2.83178861961175
  H          -4.09604180724875     -1.17429300327150     -4.66668072295972
  H          -4.21488331999417      0.03067403913243      1.05852153486629
  H          -5.30862357189394     -1.37776647412188      0.83054575634004
  H           6.36597872785254     -0.82067373026543      4.67481689995587
  H          -3.76940545022404     -4.54259428545159     -1.53122483630160
  H          -2.55404299322721     -3.69324131664476     -3.96104102511541
  H          -2.97607520049799     -1.28224693067707      2.39138008553120
  H           5.89746820130818     -4.05651400627603      2.72308173162193
  H           2.92648816612780     -3.25470003443492      0.95113101735626
  H           5.46707314048939     -6.20637178634536      1.57146608405782
  H          -1.95682241367550     -5.59309562841404     -1.86178501864425
  H           2.75807539237015     -6.30291666168391      0.97254563385415
  H           6.92233585106787     -4.30987970317362      0.07498120598952
  H           4.49907477920342     -4.49875050735297     -0.77095116135174
  H           0.51194597244899     -3.83111059858092     -2.21521960655587
  H          -0.24614191324914     -4.16406252011353      0.22667114527107
  H           5.46505174346805     -6.69024422117278     -1.08340642204523
  H           0.13069272715923     -6.83963655041188     -2.65034977597705
  H           0.05400027281666     -4.92233198072929     -4.42116499825177
  H          -1.47796843195724     -6.04002438437380      1.64399490869886
  H          -2.75145629651559     -5.87134288065938      0.40841005148634
  H           1.66108589793087     -7.12234716552327     -0.76145231432737
  H           2.55482377548152     -5.45513326035843     -2.86270147836908
  H          -2.98467587032643     -3.71207495179394      1.10208052328342
  O           1.07038022501457     -1.92862328152494      0.05027909390137
  H           3.69903930182471     -0.42139315050870     -2.49604090144439
  H          -0.40809494989291     -1.44909902696463     -2.01383001846104
  H           3.44548610265036     -0.51201080571457     -4.94403162105411
  H          -0.67179789542537     -1.54193988733359     -4.47620278845042
  H           1.25261948407759     -1.06446746509383     -5.93853655231944
  H           3.52615845497184     -1.75322428782413     -0.58667607894226
  O           3.11659703780502     -0.97133338645327     -0.17774950449216
