14
Coordinates from ORCA-job job.QMRegion
  C          -2.02198232228632     -0.56193724704233     -0.08701318782017
  H          -1.66923076672711      0.78357290222431     -1.44308127711161
  H          -2.22854680481205     -1.36379963346937     -0.81651460323896
  O          -1.19726803929591      0.45326015680526     -0.66307098327848
  H          -1.43343263924532     -1.00076913904081      0.73155390894084
  C          -4.52505678839380      0.81066205224134     -2.78135717610901
  O          -4.59969091065672     -1.50175998581763     -2.99779152768740
  H          -5.08561736758689      1.68002546958131     -3.15152748087723
  O          -3.13415522453847      0.97962212100161     -2.90256982499466
  O          -5.03707882570667     -0.22590913993260     -3.58761753658266
  H          -4.72980413763445      0.62245287809589     -1.72205744075544
  H          -2.93201575265120      1.29075946648746     -3.79839305427004
  H          -5.43245208361500     -2.00378498434806     -3.09111886733130
  H          -2.96597927955787     -0.19530565002397      0.32024268584533
