16
-23.1136598292
C  -2.05507553410789212123 -0.68303602962635789897 0.43201321842039919208
H  -2.44575635282021730532 -0.38508932022265979223 -1.46041637416370950753
H  -2.25263356552432236768 -1.76337260901664194535 0.41841714601308088728
C  -3.37301552584077857233 1.41576557181657269879 0.83456277265059342074
O  -1.70467125599408042547 -0.22844960426022978273 -0.85900945077769541580
H  -1.16438140818558100165 -0.51040927999895724376 1.04618234071756832648
H  -6.21036223365048645206 1.94939291939011205557 2.58581067764796390662
H  -4.06436741120536382255 -1.68930826659944655077 1.96424838406550650305
H  -5.96174471968053243387 -0.47613800071191902941 2.95728385178698394142
H  -4.54591715628674641891 3.15910690659333370789 1.22190141307302746476
H  -2.63916813825948581851 1.93617047791369012444 0.23645532528018914364
C  -3.22892324728708368653 0.04895701599714090413 1.03662417187777911032
C  -4.16933741636057408897 -0.62613536339789654939 1.80325377776810080732
C  -5.23573138981884689258 0.05685395615545543041 2.36186848046617603458
C  -5.37573396365098510330 1.41874474162288843893 2.15319082664762273538
C  -4.44254268732225554572 2.09719888063257409172 1.38717344003236875416
