21
-34.3007780155
C  -2.49365224641597960087 -1.48033094211396165640 0.21828858590203051304
H  -3.42333908911986739554 -1.35047685718799237442 -1.50252756305990886609
H  -2.88951196748652971991 -2.46747011146824313244 0.48939580071109484161
C  -2.77575468789904133970 0.90639512907792696428 0.94487064374443330284
O  -2.50782144073574375653 -1.32415523794883371878 -1.19216725445055349297
H  -1.43846605766950008665 -1.44077127017545336685 0.50413054810239654735
H  -5.26451016419668693658 2.41886150841937830336 2.65618510196352985986
H  -4.86965691695417124407 -1.67857038360932553367 1.52807918163474831807
H  -6.14200021171037224832 0.11307604100122292667 2.63260509833759437370
H  -3.10448153783082858581 2.92097219265787177989 1.57258569622384425379
H  -1.82780149663919555536 1.12699363509464967059 0.47537203315423487426
C  -3.26491476021047333234 -0.39480259397471717531 0.92698595577739184570
C  -4.48283846558952880912 -0.66956314726228727263 1.53500040516497793242
C  -5.19878395649385005584 0.33838503094466193533 2.15805204142864104355
C  -4.70647460899962943870 1.63216820642596194268 2.17130204837219187297
C  -3.49435855461236188901 1.91424871630987314397 1.56280815763446767619
C  0.31329160104171704937 0.00159925005461154356 -1.78556581155930782501
O  0.99276446503180493242 -0.38686962123407347969 -0.65899699637438113875
H  -0.64114529368062445069 -0.48930041543269436888 -1.97001102821864870762
H  0.92375440776683903632 0.27013098012254399549 -2.64426465127453136361
O  0.35881217963771305790 0.86363257912358681878 -0.71959232526308536393
