21
7 Eopt=-34.3007780155 (Eh) Einter=-4.829253 (kcal/mol)
C  -2.49365224641597915678 -1.48033094211396165640 0.21828858590203070733
H  -3.42333908911986739554 -1.35047685718799259647 -1.50252756305990842201
H  -2.88951196748652971991 -2.46747011146824313244 0.48939580071109489712
C  -2.77575468789904178379 0.90639512907792696428 0.94487064374443341386
O  -2.50782144073574375653 -1.32415523794883394082 -1.19216725445055327093
H  -1.43846605766949986460 -1.44077127017545336685 0.50413054810239688042
H  -5.26451016419668693658 2.41886150841937830336 2.65618510196353030395
H  -4.86965691695417124407 -1.67857038360932508958 1.52807918163474854012
H  -6.14200021171037224832 0.11307604100122298219 2.63260509833759481779
H  -3.10448153783082858581 2.92097219265787177989 1.57258569622384447584
H  -1.82780149663919533332 1.12699363509464989264 0.47537203315423492977
C  -3.26491476021047333234 -0.39480259397471728633 0.92698595577739184570
C  -4.48283846558952880912 -0.66956314726228716161 1.53500040516497771037
C  -5.19878395649385005584 0.33838503094466199084 2.15805204142864148764
C  -4.70647460899963032688 1.63216820642596216473 2.17130204837219231706
C  -3.49435855461236188901 1.91424871630987292193 1.56280815763446767619
C  0.31329160104171682732 0.00159925005461175607 -1.78556581155930760296
O  0.99276446503180526548 -0.38686962123407342418 -0.65899699637438091671
H  -0.64114529368062411763 -0.48930041543269420234 -1.97001102821864892967
H  0.92375440776683959143 0.27013098012254388447 -2.64426465127453180770
O  0.35881217963771350199 0.86363257912358670776 -0.71959232526308536393
21
1 Eopt=-34.3007536910 (Eh) Einter=-4.813989 (kcal/mol)
C  -1.98336864017579572739 -0.05937073860982966522 0.97878285055351488264
H  -2.27421988317706791349 -0.20114425615505149292 -0.95370189826156770430
H  -1.81235575012032712472 -1.12947691603395350413 1.15348071577096811247
C  -3.78842482701060090378 1.64505789709306160518 1.34654124868366520396
O  -1.66837977841996165651 0.26892046967008698122 -0.36457490090084654355
H  -1.27379699845772753619 0.50715128423047517447 1.58985815792910600841
H  -7.02588250154813565018 1.28507471550906315905 2.23993135333986170821
H  -4.03063602383032826282 -1.70600582178816684298 1.68994208659368716496
H  -6.34113269557701997314 -1.08546343779365339621 2.26072377687803571789
H  -5.38332768324366561785 3.03151207192596139350 1.65365786168530837230
H  -3.06850668749659449830 2.41061541299194193044 1.09521104866261786981
C  -3.39692763531748909145 0.31098997203469647133 1.35346124301619274988
C  -4.32683367765038617847 -0.66681344024890276678 1.68050136651036075008
C  -5.62733090854408324333 -0.31768809611388804104 2.00260963175194239838
C  -6.01144579845977489185 1.01220859614432412421 1.99115153902544195219
C  -5.08983442334123292738 1.99254768044443175690 1.66135660012350250270
C  -0.00943933848864597635 2.95599679595629005746 -0.09770572044121195177
O  0.25230317142325997537 2.88819399523555109255 1.24711244350323258168
H  -0.37968043716008592625 2.04496526329338035310 -0.56542022647899470300
H  0.64229054255349282698 3.60216258479559048311 -0.68071076769931182504
O  -0.86689971195224480027 3.58572834429242703891 0.76769157557555800508
21
8 Eopt=-34.3003438022 (Eh) Einter=-4.556780 (kcal/mol)
C  -3.07748718839856572060 -0.67177256722280742629 0.07321755111723871057
H  -3.62901347952532926655 0.24718706171568088914 -1.55290786054149987372
H  -3.68768199213744196641 -1.56850777169606470096 -0.10395430633505120532
C  -3.57666561285400685932 1.58372273016153752856 1.07283563936129699989
O  -2.79229094484274664723 -0.02206196101818042044 -1.14691744130594863726
H  -2.10492954286964550903 -0.99351992331765215383 0.46216059904916539924
H  -5.51291338693132537685 2.44932053630018131685 3.70302027836641656222
H  -4.72844481710635466953 -1.42394805793383016912 2.08067160095155667676
H  -5.83891419706164871428 0.00352048424968692819 3.75235988032974177031
H  -4.05879675471143652743 3.45779645905599508637 1.97952803674446387028
H  -2.93907316023351450340 2.01612748218227899599 0.31584199199801732405
C  -3.75899365857894363074 0.20729411965293684239 1.09303779346874496703
C  -4.57703856729370706091 -0.35450615027731546824 2.06570240828159423785
C  -5.20275895715529834717 0.44932297995351433428 3.00250580043556603016
C  -5.02094237568525425530 1.82335966651650616122 2.97415101553102756426
C  -4.20597294712578317899 2.38866887063149935244 2.00712757063710567351
C  -6.92674609764035320580 0.92680977615293247407 -0.30611756531096512290
O  -6.59123300039812765050 -0.39666629300576583539 -0.39736272600712818637
H  -6.66253869246651220237 1.43079347945778589946 0.62066700147406916876
H  -7.84599651963777677821 1.22866445312553107527 -0.80183706852518032981
O  -5.88489059633440092512 0.57501794571795361577 -1.12211524096845205456
21
6 Eopt=-34.3000718968 (Eh) Einter=-4.386156 (kcal/mol)
C  -1.61569072428039950395 -0.49943583150941717186 0.73972429587080457125
H  -1.90661729546703817562 -0.54208146031209558657 -1.18487309396812423579
H  -1.57760405595444774818 -1.58920090013322612421 0.87732712356412378973
C  -3.50814015957092673048 1.15263722892330799930 0.56853161446056210693
O  -1.25260217518283933913 -0.16139715619885663944 -0.58133067773442759218
H  -0.84326884886589681400 -0.04936987568346962174 1.37336334240845436838
H  -6.44205364372607647283 1.32472718919891097045 2.23325669030234497114
H  -3.27999697693071823323 -1.52405535061325747570 2.61045839715656669000
H  -5.48939929449023988894 -0.68364252857580432021 3.30685366610383901786
H  -5.16497875789519333978 2.49733790388978160735 0.47562587312020909724
H  -2.94398810148245981821 1.66208007923905554115 -0.19884775601329351957
C  -2.97039347228167649462 0.01687976071014118951 1.15905198994935187962
C  -3.69353028548242523499 -0.63946212467074192709 2.14806077282726448630
C  -4.93521647001398999777 -0.16695907875715387814 2.53740111042747784609
C  -5.47028960389816276688 0.96106497397053491927 1.93559628901922797795
C  -4.75398702350880952849 1.61915803422025383895 0.95019253546066706484
C  -5.25319371464000184346 -1.81823365883305654300 -0.84620164429948174778
O  -5.04208902093222732788 -0.69896221383588641451 -1.60487788821210997092
H  -5.76534696837378657364 -2.64437323921662326143 -1.33350498159325137060
H  -5.44557885344473202593 -1.65481081337606483750 0.21188100739376525272
O  -3.98015832510711442538 -1.55506537182642068373 -1.27673298386795397441
21
3 Eopt=-34.3000717780 (Eh) Einter=-4.386082 (kcal/mol)
C  -1.97838873009127613756 -0.65811173316295534796 0.63914610117600201278
H  -2.64505580705025833410 -0.91629719328392056354 -1.18248303107184526972
H  -2.00157434926030797229 -1.72063918491714606951 0.91420416029653728263
C  -3.16223887038352202694 1.42942774696515773059 1.36993758417614541756
O  -1.86272610617903966457 -0.52469145432019315134 -0.76917648742563815567
H  -1.06949053460804277549 -0.20675547911013292257 1.04564062686683478809
H  -6.31528528822703183465 1.91532734161910278559 2.47908256207369781521
H  -4.38800029086959142433 -1.71738644481267210828 1.33760923647149576610
H  -6.37780427252234094482 -0.53025020396201028028 2.16100493935884063745
H  -4.24959619177113268051 3.16667506902826367821 1.97351925113079174068
H  -2.25140892731059416576 1.96933648599621857755 1.15270009956268060236
C  -3.19110673922593779395 0.05232494772260376514 1.18566361221411042948
C  -4.35760232268273917100 -0.64554325064204776119 1.47123430317118164545
C  -5.47753612380596965892 0.02190403721348893606 1.93709431528040143533
C  -5.44242087408167840579 1.39423942790047283857 2.11595283983992743515
C  -4.28279604569244209955 2.09693753399193116849 1.83161869876188410089
C  -0.01040164026680523435 1.66269887270535954293 -1.22021460034960482766
O  -0.09118452463803228270 2.04904497558652032296 0.09046904261063215547
H  -0.82477030848316479350 1.97754478377423770219 -1.86633081454816962541
H  0.41987991442621996896 0.68409332731822058982 -1.41195040554521278331
O  0.84065682940838204473 2.64205349079065232587 -0.77749645467400929633
21
2 Eopt=-34.2998699296 (Eh) Einter=-4.259420 (kcal/mol)
C  -2.30408183453773407479 -0.96392913563266247046 0.78251745780158765697
H  -1.95416886022884073171 -0.14333932933179793778 -0.95516887001586003869
H  -2.64111549592348548998 -1.92951346869204276580 0.38201116838669690878
C  -3.36324599947502056452 1.23470827514798675573 1.37107354126137637174
O  -1.45844352522680686945 -0.31160260903604897198 -0.14187575051587009156
H  -1.67817611115435649793 -1.16359367651715417402 1.66007532002831093010
H  -6.49580778463351116159 1.97969074299666125683 2.39296818602991212543
H  -4.82016858102557144150 -1.81031764439198572525 1.36162357919562904129
H  -6.73397743114295543876 -0.46067567582141599747 2.11489320420807302980
H  -4.32814856329799546586 3.06317159386522863684 1.91329951184616886550
H  -2.40872408447899122308 1.69669992484823484169 1.16522991498805916777
C  -3.49244705770558550029 -0.13936134742050809709 1.21071577795035811853
C  -4.71481058001147435021 -0.74147970215418368412 1.47727356266594855860
C  -5.78991989745018109659 0.01839788801359409920 1.90435659907914134337
C  -5.65568975436434939752 1.38826162489162241442 2.06157893938307301696
C  -4.44007642231037191749 1.99613825411346512695 1.79133048775537773167
C  -3.33832077629799250928 0.03975833586932675523 4.85798956022002581534
O  -3.76164709853078393920 -1.20976297654600339904 4.49282199679450844343
H  -3.10864795039790164921 0.18441099194908072700 5.91102989689037450205
H  -3.77700238001208754568 0.87499613662036190842 4.31659363695308329056
O  -2.47851153673796353871 -0.75734129702136776530 4.15105245308221615375
21
4 Eopt=-34.2998530170 (Eh) Einter=-4.248807 (kcal/mol)
C  -1.94912481664780923296 -0.43579598340503722387 0.14427849023808159146
H  -2.85449493832118683656 -0.92286357058701851130 -1.51825044694793809263
H  -1.84368000818268251706 -1.46299689788375575361 0.51802403506098471109
C  -3.57651211891736098281 1.46101986689571239353 0.35242379405686874438
O  -2.06203084913974388215 -0.42947845585641619692 -1.26473744394493325949
H  -1.01866479524037600868 0.10065391113713761939 0.36239733960272191293
H  -5.97336228248997791468 2.08588723621505511829 2.64865054082503714739
H  -3.27658314447470377928 -1.21600510390433402819 2.38761955686527738152
H  -5.11308960704229420458 -0.04985256908328855596 3.53820748503124260509
H  -4.98278518153055927087 3.05053288709430070469 0.60239242204959975169
H  -3.13104980319575965098 1.87485611873821800266 -0.54024022392448989294
C  -3.09068337040750185096 0.25621772157850464247 0.84598128161168650863
C  -3.65471602782048554658 -0.28383118835047049799 1.99402543138709642534
C  -4.68511140131597159098 0.37544055761343586575 2.64296863627523492823
C  -5.16738687543755759179 1.57481100643051075139 2.14401182638846954376
C  -4.61208859388148706415 2.11572929546615906560 0.99525460750834093826
C  -1.58899396062208575486 2.27234064043769912189 3.45689237944630978205
O  -0.81013610775696331956 1.83487352900501932140 2.41940330152887561610
H  -2.64107875055238183748 2.43614625466619827421 3.23496876070209093967
H  -1.11285683083221842438 2.94095023732983307241 4.17023889609797038247
O  -1.16533524595228543674 0.97061641264379983074 3.46580943649403572238
21
11 Eopt=-34.2984250551 (Eh) Einter=-3.352747 (kcal/mol)
C  -1.85303422963960273684 -0.06756222941860873243 0.05382170543411168850
H  -1.54587275679181601618 1.51850199401257746068 -1.04502849515479545595
H  -2.11077422175274298510 -0.72810268512160147836 -0.78395122337114875322
C  -3.07161875960138130992 1.44295952242931102560 1.64742312075224983658
O  -1.05091173996735998131 1.00959169143833027427 -0.38889525534319480116
H  -1.21650021258273532965 -0.62837336498495699466 0.74695584751829890990
H  -6.30207105246280363531 1.48135234353206279856 2.62859080938242017922
H  -4.34143877209964301755 -1.13145952517424319694 -0.12841324565998379903
H  -6.38109242397578135808 -0.42793318846061167982 1.06928101647105555649
H  -4.17670674222620164073 2.68259399527924902173 2.99205602896883515740
H  -2.13630186953190248644 1.96196624797619323388 1.79895769832671748034
C  -3.10937222131970081307 0.36788426614313518570 0.76833004569058094280
C  -4.30899643909283991405 -0.30042080981851082555 0.56241626203637740122
C  -5.45237873765437708329 0.09748517189859767784 1.23375748646984551016
C  -5.40859637465062892403 1.17031443213605568232 2.10860549747007652854
C  -4.21622872249262048427 1.84465095321962979646 2.31236635005662360953
C  -3.52664735782253879748 -4.11712575102811140226 -1.64034933411096939260
O  -2.82320061635176244863 -3.42942062757598886691 -2.59348594386881536877
H  -2.94179157766097532090 -4.60889093975677965886 -0.86696549920841059489
H  -4.43854677256074836578 -4.60767148613304300397 -1.97198499060540766159
O  -3.55138827729217743112 -2.74725346060780672985 -1.60475092760646265155
21
10 Eopt=-34.2977742290 (Eh) Einter=-2.944348 (kcal/mol)
C  -2.10405977632672591682 -0.67497180216700347621 0.78636292905447946477
H  -2.14807266265090346380 -0.59594344862969694798 -1.16640127256310965898
H  -2.32918892819518141835 -1.74731438794613969101 0.86142974271136740771
C  -3.40960376769814033082 1.46835036804621288375 0.70319312539902789627
O  -1.51870750644768959248 -0.37908739407056368798 -0.46501534155992474417
H  -1.32954551063084469575 -0.43964794031095810745 1.52460509352274087291
H  -6.48954910492801317901 2.23334661652274135690 1.85997062263961066009
H  -4.37808531829393565715 -1.47313750033643042769 2.04799196091930424402
H  -6.38358214556394543138 -0.12988363992320106632 2.54612453698693030901
H  -4.57980708823406956753 3.25677559147313910870 0.67490775472368480514
H  -2.56840752061580923638 1.90709981705227571425 0.18654935160404251260
C  -3.34334492787495296540 0.13415091165922865546 1.08455938968859966209
C  -4.42172521456803480078 -0.43619959759680360101 1.74795625807000432061
C  -5.54883162257252138261 0.31789398631967974440 2.02659412483726120158
C  -5.60962032478836558624 1.64694799063721775134 1.63992363377040084593
C  -4.53771693917944318741 2.22109341205863319857 0.97682180335662782689
C  -6.22992640142949039017 1.89989797753017541915 5.23203848859212339306
O  -7.10181175451123358755 2.70971908270192862744 4.55488526707616170341
H  -6.23828240136903744428 1.97865660582436531101 6.31637708737275449522
H  -5.27635907838686524229 1.70450271783617290922 4.74640510925394565334
O  -7.33321949947151185967 1.32926793882066962560 4.65576179891970998170
21
9 Eopt=-34.2977605267 (Eh) Einter=-2.935749 (kcal/mol)
C  -2.15782886437507004374 -0.74446334798372570951 0.38921886206464173519
H  -2.27237551853698382942 -0.17080918459400395992 -1.47611054082628911921
H  -2.50040306419148095074 -1.77316113235385341973 0.21463845551755489360
C  -3.17359872221348915389 1.46819863874244838087 0.99983091279585867284
O  -1.59326115216318386913 -0.20324925750363398436 -0.78851731478269382336
H  -1.33330154433653014223 -0.77893874424498421583 1.10943293620700655921
H  -6.14458988626595825622 2.22880468181132052052 2.41324280084069142660
H  -4.53735053845770064385 -1.59495277485712882992 1.40588806802399113316
H  -6.35216644678163078197 -0.23436414038134822935 2.33883170110733029645
H  -4.10200696252654495311 3.31250061721764410549 1.54983106635246969951
H  -2.27594728584895600321 1.93308735908447593133 0.61854281498066199241
C  -3.28587795968662765844 0.08403024202832287681 0.95466702845396256283
C  -4.43931677037931304852 -0.51896509584930361481 1.43739405973863254573
C  -5.46268184469932194247 0.25030609397285852324 1.96392684453496824126
C  -5.34474974444825967623 1.62932272204894745826 2.00531174272413359461
C  -4.19865900134296232693 2.23751319130734405149 1.51991117854336721393
C  -6.73655417591919736253 -3.92934839673942892802 3.53503893564663140836
O  -6.89218218446946728761 -2.64455335048192807790 3.08674700135338575535
H  -7.50593495006584721096 -4.64000598542979503236 3.24305560495860145664
H  -6.28792707184480992311 -4.04764085252807159776 4.51825515707688563083
O  -5.90944148717871442500 -3.48323086073444709854 2.53852574140551023874
21
5 Eopt=-34.2969389311 (Eh) Einter=-2.420190 (kcal/mol)
C  -2.02489488941107920184 -0.70391467430260301619 0.42355342366897608120
H  -2.52891897786158637018 -0.57539536868984708651 -1.46030155238582248778
H  -2.22589631906507801062 -1.77924578778167075122 0.52163473699468887457
C  -3.33932389829325293462 1.42156753650012723789 0.67996610150257374983
O  -1.75137427090084774051 -0.37311302206934227055 -0.92211761157568750136
H  -1.09828238327543603603 -0.48321839227141094586 0.96484107171691291249
H  -6.03191314057722571818 2.14572244392585353978 2.58977839945244703301
H  -3.88475570310453877099 -1.52905981418251402104 2.22543383621300616682
H  -5.70989348463506019016 -0.21336589795141369663 3.22666016469055794147
H  -4.50368446034140923473 3.19258948811314979821 0.95614532980027588938
H  -2.66567966097175768070 1.87158166779932955137 -0.03473068322635342042
C  -3.15746873164994612537 0.08962499765603088031 1.02943447622427508570
C  -4.02000199499258847879 -0.49378834905992996518 1.94813348543635456167
C  -5.04573457549862247618 0.24611261685499896679 2.51006717667118151027
C  -5.22463763086158117233 1.57328327773756537766 2.15537695157310826843
C  -4.36950210462580113102 2.15873578515687158941 1.23655679624021419549
C  -8.89993404788488362556 0.74875534040519831080 2.57558624703149252611
O  -8.37520753627624614523 1.98136524154312443358 2.85935624436202973087
H  -9.02392165779718169460 0.07045097857275461894 3.41660871925895648360
H  -8.62437124708441515963 0.31489311501548811201 1.61748820331023535068
O  -9.73505600978673157897 1.83359149825994927063 2.54084008695151464252
