19
Coordinates from ORCA-job job.QMRegion
  O          -2.00284299953512      1.01014725872068      2.66317080510063
  O           2.18546737268366     -1.24685303567495      2.38214902692082
  C           1.37672157381112     -0.55413027546390      3.30132000320847
  H           1.97305512045770      0.25545479063647      3.73057289062136
  H           1.04246511510425     -1.19784114792306      4.12022326877866
  C          -1.06260844521529      0.30106242225215      3.42976968260118
  H          -1.51285513135430     -0.66404456077313      3.67775481061419
  H          -0.78983192724186      0.80327125326712      4.36533954512691
  C           0.17654702352147      0.04706174557378      2.61112269143984
  O           0.19659769558393      0.35169999843744      1.43825626577363
  H           1.10208995260567     -0.02484810972534     -0.38354269133743
  O           1.70894476586383     -0.26559980086248     -1.08785987178496
  H           0.08236108494290      2.96289413922633      4.44304893490879
  O           0.42324748433195      2.73983299970409      5.32679618570322
  O           1.76288524357420      2.40799979811816      5.03126870007348
  H           2.23690050296396      3.19304125845737      5.34076499321067
  H           2.40167880447722      0.41061209594265     -1.03165099226673
  H          -1.70061923141863      1.85562398314553      2.37053975209673
  H           1.70064798070124     -1.92552025515449      1.93487476102865
