137
Coordinates from ORCA-job job
  C           0.58675023042315      4.46296530986671     -0.11777951370978
  C          -4.52684170951277      3.24437270037700      0.34887444427790
  C          -5.19286378650527     -1.77655203930840     -0.62126418762587
  C          -0.71481457463524     -4.59027215121438     -0.57458261018860
  C           4.39961972822551     -3.38143160152351     -0.14739728961950
  C           5.04535373618866      1.66201755090415     -0.74578128906943
  O          -0.42941708989054      3.48551822986227     -0.08918726646938
  O          -4.48749905808819      2.22509812015337     -0.59760357378233
  O          -3.79900338841579     -1.84386546181934     -0.80723698701931
  O           0.25956602513644     -3.57423076074970     -0.48495144630238
  O           4.41301827530765     -2.33215442179077     -1.06208217369772
  O           3.63897105751854      1.73550181578914     -0.86035858881145
  C           1.22466577453738      4.50526607806999     -1.52029433403745
  C          -4.04866091252286      4.52529353416539     -0.36423664935577
  C          -5.79427658081788     -1.01783189087435     -1.81455958714436
  C          -1.42371548341510     -4.48294244922818     -1.93596070060259
  C           3.86429426010376     -4.61537839033729     -0.90328747794770
  C           5.60432256337253      1.03456573245733     -2.03140900816321
  O           0.27032526836863      4.64662710949982     -2.53591032808411
  O          -4.84599208278673      4.83246712521249     -1.46976736994425
  O          -5.55619769393908     -1.66866303937076     -3.03174749526286
  O          -0.52262134101212     -4.49828627053440     -3.00904737406710
  O           4.63254655718077     -4.90564147167663     -2.03368096111954
  O           5.26967235020002      1.78072990720438     -3.16914355490501
  C           2.00123117245921      3.20530051305027     -1.76510863069730
  C          -2.58085539494998      4.34842668795952     -0.79700485869859
  C          -5.19013196922015      0.39248423914595     -1.81980596146871
  C          -2.21650128036390     -3.17140450028508     -1.97340742148531
  C           2.39643552962740     -4.37153609005613     -1.30113112025275
  C           5.09234539133193     -0.40894962230523     -2.14822228727235
  O           2.73157195192964      3.24747745836343     -2.96547952768207
  O          -2.06780294781423      5.55699944554657     -1.30983934264853
  O          -5.78426620854736      1.19482685174883     -2.80879968443966
  O          -2.98404244156507     -3.05639688798395     -3.14546713241613
  O           1.84658486324926     -5.52459316321851     -1.89664795528064
  O           5.76182924085986     -1.08552484208907     -3.18518657665417
  C           2.99774599203227      2.97834938650127     -0.62417292785960
  C          -1.70220566930767      3.90009093539544      0.37971457207488
  C          -5.35464772411706      1.10296767070502     -0.46883106218632
  C          -3.17432235284769     -3.11312181642232     -0.78006511518413
  C           1.55450749160594     -3.97986277503761     -0.07659504505024
  C           5.28711548990546     -1.22480591702962     -0.85977054028534
  C           2.25572334717383      2.99059088890407      0.72251711935523
  C          -2.36630768601658      2.69042898442618      1.04829072927104
  C          -4.99431170690503      0.18725779880592      0.72149027617622
  C          -2.40182556559305     -3.32284784970327      0.53180130303952
  C           2.25638891381507     -2.78394389287361      0.58052117552195
  C           4.96996798198001     -0.42593099681920      0.42311007107535
  O           1.54501021525323      4.21741013288946      0.86996766378008
  O          -3.68393930321898      2.98041020262279      1.45586971428049
  O          -5.52151681515833     -1.13004378491553      0.56952575552756
  O          -1.63533624100047     -4.52147458367692      0.47690667179181
  O           3.57328798976523     -3.11392529313218      0.96879421372548
  O           5.43770730756018      0.92358873457750      0.36446857721541
  C           3.22236683993786      2.91097797169251      1.91084880180738
  C          -1.57989414216494      2.19335471046132      2.25364653018879
  C          -5.60280136699346      0.67005479223540      2.05146771934498
  C          -3.35083367200386     -3.48273614254738      1.72708305162614
  C           1.50533471397831     -2.19892662842746      1.75468684066662
  C           5.67931318030223     -0.99384882916740      1.66724013988100
  O           4.08428856956795      4.01789368169939      1.94675536277598
  O          -2.00284299953512      1.01014725872068      2.66317080510063
  O          -6.97513039697072      0.93135059565745      1.93283672001673
  O          -4.23115969804090     -4.55895352766235      1.54784243271676
  O           2.18546737268366     -1.24685303567495      2.38214902692082
  O           7.04960197435429     -1.19198378388221      1.44499352344997
  H           0.17291954207466      5.44929548913166      0.12523074166803
  H          -5.53061365560570      3.37751393991344      0.77087594788127
  H          -5.63038499733926     -2.77929405948024     -0.53849540238910
  H          -0.24810676625307     -5.57829150237080     -0.47747382333968
  H           5.39717679107839     -3.57808035828668      0.26501710120288
  H           5.47068340393381      2.66209132987378     -0.59495438188461
  H           1.93422254319926      5.34878785811181     -1.54432131387332
  H          -4.12315036605268      5.37166132567596      0.32621219443020
  H          -6.88112154994749     -0.95175202746803     -1.69777246985175
  H          -2.12909835299000     -5.32553099381598     -2.02306757088966
  H           3.92021860313851     -5.49109450864588     -0.24858808585729
  H           6.69850061728431      1.02015755028231     -1.97444190131431
  H          -0.50700789271206      5.12622810846835     -2.18649851226842
  H          -4.97787108935970      4.02188147707096     -1.98609786125710
  H          -4.63480040873647     -1.98794047014708     -3.05008276504183
  H           0.29202683853235     -4.96291453340890     -2.73323176005916
  H           4.77488773734786     -4.07916438624817     -2.52146485274769
  H           4.34140743294644      2.07127856128749     -3.10580154609774
  H           1.27728944975789      2.37593734314571     -1.78896725792554
  H          -2.53634266674021      3.56358149010879     -1.56837334008929
  H          -4.10828402058951      0.29580689383791     -2.01258045658214
  H          -1.50308641406981     -2.33501575228436     -1.89924335828638
  H           2.35892077058885     -3.52926218363852     -2.01053280996422
  H           4.01174429268947     -0.38355587056048     -2.36065362350571
  H           2.12897498409620      3.50780212427654     -3.67676463169624
  H          -2.73574283980231      5.92415172636107     -1.91228461082577
  H          -5.87784495449953      0.64771046834073     -3.60386731535599
  H          -2.40920080405481     -3.25551957260790     -3.89893351699894
  H           2.50338785914668     -5.86287644827477     -2.52774571549241
  H           5.77015124890247     -0.49696769648200     -3.95496956933757
  H           3.73732299359477      3.78850594083897     -0.63253736309376
  H          -1.59827049547787      4.71616104886593      1.10519482961785
  H          -6.39242252937523      1.44925036627882     -0.36246151568729
  H          -3.92359913901279     -3.90771975835051     -0.88942503269391
  H           1.48901410387862     -4.81736978193470      0.62879750661168
  H           6.32644772946529     -1.58181639244443     -0.81592342248020
  H           1.54934031511010      2.15090975882567      0.75637372782032
  H          -2.37084171236752      1.86497150188930      0.31864506276854
  H          -3.90082325576637      0.13167175833303      0.80893569548091
  H          -1.73516215275581     -2.46527275942292      0.69433139236605
  H           2.27553614241253     -1.97190739884941     -0.17478823111335
  H           3.88645856938480     -0.43226820008887      0.59081869457534
  H           3.85176880886372      2.02495563289480      1.81466185264782
  H           2.63397728959081      2.84092168615441      2.83281283350734
  H          -5.41664793180302     -0.11251525091597      2.79613197311120
  H          -5.12534115985128      1.59238989568829      2.37860357143568
  H          -3.96604632271587     -2.58707032754751      1.82801646816658
  H          -2.74208633850264     -3.61889991003257      2.62875956974314
  H           5.51518486506374     -0.28260660467955      2.48505053296210
  H           5.25089594643032     -1.95531216182132      1.94498418804777
  H           3.53192069904022      4.81282834275826      1.94798722064663
  H          -7.41080889703359      0.10477894105391      1.68129443349091
  H          -3.69503781826967     -5.35288320162707      1.40832938999868
  H           7.43839741121701     -0.33230190067402      1.23077076065676
  C           1.37672157381112     -0.55413027546390      3.30132000320847
  H           1.97305512045770      0.25545479063647      3.73057289062136
  H           1.04246511510425     -1.19784114792306      4.12022326877866
  O           0.36849838655045     -2.46556337650155      2.05688011910270
  C          -1.06260844521529      0.30106242225215      3.42976968260118
  H          -1.51285513135430     -0.66404456077313      3.67775481061419
  H          -0.78983192724186      0.80327125326712      4.36533954512691
  O          -0.65425319570545      2.78775507639404      2.75022015051768
  C           0.17654702352147      0.04706174557378      2.61112269143984
  O           0.19659769558393      0.35169999843744      1.43825626577363
  H           1.10208995260567     -0.02484810972534     -0.38354269133743
  O           1.70894476586383     -0.26559980086248     -1.08785987178496
  H           0.08236108494290      2.96289413922633      4.44304893490879
  O           0.42324748433195      2.73983299970409      5.32679618570322
  O           1.76288524357420      2.40799979811816      5.03126870007348
  H           2.23690050296396      3.19304125845737      5.34076499321067
  H           2.40167880447722      0.41061209594265     -1.03165099226673
