137
Coordinates from ORCA-job job
  C           1.16697171159565      5.58483224157857      0.17666338992027
  C          -3.39667934058410      3.30670062419516      0.77146086736400
  C          -3.60951234227503     -1.59983984649104      2.12493538864549
  C           0.14806235655929     -4.09893055366710      0.83213152206403
  C           3.17145044913680     -3.57363530060424     -2.07060879974628
  C           4.02606339230233      1.36764705213324     -1.01534935221517
  O          -0.22548403714814      5.29426375025942      0.47395284898972
  O          -3.14660236770878      2.71114724969907      2.01258193203097
  O          -2.74927941311869     -2.27873003031336      3.01777065230898
  O           1.16037900768122     -4.80100117673746      0.15451351894534
  O           3.15666144465991     -2.87408359899005     -0.87147220541436
  O           3.66803959370828      2.08456661380906      0.15538418455089
  C           1.84475487716709      5.17428260972524     -1.17135347925913
  C          -2.60968139457463      2.85152180268936     -0.50258922257081
  C          -2.93722688713214     -0.78363274211120      0.98933000882868
  C           0.58496691899604     -2.72454222583368      1.37669163546440
  C           1.89285614294444     -3.35574029743543     -2.92330013043932
  C           2.81602291717500      0.73389045005161     -1.88446294298256
  O           0.97876819697988      5.10328425069538     -2.29310496728984
  O          -3.03489292572961      1.63213527202362     -1.06716205008673
  O          -1.94672366869885     -1.31307997649700      0.17517677346118
  O           1.91807059008276     -2.43880618755955      1.63928444099464
  O           1.75467179660845     -2.12131176638964     -3.54736799465133
  O           1.80367858504998      1.50236671286398     -2.33947382260370
  C           2.71152482876283      3.90455972303404     -1.17354550477688
  C          -1.10298634732204      3.22013852844573     -0.45959563950337
  C          -2.34532552254731      0.47481454631741      1.64418278373147
  C          -0.28988116189372     -2.39111257050032      2.59906784990410
  C           0.67974221382369     -3.67312758276869     -2.02105118452489
  C           2.32996404866551     -0.47676161418367     -1.00999158736707
  O           3.68325069691817      4.16520838477278     -2.20908611382152
  O          -0.46418234358752      2.72759786585174     -1.61482106967108
  O          -1.48035343409835      1.04219401282008      0.77372708665321
  O          -0.31795645812616     -1.03205789524472      2.66246329984644
  O          -0.52106315897879     -3.77029416161144     -2.78823380826239
  O           1.00567793919521     -0.87641343666055     -1.36507060436590
  C           3.37811191801354      3.48875487860345      0.14068556807783
  C          -1.11847856035863      4.77581188545331     -0.47008695638890
  C          -3.54303509599940      1.33479946813510      1.98471350051136
  C          -1.68476023607129     -2.97015712165384      2.32792289979179
  C           0.88915543189893     -4.97866506182093     -1.21677646716903
  C           3.48286454335884     -1.47884857385311     -1.02207111675734
  C           2.40731928039063      3.80818683017846      1.32003420057359
  C          -2.58178079380703      5.32394421715179     -0.14638136922564
  C          -4.12844052769806      0.61885576965671      3.21099075283637
  C          -1.55520069721282     -4.47887125187766      2.56409095562604
  C           2.10939968630593     -5.72754620771695     -1.78225173091604
  C           4.40711832017524     -0.80317699801654      0.03741462502951
  O           1.93464772142355      5.17618117480337      1.24332967978253
  O          -3.21081651399209      4.69493626642303      0.90849593259184
  O          -4.49673647302539     -0.73422364499180      2.80583615545977
  O          -0.45128805475347     -4.98746040519277      1.78490083935293
  O           3.28356191537085     -4.96977944199570     -1.82279558190897
  O           4.95542711718936      0.35748382000157     -0.64666303512619
  C           3.15285122019640      3.71823939889816      2.68037489466039
  C          -3.34346746659506      5.26402983893979     -1.44314793611475
  C          -5.42707465585104      1.29963726024949      3.64141791502244
  C          -2.84997481964491     -5.22258207049037      2.19343308293649
  C           2.01370802413607     -6.21267280952045     -3.17366235783179
  C           5.51756365970906     -1.71145351441063      0.55670827603042
  O           3.91107524866245      4.88686236995642      2.95395249090652
  O          -5.14623128882826      4.20986344526162     -1.03669935543022
  O          -6.39174574103525      1.23844387151334      2.59509492687415
  O          -3.32618891139740     -4.91021950622936      0.89889456289912
  O          -0.08334397351455     -6.12958665510233     -3.48220472233846
  O           6.36813799693621     -2.22201639459436     -0.45980437087196
  H           1.21662393280637      6.68330646213319      0.21993533678745
  H          -4.46002314826264      3.11794148469810      0.54400404598712
  H          -4.28923343067227     -2.34544588601643      1.66810942207066
  H          -0.63467739937232     -3.86768657873625      0.09144287064423
  H           4.07253844668956     -3.30949479376864     -2.64941341906388
  H           4.62306686576273      2.00151672892534     -1.68331765476907
  H           2.53937400741066      5.99922145185701     -1.38321596083272
  H          -3.00003089404158      3.53076922515509     -1.28724425320219
  H          -3.79774523705208     -0.52375180071082      0.33158121680342
  H           0.27817644830282     -2.02740904842695      0.58537539619973
  H           1.95913604037057     -4.05123457899963     -3.76498373163262
  H           3.36932846476192      0.31837099402762     -2.78284448322356
  H           0.69533049854792      4.16342434965628     -2.31820349922169
  H          -0.27276668858743      1.06655462487327      1.25282738710179
  H          -1.07285203090452     -0.90136087915824      0.58752243915408
  H           1.89642465582017     -1.35080116448292      1.84490134210809
  H           1.54736346388195     -1.44045698700410     -2.85484813300420
  H           1.36198954197211      1.11522910320889      0.30086582061864
  H           2.08478083454889      3.04612761268628     -1.48628132526613
  H          -0.58295441525567      2.88331350006744      0.45754156592849
  H          -1.83685086717809      0.21116393997707      2.58099123780225
  H           0.13044084472429     -2.82900704417864      3.51676342236140
  H           0.60214906693038     -2.82584001544632     -1.32372272474095
  H           2.24613480720950     -0.16116398247243      0.04050094845968
  H           3.73052082366032      3.37445611143374     -2.75458596049865
  H           0.34401392758003      2.16255565604443     -1.30880676789869
  H           0.65695286476644      1.10324324319404      0.80633618494812
  H           0.67945592843516     -0.70451276611607      2.47159589789120
  H          -0.82478761851618     -2.84531634496408     -2.88767796021811
  H           0.58481574155639     -0.25771725076229     -0.69856512539761
  H           4.30920522860608      4.05642565121665      0.27528145940336
  H          -0.86129894223035      5.13748902090635     -1.46979431190196
  H          -4.34004701521878      1.25646975048143      1.22947465989326
  H          -1.91896587174128     -2.88250985759361      1.27212202115072
  H          -0.01132939734640     -5.60016794885440     -1.30924678801633
  H           4.03725031954035     -1.40376155972535     -1.96960914429613
  H           1.55633597162955      3.09999416502018      1.33995938956005
  H          -2.45027709883872      6.37822903639058      0.18873455178791
  H          -3.40684874591795      0.57559698915149      4.03652873669365
  H          -1.32927798277005     -4.68711971918186      3.61568068150412
  H           2.31223868995539     -6.58853838771550     -1.08247538488309
  H           3.84039879551965     -0.47196116340989      0.92673985403569
  H           3.86377717362499      2.89067870140458      2.65116507748638
  H           2.40766302200430      3.55285656843806      3.46900128953746
  H          -5.82659488335271      0.83591538534582      4.54830446121283
  H          -5.21413249426375      2.35628834326254      3.81269028195925
  H          -3.63178449217259     -4.92739034121391      2.89605018950155
  H          -2.67745226153754     -6.30137164152398      2.28057130264795
  H           6.09941336735157     -1.16513201302725      1.30790008880726
  H           5.02442141378543     -2.56595671286029      1.02588462831164
  H           3.29415475553155      5.60800414723992      2.80529979773557
  H          -6.63981790767905      0.30540149279350      2.55447330813337
  H          -2.59179028329974     -5.09221921243334      0.29824492597228
  H           6.79377622832727     -1.44408029936873     -0.83921684427852
  C          -0.49707096329229     -5.29118722754495     -4.19020697686366
  H          -1.57898104150745     -5.20138366994099     -4.35234233401816
  H           0.13550886271422     -4.63054696767507     -4.79438710509581
  O           2.44156294096131     -6.54817022501567     -4.10257228272139
  C          -5.56769690305871      3.61984337006670     -2.18051183965793
  H          -5.21808715705293      4.10721710483470     -3.09757023926219
  H          -6.66536807374669      3.52134308763550     -2.17188027413627
  O          -3.35804037565370      5.60029458886486     -2.51682855169280
  C          -5.13944977400993      2.10938730006174     -2.46463421797120
  O          -4.67107442883845      1.78164045582955     -3.52073128670184
  H           1.55124504524265      1.22832810329322      1.97787615972296
  O           2.01089839838985      1.16306000769691      2.60120445678287
  H           1.83672597431864      0.40676505536017      2.57329415651818
  O          -5.48872940789304      1.05356692879611     -1.59597791457143
  O          -5.86437995480247      1.30245253215577     -0.27111811291669
  H          -3.10021094962460      1.00649215579852     -0.40533473193586
  H           2.62881721065588      1.01866544308122      2.14237234256755
