23
Coordinates from ORCA-job job.QMRegion
  C          -3.34346746659506      5.26402983893979     -1.44314793611475
  C           2.01370802413607     -6.21267280952045     -3.17366235783179
  O          -5.14623128882826      4.20986344526162     -1.03669935543022
  O          -0.08334397351455     -6.12958665510233     -3.48220472233846
  C          -0.49707096329229     -5.29118722754495     -4.19020697686366
  H          -1.57898104150745     -5.20138366994099     -4.35234233401816
  H           0.13550886271422     -4.63054696767507     -4.79438710509581
  O           2.44156294096131     -6.54817022501567     -4.10257228272139
  C          -5.56769690305871      3.61984337006670     -2.18051183965793
  H          -5.21808715705293      4.10721710483470     -3.09757023926219
  H          -6.66536807374669      3.52134308763550     -2.17188027413627
  O          -3.35804037565370      5.60029458886486     -2.51682855169280
  C          -5.13944977400993      2.10938730006174     -2.46463421797120
  O          -4.67107442883845      1.78164045582955     -3.52073128670184
  H           1.55124504524265      1.22832810329322      1.97787615972296
  O           2.01089839838985      1.16306000769691      2.60120445678287
  H           1.83672597431864      0.40676505536017      2.57329415651818
  O          -5.48872940789304      1.05356692879611     -1.59597791457143
  O          -5.86437995480247      1.30245253215577     -0.27111811291669
  H          -3.10021094962460      1.00649215579852     -0.40533473193586
  H           2.62881721065588      1.01866544308122      2.14237234256755
  H          -2.79803443564974      5.30693367600675     -0.51455177672820
  H           2.08213909752620     -5.86574881072323     -2.17863603508627
