10
Coordinates from ORCA-job job.QMRegion
  C           2.62802498382005     -0.59844711720631      4.03441687981478
  O           1.38362187494106     -0.31143791215726      4.09447901167564
  H           6.41915278359629      0.11296693186348      3.39316577592771
  H           3.42812703668925      1.34012069579642      4.33746411618806
  H           5.98360870223345      0.82809799488734      2.10056937457667
  O           5.69856759285826      0.16696151857682      2.74944363526078
  H           4.55414286331699      0.51711766513042      3.27398328468967
  O           3.48265217045883      0.74030205643619      3.56202940102760
  H           2.93790176537486     -1.32670867507979      3.22309913260195
  H           3.09443647405712     -0.84957418964965      5.02306326885986
