7
Coordinates from ORCA-job job.QMRegion
  C           0.42461600316549      0.42536173347167     -3.05040890538479
  O           1.17297367352514     -0.55817025733910     -2.34881388247537
  O          -0.42238498376931      1.16108643407416     -2.17752187001831
  H           1.92380702371882     -0.09923648617780     -1.94296384857702
  H          -1.20522013618219      0.61210214147087     -2.02062507407247
  H          -0.19141675493807     -0.13598846798288     -3.76860389809501
  H           1.11180223511867      1.16905084372150     -3.47584705763474
