147
Coordinates from ORCA-job job
  C           1.59363366971665      3.59689478359986     -0.07601482898804
  O           0.75523526282852      2.46920609241743     -0.18446143875512
  C           2.63579684204851      3.57963887666843     -1.20523826961926
  O           2.22911390304930      3.65123711138074      1.16829061369829
  C          -0.63842745311391      2.70389719397395     -0.10819596799118
  O           2.06119151102003      3.50582227201923     -2.48102329506752
  C           3.56138963406123      2.37125288531720     -1.01597932902105
  C           3.06673942223298      2.53633715323540      1.46751252648233
  C          -1.20891656792501      2.82882760227524     -1.53240476439538
  C          -1.30451953098388      1.51657594846424      0.61366519273553
  O           4.63556697585427      2.39694938562991     -1.91652622158009
  C           4.15359618325038      2.33994436048128      0.39767182661826
  C           3.66148462071391      2.84516573916794      2.85038918365146
  C          -2.74771320084554      2.80232132658580     -1.52535493639086
  O          -0.72881076809701      4.02816975343435     -2.09547279283907
  O          -2.70871225251883      1.59696918872276      0.55663958133192
  C          -0.94829364131858      1.42321302655864      2.08721021089146
  O           4.78407848788411      1.07217194377867      0.51465148553742
  O           4.51235944541659      3.95798160772017      2.82329252174487
  C          -3.21489376958240      1.55110225314398     -0.76023143999576
  O          -3.25054517557432      2.84629283937225     -2.82862279805090
  O           0.33903371266276      1.12597848214773      2.27670382809356
  O          -1.72600959391558      1.63629739120701      2.98399206635988
  C           5.92163944888962      0.97238448359001      1.33284632417162
  O          -2.77434699875981      0.44297173830159     -1.48206017573892
  C           0.62153877681750      0.46012491523973      3.49231681968000
  C           6.99314553153814      0.18409661129901      0.56297076891721
  O           5.65207258538897      0.35505612593082      2.56227887375942
  C          -3.55426003257899     -0.74688340318634     -1.49476145877404
  C           0.01645683557329     -0.93978458097063      3.34218259876045
  O           7.27478067672110      0.76745128448106     -0.67811368677208
  C           6.52947472696138     -1.27204080826331      0.40380115338317
  C           5.13842263078087     -0.97481826112478      2.50097240640255
  C          -3.30438136266464     -1.33650466740684     -2.88880636242948
  C          -3.15590961681704     -1.73019550798413     -0.37535924919145
  C           0.77037405425795     -2.10576373053690      3.94485452215447
  O           1.20100269863257     -1.83992991832868      0.94847249862798
  O          -0.86206913372367     -1.09123209667937      2.51592992036929
  O           7.55889020278288     -2.06203056878227     -0.13199740860568
  C           6.11299336584651     -1.89742391188345      1.74520861608142
  C           4.93656287056618     -1.36557644092054      3.97687452877226
  C          -3.88033137126395     -2.75094003789054     -3.01374335727198
  O          -3.84881420920514     -0.45518537695832     -3.83750071453913
  O          -3.63418034464731     -3.04766528992167     -0.63617668376742
  C          -3.78650864779158     -1.35113487508377      0.97397401214407
  O           1.81223523440511     -2.22167340817020      2.99447276272216
  O           5.58389245861831     -3.15578792997650      1.33821244757136
  O           6.13735074907896     -1.65860205017001      4.63346208009894
  C          -3.26128421706876     -3.58689508226487     -1.87822238668125
  O          -3.60894797299521     -3.29237118742653     -4.27486694928827
  O          -5.18533934812939     -1.34463801276088      0.90451980573061
  C           1.51923008667400     -3.05576387600045      1.84392028136607
  C           5.04004586356234     -4.05037714205791      2.25319672217157
  O          -1.87516492803771     -3.57174819111037     -2.08534641298599
  C           2.90910756719214     -3.60018774370078      1.40651866434471
  O           0.56554566203383     -3.86012633886841      1.97132455167458
  C           5.10882492124724     -5.43515618455098      1.58813505996890
  O           3.68594105343247     -3.77436067283170      2.57272039451111
  C          -1.12745891738334     -4.76527053777468     -1.94284304550825
  C           2.80756074776740     -4.91889692844985      0.63303180028535
  O           6.41702231260687     -5.80664189255321      1.26495580049525
  C           4.22792316107686     -5.42273338772233      0.32741654611684
  C           0.12504798656112     -4.50094341998884     -2.78358914724562
  C          -0.74356133518844     -5.07683546413856     -0.48968884439809
  O           2.10971475271916     -4.69756030428331     -0.58741311841689
  O           4.17182306309206     -6.70959713583378     -0.23815862776272
  C           1.17973491307866     -5.59389238123410     -2.60139114747935
  O          -0.27636004352400     -4.40403129909237     -4.12545600332670
  O           0.23531403261715     -6.11519017473079     -0.44515789307417
  C          -1.91739900886674     -5.59285106137517      0.34865820978078
  C           1.43669589873528     -5.82679989664562     -1.09921691726873
  O           2.32676636162103     -5.18182485685239     -3.29068577097990
  O          -2.51320336863662     -6.73207782263217     -0.21017920960832
  C           2.08214795957252     -1.48163756260358     -1.24537433275562
  H           2.34692391952054     -0.53927734060571     -0.73395727557299
  C           1.51934397390542     -1.21712226038780     -2.62929313033039
  C           2.21282815437272     -1.62034091054595     -3.76205133169929
  C           0.33790012508907     -0.50160404792787     -2.75904953363041
  C           1.72147027789667     -1.30699370629007     -5.01806075525168
  C          -0.14674961381099     -0.18813516031561     -4.01694164152165
  C           0.54532211296888     -0.58949441215688     -5.14781700978810
  H           1.00162297045973      4.51993078526552     -0.13107955354638
  H           3.23743500074008      4.49942582558744     -1.11886855706496
  H          -0.84749537400824      3.62460570620918      0.45310395301759
  H           1.13649261545724      3.81879135853651     -2.45189415167978
  H           2.96062408692571      1.45894462757802     -1.15800752226488
  H           2.46423931267303      1.61981027771428      1.50677205910796
  H          -0.84215962427699      1.97158125913662     -2.11382448770477
  H          -0.94479568081613      0.58477602955281      0.15112563808685
  H           4.28780865382267      2.56857178108738     -2.80672635642296
  H           4.90569914454596      3.13674272368710      0.48404036913273
  H           4.25944916406142      1.99771269525624      3.18803910885391
  H           2.82865363006048      3.00448072772116      3.54530536865450
  H          -3.12059965298725      3.69140675118212     -1.00470194065523
  H          -1.29827487319313      4.24766310023069     -2.85491666319631
  H           3.98853694774465      4.74124944207968      2.59632791171863
  H          -4.30561299031577      1.54257743655615     -0.63429777579569
  H          -3.28566420024787      1.94738127887009     -3.19670517344112
  H           6.29609300598620      1.97050071755831      1.59763424899532
  H           1.70608940808251      0.41912184252691      3.61091180017477
  H           0.14126938305005      0.96594953758492      4.34507296880789
  H           7.92937945862921      0.19766546934389      1.13115970061289
  H          -4.61784626802191     -0.49362871155924     -1.38299542290339
  H           6.44409450525189      1.02149761799302     -1.11548818307924
  H           5.64151167508952     -1.29644970507429     -0.24995675507875
  H           4.16235186072344     -0.97959078275191      1.99435264645136
  H          -2.21445782971931     -1.41321528523949     -3.02178795619750
  H          -2.05997696940779     -1.74558557592914     -0.27633681841865
  H           1.23514438351998     -1.89455594510050      4.90897722240735
  H           0.16327336625098     -3.02091608321414      3.94197338341415
  H           7.89931754974095     -1.61578373484666     -0.92518589734639
  H           6.99983953512209     -2.06996988081872      2.37219376231725
  H           4.41748275101846     -0.52998456033016      4.46112124437845
  H           4.29656803168096     -2.24523241380709      4.03433598635095
  H          -4.96909578678890     -2.73329099785426     -2.90642148989050
  H          -4.00933581224632     -0.95538376041756     -4.65533555504441
  H          -3.41977074920307     -2.05808452641684      1.72784396836143
  H          -3.47259703912841     -0.34975202476214      1.26997792653054
  H           6.65401414340676     -0.84177404291006      4.71687429742759
  H          -3.65465699293547     -4.61195275936503     -1.87658526430111
  H          -2.66523462303491     -3.51816739877940     -4.33150063702162
  H          -5.48609809413852     -2.24794073330128      0.71996987453507
  H           5.57325798550051     -4.03564934434754      3.21298822919226
  H           3.38243521121644     -2.84360318640251      0.77307687157016
  H           4.72440337448124     -6.18165601171477      2.29042780235074
  H          -1.69167624162120     -5.61178557500477     -2.36155973185977
  H           2.24808015602019     -5.63500973221383      1.24854985727517
  H           6.85663506386829     -5.05361272123292      0.83512784676164
  H           4.67020510873662     -4.71349115820631     -0.39128062241936
  H           0.54479610295230     -3.54691879300127     -2.43221568668601
  H          -0.34646229964742     -4.16961920403919     -0.01777377669794
  H           5.06680132144452     -7.09343678035604     -0.18818017637925
  H           0.78025203691061     -6.53225316903279     -3.01415018989603
  H           0.51961566026182     -4.38891678713141     -4.68152034000188
  H          -2.68432932966524     -4.82094407845844      0.41300610369853
  H          -1.53079929090880     -5.78534971784731      1.35602945453889
  H           2.05486748782255     -6.72188999732277     -0.94476040959493
  H           2.97265437971856     -5.90456180234545     -3.32492033213434
  H          -1.85915699231801     -7.44747105015941     -0.20885811865043
  O           1.02782596203159     -2.09522195293349     -0.50053966267107
  H           3.13700989112350     -2.16541582373302     -3.64839137034402
  H          -0.19285015898701     -0.21081462283674     -1.86317052776951
  H           2.26869833230197     -1.61902944100901     -5.89288668213984
  H          -1.06511716429757      0.37090203872607     -4.10784929076225
  H           0.16636575772802     -0.34003970662641     -6.12564054861612
  H           2.99792574135741     -3.15777638772052     -1.51240724983195
  O           3.27042088042141     -2.25368418002287     -1.27030627006457
