11
Coordinates from ORCA-job job.QMRegion
  C           0.01645683557329     -0.93978458097063      3.34218259876045
  O           1.20100269863257     -1.83992991832868      0.94847249862798
  O          -0.86206913372367     -1.09123209667937      2.51592992036929
  C           2.08214795957252     -1.48163756260358     -1.24537433275562
  H           2.34692391952054     -0.53927734060571     -0.73395727557299
  O           1.02782596203159     -2.09522195293349     -0.50053966267107
  H           2.99792574135741     -3.15777638772052     -1.51240724983195
  O           3.27042088042141     -2.25368418002287     -1.27030627006457
  H           0.46780510384001      0.10444874310682      3.45417209307633
  H           0.57914419187415     -1.81001503719501      3.79198778013432
  H           1.67465634434820     -1.29011836498508     -2.24738448286960
