19
Coordinates from ORCA-job job.QMRegion
  C          -1.41366150973496      2.87262119824267      2.54988813430805
  C           1.10063362015802     -2.81102555077826      1.72993784775538
  O          -1.89395566982359      1.72143705519130      3.06199628735380
  O           1.45356925496005     -1.59864997991901      2.15254548333017
  C           0.73375198209785     -0.96536704937099      3.23336877157301
  H           1.47004288716233     -0.30342518050384      3.67705842521705
  H           0.34072298137020     -1.73665752458279      3.89252937723401
  O           0.31142112329325     -3.56730772131882      2.25412749914789
  C          -0.96470580769330      0.82929354398488      3.70536495341249
  H          -1.56886673705732      0.28299426866480      4.42327681175598
  H          -0.15810626965935      1.40741227770936      4.15460865530980
  O          -0.52774142808878      3.55314253669730      3.01651155460070
  C          -0.43524443100615     -0.17290302870884      2.68432518404307
  O          -1.26112725866387     -0.77258329015432      1.91330054526423
  O           0.37498321827357      0.97059305417757      1.55474656283790
  O           1.59244608351012      1.52739908108247      2.18260197927542
  H           2.27645688559590      1.36325535379123      1.49847615904443
  H          -1.97975148610060      3.08761074898432      1.65249572592083
  H           1.68034667547602     -2.99474708165573      0.82857909703485
