133
Coordinates from ORCA-job job
  C           0.53034284014707      4.93568856455360     -0.40839546704131
  C          -4.39042347162753      3.36580493866703      0.50414216451017
  C          -5.11478919981573     -1.78380680411515     -0.14711440075712
  C          -0.90853636300430     -4.85708289929480     -0.87190335877338
  C           4.11736628443179     -3.28707602392692     -0.25915620864874
  C           4.76356895494230      1.84723678937961      0.18663036246952
  O          -0.31696199015112      3.93538374389010      0.13812533031801
  O          -4.25513113308383      2.20618400169817     -0.25671450377766
  O          -3.78134161165977     -1.96542378937292     -0.57077232862600
  O           0.04009246761450     -3.81704328583688     -0.80054074819724
  O           4.05511279534580     -2.05407089316877     -0.90509729092327
  O           3.35379827084323      2.05096838211912      0.11901192025494
  C           1.10831396654570      4.39362104963150     -1.72328730286705
  C          -4.00752150525624      4.54113153515288     -0.41677768835188
  C          -5.84097919803836     -0.98846000322206     -1.24520774272661
  C          -1.72593846548637     -4.63433444585333     -2.15035194553714
  C           3.73167602821274     -4.37017443692992     -1.29250610126998
  C           5.36269788039414      1.40206484383495     -1.16335601764523
  O           0.12902073373251      4.11026195566495     -2.68366761674201
  O          -4.80453593235802      4.58516810427282     -1.56137440812257
  O          -5.83952145293226     -1.65793965251016     -2.47223174025859
  O          -0.92255027500694     -4.61767565676668     -3.29906921586520
  O           4.54672620899930     -4.31435251655358     -2.42347651542662
  O           5.24142685894489      2.33917914748287     -2.19093699811300
  C           1.84364722521187      3.09641002674274     -1.37821906738488
  C          -2.52168320632850      4.40839211284676     -0.80879564807118
  C          -5.13791803888820      0.36925216149669     -1.35817676350332
  C          -2.45936122628985     -3.29380705903878     -1.99544568454706
  C           2.24837583266894     -4.20762588776401     -1.68316239830739
  C           4.71273612598949      0.07190563763432     -1.55747269972665
  O           2.46069564650694      2.53769796159831     -2.50989669440317
  O          -2.12699292773426      5.48320686277119     -1.62088110317124
  O          -5.77071150429081      1.20140441318864     -2.29144204992324
  O          -3.31878757341482     -3.04159092912310     -3.07446810430916
  O           1.81034597395431     -5.24995350898729     -2.51440528417989
  O           5.25816958776656     -0.41588661733399     -2.75290892507052
  C           2.91502491749483      3.33995928841161     -0.30883412612895
  C          -1.64389536376757      4.32188008919433      0.45008993950460
  C          -5.10863583557375      1.09666909256446     -0.00937184800229
  C          -3.30138646055886     -3.29062995731225     -0.71552607407019
  C           1.36089287160727     -4.17079998938250     -0.43068727247226
  C           4.89330899828300     -0.98956770927043     -0.46491591446789
  C           2.35750668132931      4.15039580878973      0.88208503665310
  C          -2.20713352897570      3.17396586086651      1.29203903599721
  C          -4.60106377296734      0.18398131991633      1.12680312351965
  C          -2.46707690173900     -3.70470049941180      0.50572698792937
  C           1.91156160113092     -3.06802326495600      0.46907779785862
  C           4.51509145396851     -0.43313104195486      0.92486248209546
  O           1.58097353339453      5.26231860026759      0.45045440071863
  O          -3.54853412457080      3.36788989399001      1.64424281625951
  O          -5.18785621976319     -1.11267850779735      1.07609912824391
  O          -1.74015078009161     -4.89694368394064      0.25294724711334
  O           3.23550815597651     -3.34397899887182      0.85342238725210
  O           5.03112548378688      0.88171548378399      1.14724152396913
  C           3.48697916473995      4.71492768995922      1.75733058596199
  C          -1.41366150973496      2.87262119824267      2.54988813430805
  C          -5.00218289811640      0.71130181622203      2.51565193794101
  C          -3.35164364595661     -4.00332345804861      1.72398648553329
  C           1.10063362015802     -2.81102555077826      1.72993784775538
  C           5.12848209100286     -1.24584844312865      2.08212967561904
  O           4.45298448785190      5.39695918605864      1.01034870522738
  O          -1.89395566982359      1.72143705519130      3.06199628735380
  O          -6.38537878544899      0.88041033831056      2.61530406727957
  O          -4.29754006803167     -4.99199221834156      1.44741667132790
  O           1.45356925496005     -1.59864997991901      2.15254548333017
  O           6.50122117841084     -1.44421801275394      1.90582309775414
  H          -0.02354032793595      5.86723436929316     -0.56580529356114
  H          -5.40623536427056      3.47512651902640      0.90373830559173
  H          -5.60359860318203     -2.74965674622899      0.03097804596596
  H          -0.41233362946285     -5.83526808014156     -0.89176049927156
  H           5.11470840300165     -3.47837372509549      0.15571457116639
  H           5.25543518470553      2.76311966869301      0.53974572410647
  H           1.83045792144422      5.12731679334494     -2.11551954597488
  H          -4.15762626449725      5.48357956546896      0.11992066337466
  H          -6.88861910152943     -0.84083660586533     -0.96391072204274
  H          -2.47192956723301     -5.43640501995872     -2.24443543065706
  H           3.87813501082759     -5.35740352048147     -0.84254601294146
  H           6.43816853944404      1.25459366010796     -1.00988695240708
  H          -0.60033569862585      4.75160690620435     -2.58298526526290
  H          -4.90708865401951      3.68363044846603     -1.90660728391940
  H          -4.94816862206106     -2.01010005050377     -2.65011202684726
  H           0.00530949738289     -4.79666952455043     -3.05705083709848
  H           4.60694298485861     -3.39231301627775     -2.71860325936201
  H           4.29810486822709      2.44715935521510     -2.42119852800678
  H           1.10822235530372      2.38371794347776     -0.95886899135917
  H          -2.39273218891873      3.45862028650488     -1.35551858551964
  H          -4.08883337203556      0.18878436696160     -1.65336552626881
  H          -1.70829624694379     -2.49054744754042     -1.90304474068564
  H           2.12963363866751     -3.23931830101598     -2.19734822582304
  H           3.62653501553692      0.24173479854174     -1.67746644222641
  H           1.89337274108151      2.71357395549030     -3.27777140420154
  H          -2.88678552728490      5.70199116481670     -2.19065857980010
  H          -6.06192777529131      0.63825115121110     -3.02778402152041
  H          -2.84829737121361     -3.27602830700770     -3.89038309817244
  H           2.48144535061312     -5.37964254473747     -3.20585743705799
  H           5.44811412241692      0.35261584924258     -3.31724182633985
  H           3.75134110401898      3.89324748006200     -0.75204553906711
  H          -1.65009158105854      5.26057043433304      1.01751540849905
  H          -6.11702788449050      1.45357407793535      0.24208347923187
  H          -4.14078904309875     -3.98848319465524     -0.83538935930961
  H           1.37527275918887     -5.12918726032643      0.09982039208815
  H           5.93792699106803     -1.33196325829485     -0.44795469080224
  H           1.72386892727357      3.49977092449383      1.49357692718605
  H          -2.10175200391146      2.25082437596780      0.69006634443221
  H          -3.50244026777052      0.10127190910238      1.06300671686413
  H          -1.78513332714347     -2.87456355923098      0.75494292268929
  H           1.87815158126345     -2.12219509041324     -0.09919233944735
  H           3.41949279521294     -0.43383564202763      1.01728081027866
  H           3.98754066757553      3.88680813808696      2.26203639351512
  H           3.02676060267836      5.36452448065131      2.51015104604476
  H          -4.62918036937298     -0.00776740577255      3.25558039476718
  H          -4.53124115276821      1.67606277083282      2.70200964498902
  H          -3.88660540173630     -3.09374564094612      2.00373595835434
  H          -2.68911145291353     -4.29371841332821      2.54898313059873
  H           4.92111686660507     -0.69157586280472      3.00563838470047
  H           4.65700304492256     -2.22563439213325      2.14732799833751
  H           4.02670378786989      6.16846913240646      0.60917272020579
  H          -6.79751198264900      0.01953162133642      2.44461579503661
  H          -3.81449867462215     -5.79394338392549      1.19409852389619
  H           6.92674112985719     -0.57412046420834      1.89807935766811
  C           0.73375198209785     -0.96536704937099      3.23336877157301
  H           1.47004288716233     -0.30342518050384      3.67705842521705
  H           0.34072298137020     -1.73665752458279      3.89252937723401
  O           0.31142112329325     -3.56730772131882      2.25412749914789
  C          -0.96470580769330      0.82929354398488      3.70536495341249
  H          -1.56886673705732      0.28299426866480      4.42327681175598
  H          -0.15810626965935      1.40741227770936      4.15460865530980
  O          -0.52774142808878      3.55314253669730      3.01651155460070
  C          -0.43524443100615     -0.17290302870884      2.68432518404307
  O          -1.26112725866387     -0.77258329015432      1.91330054526423
  O           0.37498321827357      0.97059305417757      1.55474656283790
  O           1.59244608351012      1.52739908108247      2.18260197927542
  H           2.27645688559590      1.36325535379123      1.49847615904443
