19
Coordinates from ORCA-job job.QMRegion
  C          -1.40270680104811      2.78243664103365      2.59711763500004
  C           1.06531938937120     -2.85315613540043      1.77422523829655
  O          -1.94097068707792      1.65339943940206      3.09130551027011
  O           1.34259570661983     -1.59854942842237      2.14199241588266
  C           0.67701832705409     -0.99479401429691      3.27472642307342
  H           1.36753573637070     -0.21207189203629      3.57832169361446
  H           0.51393725965132     -1.77414873131352      4.01907595591490
  O           0.32563958238228     -3.63439901816321      2.33077548122599
  C          -1.07519681267961      0.75507594087782      3.80865468178983
  H          -1.70987154918900      0.34490513144230      4.59088941457439
  H          -0.21816216849425      1.30926432831987      4.18878030829281
  O          -0.48970671888495      3.41146699598611      3.08532015181910
  C          -0.64655610222566     -0.38643181309754      2.90868128924971
  O          -1.45964819787735     -0.98112780230496      2.18740081148819
  O           0.21586614076098      0.96154635283961      1.39898507880219
  O           1.44295780883797      1.60434131263071      1.87368343039386
  H           2.11184501446779      1.31861633880769      1.22317836240916
  H          -1.95173736880955      3.04089871478969      1.70069508538993
  H           1.64825867149152     -3.02710973464427      0.87276094076930
