133
Coordinates from ORCA-job job
  C           0.55533357220903      4.98467077845456     -0.32374107538618
  C          -4.35532089201667      3.34280186015142      0.52467253721706
  C          -5.11213857902329     -1.79406038461863     -0.21632985475925
  C          -0.91733263548643     -4.91104313162870     -0.82609731102361
  C           4.09475609896616     -3.27663392713855     -0.23607765366954
  C           4.80127719855916      1.87138062221333      0.11235190063429
  O          -0.27417919153102      3.96717591470568      0.22320665567155
  O          -4.20508220207504      2.19595716811667     -0.25311881700472
  O          -3.77596050339085     -2.00145964761748     -0.61647658840699
  O           0.02733587816219     -3.86593372571590     -0.77087269958919
  O           4.01116693993881     -2.04867411389987     -0.89230377680516
  O           3.39839744295929      2.10833037494512      0.06407099096358
  C           1.11089604380716      4.48324270965262     -1.66500584973200
  C          -3.97194662450705      4.53827618449293     -0.36832756177680
  C          -5.79762917667979     -0.97290447384307     -1.32136729424002
  C          -1.72603305629483     -4.72066837657339     -2.11550067207605
  C           3.72578638351977     -4.37638851329410     -1.25808474481981
  C           5.35742925821091      1.38724607474562     -1.24229128434957
  O           0.12128497306910      4.21401128667391     -2.61756190616073
  O          -4.74633759148127      4.59042132248449     -1.52844150692077
  O          -5.77755115897872     -1.62759225266577     -2.55636177780854
  O          -0.91504668550863     -4.73386601773283     -3.25928363397299
  O           4.53866454771802     -4.31650708703837     -2.39072341454718
  O           5.22626231590966      2.30893978930674     -2.28259558678024
  C           1.86207177245959      3.18538590688706     -1.36628979601901
  C          -2.47714640286791      4.44141969371197     -0.73645069969486
  C          -5.07055596705869      0.37514122338185     -1.40058100397274
  C          -2.45895984567285     -3.37584721175621     -2.00034223506285
  C           2.23919711587555     -4.24747751093558     -1.64921114364837
  C           4.66797456209093      0.06445403336275     -1.59342235706800
  O           2.44266490307731      2.64357795562087     -2.52450412007399
  O          -2.09630291197588      5.54944360870774     -1.51040627791312
  O          -5.66413716050500      1.22555406219492     -2.34352646304294
  O          -3.31378766103278     -3.15153917430465     -3.08964327416170
  O           1.81901248781186     -5.31300859019084     -2.46028119454539
  O           5.16893513157639     -0.45660678644846     -2.79352167777393
  C           2.96733583847186      3.41100057950472     -0.32778297910079
  C          -1.61093602976669      4.32987159255577      0.53002077914356
  C          -5.07047199754452      1.08673132054398     -0.04314948674817
  C          -3.30770219886409     -3.33490207001472     -0.72540009270691
  C           1.35088478062423     -4.20481741003513     -0.39780222151954
  C           4.85828650769412     -0.97911338807057     -0.48526869076154
  C           2.45428196028072      4.20998905262576      0.89213779550537
  C          -2.17774612264403      3.15403771814727      1.33117109294009
  C          -4.59614661016288      0.15400858855388      1.09059486178460
  C          -2.48550711397552     -3.72697331688505      0.51183330017133
  C           1.88758607134579     -3.08550240378425      0.48963229321926
  C           4.50307571809599     -0.38781673099593      0.89619468499167
  O           1.62400398044151      5.30441044453382      0.51409162507266
  O          -3.52441472686858      3.33288828727652      1.67197151531259
  O          -5.19863519147984     -1.13420374770029      1.01193269222861
  O          -1.75665517570516     -4.92527780867223      0.29278089674869
  O           3.21584383761480     -3.33691380089687      0.87739833557245
  O           5.06200078903404      0.91411941610736      1.08563320297472
  C           3.61322501233112      4.81600404117495      1.69840657158878
  C          -1.41012757742996      2.80096601145623      2.59160953961419
  C          -5.01645359972983      0.66822974260496      2.47862924957294
  C          -3.38397548907192     -3.99802416516023      1.72625597154342
  C           1.07286760778551     -2.83344190712475      1.74842880165292
  C           5.09539808248982     -1.19630170413288      2.06718324698035
  O           4.48171522922722      5.56491997451324      0.89805551040386
  O          -1.94663036503444      1.66920215024773      3.08524687171913
  O          -6.39947518531084      0.85541279625083      2.55392427330179
  O          -4.32602710842897     -4.99399205895359      1.46026840085947
  O           1.35967120564769     -1.58153573425612      2.11811557080849
  O           6.45935023533946     -1.44406202946059      1.88850179437920
  H          -0.01009845736156      5.91491485496228     -0.44483627703777
  H          -5.37600415364344      3.43844290532964      0.91544690209253
  H          -5.62562959596804     -2.75081462477232     -0.05855090979445
  H          -0.41822395401481     -5.88784588541628     -0.81915822442257
  H           5.09578453112423     -3.44764113851037      0.17852801967965
  H           5.32478887112568      2.77853119689023      0.44001128637379
  H           1.81961886390695      5.23469097509835     -2.04833804357287
  H          -4.14764898783282      5.46868512590031      0.18164059106098
  H          -6.84923074660764     -0.81004123196066     -1.06382985705519
  H          -2.47184775801591     -5.52454184927994     -2.19388029692149
  H           3.89175248047537     -5.35598256819990     -0.79819687639056
  H           6.43335287543688      1.21826457318893     -1.11727038429768
  H          -0.60368394590123      4.85927473010466     -2.50257613933053
  H          -4.83096872590904      3.69336391113311     -1.88995447309024
  H          -4.89540580379350     -2.01397738870806     -2.70647842932605
  H           0.01179767781708     -4.90409383943905     -3.00689883776322
  H           4.57945337303846     -3.39696879937842     -2.69634914654269
  H           4.27919184482856      2.45393304213295     -2.47161768471337
  H           1.14062870697855      2.46471617475200     -0.93410023077373
  H          -2.32251486247620      3.51175176870008     -1.31072594228477
  H          -4.01617531704693      0.18254165009718     -1.66795814828735
  H          -1.70693354549921     -2.57160171118277     -1.92799020136690
  H           2.10290018558182     -3.29069955903669     -2.18040077072344
  H           3.58223446437004      0.25581879414093     -1.68568041006247
  H           1.86087520621224      2.84694174361560     -3.27496035288886
  H          -2.85750783268915      5.77387532526486     -2.07683690519743
  H          -5.95120661060541      0.67189261092519     -3.08867253394329
  H          -2.83840719761072     -3.40261559696723     -3.89743103729250
  H           2.49075825379376     -5.44523847124422     -3.15036889704034
  H           5.36385062775368      0.29711194375917     -3.37581409229031
  H           3.79599300870703      3.95940324218000     -0.79164978960779
  H          -1.63284180342070      5.25330446492287      1.12192908568251
  H          -6.08294168457694      1.44605475579639      0.18776222604778
  H          -4.15297527653138     -4.02739350062099     -0.83442452066810
  H           1.37453094915168     -5.15690114166101      0.14366447379802
  H           5.90164165692317     -1.32516344344663     -0.47444361161860
  H           1.87776331929478      3.53691508498274      1.53636501461498
  H          -2.06227933010573      2.25342015882852      0.69870420488178
  H          -3.49801116058143      0.06021773210632      1.04456318248686
  H          -1.80374310657638     -2.89511293002811      0.74920637667249
  H           1.84034914468759     -2.14494908736721     -0.08557405300755
  H           3.40756022371817     -0.35126197348415      0.99299065976266
  H           4.19444878992732      4.00858805330581      2.14651814969939
  H           3.17510057856283      5.42625747992192      2.49642208192597
  H          -4.66908106373282     -0.06637268725867      3.21546212717533
  H          -4.53588382104112      1.62363878727961      2.68681685842648
  H          -3.92359972737844     -3.08323737752155      1.97837528836985
  H          -2.73231541175862     -4.26925094262897      2.56614725373994
  H           4.91136112609507     -0.61647029669268      2.97998801127710
  H           4.59198908535856     -2.15862031316186      2.15391556739497
  H           3.97623242787340      6.30324396538201      0.52747747365590
  H          -6.81908295704290      0.00059942655787      2.37170500703142
  H          -3.83893615437696     -5.80100871893241      1.23291220969718
  H           6.91466348683734     -0.58965016941571      1.85951876189501
  C           0.68227622043874     -0.97849363890448      3.24335888955817
  H           1.37811295286837     -0.21208181053434      3.57402667931030
  H           0.48048082487991     -1.76152331099869      3.97357286708884
  O           0.32858489985044     -3.61000435777087      2.30620514907470
  C          -1.07212371273413      0.76175660145333      3.77777690956013
  H          -1.70478530630465      0.31238226138895      4.53918191388574
  H          -0.22631674859798      1.31498307414418      4.18385132241687
  O          -0.50457575490906      3.43642573086965      3.08487753408181
  C          -0.61691709176316     -0.33964835646946      2.83984707564915
  O          -1.42194682279231     -0.92499257598979      2.09091013530219
  O           0.23887964197777      0.97715295976923      1.44569991437889
  O           1.45346171937225      1.61600473096515      1.95183568087741
  H           2.13580986599182      1.33840761677187      1.31019503375126
