133
Coordinates from ORCA-job job
  C           0.55460417861377      4.96981637964588     -0.33279558832744
  C          -4.36300572581136      3.34788147049037      0.51497603932070
  C          -5.11528033525427     -1.79360772505498     -0.19578707096293
  C          -0.91468573401832     -4.89820237519413     -0.83329932208060
  C           4.10024957816871     -3.27585029663240     -0.24512718322979
  C           4.80331651577009      1.86632875932863      0.13112818900384
  O          -0.27994571210212      3.95660927697124      0.21442712359105
  O          -4.21595826284277      2.19578500321091     -0.25576738509860
  O          -3.77894430338886     -1.99594438575891     -0.59893426235354
  O           0.02876993814867     -3.85230919264449     -0.77448195257458
  O           4.02286216450810     -2.04657211444018     -0.89869301403399
  O           3.39918848498228      2.09644889999711      0.08634917081741
  C           1.11644520269273      4.45999827821177     -1.66814886659691
  C          -3.97444442052089      4.53630924682093     -0.38539616322950
  C          -5.80891244251468     -0.97985096403854     -1.30126455499306
  C          -1.72690511337064     -4.70178578540141     -2.11945655651630
  C           3.72539063221384     -4.37167549535287     -1.26922793493931
  C           5.36446937054121      1.39289880926969     -1.22550881503268
  O           0.13063597953794      4.18622686472638     -2.62366145224135
  O          -4.74839724760068      4.58425601760429     -1.54595123084008
  O          -5.79363385506110     -1.63977943282611     -2.53341508230537
  O          -0.91857274164810     -4.70606106513116     -3.26507602314871
  O           4.53694533443711     -4.31244290612365     -2.40281003868283
  O           5.23458373007352      2.32008639677007     -2.26111899789142
  C           1.86504471607613      3.16309763361052     -1.35849561487771
  C          -2.47983079431277      4.43119544630086     -0.75222705087962
  C          -5.08611675335424      0.36973789195623     -1.39043566545607
  C          -2.46220396095132     -3.35920013066003     -1.99460734151130
  C           2.23880446535930     -4.23606047118044     -1.65820319234219
  C           4.68096523307786      0.06994351459962     -1.58699345204580
  O           2.45144721941153      2.61583305317135     -2.51155254845175
  O          -2.09353859615363      5.53196686015778     -1.53375447775820
  O          -5.68667502637553      1.21376181308350     -2.33459090020588
  O          -3.31902506016788     -3.13006346356602     -3.08119769375689
  O           1.81378633297529     -5.29807002999952     -2.47138767184151
  O           5.18813376716880     -0.44213708146790     -2.78865839910411
  C           2.96486788315053      3.39492638123556     -0.31555631569021
  C          -1.61574696374969      4.32585219520709      0.51608843039774
  C          -5.08117473404031      1.08827670398026     -0.03671451540155
  C          -3.30853804499912     -3.32780222421438     -0.71777610466969
  C           1.35296151554628     -4.19285443117869     -0.40502750573596
  C           4.87094478370737     -0.97999496600178     -0.48484110644088
  C           2.44528745449567      4.19936898148711      0.89793368115017
  C          -2.18707444791794      3.15772246917892      1.32463317064724
  C          -4.60357378772035      0.16220170461523      1.10131002435154
  C          -2.48254255271580     -3.72535239378197      0.51510451002181
  C           1.89425099508480     -3.07524842759355      0.48172987658631
  C           4.51669221515056     -0.39851113508980      0.90112523292877
  O           1.61834394331021      5.29290895885150      0.50973600559169
  O          -3.53352625494131      3.34219340444032      1.66332235675311
  O          -5.20085749060178     -1.12895268400946      1.02999202343663
  O          -1.75153635204274     -4.92059509391767      0.28759177407379
  O           3.22134356283858     -3.33347748051862      0.86895228050805
  O           5.06971632325173      0.90473486588819      1.09829741185516
  C           3.60067860826260      4.80804794100838      1.70745405822454
  C          -1.42029620723234      2.81184574273733      2.58722665496869
  C          -5.02555022509922      0.68229175130437      2.48668412169921
  C          -3.37729817533586     -4.00486782455059      1.73031132344340
  C           1.08050176325945     -2.81820498021981      1.74011057454911
  C           5.11607122396735     -1.21173618040160      2.06530304873735
  O           4.47426957257017      5.55248257146483      0.90815854587986
  O          -1.95627591459520      1.67958510612462      3.08444517328193
  O          -6.40909348468392      0.86457259421503      2.56143219689094
  O          -4.31877961303315     -5.00038351747950      1.46154232626547
  O           1.37883365187910     -1.57257355104326      2.11667791572463
  O           6.48026829839728     -1.45447020834990      1.88033561533566
  H          -0.00872699958714      5.90013304388907     -0.46271171600062
  H          -5.38379446349590      3.44937526285224      0.90397898236996
  H          -5.62338910793578     -2.75222477261302     -0.03231402734529
  H          -0.41415922836620     -5.87432366919534     -0.83314501119705
  H           5.10055375294349     -3.45306409322605      0.16866071314680
  H           5.32234990459397      2.77430273413056      0.46397892137504
  H           1.82747796848106      5.20858273000798     -2.05277408323972
  H          -4.14671834454994      5.47074473085087      0.15875584643387
  H          -6.85957724595195     -0.81918923148834     -1.03864229162726
  H          -2.47132183441689     -5.50674497484407     -2.20065704828377
  H           3.88791415564392     -5.35306199796096     -0.81194365758013
  H           6.44051463802683      1.22685775531957     -1.09724743446893
  H          -0.59445913465219      4.83218360844474     -2.51507970435923
  H          -4.83685300836205      3.68516197891023     -1.90131861869561
  H          -4.90939815879613     -2.01912062104162     -2.68948839391565
  H           0.00806771123018     -4.88303041399612     -3.01637980463395
  H           4.58151090789606     -3.39221904628942     -2.70596187391131
  H           4.28767549496728      2.45674826619578     -2.45782874416943
  H           1.14076929196364      2.44506213195400     -0.92761124481916
  H          -2.32851513102556      3.49678397066199     -1.31956157306143
  H          -4.03251583132627      0.17848448706740     -1.66183536992706
  H          -1.71164674975171     -2.55391947213022     -1.91816944804057
  H           2.10525150454882     -3.27769343774177     -2.18715818258526
  H           3.59509226251492      0.25799788807845     -1.68235712611216
  H           1.87147560164914      2.81284232644159     -3.26496900086768
  H          -2.85246537749821      5.75477355323795     -2.10368253389103
  H          -5.97483712905575      0.65573138566347     -3.07607489425389
  H          -2.84462488984106     -3.37623937658284     -3.89115039559812
  H           2.48451741142839     -5.43083549628598     -3.16244509911889
  H           5.38070690596575      0.31586377013280     -3.36611905640505
  H           3.79385147359672      3.94388005606378     -0.77818160505488
  H          -1.63596383864429      5.25344361613510      1.10141840817894
  H          -6.09272031108526      1.44932975474964      0.19558118531725
  H          -4.15269126201009     -4.02126638887780     -0.82904629515114
  H           1.37652955076927     -5.14518741687537      0.13602036910873
  H           5.91407904854133     -1.32691338742501     -0.47715965766722
  H           1.86505342030409      3.53053393602338      1.54283696411351
  H          -2.07373022698436      2.25166354954164      0.69916378236912
  H          -3.50520615245865      0.07149512315247      1.05585727995464
  H          -1.80260275265755     -2.89277828323170      0.75559523125358
  H           1.85186436539658     -2.13510800290858     -0.09456695206123
  H           3.42158591014387     -0.36787958423490      1.00120840271567
  H           4.17887765338276      4.00225979136418      2.16227235424011
  H           3.15926546185479      5.42261801592866      2.50029360126706
  H          -4.67488805816234     -0.04690178096618      3.22735998963521
  H          -4.54851912336043      1.64062819581690      2.68959434645136
  H          -3.91695602047795     -3.09193559927355      1.98916723413686
  H          -2.72269646595987     -4.27982384139354      2.56673322380081
  H           4.93409728189781     -0.63745160376700      2.98200237692175
  H           4.61592199756587     -2.17597649866642      2.14899267351366
  H           3.97117832461645      6.28923179940527      0.53135556451656
  H          -6.82570659729086      0.00759842028328      2.38253104374087
  H          -3.83141122548506     -5.80539386331179      1.22750186865737
  H           6.93256161855789     -0.59836053443308      1.85403613783473
  C           0.68879794072181     -0.96286254893614      3.23054600735611
  H           1.39129858330589     -0.21297181489343      3.58284634561006
  H           0.44707042161125     -1.74361104741598      3.95034383379985
  O           0.32960242149063     -3.59114347769100      2.29465547961779
  C          -1.07245804819637      0.76763471619682      3.75852290528301
  H          -1.70323301582547      0.27942192402204      4.49640245509033
  H          -0.24199739933134      1.32455304891822      4.19047578052837
  O          -0.51480760617356      3.44886056963656      3.07828646046421
  C          -0.58727922977046     -0.29649018138623      2.78878722356850
  O          -1.39703790622042     -0.89467717847235      2.04052075673371
  O           0.23289194869477      0.96275775971654      1.46908503636546
  O           1.44492078345692      1.60875437138743      1.97575672751986
  H           2.13085205247417      1.32699163153271      1.33863460626383
