133
Coordinates from ORCA-job job
  C           0.82569379735750      5.07046301254196     -0.37312639714068
  C          -3.93613049177270      3.10807358623068      0.68225064580070
  C          -5.21064017466186     -1.83656882240868      0.02032248002131
  C          -0.92139926331631     -4.72269353075457     -0.84393097852583
  C           3.88277621323075     -2.84678622924955      0.25607511830420
  C           5.16771347666699      2.20040595879851     -0.51932587628973
  O           0.03198069822085      3.89363605471445     -0.42578700854948
  O          -4.17723647491929      2.10497396592913     -0.26070871051427
  O          -3.93343244497293     -2.06707025890406     -0.54198321646609
  O          -0.06948666162464     -3.60354902762425     -0.65327236192378
  O           3.72935610524197     -1.60638391313287     -0.36642158322845
  O           3.89339845412597      2.51955594108455     -1.01089811278230
  C           1.48778066664109      5.22907449648593     -1.74355008022613
  C          -3.67762534317113      4.42651877264286     -0.08009502023570
  C          -6.00303490624620     -1.03039322010616     -1.01937017788152
  C          -1.68738316548246     -4.52328251416366     -2.15856713730019
  C           3.67800710347175     -3.92108848426685     -0.83229921677110
  C           5.77967429162180      1.24998261601543     -1.56515886237139
  O           0.54590946095678      5.31900827770038     -2.78001579721074
  O          -4.69261348195360      4.69368726019575     -0.99922048950217
  O          -6.12556137650658     -1.71760821362026     -2.23113581089823
  O          -0.82531781637778     -4.24038957946721     -3.22893248514938
  O           4.60891613014945     -3.78567230783762     -1.86273545063592
  O           5.85197642067597      1.85457574159031     -2.82384517843667
  C           2.37879917432669      4.00102267905439     -1.95746510782372
  C          -2.30640577634906      4.37704583011171     -0.78071901519687
  C          -5.26505256844369      0.29855391238604     -1.22113502946761
  C          -2.65911689128636     -3.34896802856177     -1.99655208352320
  C           2.23681271159824     -3.79910168560731     -1.36822302816533
  C           4.89494550128065     -0.00410060561640     -1.60508810011721
  O           3.11642898271993      4.08794793729601     -3.14722438661182
  O          -1.97971267754597      5.61784269320003     -1.34723226399229
  O          -5.95971236574202      1.13015962329372     -2.10596437517264
  O          -3.57303908985029     -3.27039085094188     -3.05430686270307
  O           1.93454424206547     -4.81263425249094     -2.28826640664977
  O           5.41915048124085     -0.99460835862919     -2.45105250549937
  C           3.37825239868336      3.82483068779509     -0.80726142513451
  C          -1.21389042853647      3.97888801821921      0.22518440210052
  C          -5.06476569869753      1.05049376668267      0.09865376471767
  C          -3.48767151950852     -3.40688268577298     -0.70494313851589
  C           1.25198766476007     -3.89101148805997     -0.20153542267479
  C           4.74430981031708     -0.62102838228581     -0.21201736684248
  C           2.72474661141092      3.96642748106707      0.58054003387117
  C          -1.64572036847357      2.61925148730072      0.79249284364785
  C          -4.51267270589204      0.13565759873568      1.21358527170341
  C          -2.66643792945073     -3.84396149549526      0.51453656958518
  C           1.62923585691654     -2.86093668476976      0.87083574442273
  C           4.34323497357025      0.42234651038626      0.84410148439781
  O           1.78066275190577      5.03344606106177      0.63882996394302
  O          -2.83541381194171      2.78139282470634      1.51102268359621
  O          -5.13953421887759     -1.14448522243235      1.22950274509468
  O          -1.80991824934149     -4.92877008692898      0.20956477812607
  O           2.94981080399349     -3.00581847584438      1.31080786518248
  O           5.13552616285916      1.59631374730653      0.74587844683275
  C           3.75941390061475      4.31657747870925      1.66503427156286
  C          -0.65400325982944      1.87790064931020      1.66163988470051
  C          -4.78963643041331      0.68971208870931      2.62806749312432
  C          -3.54559150464921     -4.31287215345105      1.68352355680933
  C           0.65949519420116     -2.99345188602890      2.03154028980645
  C           4.57491243623053     -0.11438646253944      2.26662494838993
  O           4.47741720515665      5.47078921949755      1.33279192755120
  O          -1.24827432851313      1.43122210760068      2.75437514024756
  O          -6.11526689343342      1.10310821372883      2.77363676787025
  O          -4.44091211454725     -5.31084160614752      1.30021290891370
  O           0.82327497177626     -2.04773062392084      2.92965757585462
  O           5.90317202228096     -0.50955507541876      2.45196971158143
  H           0.19991636793456      5.94153965865682     -0.14352299195775
  H          -4.78506152168087      3.21840751062654      1.36795996683095
  H          -5.70670313008126     -2.78503258581727      0.25848414557061
  H          -0.31916341633745     -5.63889819038809     -0.88918146800833
  H           4.86470551110712     -2.94789592907462      0.73336061733340
  H           5.78241412030623      3.10152514835955     -0.39282614526745
  H           2.11489521292321      6.13362784505542     -1.73586701522429
  H          -3.67399284503943      5.25340711351636      0.63877129140844
  H          -7.01738186726256     -0.84141277249636     -0.65461690047262
  H          -2.26751864192863     -5.43765670331794     -2.36003328924880
  H           3.81835680894052     -4.91748116431362     -0.39989074746075
  H           6.80076700044718      0.97767065050553     -1.28206730472164
  H          -0.33703926973075      5.46996968949850     -2.39716533644488
  H          -4.90094706288316      3.87939149933870     -1.48206034386714
  H          -5.26559988982955     -2.09722428741754     -2.47932297332426
  H           0.04350535722447     -4.65195821871897     -3.06531384347569
  H           4.73422206856787     -2.84163769696958     -2.07724792648699
  H           5.01498812539078      2.31543561964503     -2.99310895586769
  H           1.72668673273288      3.10940887610067     -1.96941596121292
  H          -2.33272138622799      3.59789997153690     -1.56141671113437
  H          -4.25410762589668      0.07139077923630     -1.61229180930313
  H          -2.05925483437083     -2.42192677939198     -1.93960457393250
  H           2.11367462677947     -2.80707054638786     -1.83519778270317
  H           3.88737003813679      0.29331570226082     -1.94381073791710
  H           2.51886656863439      4.41114067242393     -3.83857865826661
  H          -2.77294607370108      5.95488715719642     -1.79825326347905
  H          -6.36036343826782      0.55999410727213     -2.78434789102875
  H          -3.09004322556933     -3.38741434720346     -3.88800543865185
  H           2.70211488713600     -4.90763990827446     -2.87933428975393
  H           5.74586774818056     -0.55724974074142     -3.25383568003962
  H           4.18327814674436      4.56625772657752     -0.91496043949864
  H          -1.16611941799123      4.69466758150115      1.05540213766890
  H          -6.01986919523492      1.48243771683097      0.43134173106266
  H          -4.34278998049192     -4.08073787864360     -0.84849743908934
  H           1.27978054928964     -4.89098560052894      0.24759319122021
  H           5.69107890734482     -1.09280526804396      0.08175986384539
  H           2.22293578688885      3.01677507611891      0.81655052769163
  H          -1.79019542391427      1.91225150484837     -0.05000504578911
  H          -3.42319931585237      0.00737790087426      1.05963063542668
  H          -2.09136980665534     -2.95927993822332      0.83849367045810
  H           1.47196973300486     -1.84677092613201      0.45876038000054
  H           3.27568939208270      0.66315305583890      0.70306974624592
  H           4.47844086806147      3.50401034144364      1.76781691545646
  H           3.21823799561602      4.44524630688988      2.61008552927994
  H          -4.52967089939587     -0.10640865598893      3.33355701807096
  H          -4.14367895698081      1.54461681794294      2.82330897785369
  H          -4.12251802405957     -3.46272702417164      2.05397191149484
  H          -2.87049249883826     -4.65625571530858      2.47614133875325
  H           4.28999106336408      0.67018651768855      2.97763342078500
  H           3.94498399884319     -0.99134931450504      2.43123035979531
  H           3.84118999405077      6.19598265350465      1.24842081030171
  H          -6.68279420500226      0.31972952230582      2.72380651174252
  H          -3.92598655220580     -6.09061198213791      1.04084540358005
  H           6.46247189625142      0.27055911295414      2.31448740983730
  C          -0.22870719442093     -1.95565758342723      3.92814825820334
  H           0.29783223727211     -1.64340937540581      4.83944120046844
  H          -0.74442383363192     -2.90405292223936      4.03636510063157
  O          -0.19678436904449     -3.83721398433037      2.09062698224088
  C          -0.53836076575426      0.43783395485248      3.51285976081588
  H          -0.57202295725799      0.78269446199864      4.55970431167944
  H           0.48680463555870      0.36931956849492      3.16301958530037
  O           0.49775684123138      1.62970197353621      1.33776294741551
  C          -1.19387192313717     -0.88774837611995      3.50082252558124
  O          -2.36762462420309     -1.09099887938449      3.35778075716308
  O          -1.29377992057371     -0.85702067285898      0.70277423719837
  O          -0.55016808582962     -0.81396763241414     -0.56084052286130
  H          -0.47622308470449     -1.77573604266377     -0.74644345955385
