19
Coordinates from ORCA-job job.QMRegion
  C          -1.42008653826321      2.72841742255910      2.27787006997814
  C           1.20474365528065     -2.93174314647929      1.91471445302131
  O          -1.80869893569194      1.51429055734705      2.68305932123483
  O           1.62033333818328     -1.84621786826527      2.55279236835447
  C           0.69950830757166     -1.16669367774543      3.43450297846394
  H           1.33861581483581     -0.67524640411610      4.16050464469960
  H          -0.00371085114168     -1.87758812647583      3.86175312137667
  O           0.32417731118879     -3.67807710321467      2.28573728447324
  C          -0.91357658739698      0.72280695204699      3.49937617824723
  H          -1.57873468412308      0.08455969315588      4.06986936284611
  H          -0.29225648461442      1.38384929214989      4.10073478243070
  O          -0.53512482613790      3.41083868849113      2.74922803622145
  C          -0.07674464084346     -0.16951457433523      2.58339553419144
  O          -0.75195988840461     -0.74132574214482      1.58023464513654
  O           0.89889889311821      0.70307189421919      1.85078884328830
  O           1.84678026571707      1.33309499724264      2.84172741853149
  H           2.57049360756831      0.66616301700584      2.83098453301450
  H          -2.03517323844377      2.98813360491751      1.42559197254665
  H           1.78395011687942     -3.04093338920839      1.00168856738783
