19
Coordinates from ORCA-job job.QMRegion
  C          -1.38813542730081      2.89227880879921      2.52819567068283
  C           1.10795867366421     -2.81099188136435      1.73247094207127
  O          -1.85017662612835      1.73810638902504      3.04695934839923
  O           1.49404795506616     -1.61929444119217      2.17903527322747
  C           0.75589577749888     -0.96707048929850      3.23504424666715
  H           1.50269053440353     -0.35615604952343      3.73101070104842
  H           0.28190227688519     -1.72309037770124      3.85700212502421
  O           0.29121197616064     -3.54924213233962      2.23911271734173
  C          -0.90518365641637      0.85241001735428      3.67884646647269
  H          -1.50510273149485      0.26881114151712      4.36951167769992
  H          -0.11987017184464      1.43808421139911      4.15585794936644
  O          -0.49110978729825      3.57255013899108      2.97316430085323
  C          -0.33810651611759     -0.10306841895548      2.62987683364415
  O          -1.17120928504927     -0.68140587124962      1.82404750948002
  O           0.48452776526310      0.97016420183273      1.59961251240791
  O           1.70014277890787      1.49947902117099      2.28435947489701
  H           2.37912532021171      1.40582371669557      1.57831236366293
  H          -1.97076983776215      3.10202842692447      1.63944086210995
  H           1.68579317599182     -2.99764493300611      0.83060547678092
