19
Coordinates from ORCA-job job.QMRegion
  C          -1.41593060501130      2.85891428551616      2.55599344314628
  C           1.09384934359724     -2.81491757867354      1.73721158710377
  O          -1.90102653760521      1.70955018950717      3.06499864101835
  O           1.43544468020568     -1.59551224862728      2.15374403685390
  C           0.72424404886593     -0.97374603853864      3.24725187349907
  H           1.44885019771897     -0.27773592466261      3.65743786310033
  H           0.38742899329649     -1.75219945653988      3.92931626221427
  O           0.31273886992414     -3.57647131679328      2.26564012340410
  C          -0.98281174669560      0.82042080590409      3.72629213882708
  H          -1.58958969500196      0.31483452296593      4.47221087794377
  H          -0.15828657561451      1.39493273763292      4.14633529689432
  O          -0.53480274656117      3.54095928300481      3.03049917894842
  C          -0.48743157303210     -0.22749784232717      2.73954861127300
  O          -1.30618542940349     -0.81944583071457      1.97729999284785
  O           0.35502989336649      0.96970575296849      1.52836645088975
  O           1.56561994530598      1.54513885101183      2.13384291470080
  H           2.25683247793612      1.34324886418757      1.47025925883234
  H          -1.97726329163766      3.07646376768754      1.65641271175482
  H           1.67342121884838     -2.99482888956388      0.83482536514833
