133
Coordinates from ORCA-job job
  C           0.81778603180286      5.09609034925075     -0.35835001013858
  C          -3.95878832085542      3.14523161676094      0.67868384895602
  C          -5.17580381952048     -1.81576100870418      0.02709747830452
  C          -0.90224839274725     -4.74633838225544     -0.82017531235579
  C           3.91437860348667     -2.88298879494078      0.24830631121676
  C           5.13546718850645      2.18711946301505     -0.54315136971932
  O           0.01171868618101      3.92911528912929     -0.41891190599554
  O          -4.18817377935385      2.14540179712929     -0.27032745057694
  O          -3.87942198219544     -2.04910549593699     -0.49134647925881
  O          -0.03743118964622     -3.64023919845872     -0.61599848068547
  O           3.72379886527045     -1.63671711028527     -0.35367285321359
  O           3.85646544223358      2.51466521090186     -1.01676454065285
  C           1.47816231072883      5.25572993204428     -1.72954565415395
  C          -3.69784231308427      4.46842404847270     -0.07511983248576
  C          -5.94739602250154     -1.02549196520994     -1.04059280743426
  C          -1.66286905893584     -4.52050986715636     -2.13355929485767
  C           3.70537467021081     -3.94699236723109     -0.84986576120564
  C           5.72947930876827      1.23542875335369     -1.59815729720972
  O           0.53442301338780      5.36616526149410     -2.76222387407079
  O          -4.70977238922938      4.74157370208829     -0.99589043345453
  O          -6.04322375690252     -1.72221079392585     -2.24900726111751
  O          -0.79499713787677     -4.24367838252090     -3.20083842106149
  O           4.62003884780657     -3.79347940285030     -1.89202402577371
  O           5.77894091288266      1.83843122950358     -2.85866833349136
  C           2.35264848869470      4.01715374540963     -1.95366389950174
  C          -2.32403666053829      4.42386227554044     -0.77160781063124
  C          -5.21472245509618      0.30717034121948     -1.23806749709492
  C          -2.61361182991964     -3.33043670188527     -1.95970508418940
  C           2.25596621972687     -3.82830063501938     -1.36277208973566
  C           4.84798671078372     -0.02162508922368     -1.62188390824237
  O           3.08366887296697      4.09994207774312     -3.14796902936671
  O          -1.99333823183078      5.66903162597865     -1.32686520536264
  O          -5.88935058975108      1.11911197472824     -2.15615048428299
  O          -3.52375650473487     -3.22439491653181     -3.01895375880893
  O           1.94522637280011     -4.83177364978754     -2.29178173130086
  O           5.35947381183066     -1.00758208426615     -2.48090141556505
  C           3.35647441504677      3.82594413616347     -0.80983680792302
  C          -1.23366538176632      4.01699608607882      0.23337436202554
  C          -5.06285880250203      1.07678611624519      0.07836743215078
  C          -3.44570265087455     -3.39107670372294     -0.67074051055076
  C           1.28787664649377     -3.94157899419070     -0.18445216313315
  C           4.72911864172864     -0.63828624053254     -0.22545212934209
  C           2.71351474633105      3.97149603559619      0.58241338454894
  C          -1.67111627831823      2.65620173095596      0.79523694180452
  C          -4.52260185187813      0.17723621849265      1.21145184427122
  C          -2.63284001678040     -3.85350013891768      0.54609713141577
  C           1.67623373428708     -2.93152215152893      0.90433871915285
  C           4.33143028555962      0.40667063728683      0.83041296298699
  O           1.77587227647690      5.04384649313388      0.65053164326571
  O          -2.86131288676762      2.81932695080257      1.51265325549959
  O          -5.14166365157940     -1.10679267456628      1.22758567462747
  O          -1.79449621932750     -4.95048088077870      0.23106380742158
  O           3.00557882918663     -3.07547001609240      1.31903749546196
  O           5.11858858903308      1.58309451711004      0.72267588813397
  C           3.75926873471622      4.31264889228083      1.65888075594935
  C          -0.67955958503999      1.90868626201051      1.65812530538907
  C          -4.82232285336415      0.73717067232001      2.61874714952829
  C          -3.52601274031464     -4.31561162586187      1.70677969917379
  C           0.70921102862828     -3.09127438209424      2.06719632161598
  C           4.57477114254655     -0.12716857852428      2.25176295502708
  O           4.48033718878064      5.46451939467033      1.32473079228164
  O          -1.28372789589940      1.42134699180789      2.72920352969523
  O          -6.15132191943516      1.14667511561408      2.74407193260356
  O          -4.44388233933780     -5.28791362495361      1.31060857970189
  O           0.80739082653523     -2.10656076594983      2.93621235649599
  O           5.90682246422861     -0.51260012184340      2.42993885066758
  H           0.20209388306320      5.97241790868623     -0.12109688904839
  H          -4.81294188015493      3.25033877516376      1.35853240068642
  H          -5.67355886104884     -2.76336105109673      0.26511692748609
  H          -0.31257665654484     -5.67007677828742     -0.87419121801362
  H           4.90780138441067     -2.97143580074461      0.70353068153250
  H           5.75653905115683      3.08493149697789     -0.42437818085808
  H           2.11748181083024      6.15148829993275     -1.71798858262365
  H          -3.69681599124886      5.29039436517478      0.64935136316945
  H          -6.97013442516841     -0.83899591669725     -0.69796539660226
  H          -2.25935733134032     -5.42175457858128     -2.34550261142231
  H           3.85923946297121     -4.94677015398576     -0.43025174851785
  H           6.75587479353853      0.96530325902824     -1.33261011915747
  H          -0.34785243901454      5.51019936898617     -2.37510180445239
  H          -4.91441154156668      3.93064629434234     -1.48601872872848
  H          -5.17756770521105     -2.10125110764335     -2.48007038715764
  H           0.07917063875574     -4.63975677082777     -3.02450702164036
  H           4.72851547397217     -2.84661404355939     -2.10450102942312
  H           4.94039568003972      2.30219076607621     -3.01202004304686
  H           1.69039722908606      3.13332278369805     -1.96489414403504
  H          -2.34934471937494      3.65207663199991     -1.55933262264540
  H          -4.19046126267056      0.08425483491084     -1.59551247160139
  H          -1.99859169589748     -2.41440416914112     -1.89180286262020
  H           2.12027888432593     -2.83121767800004     -1.81494234791865
  H           3.83265558698541      0.27246964206299     -1.93970070243884
  H           2.48582558367845      4.43558247276281     -3.83324418150745
  H          -2.78313731369698      6.00953555517759     -1.78095685669055
  H          -6.27139979338521      0.53392377937414     -2.83257429078045
  H          -3.04090953307355     -3.33641121649574     -3.85342174404723
  H           2.69491358962684     -4.90024681938271     -2.90874881694294
  H           5.67242879534239     -0.56623220550615     -3.28707386519111
  H           4.16937821232742      4.55815326273025     -0.92099094427300
  H          -1.18282393254659      4.72990641065658      1.06575614638723
  H          -6.03389824785597      1.49248147654775      0.38438069106432
  H          -4.30675430961124     -4.05503893252607     -0.82348706281091
  H           1.31808452908044     -4.95047371318350      0.24390391711002
  H           5.68654672151884     -1.09597662089713      0.05487081337431
  H           2.20897274821141      3.02450189083340      0.82186784872041
  H          -1.81900549363001      1.95465170489722     -0.05128709332518
  H          -3.43120889521067      0.05412090887728      1.07854518996355
  H          -2.04171653015607     -2.98526017743793      0.88334125874689
  H           1.51147532762535     -1.91096169413240      0.51310169218462
  H           3.26209057527933      0.64335925063577      0.69639449388901
  H           4.47492629491836      3.49591835484330      1.75209103672935
  H           3.22744215699142      4.44019539150586      2.60939012555812
  H          -4.56880803044002     -0.05659638558471      3.32952080440784
  H          -4.18161693994532      1.59433560653121      2.82066547140800
  H          -4.08372122045917     -3.45517710281134      2.08361562699340
  H          -2.86252835043940     -4.68354200514696      2.49820693537614
  H           4.28764921464296      0.65502419094196      2.96452302162552
  H           3.95234711323833     -1.00893877303732      2.41983377696925
  H           3.84627205351799      6.19222906829259      1.24562201320312
  H          -6.71467302896458      0.36093099918787      2.68666060379066
  H          -3.94709366080716     -6.07831218470676      1.04829164212185
  H           6.45975959889565      0.27039613543881      2.28296700583191
  C          -0.29644890240895     -1.99508578697611      3.87718936042586
  H           0.18702381546437     -1.69412392245104      4.81443222231881
  H          -0.82828982983562     -2.93654509991322      3.96302503014053
  O          -0.09809878800673     -3.98174049021567      2.14062363392065
  C          -0.57696812853044      0.40980296546556      3.46668225204893
  H          -0.61563539436721      0.73869379575262      4.51803869345769
  H           0.44907596771821      0.34178258106358      3.11772852061776
  O           0.48104564218535      1.69042722296771      1.34369945522891
  C          -1.23833118818645     -0.91417357859826      3.42560275596988
  O          -2.41724843946084     -1.10774322912308      3.28001905874892
  O          -1.23256882452738     -0.93489364544264      0.82569170504550
  O          -0.49279794231526     -0.86548556029665     -0.44085507745032
  H          -0.42602479203940     -1.82278121767936     -0.64975973671235
