19
Coordinates from ORCA-job job.QMRegion
  C          -1.38715250283867      2.78335105510905      2.61561223767185
  C           1.02754781800552     -2.89825503276747      1.80137077705756
  O          -1.92057111081366      1.65134087298658      3.10247097891995
  O           1.27853417375450     -1.64062663755695      2.16381146090734
  C           0.63435813096630     -1.04175148923455      3.31310736198849
  H           1.32919795113624     -0.25405376150418      3.59283888133798
  H           0.50942002618200     -1.82468425769291      4.06183418359191
  O           0.29730850420895     -3.68819891782846      2.35239801127506
  C          -1.06218196415769      0.76182528874853      3.84344834896334
  H          -1.68576540413269      0.42587185702364      4.67106836089981
  H          -0.17512932325266      1.30540787807811      4.16512218335890
  O          -0.46508164875278      3.40172185160336      3.10033320023447
  C          -0.70824828020180     -0.44402023437680      3.00179855062896
  O          -1.54294783397655     -1.02880609899161      2.31359861069366
  O           0.19344204167458      0.95612832501202      1.27363808285512
  O           1.44490686544769      1.57003154957066      1.74207063767474
  H           2.08927834042795      1.31909024043988      1.05532772171567
  H          -1.93693204127754      3.04865977127918      1.72190212998211
  H           1.61907376542648     -3.06005865286924      0.90189867434268
