19
Coordinates from ORCA-job job.QMRegion
  C          -0.65400325982944      1.87790064931020      1.66163988470051
  C           0.65949519420116     -2.99345188602890      2.03154028980645
  O          -1.24827432851313      1.43122210760068      2.75437514024756
  O           0.82327497177626     -2.04773062392084      2.92965757585462
  C          -0.22870719442093     -1.95565758342723      3.92814825820334
  H           0.29783223727211     -1.64340937540581      4.83944120046844
  H          -0.74442383363192     -2.90405292223936      4.03636510063157
  O          -0.19678436904449     -3.83721398433037      2.09062698224088
  C          -0.53836076575426      0.43783395485248      3.51285976081588
  H          -0.57202295725799      0.78269446199864      4.55970431167944
  H           0.48680463555870      0.36931956849492      3.16301958530037
  O           0.49775684123138      1.62970197353621      1.33776294741551
  C          -1.19387192313717     -0.88774837611995      3.50082252558124
  O          -2.36762462420309     -1.09099887938449      3.35778075716308
  O          -1.29377992057371     -0.85702067285898      0.70277423719837
  O          -0.55016808582962     -0.81396763241414     -0.56084052286130
  H          -0.47622308470449     -1.77573604266377     -0.74644345955385
  H          -1.36152803824689      2.40680559892426      1.04156076912116
  H           1.35273964455836     -2.89871993202005      1.20178031837396
