19
Coordinates from ORCA-job job.QMRegion
  C          -1.40847847590403      2.66765110820564      2.21091129616015
  C           1.20916787113952     -2.99788453305267      1.97714417624114
  O          -1.79060946884607      1.44285991359321      2.58633908598825
  O           1.62008814177803     -1.93551967542610      2.65681553261087
  C           0.66073919245090     -1.23659314494253      3.47742340158205
  H           1.25800305637438     -0.77859319621640      4.25906920135026
  H          -0.09764279271724     -1.92403487890513      3.84369273904912
  O           0.32486817403217     -3.75283296572277      2.32113467149347
  C          -0.92267416611912      0.66496757743316      3.44510331246059
  H          -1.60356447480752      0.00636554535564      3.97131202666878
  H          -0.35435362088806      1.33764306883102      4.08446983229094
  O          -0.52322743695585      3.34091104711532      2.69580140853948
  C          -0.01391738741351     -0.20541842132107      2.57065462950771
  O          -0.66827097110328     -0.79836883808622      1.53900256653603
  O           0.94129500380917      0.57510864011784      1.90857699511830
  O           1.82068806282556      1.26142098027813      2.93978918095139
  H           2.53248524501108      0.58469849075426      3.03110662910116
  H          -2.02844483203675      2.94638307997341      1.36891774241764
  H           1.78783019054559     -3.07826201445473      1.06098587675496
