133
Coordinates from ORCA-job job
  C           0.49680132515129      4.89708026512607     -0.49988380830740
  C          -4.41875418838528      3.38241713380122      0.52350229713233
  C          -5.11468755500215     -1.77286909100582     -0.10063371924032
  C          -0.89802535593907     -4.79826919791890     -0.92144145977552
  C           4.12994745880756     -3.30218847787355     -0.24124794072607
  C           4.73005623509581      1.83397175095654      0.20520575509765
  O          -0.36870931031554      3.90689578710149      0.02907863737682
  O          -4.29766347217049      2.21884648815721     -0.23324458478151
  O          -3.78055153882032     -1.93006538442886     -0.53592772882524
  O           0.04896261756472     -3.76723158113341     -0.75569969505777
  O           4.07080555538318     -2.07192557210307     -0.89120193472917
  O           3.31619274552225      2.01709915918670      0.12817691663506
  C           1.09466706516299      4.33191030852942     -1.79496812018019
  C          -4.05876870738300      4.54793230743494     -0.42095756199231
  C          -5.86771494819919     -0.99015052379085     -1.19029571592941
  C          -1.67758711749789     -4.50092996688606     -2.20877804998751
  C           3.73016826733778     -4.38599139346768     -1.26811477928712
  C           5.35135118102828      1.39429042254885     -1.13606812065198
  O           0.12036895972064      4.03842444522466     -2.75901995814178
  O          -4.89286151281907      4.58322829123060     -1.53911046247677
  O          -5.86930128942310     -1.66118670801046     -2.41657382579756
  O          -0.83329053676993     -4.38598924570087     -3.32225545389817
  O           4.53984307498638     -4.34272223626274     -2.40341441810613
  O           5.23914687619229      2.32881647390882     -2.16650951646082
  C           1.82503041922696      3.03730010020782     -1.42280578050698
  C          -2.58681237728601      4.39466358269556     -0.85511536536283
  C          -5.18749059865827      0.37769689110988     -1.31364105927361
  C          -2.43088187051154     -3.18113988849412     -1.99871625297391
  C           2.24620795056289     -4.21444234529366     -1.65433580712757
  C           4.71920647604307      0.05777093530485     -1.53762224839023
  O           2.47144247809121      2.47794091033050     -2.53768291491978
  O          -2.19239686668476      5.44948099024975     -1.69225813535694
  O          -5.85078711493513      1.20451408282016     -2.23009382770534
  O          -3.27224183639613     -2.88183794439182     -3.07957481151472
  O           1.80191704682720     -5.26124406868204     -2.47745671703223
  O           5.28139663764508     -0.42309011367112     -2.72808123953618
  C           2.86770642004622      3.29292006000840     -0.32747156429749
  C          -1.67721381133333      4.31652800829062      0.38044230511855
  C          -5.13696805002686      1.10460114692035      0.03499503557377
  C          -3.29966886848105     -3.24694268888773     -0.73850445668145
  C           1.36255882737618     -4.15918354969269     -0.39982499923721
  C           4.89918530492839     -1.00226191614737     -0.44364254415698
  C           2.26454267437626      4.09556402276127      0.84420364727449
  C          -2.22062829320235      3.18637614111669      1.25775866591366
  C          -4.59809838186442      0.19727518395570      1.16127538514584
  C          -2.49040399285671     -3.72366398977752      0.47643317278104
  C           1.93221466371894     -3.06819943274766      0.50127684342748
  C           4.50485340732470     -0.44965698184998      0.94304692178055
  O           1.52847688390261      5.22115581459138      0.38377939573392
  O          -3.55011036904459      3.39198392636940      1.64488897128137
  O          -5.17935949833931     -1.10196504709162      1.12322517912366
  O          -1.76357691375092     -4.90370960949752      0.17358227432920
  O           3.25438946610637     -3.35279843550635      0.87701047415609
  O           4.99829848064987      0.87340045706487      1.16971005154703
  C           3.35454475524493      4.62514507275414      1.78785803680386
  C          -1.37135567543187      2.90242731365522      2.48475627338364
  C          -4.97131136778688      0.72735077659900      2.55692280701529
  C          -3.39533839206007     -4.07855813104537      1.66491626318582
  C           1.12076774681755     -2.80216294349953      1.75917802932318
  C           5.12502350504801     -1.24958830191539      2.10546756538490
  O           4.38139368376326      5.28246793091353      1.10254987114657
  O          -1.79063938069708      1.73474971355580      3.00080687939204
  O          -6.35179384526170      0.89683456944468      2.68480228214967
  O          -4.34872945024082     -5.03899991096874      1.32267226027852
  O           1.56429472789559     -1.65421918307070      2.25752852504184
  O           6.50330204041624     -1.41712257140997      1.94002415504305
  H          -0.04502167695182      5.83153340578217     -0.68134196177369
  H          -5.42504465346104      3.49389598816354      0.94552585090770
  H          -5.58453575591576     -2.74690299879087      0.08245474599151
  H          -0.40108965066577     -5.77424128208300     -0.98494432981468
  H           5.12871476182238     -3.49764464956339      0.16869497803400
  H           5.20423051620987      2.75788477905694      0.56317030310839
  H           1.82311187439366      5.05598014210875     -2.19307272322646
  H          -4.18593161259682      5.49752466205000      0.10875710938109
  H          -6.91437371440667     -0.86095358421603     -0.89713206613936
  H          -2.41004443752472     -5.30549925724846     -2.37545704126496
  H           3.87027817708515     -5.37221669008945     -0.81374866973029
  H           6.42558380521421      1.25598444183554     -0.96542814542418
  H          -0.61317193178226      4.67389787799793     -2.66513873701039
  H          -5.00630732189853      3.67914017492016     -1.87440224302065
  H          -4.96648004872836     -1.96653047271551     -2.62061004269998
  H           0.03912612714571     -4.77058090870571     -3.11205271561294
  H           4.60823700282572     -3.42237545486342     -2.70207083831308
  H           4.29934064337834      2.42374783012638     -2.41666253410668
  H           1.08455414360728      2.32298995304056     -1.01672148588753
  H          -2.48448679704784      3.43465971445002     -1.38953972109324
  H          -4.14237655315542      0.21179351535250     -1.63124414585112
  H          -1.68980213038434     -2.37681602301415     -1.84771362715952
  H           2.13196152028514     -3.24970208447401     -2.17606948920940
  H           3.63231567668404      0.21553039533630     -1.66757747987114
  H           1.91231894044864      2.63015594191231     -3.31633523781188
  H          -2.95800367974449      5.67064846803955     -2.25237585853160
  H          -6.13647126895010      0.64386493758471     -2.97039883497413
  H          -2.78141810780738     -3.05711056040545     -3.89804534133348
  H           2.47560737636544     -5.40074565201818     -3.16509666006794
  H           5.47178798991997      0.34877227090948     -3.28795739090735
  H           3.70774443676901      3.85741696854549     -0.74874933771837
  H          -1.65392680915696      5.26338674170152      0.93303341715779
  H          -6.14252647582330      1.45377331412203      0.30764424758393
  H          -4.13663110522464     -3.93615390228487     -0.91270822172819
  H           1.35452257591578     -5.11876710716945      0.12902021607419
  H           5.94574705380319     -1.33830628244389     -0.41847830778619
  H           1.58686188963993      3.44761215544877      1.40894448169648
  H          -2.13921956456927      2.25329272659180      0.66697665384728
  H          -3.49958048027388      0.11923539840637      1.07368351413632
  H          -1.80814983198459     -2.90851433356826      0.77500364783328
  H           1.89844914538718     -2.12016674572527     -0.06528732633719
  H           3.40880611283966     -0.46857695367014      1.02699353315319
  H           3.80012296104544      3.78129000521354      2.31761836173940
  H           2.86738210319150      5.28297982002719      2.51619274624948
  H          -4.58285324759009      0.01128871060065      3.29184420699793
  H          -4.49722345196322      1.69328895605990      2.73015464855507
  H          -3.92536752930253     -3.18029565456344      1.98724164969841
  H          -2.74698068271411     -4.42176619676743      2.48069628056675
  H           4.89736662719986     -0.69999362893563      3.02693313087131
  H           4.67387444590801     -2.23881086808850      2.16729216147039
  H           4.00339150945317      6.06932081893310      0.68301978501416
  H          -6.76895811764503      0.03696544198335      2.52096906938018
  H          -3.87321363435989     -5.83489839369792      1.03825604726962
  H           6.90801594788897     -0.53698948059906      1.93589103445867
  C           0.80032183120797     -0.96795885673774      3.27014048395407
  H           1.54835167533281     -0.41225795208110      3.82663254033416
  H           0.23047985593357     -1.69317659456995      3.84610603387029
  O           0.24867417114119     -3.50710074650546      2.22022551197575
  C          -0.81679170106067      0.88442019413910      3.64336747316115
  H          -1.40711373486029      0.26383273989409      4.30857306073281
  H          -0.07155545682537      1.49904165535623      4.14838190301090
  O          -0.47007617814090      3.59238284815758      2.90494187846215
  C          -0.18379510965221     -0.02724549129667      2.59036138476579
  O          -1.00228294000596     -0.57557452915773      1.72101948584697
  O           0.67300013009976      0.95143842109954      1.65865344400731
  O           1.85427027743944      1.49821874063001      2.42717172371184
  H           2.54891581620232      1.44737038877009      1.73049055024487
