133
Coordinates from ORCA-job job
  C           0.55842066537858      5.04897883840423     -0.23792469611736
  C          -4.33923335288644      3.33091116803100      0.56384206371493
  C          -5.07716780279557     -1.78813547317611     -0.31028444275657
  C          -0.91769476359960     -4.96624097057136     -0.77078300362932
  C           4.06529065592612     -3.26091213598095     -0.14620198353146
  C           4.80415581252343      1.90290840271117     -0.06691006934042
  O          -0.26942295392097      4.00092125381665      0.25112008420293
  O          -4.16813563976294      2.21449484116465     -0.25334561347325
  O          -3.73955649829234     -2.01828560667088     -0.69179105116041
  O           0.02848920911792     -3.92205377361030     -0.71526471350023
  O           3.94666056101266     -2.05214223253427     -0.83585370911204
  O           3.40689676154027      2.15124615901570     -0.15484004432659
  C           1.08533139768355      4.65374109893623     -1.62637387237782
  C          -3.97869959782535      4.56623258115859     -0.28194817468662
  C          -5.72378229810757     -0.94098702275704     -1.41844195628561
  C          -1.69688501339482     -4.79992283609675     -2.08174013072223
  C           3.73397451276321     -4.39275672425645     -1.14479244952792
  C           5.33231524495560      1.34048425398796     -1.40052324788256
  O           0.07849647412233      4.45672217831598     -2.57747420188405
  O          -4.75341038041918      4.64987241769549     -1.44007774614990
  O          -5.67305117191501     -1.57638491987409     -2.66301374578362
  O          -0.86511661227219     -4.85631085496069     -3.20898865009590
  O           4.56167735139675     -4.34136175121619     -2.26727980465425
  O           5.17687048872521      2.21519107246280     -2.47780285675620
  C           1.84690478754606      3.33975574965914     -1.44903312151199
  C          -2.48247418209973      4.51348094843387     -0.65259534848047
  C          -4.98508794371389      0.40309361710342     -1.45385563258223
  C          -2.41304495109879     -3.44254236020772     -2.01434727424294
  C           2.25190745979962     -4.29324712349824     -1.55618797404266
  C           4.61234637291107      0.01303081538668     -1.66543168831756
  O           2.40742943099250      2.89243090612002     -2.65542195145596
  O          -2.12282709055380      5.67020259074071     -1.36309904178100
  O          -5.54717812641316      1.27330118336730     -2.39772583804698
  O          -3.24393406271792     -3.23220403528116     -3.12485056988929
  O           1.85658269926852     -5.37367820331805     -2.35945126480751
  O           5.07514396827071     -0.58201698842327     -2.84538153940025
  C           2.97342921526252      3.48343558648182     -0.41905854733628
  C          -1.60197334868377      4.34888254466152      0.59912617981853
  C          -5.02070347346808      1.08878071970391     -0.08348114691047
  C          -3.28589752520095     -3.35956061073178     -0.75779446124277
  C           1.34704046621121     -4.25163967866477     -0.31737929927056
  C           4.81139318898183     -0.97118590236966     -0.50629425319771
  C           2.48138182556749      4.17588429392028      0.87159654644123
  C          -2.15769419278362      3.14266083926769      1.36332572469994
  C          -4.55767359102715      0.13377674877338      1.03577554005273
  C          -2.49577610419951     -3.73368283511028      0.50538677614001
  C           1.84977003670501     -3.12212672812605      0.57853617525703
  C           4.48401471689718     -0.30584436387242      0.84722230931467
  O           1.64665505279660      5.29786078738096      0.59967579198781
  O          -3.50569105137906      3.29592386981406      1.70814301939637
  O          -5.17284458733753     -1.14534203873060      0.92580392929922
  O          -1.78230393671689     -4.94775532833802      0.32790264464900
  O           3.18623477503279     -3.31948489655113      0.96666322683061
  O           5.05634893451510      0.99833863614820      0.96044724760245
  C           3.65233557124649      4.70904240461594      1.71056685067514
  C          -1.38832560538863      2.75102256779258      2.61062154914439
  C          -4.98096508707171      0.61870050445377      2.43371399312741
  C          -3.42048771092574     -3.96350676631275      1.70848926575746
  C           1.01716025708230     -2.91458671332176      1.83815148284319
  C           5.07996245764169     -1.06783877466576      2.04702757707996
  O           4.51209085113468      5.52109992923788      0.96506979687171
  O          -1.93048940365263      1.62048431832073      3.08297265679527
  O          -6.36271977781623      0.81712627803988      2.50499241623298
  O          -4.37299868059639     -4.95052540376872      1.44507764476480
  O           1.26528530546521     -1.66540319554938      2.22188815360806
  O           6.43486947927008     -1.35355769292544      1.86091922315879
  H          -0.00185940849349      5.98976188627764     -0.27483854369963
  H          -5.36078454908682      3.39302753742009      0.95943620998639
  H          -5.61241805226888     -2.73649192693675     -0.17521028448135
  H          -0.42329290892257     -5.94443106502835     -0.73001424137981
  H           5.06971661378987     -3.39130863473870      0.27431238065403
  H           5.33806896000348      2.82028477111533      0.20890599817153
  H           1.78411866290909      5.43649859947544     -1.96291503021930
  H          -4.17236055992170      5.47105827291673      0.30372201498433
  H          -6.78108768950161     -0.77198408652730     -1.18951791796490
  H          -2.45226323710188     -5.59505031540666     -2.15477551250832
  H           3.91156368376407     -5.35875592316905     -0.66156945119603
  H           6.40870601877563      1.16224216379485     -1.30097252585979
  H          -0.65081789767081      5.08214141027424     -2.39244887878313
  H          -4.81416488464127      3.76846018196159     -1.84237756488962
  H          -4.79799359343059     -1.98711074137874     -2.78369317944092
  H           0.05956816069922     -5.00172594417644     -2.93389794225524
  H           4.58842610501611     -3.42870721657306     -2.59473081289881
  H           4.23319674986285      2.43373397116103     -2.59192105659286
  H           1.13375919377675      2.58564808103715     -1.06050029894841
  H          -2.31281082575445      3.61909128364513     -1.27696652896412
  H          -3.92419760976572      0.20960132850159     -1.69508764483889
  H          -1.65094122866484     -2.64710702305429     -1.94795982474815
  H           2.10800908538693     -3.34361834627520     -2.09852106346975
  H           3.52769389510442      0.21934348295592     -1.74235952130691
  H           1.80754265169196      3.14365436156019     -3.37650905868777
  H          -2.88740117414313      5.91083360239260     -1.91847106088594
  H          -5.82084806328088      0.73420566076137     -3.15845653961383
  H          -2.75967298149774     -3.51613967563160     -3.91629314008750
  H           2.53743596337240     -5.50488016319161     -3.04079655586033
  H           5.26020952770355      0.13425083318769     -3.47648260200389
  H           3.79245808012237      4.06718071690073     -0.85720512867456
  H          -1.61219145831173      5.24860798246770      1.22672112562370
  H          -6.04201910929395      1.42983658093617      0.13543125075514
  H          -4.13788795338735     -4.04360619856034     -0.86823993833821
  H           1.36834771163151     -5.20251793295084      0.22641778464768
  H           5.85168094465637     -1.32595733993272     -0.49483488051618
  H           1.91236455668107      3.44585682585391      1.45960954872558
  H          -2.02715529942966      2.26432127794371      0.70297369587768
  H          -3.45901949304247      0.03360023026266      0.99164540382530
  H          -1.80419463179316     -2.90719307227450      0.73540228490055
  H           1.76155334212848     -2.17835664900910      0.01208513713685
  H           3.38970984132872     -0.25396663411956      0.95887775823131
  H           4.23651495419135      3.86407652810257      2.07902568761032
  H           3.22709365683195      5.24941785121753      2.56396106770192
  H          -4.64485053056860     -0.13831014673863      3.15283554118701
  H          -4.49288129960723      1.56385957851808      2.66817144963194
  H          -3.95020443851248     -3.03589688018464      1.93212769997807
  H          -2.78858802738006     -4.22717600323749      2.56550802868857
  H           4.92069444545792     -0.44208523934569      2.93360452420624
  H           4.55711346267760     -2.01430534341414      2.18483047503539
  H           4.00738273026290      6.29376355874163      0.67098377414782
  H          -6.78930584700889     -0.03167908543241      2.31173828010281
  H          -3.89494871169728     -5.77065915844014      1.24802869227405
  H           6.90966622759381     -0.51245007870781      1.78731298631737
  C           0.60565971786920     -1.07507893279631      3.36960937496894
  H           1.29710436244194     -0.28811125796297      3.65787737364738
  H           0.48434172882846     -1.86476222572542      4.11258067355338
  O           0.28086756867765     -3.71088087431456      2.36888630212972
  C          -1.09428228977247      0.74274827972188      3.86519356390558
  H          -1.74112968693827      0.43407676468099      4.68689489142076
  H          -0.21193695000071      1.28976896350409      4.19163911931634
  O          -0.45169147266694      3.34794707584464      3.09533470411842
  C          -0.74245056816772     -0.48605247045463      3.06103232320574
  O          -1.57973105042927     -1.08171457382547      2.39184124563820
  O           0.16235307811006      0.89748281783957      1.18562293754545
  O           1.43646597300702      1.50813827264321      1.60714807457070
  H           2.04838055809288      1.27019550224542      0.88784167149547
