133
Coordinates from ORCA-job job
  C           0.55440292355836      5.00136702171734     -0.29880946391579
  C          -4.35069176247169      3.33699933887552      0.53652467732109
  C          -5.10619334833049     -1.79261809693225     -0.25058382588252
  C          -0.91763957437248     -4.92576830691485     -0.80754140287540
  C           4.08876533594713     -3.27536212201152     -0.21607582325512
  C           4.80046096536097      1.87867446650160      0.06805168393766
  O          -0.27210158591736      3.97442237295545      0.23508533733514
  O          -4.19526853442768      2.20050371700318     -0.25536619453611
  O          -3.76938571187110     -2.00692325267849     -0.64417185270454
  O           0.02785288850061     -3.88132624953267     -0.75287893233999
  O           3.99442658549817     -2.05247889963054     -0.88131450765361
  O           3.39900292285476      2.11983188356577      0.01468967029333
  C           1.10212551840635      4.52654273744542     -1.65326123111979
  C          -3.97296751451499      4.54584360934438     -0.34039082560374
  C          -5.77883628626532     -0.96256849726273     -1.35668165909300
  C          -1.71730574692216     -4.74516625247811     -2.10419730016463
  C           3.72737700238677     -4.38445695357465     -1.23028704301924
  C           5.34749551907530      1.37563245429494     -1.28303333259477
  O           0.10796425993865      4.27518851877738     -2.60560620202581
  O          -4.74790876891382      4.61068190054992     -1.49951737362623
  O          -5.74820630500745     -1.61046248831577     -2.59517621799613
  O          -0.89973022132839     -4.77149499026653     -3.24302024204833
  O           4.54152949860275     -4.32823134237684     -2.36224718219281
  O           5.21014463589668      2.28629686476663     -2.33221761996629
  C           1.85609915479661      3.22388084525023     -1.38409999742967
  C          -2.47793830139059      4.46155143934563     -0.71034938618965
  C          -5.04839706162001      0.38467463831541     -1.42126683560989
  C          -2.44752585444930     -3.39746953206580     -2.00636978980100
  C           2.24108105113202     -4.26385677365526     -1.62374829980914
  C           4.64907417612314      0.05190367482101     -1.61289423872474
  O           2.42929357301377      2.70226821071857     -2.55493694176237
  O          -2.10287047385278      5.58585243200331     -1.46342700921483
  O          -5.63304891589412      1.24211373613648     -2.36336059968496
  O          -3.29593451321026     -3.18119500871936     -3.10238531928033
  O           1.82625998211549     -5.33506305640524     -2.43007243584030
  O           5.13776565295229     -0.48626463944588     -2.81017965470319
  C           2.96858925134559      3.43045400023168     -0.34926034413670
  C          -1.60852926753833      4.33122852126529      0.55239385140049
  C          -5.05864190077604      1.08729857885307     -0.05918314397887
  C          -3.30353266683168     -3.34238888572688     -0.73689482310359
  C           1.35021429400996     -4.21893672804060     -0.37431165413934
  C           4.84409445543754     -0.97831986026575     -0.49315283587598
  C           2.46405891807407      4.20693629464410      0.88849805728696
  C          -2.17226713847614      3.14471548737007      1.34062795980986
  C          -4.58890945430422      0.14646564769990      1.06941314483078
  C          -2.49032406269012     -3.72548503989025      0.50897636782609
  C           1.88076035752451     -3.09649003951683      0.51321754490947
  C           4.49621723244582     -0.36951451453533      0.88238191065907
  O           1.62884468700371      5.30647748165901      0.53728689554432
  O          -3.51930066741965      3.31642801998915      1.68321274428759
  O          -5.19621578840807     -1.13848506918163      0.98045734568920
  O          -1.76491455448497     -4.92855767438257      0.30529882346404
  O           3.21195259388041     -3.33504519306610      0.89882241747868
  O           5.05989255366512      0.93270057382515      1.05340513968352
  C           3.62815398048853      4.79975888832210      1.69692212532922
  C          -1.40270680104811      2.78243664103365      2.59711763500004
  C          -5.00904141632951      0.65096942062130      2.46107809082002
  C          -3.39672397386241     -3.98208590595617      1.72054350462213
  C           1.06531938937120     -2.85315613540043      1.77422523829655
  C           5.08946563615615     -1.16690633477647      2.06043788972322
  O           4.48964564824878      5.56402659218529      0.90363492795433
  O          -1.94097068707792      1.65339943940206      3.09130551027011
  O          -6.39134451267783      0.84407288260329      2.53541637110260
  O          -4.33977553627071     -4.97811385301503      1.45792174055788
  O           1.34259570661983     -1.59854942842237      2.14199241588266
  O           6.45094755336272     -1.42478150813552      1.87843439781768
  H          -0.01179381280364      5.93376495427103     -0.39796565558933
  H          -5.37180245379018      3.42264375729585      0.92862316733667
  H          -5.62685156028179     -2.74677863187392     -0.10054835741892
  H          -0.42009251339284     -5.90316359329785     -0.78879395753748
  H           5.09164441400868     -3.43549747782734      0.19829667192679
  H           5.32821292615748      2.78766733670522      0.38291110359404
  H           1.80820072406665      5.28624217880085     -2.02514259073049
  H          -4.15271956158356      5.46792868222682      0.22226900027945
  H          -6.83250401782783     -0.79819364680639     -1.10869248574234
  H          -2.46479379599751     -5.54775535464519     -2.17967847657416
  H           3.89747932168154     -5.35999869005676     -0.76347161535993
  H           6.42364055208750      1.20360210357783     -1.16550495091527
  H          -0.61298085111316      4.92336008887916     -2.48048114069977
  H          -4.82503225515359      3.71924254328939     -1.87624749643902
  H          -4.86824100601071     -2.00519682992449     -2.73512596691748
  H           0.02594764934361     -4.93822897669748     -2.98367673297129
  H           4.57666927967664     -3.41095130276174     -2.67528710826997
  H           4.26225212345244      2.44676568116269     -2.50274229540712
  H           1.13746834402226      2.49569061215430     -0.95950804023666
  H          -2.31934422731326      3.54333208135729     -1.30176120890475
  H          -3.99210179934438      0.19231396448927     -1.68138914247188
  H          -1.69390172409918     -2.59435183844121     -1.93790426521565
  H           2.10172923632893     -3.31003708496410     -2.15952684963926
  H           3.56336120735555      0.24737593839905     -1.69860667991286
  H           1.84417819144062      2.92030929234696     -3.29868831367451
  H          -2.86698600219692      5.82040760555512     -2.02178051205078
  H          -5.91430119843749      0.69408213000352     -3.11484126605170
  H          -2.81726784664252     -3.44219889968919     -3.90502433366686
  H           2.49907876424972     -5.46793744533435     -3.11898941430985
  H           5.33300140393189      0.25923938550699     -3.40286124904367
  H           3.79491766626469      3.98534679669296     -0.80974315611388
  H          -1.62837894564233      5.24649918685984      1.15706371671073
  H          -6.07326113180797      1.44260679942654      0.16806381920849
  H          -4.14970617456193     -4.03397089517301     -0.84472574570665
  H           1.37278929841125     -5.17003903583081      0.16892659765407
  H           5.88731088035710     -1.32470818984791     -0.48326472017675
  H           1.89293635670131      3.52017349832148      1.52327161093548
  H          -2.05349883033813      2.25141154526335      0.69894245890496
  H          -3.49070074864720      0.05020226861207      1.02329073618378
  H          -1.80624445477188     -2.89439717137352      0.74241975592673
  H           1.82316263349904     -2.15570072341699     -0.06084005186449
  H           3.40091633962678     -0.32848776609629      0.98295781332366
  H           4.21365563026291      3.98496789509679      2.12582978159868
  H           3.19545826435646      5.39486320163363      2.50921689591986
  H          -4.66644951449402     -0.09202377688375      3.19171977141865
  H          -4.52433882124992      1.60208549716097      2.67865275552299
  H          -3.93542028938656     -3.06373705949930      1.96106400028759
  H          -2.75090941349386     -4.24705261626126      2.56689250551875
  H           4.91283602403637     -0.57501462221323      2.96691901914206
  H           4.58072777525184     -2.12521037357148      2.16076585313996
  H           3.98049377509611      6.30771477181423      0.54907120315943
  H          -6.81473856955513     -0.00791327571240      2.34882314892920
  H          -3.85339894323819     -5.78855443053100      1.24159380479658
  H           6.91131256649588     -0.57361767737871      1.83627070831006
  C           0.67701832705409     -0.99479401429691      3.27472642307342
  H           1.36753573637070     -0.21207189203629      3.57832169361446
  H           0.51393725965132     -1.77414873131352      4.01907595591490
  O           0.32563958238228     -3.63439901816321      2.33077548122599
  C          -1.07519681267961      0.75507594087782      3.80865468178983
  H          -1.70987154918900      0.34490513144230      4.59088941457439
  H          -0.21816216849425      1.30926432831987      4.18878030829281
  O          -0.48970671888495      3.41146699598611      3.08532015181910
  C          -0.64655610222566     -0.38643181309754      2.90868128924971
  O          -1.45964819787735     -0.98112780230496      2.18740081148819
  O           0.21586614076098      0.96154635283961      1.39898507880219
  O           1.44295780883797      1.60434131263071      1.87368343039386
  H           2.11184501446779      1.31861633880769      1.22317836240916
