133
Coordinates from ORCA-job job
  C           0.55736870167290      5.02453964950068     -0.29332871077351
  C          -4.33789555915296      3.32833880745827      0.54660372402245
  C          -5.10224640093341     -1.79622159248750     -0.26815031949274
  C          -0.92387317710833     -4.94423682972854     -0.80305755057467
  C           4.07542062434820     -3.27309618652764     -0.20123657014586
  C           4.79630831922071      1.88634451523442      0.04674584254424
  O          -0.26339102775020      3.99149976091185      0.23676999082592
  O          -4.17903748797120      2.19622287901685     -0.25093695755530
  O          -3.76593766341356     -2.01681985774492     -0.65928511176598
  O           0.02130107252983     -3.89955531737653     -0.74640531312708
  O           3.97249528799128     -2.05141359437159     -0.86856592888705
  O           3.39672344816275      2.13730918847848     -0.01417512184692
  C           1.09999583781467      4.56164660351549     -1.65397653134061
  C          -3.96976531153562      4.54394869553237     -0.32482691970609
  C          -5.76632439419010     -0.95823049380669     -1.37340402637944
  C          -1.71769944856208     -4.76573829754226     -2.10363061414706
  C           3.72324977587007     -4.38616612711159     -1.21426779083024
  C           5.33798117483899      1.36883128896337     -1.30066754263599
  O           0.10279915597687      4.31747901220868     -2.60478105878341
  O          -4.74712218919895      4.60925605719641     -1.48239103190801
  O          -5.73226920237062     -1.60132842349010     -2.61441923428653
  O          -0.89585281482581     -4.79809941858626     -3.23925915671554
  O           4.53918743676010     -4.32694009630033     -2.34484923585229
  O           5.20236876427484      2.27274835914820     -2.35576576285730
  C           1.85607228935412      3.25729428505356     -1.39858352068775
  C          -2.47483999613753      4.47212048370047     -0.69787523911568
  C          -5.03021095416278      0.38643120662558     -1.42872641939903
  C          -2.44429132712661     -3.41559565576703     -2.01221539313840
  C           2.23718561034739     -4.27438827172188     -1.61054321415956
  C           4.62935819016509      0.04719588807452     -1.61788481310324
  O           2.42595970318146      2.74563827769767     -2.57501294602518
  O          -2.10904804371475      5.60434250002750     -1.44359438778372
  O          -5.60813010400310      1.25092640826424     -2.36858337250443
  O          -3.28836075360793     -3.19950525466186     -3.11172049127181
  O           1.82976825602540     -5.34778374402517     -2.41765830656921
  O           5.10839366418081     -0.50245169779021     -2.81348892560890
  C           2.97195757492933      3.45362147233044     -0.36536809657190
  C          -1.60080615715571      4.33850799595557      0.56146418406464
  C          -5.04310216570802      1.08200845933282     -0.06302983667251
  C          -3.30482838455802     -3.35429637280268     -0.74607346865196
  C           1.34286113358983     -4.23456388454462     -0.36340831941588
  C           4.82395453703078     -0.97526107021211     -0.49105787483842
  C           2.47190173893624      4.22176275217503      0.87956518742090
  C          -2.15574762532621      3.14338885006587      1.34340221338734
  C          -4.57660574831818      0.13405026446329      1.06077513515175
  C          -2.49909040612594     -3.73793469987176      0.50461258267552
  C           1.86532726090804     -3.11102743856173      0.52761416423874
  C           4.47745906802592     -0.35445860917945      0.87922341204386
  O           1.63637100925035      5.32429107698469      0.53929683517051
  O          -3.50280285899216      3.30615866409753      1.69043886828384
  O          -5.19149017765141     -1.14673992081165      0.96537074264124
  O          -1.77596948638335     -4.94332334162761      0.30585898802337
  O           3.19842895922516     -3.33817502580060      0.91294054859841
  O           5.04686830294630      0.94659496321096      1.04061191468390
  C           3.63835979452225      4.80663157366439      1.69016188299550
  C          -1.38328101357244      2.77581029437943      2.59671660722485
  C          -4.99210556178287      0.63383103937962      2.45547800290762
  C          -3.41265289634121     -3.99195011052762      1.71144560010500
  C           1.04750485174424     -2.87519996979079      1.78950462104950
  C           5.06481748932941     -1.14621044632417      2.06391262452746
  O           4.49921338585585      5.57591140464878      0.90138634547008
  O          -1.92072906154624      1.64619474445977      3.08712835888592
  O          -6.37332675877583      0.83412457723676      2.53259863561494
  O          -4.35588810813570     -4.98667447626864      1.44374093889470
  O           1.32655462832029     -1.62341879151648      2.16145429385500
  O           6.42544368674477     -1.41078298730382      1.88652713529331
  H          -0.01128090509345      5.95657770916251     -0.38152358433979
  H          -5.35815746653490      3.40664320692451      0.94245202184464
  H          -5.62915592871980     -2.74783793640491     -0.12375487569555
  H          -0.42680323609817     -5.92175403320488     -0.77986107623968
  H           5.07915127753521     -3.42490225552109      0.21410363757377
  H           5.32978636729285      2.79400615186940      0.35529002970654
  H           1.80426369798556      5.32495200049887     -2.02186863474090
  H          -4.15494379253754      5.46196299723447      0.24271798845521
  H          -6.82052151369180     -0.79031647836269     -1.13004903603770
  H          -2.46711259386079     -5.56639128648521     -2.17992352121512
  H           3.89847629547017     -5.35989114856490     -0.74559598140059
  H           6.41331852616609      1.19057813410976     -1.18570599551145
  H          -0.62098717267229      4.96036288245774     -2.46816211727311
  H          -4.81943115278272      3.71914996992155     -1.86330071099901
  H          -4.85434332946412     -2.00187039779615     -2.74997969160930
  H           0.02940682252960     -4.96031785891445     -2.97566018218613
  H           4.56925702292443     -3.41035889859323     -2.66031753287749
  H           4.25553497485717      2.44699221266013     -2.51760007558298
  H           1.13933450460298      2.52492071283012     -0.97698400951996
  H          -2.31125693294974      3.55912198936523     -1.29609217526843
  H          -3.97368432955432      0.19158618420676     -1.68608902031990
  H          -1.68849790353139     -2.61452890216767     -1.94361912157183
  H           2.09369204539940     -3.32112492613320     -2.14633909518800
  H           3.54428825898989      0.24898592317588     -1.69909433376132
  H           1.83966534520797      2.97087696459200     -3.31580566175785
  H          -2.87585507449703      5.83714764624402     -1.99907883218556
  H          -5.88870045198503      0.70793707329319     -3.12393359921635
  H          -2.80781266604417     -3.46414525630913     -3.91198806446889
  H           2.50415888236183     -5.47669337546393     -3.10577071848412
  H           5.30686605309125      0.23761498417398     -3.41203141091976
  H           3.79973171400237      4.00781630850002     -0.82409140639153
  H          -1.62358298707296      5.24962468395339      1.17225835025733
  H          -6.05810731748075      1.43633200991317      0.16390523240916
  H          -4.15325786700237     -4.04279894042078     -0.85609120699377
  H           1.36641513071892     -5.18680026233944      0.17775462757427
  H           5.86675293290267     -1.32271908002956     -0.47893681385795
  H           1.90145475283264      3.53035035427497      1.51028603790018
  H          -2.03375915197207      2.25541951876219      0.69525470335349
  H          -3.47891686042239      0.03264141323376      1.01268871768537
  H          -1.81350153017508     -2.90878415084846      0.74080198574428
  H           1.79932618532717     -2.16911109335999     -0.04410807206343
  H           3.38188645495264     -0.30833504947710      0.97769024677488
  H           4.22329446854262      3.98736587732147      2.11136404791270
  H           3.20797361082118      5.39549970370539      2.50822506018223
  H          -4.65280710123774     -0.11472854162829      3.18194783031506
  H          -4.50185103759611      1.58120620660712      2.67699983622779
  H          -3.95167613803102     -3.07296308580396      1.94856320941123
  H          -2.77211026216264     -4.25801750346157      2.56139953851288
  H           4.88814468098258     -0.54781712823551      2.96609080068420
  H           4.55173342142556     -2.10178715384088      2.16878885907633
  H           3.99093365730675      6.32390524934698      0.55461187782776
  H          -6.80146875560812     -0.01493851087349      2.34350923591141
  H          -3.86968628426169     -5.79803815241586      1.23078411309906
  H           6.88976386752283     -0.56195277048175      1.84045707311298
  C           0.67087158788190     -1.01696523831438      3.29869639637486
  H           1.36305477781491     -0.23011815997302      3.58888588087118
  H           0.52357805396197     -1.79439151251302      4.04871518626241
  O           0.30405529726205     -3.65574837575305      2.33937672777740
  C          -1.06220105297893      0.75520714585243      3.82226381393093
  H          -1.69676637424900      0.37934220965130      4.62270365276577
  H          -0.19323591016237      1.30604823067302      4.17956426793485
  O          -0.47036004846819      3.40354266646668      3.08675384329311
  C          -0.65982387848897     -0.41546658838924      2.95145101862356
  O          -1.47231948608478     -0.99977833597988      2.22983699154199
  O           0.24340843619034      0.98278225351353      1.36429265626484
  O           1.47516003434020      1.60590043922753      1.85925215927333
  H           2.13900308633334      1.34701861952796      1.19309171573839
