19
Coordinates from ORCA-job job.QMRegion
  C          -1.41012757742996      2.80096601145623      2.59160953961419
  C           1.07286760778551     -2.83344190712475      1.74842880165292
  O          -1.94663036503444      1.66920215024773      3.08524687171913
  O           1.35967120564769     -1.58153573425612      2.11811557080849
  C           0.68227622043874     -0.97849363890448      3.24335888955817
  H           1.37811295286837     -0.21208181053434      3.57402667931030
  H           0.48048082487991     -1.76152331099869      3.97357286708884
  O           0.32858489985044     -3.61000435777087      2.30620514907470
  C          -1.07212371273413      0.76175660145333      3.77777690956013
  H          -1.70478530630465      0.31238226138895      4.53918191388574
  H          -0.22631674859798      1.31498307414418      4.18385132241687
  O          -0.50457575490906      3.43642573086965      3.08487753408181
  C          -0.61691709176316     -0.33964835646946      2.83984707564915
  O          -1.42194682279231     -0.92499257598979      2.09091013530219
  O           0.23887964197777      0.97715295976923      1.44569991437889
  O           1.45346171937225      1.61600473096515      1.95183568087741
  H           2.13580986599182      1.33840761677187      1.31019503375126
  H          -1.95777280445871      3.05285939805272      1.69236980187167
  H           1.65529038861973     -3.01363393905851      0.84854522746399
