133
Coordinates from ORCA-job job
  C           0.82226942697424      5.07841330574619     -0.37379579907597
  C          -3.94399143465726      3.12342453085859      0.67820589132999
  C          -5.19608720736885     -1.82643731286511      0.03166516912138
  C          -0.91510450837901     -4.73041015013497     -0.83613492911428
  C           3.89562613330979     -2.86215984446565      0.24805693463344
  C           5.15643770526517      2.19622557292004     -0.52184282952238
  O           0.02542105116745      3.90422698685333     -0.42911101841416
  O          -4.18341005404920      2.12086994309947     -0.26543823239491
  O          -3.90881569324206     -2.05446957042507     -0.50964729946324
  O          -0.05722687550532     -3.61666897918821     -0.64253273936585
  O           3.72805130351908     -1.61718157818655     -0.36211037372441
  O           3.88182360287726      2.51812473423967     -1.01068554105383
  C           1.48568002006961      5.23637848037441     -1.74368384809159
  C          -3.68367108249781      4.44199870041182     -0.08333816061254
  C          -5.98143405172349     -1.03062129704063     -1.02148997377290
  C          -1.68257318725737     -4.51834079931806     -2.14774973468853
  C           3.68809304347523     -3.92828353065427     -0.84812100587900
  C           5.76512926336300      1.24632349895543     -1.57006546434076
  O           0.54447128346437      5.33125148341413     -2.78030549000282
  O          -4.69799168967186      4.71069082936799     -1.00278548792609
  O          -6.09223113402137     -1.72454547271462     -2.23044134870410
  O          -0.82078509880798     -4.24123497394696     -3.21995629593258
  O           4.61240708748331     -3.78278452349019     -1.88295933258554
  O           5.83156093682012      1.85130704609038     -2.82890071063064
  C           2.37241820571825      4.00520356440500     -1.95819200048993
  C          -2.31204631009404      4.39129149401857     -0.78320387114476
  C          -5.24804279648817      0.30070570926579     -1.22419223183406
  C          -2.64194486281739     -3.33476554329132     -1.97677816374940
  C           2.24343045379151     -3.80431755997969     -1.37384348358119
  C           4.88217948948194     -0.00922678359873     -1.60708234638839
  O           3.11013253442052      4.08986339177492     -3.14812335360923
  O          -1.98271347947842      5.63242493276819     -1.34782530462289
  O          -5.93776856650980      1.12278323113066     -2.12182304226595
  O          -3.55750194537041     -3.24132359896098     -3.03223795049407
  O           1.93614714285594     -4.80971372151547     -2.30145335393329
  O           5.40492971714653     -0.99757345649770     -2.45641418699102
  C           3.37140401452348      3.82563394160675     -0.80814140175080
  C          -1.22027159919911      3.98989211813274      0.22244628066752
  C          -5.06560609426732      1.06181951408880      0.09312552172255
  C          -3.46807696345162     -3.39454393294335     -0.68379772803126
  C           1.26670863621301     -3.90972794780092     -0.20187418706968
  C           4.73880925107437     -0.62680150744880     -0.21352024550864
  C           2.71935274418634      3.97000019782291      0.57996692206609
  C          -1.65499363085758      2.63058097972447      0.78889675960539
  C          -4.51771356699699      0.15546084428892      1.21702215133819
  C          -2.64637697530915     -3.84293741705710      0.53152937461441
  C           1.64838656131414     -2.89125431117074      0.88040338575105
  C           4.33504876293777      0.41656462793869      0.84152631036802
  O           1.77683808041107      5.03848999034182      0.63866260778603
  O          -2.84401391432081      2.79636358548021      1.50795870206997
  O          -5.14309157585387     -1.12529946510754      1.23611061504037
  O          -1.80196237838296     -4.93517920933049      0.21909864379732
  O           2.97268575476054     -3.03745888890796      1.30929377571257
  O           5.12597090601408      1.59136203690929      0.74319789514195
  C           3.75583135709337      4.31866995517444      1.66305209921033
  C          -0.66442310707621      1.88471720416766      1.65582029958424
  C          -4.80206001207904      0.71466432606691      2.62781562579286
  C          -3.52773986331347     -4.30550167508030      1.70112727930775
  C           0.67947697690551     -3.04049572699635      2.04103904656982
  C           4.56567862491141     -0.12014448402248      2.26408163264495
  O           4.47505252897035      5.47203485243343      1.33031962254252
  O          -1.26898924106998      1.41138960821726      2.73215499894360
  O          -6.12948637165239      1.12489393750547      2.76642383452196
  O          -4.43451475404149     -5.29287031333272      1.31728963888282
  O           0.81416860556403     -2.08138500805520      2.93110102873340
  O           5.89495756494046     -0.51055254644190      2.45192691869898
  H           0.19880167920143      5.95104484047897     -0.14363801539894
  H          -4.79392529035537      3.23406377250295      1.36255954067050
  H          -5.69017766469738     -2.77572971305351      0.27047709488983
  H          -0.31862800769154     -5.64998398436954     -0.88713496784469
  H           4.88234839837010     -2.96070800210544      0.71576246776475
  H           5.77279976469599      3.09624891505941     -0.39572895962708
  H           2.11613289357680      6.13853120887040     -1.73477590605447
  H          -3.67948849315069      5.26842656429850      0.63603317778051
  H          -6.99953034579820     -0.84369582418530     -0.66588972913944
  H          -2.27282664975643     -5.42553051147986     -2.35179790100384
  H           3.83292265419547     -4.92774387000678     -0.42439584101422
  H           6.78772710237559      0.97526610367319     -1.29127603799245
  H          -0.33882221777492      5.47965469165880     -2.39722430470779
  H          -4.90639719250646      3.89676693665282     -1.48630042913415
  H          -5.22912555964183     -2.10206246182739     -2.47213690852587
  H           0.05437995207004     -4.63589281294598     -3.04741667665496
  H           4.73390109062961     -2.83678400049890     -2.09178267294341
  H           4.99407893291434      2.31300367923339     -2.99373014783065
  H           1.71746230966894      3.11579224016128     -1.97020148631073
  H          -2.33951553421017      3.61374405939649     -1.56532799278633
  H          -4.23193030045831      0.07660815278638     -1.60346808079792
  H          -2.03337493450946     -2.41377361996869     -1.91614302255521
  H           2.11556546299295     -2.80818328674876     -1.83049183154814
  H           3.87268879525784      0.28677171201415     -1.94126547717520
  H           2.51349831080367      4.41551843517114     -3.83914564865548
  H          -2.77453936950576      5.97069166534278     -1.80027837257126
  H          -6.33014398775098      0.54571553321593     -2.79919382977839
  H          -3.07784239963093     -3.35824020259679     -3.86788402168996
  H           2.69509412989562     -4.89096780369668     -2.90544576989997
  H           5.72619287876838     -0.55885725744928     -3.26068317973167
  H           4.17921055326695      4.56389614034984     -0.91665541197489
  H          -1.17130402725138      4.70487741165774      1.05325148895269
  H          -6.02684273296295      1.48821122365900      0.41519435633142
  H          -4.32564417714046     -4.06476721307740     -0.82903418527167
  H           1.29717280835734     -4.91485555862520      0.23528521787265
  H           5.68876187430159     -1.09300810354033      0.07853803654275
  H           2.21676801300434      3.02139490138425      0.81772899139311
  H          -1.80296042635068      1.92463319387161     -0.05397747876342
  H          -3.42782202798485      0.02717473877083      1.07146005593746
  H          -2.06027243880058     -2.96640181057960      0.85751826271449
  H           1.48792390581773     -1.87294343121560      0.48059199768940
  H           3.26734163277224      0.65604810456486      0.69956001071837
  H           4.47377960491871      3.50499172144974      1.76472999718983
  H           3.21609607185766      4.44761969028821      2.60891429022733
  H          -4.54262107760926     -0.07895630624742      3.33652805755999
  H          -4.15895022856547      1.57159350028940      2.82310890826213
  H          -4.09449510256859     -3.44960566745458      2.07444242668198
  H          -2.85517571461042     -4.65818476713308      2.49173743095825
  H           4.27605252003844      0.66251660444992      2.97531064034464
  H           3.93878255119108     -0.99974862694024      2.42650904096212
  H           3.83932073334710      6.19759920605075      1.24529946557860
  H          -6.69418393976083      0.33975546878833      2.71287719290266
  H          -3.92820065436291     -6.07795743000102      1.05705090909567
  H           6.45174819751426      0.27117220769803      2.31315825590194
  C          -0.26274341747474     -1.98498856991772      3.90306415220470
  H           0.24278365615518     -1.67479098625999      4.82624150091406
  H          -0.78170007170702     -2.93239357564905      4.00172612507295
  O          -0.15477609626072     -3.90609172528250      2.10287850418800
  C          -0.56194660656022      0.40854304129171      3.47980441675635
  H          -0.59254253990210      0.74853645564593      4.52838526200704
  H           0.46256936907875      0.33721854690270      3.12807353645686
  O           0.49443277668826      1.65754486249130      1.34265666616544
  C          -1.22122718787708     -0.91580208618583      3.46246532321828
  O          -2.39719417532726     -1.11941743555709      3.32164643709597
  O          -1.26223119335544     -0.87231586652154      0.76312698191154
  O          -0.52449032285331     -0.83204880896711     -0.50664528624093
  H          -0.45266106221309     -1.79313699565671     -0.69573006673113
