19
Coordinates from ORCA-job job.QMRegion
  C          -1.37135567543187      2.90242731365522      2.48475627338364
  C           1.12076774681755     -2.80216294349953      1.75917802932318
  O          -1.79063938069708      1.73474971355580      3.00080687939204
  O           1.56429472789559     -1.65421918307070      2.25752852504184
  C           0.80032183120797     -0.96795885673774      3.27014048395407
  H           1.54835167533281     -0.41225795208110      3.82663254033416
  H           0.23047985593357     -1.69317659456995      3.84610603387029
  O           0.24867417114119     -3.50710074650546      2.22022551197575
  C          -0.81679170106067      0.88442019413910      3.64336747316115
  H          -1.40711373486029      0.26383273989409      4.30857306073281
  H          -0.07155545682537      1.49904165535623      4.14838190301090
  O          -0.47007617814090      3.59238284815758      2.90494187846215
  C          -0.18379510965221     -0.02724549129667      2.59036138476579
  O          -1.00228294000596     -0.57557452915773      1.72101948584697
  O           0.67300013009976      0.95143842109954      1.65865344400731
  O           1.85427027743944      1.49821874063001      2.42717172371184
  H           2.54891581620232      1.44737038877009      1.73049055024487
  H          -1.97725570021372      3.10500608282281      1.60937436983774
  H           1.70085177704291     -2.99234607890334      0.85993449984372
