19
Coordinates from ORCA-job job.QMRegion
  C          -1.38832560538863      2.75102256779258      2.61062154914439
  C           1.01716025708230     -2.91458671332176      1.83815148284319
  O          -1.93048940365263      1.62048431832073      3.08297265679527
  O           1.26528530546521     -1.66540319554938      2.22188815360806
  C           0.60565971786920     -1.07507893279631      3.36960937496894
  H           1.29710436244194     -0.28811125796297      3.65787737364738
  H           0.48434172882846     -1.86476222572542      4.11258067355338
  O           0.28086756867765     -3.71088087431456      2.36888630212972
  C          -1.09428228977247      0.74274827972188      3.86519356390558
  H          -1.74112968693827      0.43407676468099      4.68689489142076
  H          -0.21193695000071      1.28976896350409      4.19163911931634
  O          -0.45169147266694      3.34794707584464      3.09533470411842
  C          -0.74245056816772     -0.48605247045463      3.06103232320574
  O          -1.57973105042927     -1.08171457382547      2.39184124563820
  O           0.16235307811006      0.89748281783957      1.18562293754545
  O           1.43646597300702      1.50813827264321      1.60714807457070
  H           2.04838055809288      1.27019550224542      0.88784167149547
  H          -1.93721937214255      3.03043065587534      1.72075820593999
  H           1.61237311267231     -3.06295211555957      0.93768256868631
