19
Coordinates from ORCA-job job.QMRegion
  C          -0.66442310707621      1.88471720416766      1.65582029958424
  C           0.67947697690551     -3.04049572699635      2.04103904656982
  O          -1.26898924106998      1.41138960821726      2.73215499894360
  O           0.81416860556403     -2.08138500805520      2.93110102873340
  C          -0.26274341747474     -1.98498856991772      3.90306415220470
  H           0.24278365615518     -1.67479098625999      4.82624150091406
  H          -0.78170007170702     -2.93239357564905      4.00172612507295
  O          -0.15477609626072     -3.90609172528250      2.10287850418800
  C          -0.56194660656022      0.40854304129171      3.47980441675635
  H          -0.59254253990210      0.74853645564593      4.52838526200704
  H           0.46256936907875      0.33721854690270      3.12807353645686
  O           0.49443277668826      1.65754486249130      1.34265666616544
  C          -1.22122718787708     -0.91580208618583      3.46246532321828
  O          -2.39719417532726     -1.11941743555709      3.32164643709597
  O          -1.26223119335544     -0.87231586652154      0.76312698191154
  O          -0.52449032285331     -0.83204880896711     -0.50664528624093
  H          -0.45266106221309     -1.79313699565671     -0.69573006673113
  H          -1.37112987278228      2.41684183722146      1.03732750543753
  H           1.37212730922052     -2.93380660147814      1.21132831906841
