133
Coordinates from ORCA-job job
  C           0.51722363783165      4.93251078119138     -0.44676639849654
  C          -4.39519647657842      3.37209366580472      0.51681294441109
  C          -5.11229478792542     -1.77812875453419     -0.14535389329101
  C          -0.90856415964207     -4.85002122338363     -0.87683379868898
  C           4.12158241218540     -3.29211619947372     -0.25990578124819
  C           4.73644136843967      1.84222005340955      0.20079702526649
  O          -0.33646297230596      3.93590988511489      0.09239347038988
  O          -4.25940650443065      2.21305885028626     -0.24487069416199
  O          -3.78137488096767     -1.95719373673085     -0.57780620125633
  O           0.04349222674917     -3.81321121219910     -0.80365832646942
  O           4.06003497519131     -2.05887742619651     -0.90470247583414
  O           3.32423796550915      2.03531425610499      0.12123661523390
  C           1.10109362650614      4.38058637144638     -1.75456194017693
  C          -4.02808341681734      4.54743133843147     -0.41145734436988
  C          -5.84353630247015     -0.98013882513615     -1.23812402786185
  C          -1.72385635262276     -4.62436288150457     -2.15622687781912
  C           3.73442416315488     -4.37356925043097     -1.29427942985305
  C           5.35111063738738      1.40428487150131     -1.14435573067785
  O           0.12211585586425      4.09912380510996     -2.71660087404199
  O          -4.84214658981709      4.58711819516291     -1.54421860508704
  O          -5.84304528513890     -1.64633285303384     -2.46701337290683
  O          -0.91913454277018     -4.60898805395962     -3.30386826974081
  O           4.54856126987855     -4.31728202541081     -2.42585616489690
  O           5.23571958931644      2.34297523782605     -2.17089053873718
  C           1.82857964698144      3.08028472077228     -1.39966799757061
  C          -2.54789464996726      4.41220152569233     -0.82233746098047
  C          -5.14298915356031      0.37897379093533     -1.34846973935639
  C          -2.45564184585595     -3.28293989734194     -2.00072171032944
  C           2.25101415750083     -4.20842141678746     -1.68359865113313
  C           4.71248755031663      0.07142998633524     -1.54770616470515
  O           2.46091497040571      2.52247442459088     -2.52339316384180
  O          -2.15585822590310      5.48134399970756     -1.64289577987840
  O          -5.78207926466866      1.21559662450373     -2.27333067370744
  O          -3.31312802577652     -3.02768029972174     -3.08040267928341
  O           1.81100963777943     -5.24907330719071     -2.51585978611373
  O           5.26989943536189     -0.40912407299871     -2.74056917226737
  C           2.88491422195989      3.32173335831624     -0.31465069718961
  C          -1.65496344645446      4.32954107619351      0.42572157911064
  C          -5.10674866299857      1.09988561055178      0.00367309208372
  C          -3.29991373328647     -3.28149715265853     -0.72235360095543
  C           1.36264558467449     -4.17142248902172     -0.43147697462506
  C           4.89134928694748     -0.99194939110678     -0.45674842604956
  C           2.30744365009739      4.12803265070115      0.86850629666805
  C          -2.20479730341448      3.18627880875917      1.28245364731099
  C          -4.58780340438930      0.18359754043488      1.13166751868655
  C          -2.46725966829152     -3.69546786991347      0.49969266228697
  C           1.91625885253800     -3.07209033502477      0.47090207766833
  C           4.50171426216431     -0.44211919071482      0.93243304248317
  O           1.56225546054926      5.25396261806688      0.42191624356644
  O          -3.54223738667207      3.37878198432051      1.64927852697062
  O          -5.17770456465094     -1.11147211867343      1.08102710014994
  O          -1.74214839059261     -4.88847624626758      0.24676477956356
  O           3.23982087723700     -3.35062238233638      0.85285028130444
  O           5.00235657047644      0.87768276832215      1.16185225421499
  C           3.41929979856076      4.66013573395944      1.78511743315613
  C          -1.38813542730081      2.89227880879921      2.52819567068283
  C          -4.97464686490089      0.70785961254186      2.52568725141572
  C          -3.35216797013867     -3.99474520693338      1.71773560049110
  C           1.10795867366421     -2.81099188136435      1.73247094207127
  C           5.11932279170447     -1.25059614243953      2.09035663094407
  O           4.43236686543729      5.31251672128276      1.07504505186105
  O          -1.85017662612835      1.73810638902504      3.04695934839923
  O          -6.35614333128641      0.88056658985306      2.63909833501471
  O          -4.29841034129909     -4.98255213954636      1.43993349466599
  O           1.49404795506616     -1.61929444119217      2.17903527322747
  O           6.49553265805486     -1.42994675326176      1.92051789761553
  H          -0.03071579441253      5.86612618176723     -0.61219136930931
  H          -5.40766279440452      3.47602840965447      0.92591603335642
  H          -5.59974598007500     -2.74476301700594      0.03205108180154
  H          -0.41542010025407     -5.82979798708644     -0.89649083871790
  H           5.11882205228044     -3.48437541768697      0.15490503703921
  H           5.21672183662586      2.76200540712394      0.56026319641103
  H           1.82896446976588      5.10759882951150     -2.14843126508761
  H          -4.17205921843356      5.49094620636834      0.12486041559335
  H          -6.89084283653822     -0.83562974574748     -0.95421809059359
  H          -2.47118964510104     -5.42502997614198     -2.25188402480364
  H           3.87995946803763     -5.36150572395684     -0.84558563932853
  H           6.42573536374903      1.26231825977472     -0.97987827450909
  H          -0.61110747188759      4.73426193451430     -2.61072705569696
  H          -4.94540197588378      3.68518260260589     -1.88838937042224
  H          -4.95085613314176     -1.99431210518825     -2.64832712148406
  H           0.00858713175576     -4.78689024876837     -3.06059340631116
  H           4.61076053696568     -3.39475903214831     -2.71911751210186
  H           4.29459409831776      2.44413848994168     -2.41334083887882
  H           1.08666881049024      2.36849439115050     -0.99137614962161
  H          -2.42776895791186      3.45945911930189     -1.36592401816661
  H          -4.09533906895185      0.20114825963951     -1.65031973300963
  H          -1.70388639413092     -2.48062813855951     -1.90491198985799
  H           2.13353313476575     -3.23930325253412     -2.19661118578692
  H           3.62616306500037      0.23464366764367     -1.67527755336216
  H           1.90045454401593      2.69173588878439     -3.29761850855553
  H          -2.91855540779892      5.70084099346601     -2.20801685120200
  H          -6.07146287649284      0.65768133346830     -3.01431383298924
  H          -2.84231470713068     -3.26310940054069     -3.89592080748240
  H           2.48249065053120     -5.38044114731198     -3.20670442156143
  H           5.46108453751650      0.36273062502381     -3.30001437536004
  H           3.72580800167594      3.87877583919919     -0.74412616827715
  H          -1.64939019071423      5.27111172691426      0.98804666987092
  H          -6.11458313493194      1.45160601100966      0.26441226268528
  H          -4.13849490325321     -3.98009261832777     -0.84412330828551
  H           1.37310150190584     -5.13113886768987      0.09659485878541
  H           5.93727790049525     -1.33009908165036     -0.43455641755230
  H           1.64194643132426      3.48428965720742      1.45225963015055
  H          -2.10546309503629      2.25962991973019      0.68429218103112
  H          -3.48929708472109      0.09928016038993      1.05758444222514
  H          -1.78473672657635     -2.86464314169329      0.74895432742626
  H           1.88293933496331     -2.12531895843346     -0.09652834861329
  H           3.40599244603657     -0.45534786987172      1.01993252977489
  H           3.87529703206245      3.81726226286746      2.30764147068733
  H           2.95025895649340      5.32237939429109      2.52119205543309
  H          -4.59629785696906     -0.01372575196138      3.26049656157513
  H          -4.49930790063690      1.67099832215314      2.70988058258412
  H          -3.88716424484261     -3.08558932171774      1.99870363322655
  H          -2.68937743629881     -4.28662379369548      2.54204575963307
  H           4.89945430450374     -0.70208841271959      3.01437333866769
  H           4.66028656340036     -2.23647953507645      2.15021496530030
  H           4.04768242421577      6.10045169660242      0.66368984981107
  H          -6.77300875404988      0.02196410099042      2.46809948220978
  H          -3.81613095874794     -5.78455282517757      1.18516125002711
  H           6.90880689485364     -0.55387966886202      1.91820639974406
  C           0.75589577749888     -0.96707048929850      3.23504424666715
  H           1.50269053440353     -0.35615604952343      3.73101070104842
  H           0.28190227688519     -1.72309037770124      3.85700212502421
  O           0.29121197616064     -3.54924213233962      2.23911271734173
  C          -0.90518365641637      0.85241001735428      3.67884646647269
  H          -1.50510273149485      0.26881114151712      4.36951167769992
  H          -0.11987017184464      1.43808421139911      4.15585794936644
  O          -0.49110978729825      3.57255013899108      2.97316430085323
  C          -0.33810651611759     -0.10306841895548      2.62987683364415
  O          -1.17120928504927     -0.68140587124962      1.82404750948002
  O           0.48452776526310      0.97016420183273      1.59961251240791
  O           1.70014277890787      1.49947902117099      2.28435947489701
  H           2.37912532021171      1.40582371669557      1.57831236366293
