19
Coordinates from ORCA-job job.QMRegion
  C          -0.67955958503999      1.90868626201051      1.65812530538907
  C           0.70921102862828     -3.09127438209424      2.06719632161598
  O          -1.28372789589940      1.42134699180789      2.72920352969523
  O           0.80739082653523     -2.10656076594983      2.93621235649599
  C          -0.29644890240895     -1.99508578697611      3.87718936042586
  H           0.18702381546437     -1.69412392245104      4.81443222231881
  H          -0.82828982983562     -2.93654509991322      3.96302503014053
  O          -0.09809878800673     -3.98174049021567      2.14062363392065
  C          -0.57696812853044      0.40980296546556      3.46668225204893
  H          -0.61563539436721      0.73869379575262      4.51803869345769
  H           0.44907596771821      0.34178258106358      3.11772852061776
  O           0.48104564218535      1.69042722296771      1.34369945522891
  C          -1.23833118818645     -0.91417357859826      3.42560275596988
  O          -2.41724843946084     -1.10774322912308      3.28001905874892
  O          -1.23256882452738     -0.93489364544264      0.82569170504550
  O          -0.49279794231526     -0.86548556029665     -0.44085507745032
  H          -0.42602479203940     -1.82278121767936     -0.64975973671235
  H          -1.38696991766919      2.44198926940980      1.04251134358211
  H           1.40051247636815     -2.97707132603028      1.23589718107468
