133
Coordinates from ORCA-job job
  C           0.53634249282682      4.93855463269821     -0.39358030023855
  C          -4.38490662222040      3.35865831025434      0.50251041320337
  C          -5.12029038326689     -1.78820455539267     -0.15705293728816
  C          -0.91152423929921     -4.86245689325040     -0.86674539954773
  C           4.11066525072265     -3.28019158912961     -0.25497630228371
  C           4.78092787958091      1.85444723051600      0.17332893073541
  O          -0.30657522136209      3.93375056661574      0.15312105422615
  O          -4.25096178707352      2.20037530630093     -0.26048406618839
  O          -3.78603569865762     -1.97226081275514     -0.57659833979445
  O           0.03460826624301     -3.81990360720631     -0.79363566197875
  O           4.04555108292393     -2.04710180000332     -0.90148425442655
  O           3.37268673054130      2.06415398698569      0.10932612315255
  C           1.11240988133527      4.40493483313815     -1.71281409227371
  C          -3.99820588730210      4.53610152536389     -0.41376740871264
  C          -5.84162510601833     -0.99038830504815     -1.25653024916096
  C          -1.72674593824766     -4.64318379641686     -2.14726551403297
  C           3.72700364851725     -4.36482352354651     -1.28736967159937
  C           5.37141758589375      1.40115919981966     -1.17760994724046
  O           0.13268450658471      4.11981549990614     -2.67184043114735
  O          -4.79058879901752      4.58358936358668     -1.56143996391535
  O          -5.83743398389123     -1.65852036731522     -2.48439175347497
  O          -0.92142615284035     -4.62701444968577     -3.29473840186890
  O           4.54148313122441     -4.30756737407063     -2.41874216526635
  O           5.24974193095859      2.33600578950751     -2.20721327925708
  C           1.85536033950645      3.11057641808819     -1.37534723778005
  C          -2.51072055639345      4.40609695689059     -0.80108563749395
  C          -5.13637996021020      0.36658381772640     -1.36621982390256
  C          -2.46240521973036     -3.30351338691894     -1.99647134836604
  C           2.24323959720404     -4.20641970053315     -1.67741088029407
  C           4.71054895507453      0.07396598499378     -1.56376204394970
  O           2.46627549294713      2.55549334753017     -2.51179783936334
  O          -2.11657147311679      5.48523833325824     -1.60778276907987
  O          -5.76598844071198      1.20029389706609     -2.30043229323735
  O          -3.32070130339965     -3.05485712817673     -3.07741807942662
  O           1.80781579488489     -5.25088521741901     -2.50740425552348
  O           5.24585440767686     -0.42140041710369     -2.76040997097016
  C           2.93304242436621      3.35474942262709     -0.31246182619481
  C          -1.63675603757961      4.31557777432938      0.46031187213047
  C          -5.10895887129406      1.09298148311904     -0.01676742210329
  C          -3.30649803921182     -3.29810349567969     -0.71789439784463
  C           1.35627477854435     -4.17086864877659     -0.42460699429624
  C           4.89022203917403     -0.98500633797023     -0.46866356635358
  C           2.38066091069641      4.16199728128904      0.88339008636425
  C          -2.20273446821125      3.16384713031151      1.29507703549342
  C          -4.60702560117814      0.17782001385959      1.11982891769980
  C          -2.47443464772055     -3.71062358659620      0.50565790582307
  C           1.90457983571677     -3.06658539045753      0.47491426549751
  C           4.52001498882094     -0.42165717017915      0.92047901279434
  O           1.58910258683024      5.26735685615532      0.46157781605950
  O          -3.54520583778944      3.35687371895868      1.64404723949990
  O          -5.19614647553467     -1.11768060098508      1.06619360043033
  O          -1.74548709308608     -4.90258425056905      0.25604061785025
  O           3.23006477872519     -3.33782319251766      0.85809732322979
  O           5.04640188172397      0.89001528713318      1.13646799049312
  C           3.51388206660804      4.73865190494106      1.74575108141606
  C          -1.41593060501130      2.85891428551616      2.55599344314628
  C          -5.01003893724787      0.70393634197149      2.50851978152990
  C          -3.36171488775357     -4.00824482852191      1.72215792443232
  C           1.09384934359724     -2.81491757867354      1.73721158710377
  C           5.12936670135343     -1.23573304190703      2.07895089869386
  O           4.45935211630418      5.43762001979460      0.98845831345851
  O          -1.90102653760521      1.70955018950717      3.06499864101835
  O          -6.39330879072619      0.87584779724641      2.60529089478653
  O          -4.30589379059731     -4.99855835454805      1.44448034419924
  O           1.43544468020568     -1.59551224862728      2.15374403685390
  O           6.49970049260810     -1.44673080260312      1.89986117120955
  H          -0.02174045609445      5.86862045116537     -0.54504667192335
  H          -5.40122316095039      3.46907592348839      0.90065576468637
  H          -5.61177398540082     -2.75316132348132      0.01858926339625
  H          -0.41295683672188     -5.83943413516303     -0.88459026325219
  H           5.10876947334028     -3.46906683825367      0.15909061620458
  H           5.27904762743474      2.76860776199261      0.52185170256331
  H           1.82963025176468      5.14426575735303     -2.10360833827003
  H          -4.15032033193119      5.47696369780174      0.12523596580116
  H          -6.88990284834137     -0.84136447491429     -0.97831266686031
  H          -2.47127482324438     -5.44668455816400     -2.24113798650978
  H           3.87629647802849     -5.35139518076455     -0.83687436032318
  H           6.44679814582375      1.24747175003988     -1.02982275029280
  H          -0.59695681191634      4.76128101387089     -2.57102267388502
  H          -4.89346788533888      3.68283192046689     -1.90859319424399
  H          -4.94675797713790     -2.01421731737898     -2.65852502622533
  H           0.00578996049185     -4.80766678773331     -3.05117838529778
  H           4.59890957541295     -3.38568021041821     -2.71474151418307
  H           4.30574454424455      2.45156239193691     -2.43034124989604
  H           1.12516616719715      2.39453021482569     -0.95152300409630
  H          -2.37851023477014      3.45886989409181     -1.35141080466604
  H          -4.08692860076454      0.18513358528362     -1.65944666159247
  H          -1.71240889535522     -2.49911422864931     -1.90545750873985
  H           2.12173753903796     -3.23888131034965     -2.19242210927261
  H           3.62473685265874      0.25083674184994     -1.67787636174330
  H           1.89530360658839      2.73465142324613     -3.27637412467905
  H          -2.87655457326707      5.70581252157798     -2.17686976863351
  H          -6.05750061654823      0.63773858145212     -3.03707926464860
  H          -2.84869195410529     -3.29016831830907     -3.89209143875241
  H           2.47908670413698     -5.37990123011239     -3.19876790240588
  H           5.43809504126732      0.34377513819914     -3.32847291411511
  H           3.76685455400197      3.90864974860931     -0.75964204633577
  H          -1.64695126350301      5.25177693314399      1.03192268866451
  H          -6.11699620204467      1.45285856480953      0.23179030014630
  H          -4.14592762786431     -3.99580487537849     -0.83828577707422
  H           1.37306139561780     -5.12902132055744      0.10632162849247
  H           5.93332468905641     -1.33203921303710     -0.45424386002754
  H           1.76034517815748      3.50427578478584      1.50141239154264
  H          -2.09494056634658      2.24330023468758      0.68996481103719
  H          -3.50880111879572      0.09375884715073      1.05798998366752
  H          -1.79325976528515     -2.88070368329966      0.75499546465824
  H           1.86695613241719     -2.12010366057495     -0.09185065374040
  H           3.42435020176949     -0.41362072705774      1.01534581860132
  H           4.03326067828657      3.91578470373268      2.23988464587681
  H           3.05485634255447      5.37864117009481      2.50756283961640
  H          -4.64067533483339     -0.01728862888512      3.24812292556392
  H          -4.53745252544792      1.66736939382052      2.69744262045057
  H          -3.89869261564888     -3.09902312337326      1.99909058504233
  H          -2.70129102957458     -4.29679231436343      2.54943297087974
  H           4.92903390663234     -0.67671880857501      3.00116466482947
  H           4.64939219036202     -2.21119398674458      2.14816046479088
  H           4.01537506568377      6.20313974379584      0.59504884561889
  H          -6.80641591906043      0.01567332514594      2.43354224895352
  H          -3.82107026224031     -5.80030934874223      1.19427409219251
  H           6.93356025384549     -0.58081683665943      1.88946041837791
  C           0.72424404886593     -0.97374603853864      3.24725187349907
  H           1.44885019771897     -0.27773592466261      3.65743786310033
  H           0.38742899329649     -1.75219945653988      3.92931626221427
  O           0.31273886992414     -3.57647131679328      2.26564012340410
  C          -0.98281174669560      0.82042080590409      3.72629213882708
  H          -1.58958969500196      0.31483452296593      4.47221087794377
  H          -0.15828657561451      1.39493273763292      4.14633529689432
  O          -0.53480274656117      3.54095928300481      3.03049917894842
  C          -0.48743157303210     -0.22749784232717      2.73954861127300
  O          -1.30618542940349     -0.81944583071457      1.97729999284785
  O           0.35502989336649      0.96970575296849      1.52836645088975
  O           1.56561994530598      1.54513885101183      2.13384291470080
  H           2.25683247793612      1.34324886418757      1.47025925883234
