133
Coordinates from ORCA-job job
  C           0.49673782650330      4.88008486592005     -0.43687443842968
  C          -4.49380604867224      3.41459035947611      0.43915599605076
  C          -5.09581674932277     -1.74281088764545      0.05943517414428
  C          -0.84399064808483     -4.68971962194095     -0.88048458279685
  C           4.19210726092980     -3.29844901882070     -0.18600090426215
  C           4.80697376814032      1.86708932471970     -0.14174503275469
  O          -0.42862300634896      3.84334596842408     -0.17068945299496
  O          -4.45613497311365      2.26471389257108     -0.34516987869927
  O          -3.73808900774124     -1.84259633921132     -0.33381844090092
  O           0.12019739574956     -3.68981687940071     -0.63083220832880
  O           4.09317595142614     -2.08555882270680     -0.86325303503808
  O           3.41214295151393      2.00914208430389     -0.35587954622668
  C           1.14294664862063      4.58960886080543     -1.79862601287500
  C          -4.11350436205751      4.60009318444380     -0.47495935726783
  C          -5.89034713817280     -1.07030320180291     -1.07266166999513
  C          -1.60030547355693     -4.28835528572922     -2.15357731429970
  C           3.77415940787414     -4.39832212770872     -1.18606768724546
  C           5.47113833114955      1.31004343555417     -1.41376393161225
  O           0.19412522618052      4.47839909437264     -2.82450794853628
  O          -4.96994331728477      4.71173387903624     -1.56998185983609
  O          -5.87222456669371     -1.80934362031413     -2.25886513877389
  O          -0.73625176199303     -4.10027319136967     -3.24138901577845
  O           4.57902229998803     -4.39382343325903     -2.32512350333404
  O           5.35011030697691      2.15935262694192     -2.51723009362871
  C           1.90607801697453      3.26531354761402     -1.67965805814024
  C          -2.65339830424635      4.43520247698941     -0.94661979140300
  C          -5.28863010991566      0.32215670347242     -1.28841116222499
  C          -2.34146302199531     -2.97795529288271     -1.85967719831750
  C           2.29519648451868     -4.18360961764201     -1.56458279337013
  C           4.83956983005205     -0.05682149404250     -1.70378326969300
  O           2.61035812950603      2.96422674411903     -2.85525432045731
  O          -2.23158268986943      5.54339925515491     -1.69811184264820
  O          -6.01098541378005      1.03892445752329     -2.25181839650949
  O          -3.14498282926987     -2.58100697317878     -2.93804147609285
  O           1.82059069103036     -5.19791520656585     -2.41049091772967
  O           5.44906088880359     -0.66834288989534     -2.80838404280248
  C           2.90893049724894      3.32431210824841     -0.52301298620979
  C          -1.71851254029622      4.24627651575499      0.25678826906576
  C          -5.25865003453431      1.14290507303513      0.00776752651236
  C          -3.24080521551761     -3.13487165000387     -0.62928215529123
  C           1.42572457344800     -4.13482278787236     -0.30226782465180
  C           4.94725457498679     -1.00413193749425     -0.50185255098896
  C           2.22286009441154      3.79573155310796      0.77019051384050
  C          -2.28223585440860      3.09245411681126      1.08325640226176
  C          -4.69864126047942      0.32773070236325      1.19668293798717
  C          -2.44251713180023     -3.68630248713702      0.56131114003605
  C           2.01496299079846     -3.08448323446934      0.63753390443661
  C           4.52429412177619     -0.31313716466023      0.81271502071803
  O           1.47229724755321      4.98246640354743      0.55795004262455
  O          -3.58532281421906      3.35389812227496      1.52796474901214
  O          -5.21491113759542     -1.00089614286456      1.23303253220920
  O          -1.72734377608914     -4.85496884878173      0.19194966951624
  O           3.35320341574760     -3.34559997322072      0.96034802459283
  O           5.04649419019088      1.00813961631955      0.92732129841535
  C           3.24143700735134      4.11450022335797      1.87317045002497
  C          -1.42008653826321      2.72841742255910      2.27787006997814
  C          -5.12894111247175      0.90508156944817      2.55835791866868
  C          -3.35092079893165     -4.09496014417359      1.72956597027534
  C           1.20474365528065     -2.93174314647929      1.91471445302131
  C           5.08292140976432     -1.02779440142884      2.05921540248132
  O           4.19187757465046      5.04897058119814      1.45122832489861
  O          -1.80869893569194      1.51429055734705      2.68305932123483
  O          -6.51854567321818      1.02013432058302      2.64543649462493
  O          -4.33257111388692     -5.00541659653100      1.33466674270113
  O           1.62033333818328     -1.84621786826527      2.55279236835447
  O           6.46121790184813     -1.24154386061268      1.95113373431216
  H          -0.00901133709766      5.85277088948238     -0.44634840160952
  H          -5.47844166242868      3.56127626057641      0.90087572159252
  H          -5.50691413914437     -2.73160126435447      0.29680084407417
  H          -0.36250470032880     -5.66739925964946     -1.00514310648705
  H           5.20497026612441     -3.47023562266803      0.19971082989552
  H           5.25468278996759      2.82583296120228      0.14717732183529
  H           1.85856282381723      5.39510522341049     -2.02746346511309
  H          -4.20276468427470      5.52941183105027      0.09756889716404
  H          -6.94001823421679     -0.98128849768314     -0.77403601624391
  H          -2.33956831367583     -5.06990880408510     -2.38882697396483
  H           3.89158097374128     -5.37919157074563     -0.71458674419260
  H           6.54437835650148      1.19021963884816     -1.23054756970323
  H          -0.60560158854338      4.98183278428711     -2.57870575338298
  H          -5.09258938160299      3.83349645918842     -1.96251204572043
  H          -4.94959305467603     -2.00745697293127     -2.50316055385167
  H           0.09869594840032     -4.57878232671869     -3.07657815714833
  H           4.66902311910279     -3.48060063397927     -2.64005316053082
  H           4.41140834863313      2.38318347329502     -2.65680812565569
  H           1.17885872421283      2.46532247255865     -1.45091803229705
  H          -2.58677605109512      3.51888225406109     -1.55686552599434
  H          -4.23973721240093      0.19167141734647     -1.61185033264282
  H          -1.59516923925252     -2.19773579268698     -1.62242652383766
  H           2.20335432865443     -3.20369914907138     -2.06199499080135
  H           3.76289760279245      0.09995853873233     -1.89835528981289
  H           2.04402975354845      3.18729660767647     -3.61068281481688
  H          -2.97479623011699      5.80997663656096     -2.26733324232584
  H          -6.28175413192555      0.40563309508419     -2.93751025892447
  H          -2.64927498251687     -2.74397222648211     -3.75645692520045
  H           2.50272138057412     -5.35662932465345     -3.08639640985485
  H           5.63392352470128      0.03157774116219     -3.45643905023752
  H           3.72055747751303      4.01564427081428     -0.78200049395411
  H          -1.65740658955462      5.15376043384284      0.86865319266083
  H          -6.27430629915304      1.48244622371266      0.25620521024349
  H          -4.06594553301613     -3.81858166570618     -0.86662159894939
  H           1.38878310502688     -5.10914426215907      0.19882069349982
  H           5.98018869559063     -1.36783925992739     -0.40792186389719
  H           1.55446989991982      2.99334618276652      1.10976689219696
  H          -2.27406863813459      2.19047043224815      0.44500638017889
  H          -3.59768649718682      0.29130474683530      1.13059306379588
  H          -1.75081038544583     -2.89508057197106      0.89912815220272
  H           1.92643841950630     -2.10556207843780      0.13045677411259
  H           3.42289980601833     -0.28409386099964      0.84482221901989
  H           3.77024345538125      3.19894599748185      2.14125573687947
  H           2.68243612009635      4.46686364196526      2.74761577531374
  H          -4.73320384683965      0.23476877537991      3.33166013596466
  H          -4.70221163759516      1.89641701150130      2.70364254508260
  H          -3.85543526344308     -3.20589533211225      2.11252490098771
  H          -2.70709013968485     -4.50807709119955      2.51586835298638
  H           4.85145380631859     -0.40021719958374      2.92842201276531
  H           4.60641068749430     -1.99983183326523      2.18499539796376
  H           3.72357400852846      5.87089880542179      1.24281532752378
  H          -6.89428820719637      0.13708371206008      2.50969468875655
  H          -3.88241192637375     -5.79873059969509      1.00586482281835
  H           6.88701379776252     -0.37515648335336      1.86651264286066
  C           0.69950830757166     -1.16669367774543      3.43450297846394
  H           1.33861581483581     -0.67524640411610      4.16050464469960
  H          -0.00371085114168     -1.87758812647583      3.86175312137667
  O           0.32417731118879     -3.67807710321467      2.28573728447324
  C          -0.91357658739698      0.72280695204699      3.49937617824723
  H          -1.57873468412308      0.08455969315588      4.06986936284611
  H          -0.29225648461442      1.38384929214989      4.10073478243070
  O          -0.53512482613790      3.41083868849113      2.74922803622145
  C          -0.07674464084346     -0.16951457433523      2.58339553419144
  O          -0.75195988840461     -0.74132574214482      1.58023464513654
  O           0.89889889311821      0.70307189421919      1.85078884328830
  O           1.84678026571707      1.33309499724264      2.84172741853149
  H           2.57049360756831      0.66616301700584      2.83098453301450
