133
Coordinates from ORCA-job job
  C           0.55643398134648      5.04673450667047     -0.26089819837084
  C          -4.33724324629870      3.32994316959679      0.55605136281783
  C          -5.08476056708166     -1.79297352981569     -0.29649927103025
  C          -0.92208697615945     -4.96684002211028     -0.78651023333148
  C           4.06931447866636     -3.27224868563269     -0.17715859627099
  C           4.79235830579404      1.89254621466523     -0.00413267399180
  O          -0.26795840800632      4.00866003121143      0.25352579035411
  O          -4.16378657307470      2.20449983863219     -0.24823502558896
  O          -3.74839304464008     -2.02241215898524     -0.68194021700672
  O           0.02601284051578     -3.92439284797464     -0.74214077361034
  O           3.95778708489689     -2.05700583902697     -0.85572757996761
  O           3.39413321710284      2.14562485776598     -0.07586237676140
  C           1.08892785979347      4.61273729857557     -1.63532301107329
  C          -3.97578789941245      4.55492776780641     -0.30448770236007
  C          -5.73572678154044     -0.94656998610567     -1.40297942171686
  C          -1.71254507101709     -4.79994284380188     -2.09060566078958
  C           3.73134532650792     -4.39608986921627     -1.18323958327969
  C           5.32606394477348      1.35477496645110     -1.34627235441386
  O           0.08646102762441      4.39238789667199     -2.58607397184799
  O          -4.74870646358874      4.62267837302947     -1.46498495572397
  O          -5.69288767550030     -1.58375419635902     -2.64681966769676
  O          -0.88827442564151     -4.85303837059159     -3.22368003753360
  O           4.55507625568305     -4.34008170198152     -2.30833742926674
  O           5.17988946602167      2.24554324305460     -2.41132361805057
  C           1.84471283137005      3.30163010350403     -1.41626492483202
  C          -2.47897447682812      4.49775231241484     -0.67167359023886
  C          -4.99463217924359      0.39604061490190     -1.44423668148745
  C          -2.43111055698176     -3.44407149823002     -2.01621543452404
  C           2.24755176460919     -4.29420420078023     -1.58988280824193
  C           4.61258246061495      0.02992824333537     -1.63951114526166
  O           2.40613656502825      2.81753470683176     -2.60813302427288
  O          -2.11860077103823      5.64213238679966     -1.40153656239596
  O          -5.55928574621231      1.26649450707401     -2.38650393006705
  O          -3.27247692280520     -3.23555426615206     -3.11919215759013
  O           1.84876899808309     -5.37263582872765     -2.39422922430971
  O           5.08314236176938     -0.53905095185394     -2.82926997178021
  C           2.96808616131939      3.47115577965182     -0.38661717767055
  C          -1.60424178625004      4.35504272826264      0.58641250367651
  C          -5.02222961124766      1.08387410811417     -0.07486309598125
  C          -3.29298042151786     -3.36292999115948     -0.75196190791084
  C           1.34576276951430     -4.25376065285732     -0.34850527326605
  C           4.81141908563287     -0.97577758892961     -0.49863757542212
  C           2.47477626497533      4.20667007122301      0.88026656818127
  C          -2.15776265089856      3.15522664296739      1.36292451421636
  C          -4.55918086397203      0.12962790704776      1.04466206328126
  C          -2.49077659555387     -3.73550661965490      0.50414350025819
  C           1.85500018919980     -3.12459301456652      0.54314985292136
  C           4.47063512301172     -0.33496553166749      0.86364494443710
  O           1.64253895131752      5.32110744014782      0.57154950197309
  O          -3.50722260471535      3.30813690260114      1.70326338094391
  O          -5.17712091277113     -1.14866821952597      0.93941501346144
  O          -1.77578346169689     -4.94792781973780      0.32088223763575
  O           3.18884132104745     -3.33556600890594      0.93443645483820
  O           5.04224410478074      0.96731214140426      1.00421365081245
  C           3.64524972048413      4.76420179469658      1.70402353647258
  C          -1.38715250283867      2.78335105510905      2.61561223767185
  C          -4.97609083953220      0.62089064264468      2.44196247348008
  C          -3.40557795667316     -3.96758710827625      1.71437076619792
  C           1.02754781800552     -2.89825503276747      1.80137077705756
  C           5.05850889962439     -1.11339618224535      2.05692764882671
  O           4.50915786698287      5.54937528719164      0.93467919493725
  O          -1.92057111081366      1.65134087298658      3.10247097891995
  O          -6.35711547147533      0.82276993412547      2.51807775879391
  O          -4.35705030050082     -4.95764214093046      1.45890397894397
  O           1.27853417375450     -1.64062663755695      2.16381146090734
  O           6.41626206409155     -1.39074541889301      1.87803052368516
  H          -0.00674338574857      5.98419126779633     -0.32506838372674
  H          -5.36001254514576      3.39597281354071      0.94762222843687
  H          -5.61914458944971     -2.74144705356448     -0.15890338766235
  H          -0.42870193159371     -5.94579824405872     -0.75020257111025
  H           5.07275713709124     -3.41145892860722      0.24301240146338
  H           5.32801274969422      2.80341824751775      0.29011541135398
  H           1.79237729934919      5.38321592626985     -1.98982194750796
  H          -4.17088140868902      5.46714162780930      0.26895513126983
  H          -6.79145150090432     -0.77540134211531     -1.16844777467344
  H          -2.46668022294648     -5.59651612484879     -2.15953054588834
  H           3.90913653925324     -5.36514950402934     -0.70609683383767
  H           6.40213280624154      1.17696605141415     -1.23973674122839
  H          -0.64008365599407      5.02708068976698     -2.42483441926610
  H          -4.81084230716786      3.73531950958545     -1.85403012464759
  H          -4.81880248854725     -1.99560241413250     -2.77212531087286
  H           0.03867330762729     -4.99406508477400     -2.95467817479597
  H           4.58016079590619     -3.42611621778828     -2.63190159920194
  H           4.23363060731261      2.43906307853540     -2.55043673060154
  H           1.12878110014947      2.56093858965036     -1.00746093389202
  H          -2.30713220798101      3.59310405910022     -1.28036527762090
  H          -3.93550657938591      0.19990499732049     -1.69027776391930
  H          -1.67068806356932     -2.64669206879057     -1.95619281489706
  H           2.10303562006286     -3.34361840781160     -2.13028479416998
  H           3.52741858561531      0.23323995107211     -1.71715445247311
  H           1.81346217238418      3.05816438874661     -3.33888268252750
  H          -2.88396021739106      5.87501498204777     -1.95906059178958
  H          -5.83684683041246      0.72722825311408     -3.14567930486121
  H          -2.79268626059210     -3.51265364724491     -3.91572825521929
  H           2.52679826040555     -5.50220755332569     -3.07855342590353
  H           5.27492397035575      0.19105149633319     -3.44214445811928
  H           3.79261435078162      4.03655295352350     -0.83778251166849
  H          -1.62357186307211      5.26282496243650      1.20214589720021
  H          -6.04098967814790      1.43052975299231      0.14688031586646
  H          -4.14458915635301     -4.04865613697671     -0.85451188422869
  H           1.36919569866220     -5.20444729257584      0.19536766904960
  H           5.85416837251781     -1.32321806103059     -0.48597521902366
  H           1.90259205919489      3.49920240530537      1.49178245609536
  H          -2.02456273496685      2.27015019088081      0.71260043142903
  H          -3.46128344713935      0.02673010469036      0.99787246635810
  H          -1.79955013403354     -2.90766895369880      0.72959180139163
  H           1.78013102733892     -2.18353805800967     -0.02914591236722
  H           3.37534947900576     -0.28538261188773      0.96530113800706
  H           4.22638947251798      3.93069690799320      2.10208601799669
  H           3.21914209460210      5.33330965433061      2.53812073795882
  H          -4.63871305539039     -0.13316150549682      3.16362148982617
  H          -4.48473170761224      1.56601693888110      2.67034277101076
  H          -3.93655768401289     -3.04137754005097      1.94113239393463
  H          -2.76658201832281     -4.22868325545173      2.56699810722995
  H           4.88960851498173     -0.50131122120862      2.95130222705452
  H           4.53890276142606     -2.06386561927353      2.17674143635691
  H           4.00633158745779      6.31179394391935      0.61213256096178
  H          -6.78623662263536     -0.02524421938872      2.32666551578790
  H          -3.87780073495091     -5.77592055419046      1.25690515074891
  H           6.88788504823541     -0.54658269723678      1.82143618492741
  C           0.63435813096630     -1.04175148923455      3.31310736198849
  H           1.32919795113624     -0.25405376150418      3.59283888133798
  H           0.50942002618200     -1.82468425769291      4.06183418359191
  O           0.29730850420895     -3.68819891782846      2.35239801127506
  C          -1.06218196415769      0.76182528874853      3.84344834896334
  H          -1.68576540413269      0.42587185702364      4.67106836089981
  H          -0.17512932325266      1.30540787807811      4.16512218335890
  O          -0.46508164875278      3.40172185160336      3.10033320023447
  C          -0.70824828020180     -0.44402023437680      3.00179855062896
  O          -1.54294783397655     -1.02880609899161      2.31359861069366
  O           0.19344204167458      0.95612832501202      1.27363808285512
  O           1.44490686544769      1.57003154957066      1.74207063767474
  H           2.08927834042795      1.31909024043988      1.05532772171567
