19
Coordinates from ORCA-job job.QMRegion
  C          -1.42029620723234      2.81184574273733      2.58722665496869
  C           1.08050176325945     -2.81820498021981      1.74011057454911
  O          -1.95627591459520      1.67958510612462      3.08444517328193
  O           1.37883365187910     -1.57257355104326      2.11667791572463
  C           0.68879794072181     -0.96286254893614      3.23054600735611
  H           1.39129858330589     -0.21297181489343      3.58284634561006
  H           0.44707042161125     -1.74361104741598      3.95034383379985
  O           0.32960242149063     -3.59114347769100      2.29465547961779
  C          -1.07245804819637      0.76763471619682      3.75852290528301
  H          -1.70323301582547      0.27942192402204      4.49640245509033
  H          -0.24199739933134      1.32455304891822      4.19047578052837
  O          -0.51480760617356      3.44886056963656      3.07828646046421
  C          -0.58727922977046     -0.29649018138623      2.78878722356850
  O          -1.39703790622042     -0.89467717847235      2.04052075673371
  O           0.23289194869477      0.96275775971654      1.46908503636546
  O           1.44492078345692      1.60875437138743      1.97575672751986
  H           2.13085205247417      1.32699163153271      1.33863460626383
  H          -1.96734193237680      3.05860598525237      1.68644943993488
  H           1.66223166346363     -3.00195920466738      0.84052425333967
