19
Coordinates from ORCA-job job.QMRegion
  C          -1.38328101357244      2.77581029437943      2.59671660722485
  C           1.04750485174424     -2.87519996979079      1.78950462104950
  O          -1.92072906154624      1.64619474445977      3.08712835888592
  O           1.32655462832029     -1.62341879151648      2.16145429385500
  C           0.67087158788190     -1.01696523831438      3.29869639637486
  H           1.36305477781491     -0.23011815997302      3.58888588087118
  H           0.52357805396197     -1.79439151251302      4.04871518626241
  O           0.30405529726205     -3.65574837575305      2.33937672777740
  C          -1.06220105297893      0.75520714585243      3.82226381393093
  H          -1.69676637424900      0.37934220965130      4.62270365276577
  H          -0.19323591016237      1.30604823067302      4.17956426793485
  O          -0.47036004846819      3.40354266646668      3.08675384329311
  C          -0.65982387848897     -0.41546658838924      2.95145101862356
  O          -1.47231948608478     -0.99977833597988      2.22983699154199
  O           0.24340843619034      0.98278225351353      1.36429265626484
  O           1.47516003434020      1.60590043922753      1.85925215927333
  H           2.13900308633334      1.34701861952796      1.19309171573839
  H          -1.93438501647019      3.03805336137524      1.70255941153057
  H           1.63214656919376     -3.04378739759799      0.88740925702378
