29
Coordinates from ORCA-job job
  H          -3.61180848893657      0.73684900702527     -0.99398516481325
  C          -2.63801409949809      0.54221804409022     -0.57384530327742
  C          -2.46677893186327     -0.46920182308264      0.35911553399647
  C          -1.21284244678129     -0.72031760983176      0.89668283008842
  C          -0.12384374092194      0.03829571578771      0.50924313136059
  C          -0.29511510014646      1.05836940535128     -0.42606639851583
  C          -1.55594307093112      1.30555777092647     -0.96896160480990
  H          -3.31138557135789     -1.06513914624496      0.66719880078314
  H          -1.07984515840576     -1.50990081947480      1.61896527739714
  H           0.86125973359227     -0.14480789956238      0.91015897408194
  H          -1.65161625329295      2.10010103496680     -1.69359926882336
  O           3.12536289673969      2.40225043923948     -0.56659447090730
  C           0.83145042218735      1.90126446336455     -0.87942576791244
  O           0.77805814000935      2.72446860447612     -1.78339447495847
  O           1.94065118100632      1.62182526947965     -0.14534216721212
  C           4.18204644600374      2.35889023602316      0.67652429944928
  O           5.20019043505435      3.02060446241342      0.22802020834968
  H           3.55816913235680      2.87151250979000      1.46221542977032
  H           2.95599577312809      0.92240361469317      2.62426784957664
  C           4.31770915757182      0.88353513308432      0.98245145618369
  C           5.15017448259410      0.09836338563984      0.19795136936938
  C           5.26758012414770     -1.25717674366946      0.44679029834152
  C           4.55094035784192     -1.83572814388484      1.48157407445408
  C           3.72112471340650     -1.05491760951883      2.26844574937636
  C           3.60488879711106      0.30214155448267      2.02039655234814
  H           5.69394299916657      0.58503557550024     -0.59986357547504
  H           5.91673753219100     -1.85900770593852     -0.17105933784854
  H           4.63930227918985     -2.89389561120190      1.67354138222401
  H           3.16048225883688     -1.50019611392428      3.07639431740289
