9
Coordinates from ORCA-job job.QMRegion
  O           3.12536289673969      2.40225043923948     -0.56659447090730
  C           0.83145042218735      1.90126446336455     -0.87942576791244
  O           0.77805814000935      2.72446860447612     -1.78339447495847
  O           1.94065118100632      1.62182526947965     -0.14534216721212
  C           4.18204644600374      2.35889023602316      0.67652429944928
  O           5.20019043505435      3.02060446241342      0.22802020834968
  H           3.55816913235680      2.87151250979000      1.46221542977032
  H          -0.01113775166403      1.27084093841194     -0.54034629531598
  H           4.28272012718911      1.26404680003642      0.90354919587833
