  136
        -21.28252939
 C          0.6405464370       -4.5604797176       -0.4704012745
 C          4.7087128730       -1.7156989979        0.2738381143
 C          3.8316004185        2.3866832047       -1.5959627493
 C         -0.7691623132        4.2205247039       -0.1158414456
 C         -4.8594502795        1.3107091793        0.4397682853
 C         -4.0031787155       -2.6463170659       -1.7160517390
 O          1.6561569077       -3.6018002658       -0.6780017101
 O          5.8224219541       -1.0496000044       -0.3033201853
 O          2.5774150899        1.8896503931       -1.1437916609
 O         -1.8100899024        3.3150012282       -0.4212612922
 O         -5.9859026177        0.6837063536       -0.1558168577
 O         -2.7479065867       -2.1801849664       -1.2340142361
 C         -0.1606175820       -4.8601804190       -1.7738340295
 C          4.7045830547       -3.2008087807       -0.1688545397
 C          4.3566032072        1.4594509442       -2.7233478612
 C          0.0215553308        4.6439973320       -1.3932825111
 C         -4.8673737672        2.8243902575        0.1071556912
 C         -4.5412161727       -1.6406340519       -2.7675781634
 O          0.7025072211       -5.2010340842       -2.8383982965
 O          4.3815230130       -3.2963661987       -1.5440006544
 O          3.4220327120        1.4178906450       -3.7852212518
 O         -0.8739920827        5.0840132660       -2.3914011841
 O         -4.5686883060        3.0254100791       -1.2628788497
 O         -3.6202497012       -1.5162681301       -3.8344203706
 C         -1.0301008305       -3.6421177924       -2.1395925116
 C          3.6803265805       -3.9938204312        0.6801865832
 C          4.5759802566        0.0704685442       -2.0998284835
 C          0.8794756498        3.4598769947       -1.8852559843
 C         -3.8280851834        3.5513226449        0.9953711139
 C         -4.7567479622       -0.3013887876       -2.0436622655
 O         -1.8030087765       -3.8818060803       -3.2971541165
 O          4.0917065666       -4.1393876973        2.0305284608
 O          5.0435660952       -0.8716280278       -3.0383493201
 O          1.6675527879        3.7919554242       -3.0081492698
 O         -4.2037443079        3.5650239541        2.3642547895
 O         -5.2302460122        0.7044697440       -2.9102146267
 C         -1.8894315028       -3.2616829257       -0.9166940146
 C          2.2948961363       -3.3028123012        0.5648965228
 C          5.5239986762        0.2012789678       -0.8888641444
 C          1.7368569306        2.9439112644       -0.7113462410
 C         -2.4412178407        2.8874619946        0.7864736174
 C         -5.6950772499       -0.5205569127       -0.8371578800
 C         -0.9425186442       -2.9685912338        0.2646571374
 C          2.3801594322       -1.7697299283        0.7887528889
 C          4.9570777917        1.2365850585        0.1116898639
 C          0.7935963033        2.5375354692        0.4363999735
 C         -2.5092073397        1.3403705654        0.8672957991
 C         -5.1215841303       -1.6303519569        0.0808430881
 O         -0.2288350129       -4.1619418939        0.5928820408
 O          3.4290578049       -1.1445740914        0.0414500454
 O          4.7757978262        2.4962811358       -0.5334016098
 O          0.0962814001        3.6960677325        0.8970270439
 O         -3.5882569359        0.7619400151        0.1261329225
 O         -4.9399160429       -2.8382259456       -0.6572394637
 C         -1.6601091903       -2.4196898736        1.4875069277
 C          2.4059341400       -1.3899459713        2.2550711860
 C          5.8428233955        1.4158541317        1.3373565963
 C          1.5232491337        1.8189190825        1.5622891271
 C         -2.4401191557        0.8549358710        2.2979644650
 C         -5.9653002713       -1.8883601699        1.3276734563
 O         -2.5719905221       -3.3478138772        2.0018969721
 O          1.2316803320       -0.8933595857        2.7258798109
 O          7.0678445890        1.9940630919        0.9860103156
 O          2.5149867657        2.6207025367        2.1470462564
 O         -1.2039578939        0.4209127492        2.6611066627
 O         -5.5087218113       -2.9872437940        2.0773767106
 H          1.1456744786       -5.4807109531       -0.1395046937
 H          4.8598677898       -1.6408308363        1.3602937437
 H          3.6800578779        3.4021022914       -1.9895963789
 H         -1.2535984887        5.1107787307        0.3144767414
 H         -4.9773039277        1.1557197310        1.5217590922
 H         -3.8501362874       -3.6273447592       -2.1885642727
 H         -0.8228209958       -5.7231285337       -1.6013942922
 H          5.7178860831       -3.6154925961       -0.0530564132
 H          5.3101706407        1.8415168253       -3.1177580454
 H          0.6882814308        5.4861836503       -1.1510311804
 H         -5.8790835678        3.2260115706        0.2722922571
 H         -5.4982262024       -1.9958594151       -3.1785122893
 H          0.2180138957       -5.2158777953       -3.6805383406
 H          3.4058392899       -3.3623664835       -1.6019260818
 H          3.6395373513        0.6998973414       -4.3996488424
 H         -0.4096758796        5.2844610924       -3.2352850018
 H         -3.5958888344        3.1199300683       -1.3326704448
 H         -3.8513687440       -0.7578698115       -4.3927927829
 H         -0.3507835793       -2.8077183107       -2.3726195521
 H          3.6050702365       -5.0134114615        0.2721497350
 H          3.5883950531       -0.2707154394       -1.7493932948
 H          0.1873424134        2.6647869041       -2.2031596868
 H         -3.7724308086        4.6046950963        0.6807299128
 H         -3.7651370860        0.0134773465       -1.6804747105
 H         -2.3320477836       -3.0845627821       -3.5306547836
 H          3.9410913746       -3.2852409013        2.4891754246
 H          4.9955293765       -1.7611361842       -2.6281902032
 H          2.1639481549        3.0027567661       -3.3281498221
 H         -4.0125081805        2.6797787216        2.7431079928
 H         -5.1807639860        1.5631398956       -2.4390486445
 H         -2.5238884650       -4.1102425971       -0.6249131735
 H          1.6563186807       -3.7150096525        1.3631394619
 H          6.4932237166        0.5737860021       -1.2515029527
 H          2.3854362169        3.7467104690       -0.3314590434
 H         -1.7977055034        3.2228343303        1.6165461748
 H         -6.6649193603       -0.8632475353       -1.2261633701
 H         -0.1991697073       -2.2417368986       -0.0855709726
 H          1.4742640911       -1.3215429357        0.3578959896
 H          3.9540300760        0.9019005126        0.4091871126
 H          0.0357794487        1.8689752645        0.0088430503
 H         -1.6260899851        0.9406002810        0.3508375814
 H         -4.1127855507       -1.3221436316        0.3852432905
 H         -2.2160586430       -1.5107778543        1.2364749421
 H         -0.9391990521       -2.1561842089        2.2718938013
 H          5.3521774621        2.0588003679        2.0799424735
 H          6.0603655905        0.4526401086        1.8126500629
 H          2.0212960605        0.9255607110        1.1711139404
 H          0.8163135380        1.4827500366        2.3328418876
 H         -5.9968173497       -1.0060937817        1.9790901110
 H         -6.9961586545       -2.1189349856        1.0366553499
 H         -2.1144899606       -4.1825495483        2.1974587452
 H          6.9240221616        2.8298504475        0.5104927865
 H          2.1203560458        3.1947699110        2.8397152910
 H         -4.5273831910       -3.0727697125        2.0478494498
 C         -1.1507838653        0.1243925955        4.0370230094
 H         -1.5099251458       -0.8989306660        4.1871062394
 H         -1.8371193635        0.8077018545        4.5510977812
 O         -3.4081526221        0.9265579535        3.0189215751
 C          1.3291300294       -0.6095870307        4.1038474679
 H          2.3062855176       -0.1435237037        4.2749733785
 H          1.3089744993       -1.5594515468        4.6484192046
 O          3.4071902236       -1.5606168541        2.9110626175
 C          0.2387790796        0.3110702715        4.5792489308
 O          0.4738322081        1.1937051527        5.3594397493
 O          0.3861735725        5.7545359153       -4.8904088125
 H          1.0881478412        6.3872601213       -5.0323941548
 H          0.1655172592        5.3863449682       -5.7442469844
 O          1.1772222201        3.8526052039        4.3412092413
 H          0.9258819331        3.0069364513        4.7566757249
 H          0.7640967435        4.5454540891        4.8498953273
