  136
  energy= 0.00000000000
 C          0.5877827576        4.9315519030       -0.2062827912
 C         -4.3532795328        3.3455148346        0.6671191393
 C         -5.0403485301       -1.6556793966       -0.3477889210
 C         -0.7543902551       -4.6787696516       -0.6440579048
 C          4.2701412565       -3.2206320644       -0.0472004752
 C          4.8779411620        1.9324648370       -0.6128161470
 O         -0.3050107027        3.8463390681       -0.0901035298
 O         -4.4010032730        2.3701334939       -0.3254719139
 O         -3.6601685068       -1.7537459505       -0.6343837363
 O          0.2201412896       -3.6801906022       -0.4586254624
 O          4.1091235006       -2.0841188229       -0.8346698948
 O          3.4945245856        2.1290878165       -0.7952212270
 C          1.1692439926        4.9077759645       -1.6288254090
 C         -3.9830862403        4.6728979560       -0.0255636072
 C         -5.7181010807       -0.8869430708       -1.4931174979
 C         -1.4405682711       -4.4188694226       -1.9952351955
 C          3.8745712970       -4.4221096479       -0.9318718153
 C          5.4141638509        1.2231774898       -1.8669573658
 O          0.1660091296        4.9671875508       -2.6070900177
 O         -4.8853733009        4.9990050501       -1.0419778529
 O         -5.5273624526       -1.5156761331       -2.7310306413
 O         -0.5301963427       -4.4007725323       -3.0618012956
 O          4.6747228280       -4.5079253119       -2.0742032201
 O          5.1604922180        1.9609470923       -3.0309190723
 C          1.9374572319        3.5921690058       -1.7882700012
 C         -2.5543588856        4.5657622331       -0.5892759244
 C         -5.1633388890        0.5425278767       -1.5152158428
 C         -2.1257836188       -3.0501510372       -1.9004428145
 C          2.3935744643       -4.2730648288       -1.3217371673
 C          4.7615636843       -0.1624741791       -1.9433303835
 O          2.6151755762        3.5084008205       -3.0176795043
 O         -2.1353358323        5.7975636542       -1.1291318399
 O         -5.8740998204        1.3430759511       -2.4274768685
 O         -2.8437226480       -2.7262697857       -3.0647118910
 O          1.9336636275       -5.3905492765       -2.0450118777
 O          5.2950193316       -0.9164892551       -3.0025337087
 C          2.9851191828        3.4481972690       -0.6801583065
 C         -1.5584211520        4.1224465653        0.4983498872
 C         -5.2263383815        1.2245061397       -0.1411045964
 C         -3.1026931138       -3.0530276771       -0.7217490554
 C          1.5173489829       -4.0971836211       -0.0749661436
 C          4.9553127964       -0.9572445873       -0.6454493671
 C          2.3862105004        3.6844217816        0.7158003459
 C         -2.1125733432        2.8254704178        1.1059009645
 C         -4.7519866185        0.2993893610        1.0009889604
 C         -2.3765443325       -3.4475456448        0.5746751371
 C          2.1005739425       -2.9690190246        0.7800965828
 C          4.5859331443       -0.1175983216        0.5947712023
 O          1.6045082424        4.8760862128        0.7499051045
 O         -3.3892883255        3.0428268716        1.6554050399
 O         -5.2712229441       -1.0246927496        0.8697624328
 O         -1.6874499457       -4.6817265530        0.3981808367
 O          3.4518070785       -3.1916276948        1.1081258856
 O          5.1531778586        1.1921605247        0.5347829129
 C          3.4845296388        3.8713966745        1.7712945109
 C         -1.2607099180        2.1418002087        2.1491634736
 C         -5.2600287606        0.7459301377        2.3855082286
 C         -3.3566399116       -3.6699976355        1.7337232627
 C          1.3169050576       -2.7594921112        2.0607182152
 C          5.1528935143       -0.7045466517        1.8988135668
 O          4.3520761943        4.9221115991        1.4381753282
 O         -2.0177176116        1.3467738164        2.9135820402
 O         -6.6346636783        1.0226404238        2.3770289852
 O         -4.3200061149       -4.6380202287        1.4194191244
 O          1.6800051100       -1.5952915234        2.6146338921
 O          6.5314364197       -0.9447080638        1.8056260835
 H          0.0732193293        5.8826885208       -0.0235758661
 H         -5.3075158657        3.4335545613        1.2012822936
 H         -5.4848775006       -2.6532200773       -0.2435305200
 H         -0.3015341422       -5.6773488491       -0.6285602611
 H          5.2966437433       -3.3226521786        0.3260140714
 H          5.3913784699        2.8913176377       -0.4670036481
 H          1.8644384045        5.7545444179       -1.7413555733
 H         -4.0234716064        5.4852121503        0.7073184737
 H         -6.7986185216       -0.8559263769       -1.3173411059
 H         -2.1999909767       -5.1986638227       -2.1626094804
 H          4.0174833797       -5.3508760839       -0.3707526051
 H          6.5008827528        1.1114441459       -1.7926534126
 H         -0.6147655956        5.4172815976       -2.2326770019
 H         -5.0456308279        4.2040230148       -1.5743913677
 H         -4.5937995235       -1.7847540622       -2.8140546908
 H          0.2934554639       -4.8529917824       -2.7964336593
 H          4.7294707712       -3.6267719922       -2.4774520780
 H          4.2532709267        2.3159372805       -2.9947403410
 H          1.2079794592        2.7730734646       -1.6993948966
 H         -2.5477551675        3.7951417643       -1.3765608722
 H         -4.1036204053        0.4972054061       -1.8096082984
 H         -1.3385031460       -2.3037356914       -1.7145593530
 H          2.2896796781       -3.3626481737       -1.9332197798
 H          3.6769342676       -0.0274185037       -2.0871673777
 H          2.0021057828        3.7774352523       -3.7170857605
 H         -2.8795612717        6.1564757201       -1.6403465184
 H         -6.0149635902        0.8139203579       -3.2274798342
 H         -2.3057909868       -2.9870263755       -3.8264780010
 H          2.6219701456       -5.6263526778       -2.6887373086
 H          5.3914067852       -0.3183164853       -3.7597664916
 H          3.7844081244        4.1792371329       -0.8611512099
 H         -1.4644857798        4.8938728429        1.2724291220
 H         -6.2588172512        1.5447931083        0.0595969760
 H         -3.8934135740       -3.7871097883       -0.9236404847
 H          1.4725278941       -5.0275223370        0.5037367514
 H          6.0007875159       -1.2868942985       -0.5670437487
 H          1.7603956798        2.8259627147        0.9873618620
 H         -2.1706382639        2.0877872838        0.2792037344
 H         -3.6546883114        0.2631998892        1.0074484620
 H         -1.6629431530       -2.6563184879        0.8423188213
 H          2.0000172649       -2.0283190226        0.2098757154
 H          3.4925148519       -0.0498773760        0.6675279596
 H          4.0892297779        2.9653652467        1.8330855846
 H          2.9993898365        4.0523313405        2.7374175678
 H         -5.0294668921       -0.0641395792        3.0868555805
 H         -4.7462739845        1.6501942325        2.7069462237
 H         -3.8935512718       -2.7425628104        1.9398040050
 H         -2.7741086966       -3.9614304439        2.6157349682
 H          4.9335506986        0.0088569717        2.7016465365
 H          4.6720978732       -1.6551178624        2.1263965963
 H          3.8189162614        5.7272226652        1.3715278885
 H         -7.0993985790        0.2045219336        2.1517500772
 H         -3.8517717297       -5.4641869377        1.2317903080
 H          6.9632094311       -0.0976087704        1.6236964054
 C          0.7990358493       -1.0595769674        3.6036530553
 H          1.3748737894       -0.2731219898        4.0814453718
 H          0.5155731948       -1.8241300381        4.3301315279
 O          0.4830723059       -3.5149264660        2.5188888815
 C         -1.2594072174        0.4807999238        3.7685253662
 H         -2.0149532245       -0.0621597934        4.3318623460
 H         -0.6342999801        1.0636089137        4.4390687648
 O         -0.0504331318        2.2249289873        2.2638817252
 C         -0.4347329282       -0.4888660609        2.9572615857
 O         -0.7680103505       -0.8051612051        1.8248658241
 O          1.1130193106        0.2901315499       -0.0832966077
 H          1.7083012791        0.9291520844       -0.4990426046
 H          0.2432281942        0.4172226618       -0.4992245986
 O         -1.5365323144        0.4039221241       -1.0730124107
 H         -2.0943572894       -0.3262450584       -0.7709924135
 H         -1.5207050647        0.3278512330       -2.0356848175
