  136
        -21.28252939
 C          0.6405464370       -4.5604797176       -0.4704012745
 C          4.7087128730       -1.7156989979        0.2738381143
 C          3.8316004185        2.3866832047       -1.5959627493
 C         -0.7691623132        4.2205247039       -0.1158414456
 C         -4.8594502795        1.3107091793        0.4397682853
 C         -4.0031787155       -2.6463170659       -1.7160517390
 O          1.6561569077       -3.6018002658       -0.6780017101
 O          5.8224219541       -1.0496000044       -0.3033201853
 O          2.5774150899        1.8896503931       -1.1437916609
 O         -1.8100899024        3.3150012282       -0.4212612922
 O         -5.9859026177        0.6837063536       -0.1558168577
 O         -2.7479065867       -2.1801849664       -1.2340142361
 C         -0.1606175820       -4.8601804190       -1.7738340295
 C          4.7045830547       -3.2008087807       -0.1688545397
 C          4.3566032072        1.4594509442       -2.7233478612
 C          0.0215553308        4.6439973320       -1.3932825111
 C         -4.8673737672        2.8243902575        0.1071556912
 C         -4.5412161727       -1.6406340519       -2.7675781634
 O          0.7025072211       -5.2010340842       -2.8383982965
 O          4.3815230130       -3.2963661987       -1.5440006544
 O          3.4220327120        1.4178906450       -3.7852212518
 O         -0.8739920827        5.0840132660       -2.3914011841
 O         -4.5686883060        3.0254100791       -1.2628788497
 O         -3.6202497012       -1.5162681301       -3.8344203706
 C         -1.0301008305       -3.6421177924       -2.1395925116
 C          3.6803265805       -3.9938204312        0.6801865832
 C          4.5759802566        0.0704685442       -2.0998284835
 C          0.8794756498        3.4598769947       -1.8852559843
 C         -3.8280851834        3.5513226449        0.9953711139
 C         -4.7567479622       -0.3013887876       -2.0436622655
 O         -1.8030087765       -3.8818060803       -3.2971541165
 O          4.0917065666       -4.1393876973        2.0305284608
 O          5.0435660952       -0.8716280278       -3.0383493201
 O          1.6675527879        3.7919554242       -3.0081492698
 O         -4.2037443079        3.5650239541        2.3642547895
 O         -5.2302460122        0.7044697440       -2.9102146267
 C         -1.8894315028       -3.2616829257       -0.9166940146
 C          2.2948961363       -3.3028123012        0.5648965228
 C          5.5239986762        0.2012789678       -0.8888641444
 C          1.7368569306        2.9439112644       -0.7113462410
 C         -2.4412178407        2.8874619946        0.7864736174
 C         -5.6950772499       -0.5205569127       -0.8371578800
 C         -0.9425186442       -2.9685912338        0.2646571374
 C          2.3801594322       -1.7697299283        0.7887528889
 C          4.9570777917        1.2365850585        0.1116898639
 C          0.7935963033        2.5375354692        0.4363999735
 C         -2.5092073397        1.3403705654        0.8672957991
 C         -5.1215841303       -1.6303519569        0.0808430881
 O         -0.2288350129       -4.1619418939        0.5928820408
 O          3.4290578049       -1.1445740914        0.0414500454
 O          4.7757978262        2.4962811358       -0.5334016098
 O          0.0962814001        3.6960677325        0.8970270439
 O         -3.5882569359        0.7619400151        0.1261329225
 O         -4.9399160429       -2.8382259456       -0.6572394637
 C         -1.6601091903       -2.4196898736        1.4875069277
 C          2.4059341400       -1.3899459713        2.2550711860
 C          5.8428233955        1.4158541317        1.3373565963
 C          1.5232491337        1.8189190825        1.5622891271
 C         -2.4401191557        0.8549358710        2.2979644650
 C         -5.9653002713       -1.8883601699        1.3276734563
 O         -2.5719905221       -3.3478138772        2.0018969721
 O          1.2316803320       -0.8933595857        2.7258798109
 O          7.0678445890        1.9940630919        0.9860103156
 O          2.5149867657        2.6207025367        2.1470462564
 O         -1.2039578939        0.4209127492        2.6611066627
 O         -5.5087218113       -2.9872437940        2.0773767106
 H          1.1456744786       -5.4807109531       -0.1395046937
 H          4.8598677898       -1.6408308363        1.3602937437
 H          3.6800578779        3.4021022914       -1.9895963789
 H         -1.2535984887        5.1107787307        0.3144767414
 H         -4.9773039277        1.1557197310        1.5217590922
 H         -3.8501362874       -3.6273447592       -2.1885642727
 H         -0.8228209958       -5.7231285337       -1.6013942922
 H          5.7178860831       -3.6154925961       -0.0530564132
 H          5.3101706407        1.8415168253       -3.1177580454
 H          0.6882814308        5.4861836503       -1.1510311804
 H         -5.8790835678        3.2260115706        0.2722922571
 H         -5.4982262024       -1.9958594151       -3.1785122893
 H          0.2180138957       -5.2158777953       -3.6805383406
 H          3.4058392899       -3.3623664835       -1.6019260818
 H          3.6395373513        0.6998973414       -4.3996488424
 H         -0.4096758796        5.2844610924       -3.2352850018
 H         -3.5958888344        3.1199300683       -1.3326704448
 H         -3.8513687440       -0.7578698115       -4.3927927829
 H         -0.3507835793       -2.8077183107       -2.3726195521
 H          3.6050702365       -5.0134114615        0.2721497350
 H          3.5883950531       -0.2707154394       -1.7493932948
 H          0.1873424134        2.6647869041       -2.2031596868
 H         -3.7724308086        4.6046950963        0.6807299128
 H         -3.7651370860        0.0134773465       -1.6804747105
 H         -2.3320477836       -3.0845627821       -3.5306547836
 H          3.9410913746       -3.2852409013        2.4891754246
 H          4.9955293765       -1.7611361842       -2.6281902032
 H          2.1639481549        3.0027567661       -3.3281498221
 H         -4.0125081805        2.6797787216        2.7431079928
 H         -5.1807639860        1.5631398956       -2.4390486445
 H         -2.5238884650       -4.1102425971       -0.6249131735
 H          1.6563186807       -3.7150096525        1.3631394619
 H          6.4932237166        0.5737860021       -1.2515029527
 H          2.3854362169        3.7467104690       -0.3314590434
 H         -1.7977055034        3.2228343303        1.6165461748
 H         -6.6649193603       -0.8632475353       -1.2261633701
 H         -0.1991697073       -2.2417368986       -0.0855709726
 H          1.4742640911       -1.3215429357        0.3578959896
 H          3.9540300760        0.9019005126        0.4091871126
 H          0.0357794487        1.8689752645        0.0088430503
 H         -1.6260899851        0.9406002810        0.3508375814
 H         -4.1127855507       -1.3221436316        0.3852432905
 H         -2.2160586430       -1.5107778543        1.2364749421
 H         -0.9391990521       -2.1561842089        2.2718938013
 H          5.3521774621        2.0588003679        2.0799424735
 H          6.0603655905        0.4526401086        1.8126500629
 H          2.0212960605        0.9255607110        1.1711139404
 H          0.8163135380        1.4827500366        2.3328418876
 H         -5.9968173497       -1.0060937817        1.9790901110
 H         -6.9961586545       -2.1189349856        1.0366553499
 H         -2.1144899606       -4.1825495483        2.1974587452
 H          6.9240221616        2.8298504475        0.5104927865
 H          2.1203560458        3.1947699110        2.8397152910
 H         -4.5273831910       -3.0727697125        2.0478494498
 C         -1.1507838653        0.1243925955        4.0370230094
 H         -1.5099251458       -0.8989306660        4.1871062394
 H         -1.8371193635        0.8077018545        4.5510977812
 O         -3.4081526221        0.9265579535        3.0189215751
 C          1.3291300294       -0.6095870307        4.1038474679
 H          2.3062855176       -0.1435237037        4.2749733785
 H          1.3089744993       -1.5594515468        4.6484192046
 O          3.4071902236       -1.5606168541        2.9110626175
 C          0.2387790796        0.3110702715        4.5792489308
 O          0.4738322081        1.1937051527        5.3594397493
 O          0.3861735725        5.7545359153       -4.8904088125
 H          1.0881478412        6.3872601213       -5.0323941548
 H          0.1655172592        5.3863449682       -5.7442469844
 O          1.1772222201        3.8526052039        4.3412092413
 H          0.9258819331        3.0069364513        4.7566757249
 H          0.7640967435        4.5454540891        4.8498953273
  136
        -21.28084974
 C          0.6960846762       -4.2673541911       -0.1449812799
 C          4.7162282668       -1.1812728598        0.0813542038
 C          3.5092674863        2.7165461598       -2.1334099082
 C         -0.7536200137        4.7058711957        0.0513272297
 C         -4.7519270742        1.6527460078        0.4595584008
 C         -3.7104576157       -2.1871498419       -1.9385093038
 O          1.7258352660       -3.3913293689       -0.5639643036
 O          5.7604260169       -0.4805482102       -0.5821596857
 O          2.2944118545        2.2987776700       -1.5407033865
 O         -1.8220575498        3.8389304355       -0.2758006836
 O         -5.8292094264        1.0055683931       -0.2072935453
 O         -2.4733245581       -1.8199908731       -1.3594371298
 C         -0.1613599742       -4.8145244499       -1.3206704391
 C          4.7927024085       -2.6927811382       -0.2605619312
 C          4.0262907845        1.6747418040       -3.1665214397
 C         -0.0197757799        5.2769952622       -1.1975938329
 C         -4.8309920190        3.1802677102        0.1994755605
 C         -4.2113440782       -1.0863324527       -2.9168309488
 O          0.6307107823       -5.3945479007       -2.3353856543
 O          4.4035029982       -2.9084755667       -1.6038763412
 O          3.0769597706        1.4404843781       -4.1856834078
 O         -0.9072678280        5.8608983200       -2.1323606477
 O         -4.5160226352        3.4594777087       -1.1514744767
 O         -3.2740622569       -0.8399058550       -3.9441938956
 C         -1.0384717586       -3.6991828368       -1.9224583232
 C          3.8648152806       -3.4901441210        0.6900235829
 C          4.3614487204        0.3752080456       -2.4184323649
 C          0.7979354492        4.1760744722       -1.9053919224
 C         -3.8477160850        3.9295316133        1.1331207933
 C         -4.4852749654        0.1894393298       -2.1049533983
 O         -1.9100614174       -4.2329432153       -2.8985559768
 O          4.3378300898       -3.4959008670        2.0278096708
 O          4.8493613645       -0.6160167184       -3.2942651393
 O          1.5867368962        4.7350735481       -2.9365481313
 O         -4.2525101133        3.8983050357        2.4926662597
 O         -4.9510738265        1.2336930496       -2.9291016495
 C         -1.8174565034       -2.9557009004       -0.8107960264
 C          2.4282997598       -2.9118197342        0.5874274755
 C          5.3546186002        0.6826741987       -1.2799088159
 C          1.6694242353        3.3982268407       -0.8915303891
 C         -2.4255039179        3.3433644133        0.9270681291
 C         -5.4761909970       -0.1345695452       -0.9701564602
 C         -0.8402060460       -2.5345341816        0.3087965544
 C          2.4145013741       -1.3631683489        0.6757591608
 C          4.7659332297        1.7885416005       -0.3734234203
 C          0.7884825273        2.9445225011        0.2923266970
 C         -2.4259757287        1.7914492152        0.9812884193
 C         -4.9382500283       -1.3101451382       -0.1198033121
 O         -0.1420907199       -3.6618228706        0.8385453516
 O          3.3953110392       -0.7129122942       -0.1392827692
 O          4.5011691555        2.9676909815       -1.1380355272
 O          0.1766964471        4.0685421568        0.9231016100
 O         -3.4416906744        1.1849916453        0.1720864351
 O         -4.6968817241       -2.4569653484       -0.9413445669
 C         -1.5417876163       -1.7738948041        1.4246964474
 C          2.4262454063       -0.8928001221        2.1134932784
 C          5.6666898110        2.1290716015        0.8055990732
 C          1.5527667153        2.1440712736        1.3330543123
 C         -2.4156276063        1.2637825131        2.4020520855
 C         -5.8614814140       -1.6702223628        1.0418728647
 O         -2.4884780730       -2.5778836839        2.0767116355
 O          1.1984197699       -0.5238180198        2.5652550922
 O          6.8425123294        2.7528377295        0.3739608045
 O          2.5782114216        2.9066409770        1.9054454263
 O         -1.2022640140        0.8185794916        2.8240041029
 O         -5.3883123139       -2.7646343722        1.7828245406
 H          1.1989899038       -5.1123895639        0.3492839638
 H          4.8981175101       -1.0231275710        1.1543763669
 H          3.3060959909        3.6721407228       -2.6428278372
 H         -1.1946646318        5.5365110078        0.6219411613
 H         -4.9014491757        1.4378259962        1.5274074708
 H         -3.5422996345       -3.1250534049       -2.4913063110
 H         -0.8371045373       -5.5996047719       -0.9462788161
 H          5.8358445338       -3.0328130760       -0.1726586199
 H          4.9411885412        2.0571888606       -3.6445107771
 H          0.6904507213        6.0567610068       -0.8814278142
 H         -5.8652367234        3.5213354442        0.3600281245
 H         -5.1480630847       -1.4165417098       -3.3915250767
 H          1.2752772301       -6.0284139666       -1.9476458937
 H          3.4310251464       -3.0281049901       -1.5970816897
 H          3.3282374910        0.6657035871       -4.7157613153
 H         -1.4152852610        6.5934220657       -1.7460908711
 H         -3.5433251094        3.5719063461       -1.1923497850
 H         -3.5059562311       -0.0325379181       -4.4328520714
 H         -0.3897538704       -2.9701703325       -2.4314843227
 H          3.8460027558       -4.5421824294        0.3672484448
 H          3.4158701402        0.0084709209       -1.9890545790
 H          0.1045585968        3.4638913292       -2.3778344505
 H         -3.8374934713        4.9919184525        0.8460659090
 H         -3.5214709689        0.5040257279       -1.6747178815
 H         -1.4155087010       -4.7656344771       -3.5418201350
 H          4.1260269736       -2.6255772416        2.4293450942
 H          4.8730493102       -1.4681450031       -2.8104029159
 H          1.0396176064        5.2722783755       -3.5317620704
 H         -4.0529184421        3.0067923504        2.8494646133
 H         -4.9683419341        2.0593024126       -2.4006301032
 H         -2.5904183409       -3.6092405386       -0.3821755234
 H          1.8753047979       -3.2794082524        1.4676676125
 H          6.2806961397        1.0698944614       -1.7293403909
 H          2.4685735170        4.0464915911       -0.5050520224
 H         -1.8017469195        3.6928346743        1.7656904971
 H         -6.4188473089       -0.4567846100       -1.4363288183
 H         -0.0903185665       -1.8922578250       -0.1669546374
 H          1.4732551346       -1.0109187346        0.2362117594
 H          3.7910560855        1.4348399276       -0.0143492205
 H         -0.0192488591        2.3399948188       -0.1367726211
 H         -1.5010370166        1.4367501576        0.5111751282
 H         -3.9584913818       -1.0162698964        0.2763754519
 H         -2.0663521528       -0.9025257722        1.0204448221
 H         -0.8143874666       -1.4046326602        2.1606310823
 H          5.1504703638        2.7986133384        1.5055815913
 H          5.9568962345        1.2257662230        1.3541772777
 H          2.0039393348        1.2533223594        0.8869840646
 H          0.8769316448        1.8066770596        2.1295343390
 H         -6.0022447732       -0.8171809718        1.7173204946
 H         -6.8480789532       -1.9535714479        0.6592751367
 H         -2.0295193851       -3.1678648860        2.7147316036
 H          6.6322943358        3.5207484748       -0.1843352724
 H          2.2166195155        3.7364842174        2.2621787134
 H         -4.4135440777       -2.7057996381        1.9103907517
 C         -1.2655092626        0.4177651009        4.1747402529
 H         -2.2154107055       -0.1096741072        4.3168422846
 H         -1.2866569589        1.3202927876        4.7952125708
 O         -3.4223225058        1.2898989759        3.0711052809
 C          1.2246056088       -0.2487354207        3.9463663398
 H          1.5669983382        0.7812367740        4.0909252600
 H          1.9583669064       -0.9210782680        4.4056829473
 O          3.4449909342       -0.9203703775        2.7644179493
 C         -0.1246489788       -0.4790096348        4.5685039075
 O         -0.2891036201       -1.3769971395        5.3492380924
 O          2.5129284528       -7.2045848419       -1.0658181634
 H          2.3308311354       -7.9140851726       -0.4510866738
 H          3.3058372387       -7.4557362812       -1.5382880352
 O         -1.0514802971       -3.9290457937        4.1370777758
 H         -0.7746796104       -3.1245851293        4.6138194629
 H         -0.7055648634       -4.6734561150        4.6230988607
  136
        -21.28017104
 C          0.7208159007       -4.4907509279       -0.2707543936
 C          4.8883595179       -1.6470330843        0.1651700060
 C          3.8733154758        2.3411135531       -1.8257805734
 C         -0.5881317712        4.2997920141       -0.1408895831
 C         -4.7108873217        1.4670909531        0.5928335638
 C         -3.8962041635       -2.4873543923       -1.4813621540
 O          1.7447428930       -3.5794634481       -0.6044985296
 O          5.9782787944       -1.0104016025       -0.4877092191
 O          2.6622544305        1.8753934181       -1.2474387807
 O         -1.6379622021        3.3875808685       -0.3776768482
 O         -5.8495607207        0.9006543766       -0.0438451357
 O         -2.6529673735       -2.0520608620       -0.9464390762
 C         -0.1360831738       -4.8193524907       -1.5259070746
 C          4.8844138683       -3.1506774203       -0.2111822275
 C          4.3237583594        1.3601925580       -2.9390638898
 C          0.1102524333        4.6464960932       -1.4873065006
 C         -4.6931080966        2.9859296402        0.2886506943
 C         -4.3672143105       -1.4923675172       -2.5745990343
 O          0.7074794249       -5.1422913723       -2.6115239891
 O          4.6226949940       -3.3338031159       -1.5898260629
 O          3.3107866393        1.2260001321       -3.9214237267
 O         -0.8707054720        4.9916630317       -2.4418062570
 O         -4.5134473957        3.2199068415       -1.0966066115
 O         -3.3979170535       -1.3764847744       -3.6012671213
 C         -1.0405498767       -3.6230174047       -1.8929602433
 C          3.8496366780       -3.9164349555        0.6470251411
 C          4.6369540551        0.0007891815       -2.2899643390
 C          0.9535984916        3.4467520603       -1.9740401489
 C         -3.5870423181        3.6792431014        1.1171465670
 C         -4.6144719298       -0.1314251404       -1.9049226447
 O         -1.8939563803       -3.9181247185       -2.9855367453
 O          4.2807670111       -4.0700839504        1.9892777306
 O          5.0930299945       -0.9413835693       -3.2405516525
 O          1.7068858774        3.7282785623       -3.1409030930
 O         -3.8984590798        3.7003340945        2.5018788801
 O         -5.0628184517        0.8431907377       -2.8255345085
 C         -1.8147868199       -3.1552788110       -0.6396427968
 C          2.4678785999       -3.2167067470        0.5692094150
 C          5.6500292851        0.2018907915       -1.1394740093
 C          1.8644425214        2.9665040072       -0.8222941666
 C         -2.2278717950        2.9856310775        0.8543949835
 C         -5.6007391770       -0.3108080935       -0.7302240631
 C         -0.7814409325       -2.8273734341        0.4586897591
 C          2.5684317492       -1.6775613936        0.7356387641
 C          5.1473880058        1.2954509381       -0.1604081928
 C          0.9955152077        2.6335570763        0.4068212813
 C         -2.3326849862        1.4440245818        0.9558986049
 C         -5.1361144497       -1.4352784985        0.2273006731
 O         -0.0780117145       -4.0158452351        0.8133759099
 O          3.6030897631       -1.0828542542       -0.0542621398
 O          4.9001952200        2.5177090049       -0.8534873776
 O          0.3318362562        3.8195733725        0.8413045111
 O         -3.4560924915        0.8860242675        0.2636006700
 O         -4.8987451803       -2.6529592966       -0.4800832116
 C         -1.3874438862       -2.2113655225        1.7065644444
 C          2.6365722604       -1.2668805424        2.1918562340
 C          6.0928148878        1.5341427847        1.0158684615
 C          1.7991874111        2.0298477904        1.5482193124
 C         -2.2087404059        0.9762662540        2.3887289091
 C         -6.1920162142       -1.6964038288        1.2977629091
 O         -2.1188617595       -3.1656965527        2.4197764167
 O          1.4903280727       -0.7253026784        2.6829330046
 O          5.7005355620        2.6199122768        1.8184138343
 O          2.7641688065        2.9271761872        2.0185174328
 O         -0.9450490811        0.6044103842        2.7286037460
 O         -7.2749765273       -2.3828029124        0.7405540585
 H          1.2174699031       -5.4068021733        0.0834989137
 H          5.0758648204       -1.5212104886        1.2413617363
 H          3.6725202655        3.3296827461       -2.2664725773
 H         -1.0479567336        5.2076931920        0.2780637018
 H         -4.8409786399        1.2854630966        1.6690535994
 H         -3.7327998898       -3.4774255072       -1.9332135567
 H         -0.7688982889       -5.7001602565       -1.3423154767
 H          5.8902234760       -3.5623447097       -0.0271242167
 H          5.2270919733        1.7387321628       -3.4408474664
 H          0.7672121748        5.5212264601       -1.3733555258
 H         -5.6750102758        3.4114146907        0.5528471472
 H         -5.3018396992       -1.8444829653       -3.0364746619
 H          1.5058276821       -4.5798925620       -2.5770860177
 H          4.8732026614       -2.5362151630       -2.1082279401
 H          2.6866110338        1.9791441396       -3.8270399589
 H         -1.6565788664        4.4218587619       -2.3190200615
 H         -4.7880443783        2.4373319084       -1.6263007663
 H         -2.8126613809       -2.1648588981       -3.5612065791
 H         -0.3974167947       -2.7929906061       -2.2208025316
 H          3.7507205257       -4.9316725063        0.2330298181
 H          3.6948874574       -0.3903615510       -1.8759553807
 H          0.2705092543        2.6251337269       -2.2347923626
 H         -3.5193259347        4.7289838073        0.7928077028
 H         -3.6463413522        0.2180502510       -1.5152071507
 H         -1.4303897971       -4.4826263574       -3.6252965218
 H          4.1606674620       -3.2083384646        2.4425286200
 H          4.6163351613       -0.8272583431       -4.0794242090
 H          1.1792253841        4.2359285199       -3.7973908765
 H         -3.7289608497        2.8050463934        2.8686823542
 H         -4.6127223738        0.7291113352       -3.6790170477
 H         -2.4596339319       -3.9633129720       -0.2670488197
 H          1.8788364925       -3.5881830498        1.4245767226
 H          6.5945568117        0.5450526512       -1.5858530288
 H          2.5491172376        3.7748874515       -0.5292537317
 H         -1.5405334527        3.3136652694        1.6526683409
 H         -6.5771054929       -0.5975107544       -1.1479271257
 H         -0.0509698147       -2.1372995908        0.0183810005
 H          1.6556539498       -1.2334448785        0.3154999484
 H          4.1684224564        0.9766990503        0.2211766309
 H          0.2186638264        1.9297611543        0.0843648996
 H         -1.4827236162        1.0182173657        0.4047410481
 H         -4.1773981180       -1.1381938996        0.6754731246
 H         -2.0580062357       -1.3845432956        1.4493315668
 H         -0.5996981457       -1.8207521386        2.3640786128
 H          6.1797504797        0.6409151747        1.6468944606
 H          7.0955660287        1.7713352200        0.6435603958
 H          2.3190283627        1.1241337466        1.2198961555
 H          1.1408508377        1.7469470823        2.3800673003
 H         -5.7940315861       -2.2974822521        2.1242845916
 H         -6.5716365478       -0.7581975973        1.7190514348
 H         -1.6031923656       -3.9895512526        2.4809756238
 H          4.7201018365        2.6954819996        1.8810500714
 H          2.3329391075        3.7490716521        2.3065441126
 H         -6.9489012980       -3.1439059320        0.2238779192
 C         -0.8502973311        0.3108862991        4.1026331925
 H         -1.2428820300       -0.6960515118        4.2748037444
 H         -1.4915088842        1.0230396900        4.6352271834
 O         -3.1634962849        1.0050477877        3.1302979581
 C          1.6251058017       -0.4726533806        4.0628750481
 H          2.6100521727       -0.0175108723        4.2180713037
 H          1.6164917646       -1.4355076222        4.5847796038
 O          3.6463564249       -1.4616001839        2.8284614939
 C          0.5608219347        0.4409139555        4.6051981775
 O          0.8359879365        1.2666633230        5.4328307122
 O          0.3059213697        5.1776619267       -5.2030751006
 H          0.2692139752        6.1307227427       -5.2691635948
 H         -0.1654619391        4.8287472331       -5.9577286556
 O         -4.3139917049       -1.6337810181        3.5587494589
 H         -3.9573745524       -0.7291849779        3.4844901807
 H         -3.5956591576       -2.2131613603        3.2465965926
  136
        -21.27826187
 C          0.7166707373       -4.5408236347       -0.1360003975
 C          4.8968281053       -1.6932000049        0.1575595617
 C          3.9132773154        2.1958179710       -2.0334151131
 C         -0.5542249663        4.2426456488       -0.4679919167
 C         -4.6877253206        1.4793799166        0.4069411844
 C         -3.8955975128       -2.5864549004       -1.4489523949
 O          1.7444233673       -3.6525862198       -0.5175888585
 O          5.9925270539       -1.0973894905       -0.5235509942
 O          2.7009500097        1.7627290927       -1.4334955667
 O         -1.6035809701        3.3237855804       -0.6619332727
 O         -5.8296334449        0.8861850139       -0.1987302051
 O         -2.6502103721       -2.1296942384       -0.9368255615
 C         -0.1428795454       -4.9327858071       -1.3712525119
 C          4.8883907493       -3.2149075542       -0.1369720722
 C          4.3605726093        1.1587169815       -3.0955894432
 C          0.1560365439        4.5208689521       -1.8218751703
 C         -4.6592092852        2.9793905318        0.0203202911
 C         -4.3596597143       -1.6488044571       -2.5948774730
 O          0.6980989366       -5.3150963270       -2.4394351904
 O          4.6334747245       -3.4702563758       -1.5053955067
 O          3.3485705130        0.9821490773       -4.0727538247
 O         -0.8010366866        4.8184791433       -2.8172938487
 O         -4.4724502604        3.1356452258       -1.3750435359
 O         -3.3883692895       -1.5938456034       -3.6246244284
 C         -1.0449870397       -3.7553052752       -1.8001959659
 C          3.8461457118       -3.9298735116        0.7555639777
 C          4.6644727276       -0.1688322114       -2.3790756651
 C          0.9934091913        3.2938732080       -2.2385408063
 C         -3.5510684520        3.7087486888        0.8143138588
 C         -4.5985376806       -0.2525103657       -1.9990975344
 O         -1.9010326431       -4.1060652385       -2.8741098706
 O          4.2710035788       -4.0160587603        2.1060344841
 O          5.1191185592       -1.1597170791       -3.2798182768
 O          1.7214135934        3.5165299843       -3.4342829189
 O         -3.8651067549        3.8032570494        2.1955591350
 O         -5.0371414257        0.6759594578       -2.9706606876
 C         -1.8158472978       -3.2184694120       -0.5727184096
 C          2.4677547444       -3.2293109710        0.6358138233
 C          5.6743469180        0.0832388246       -1.2355899269
 C          1.9057463254        2.8761782766       -1.0660642103
 C         -2.1969393139        2.9927718909        0.5895642275
 C         -5.5875233337       -0.3621647880       -0.8182020957
 C         -0.7790021397       -2.8356734376        0.5044547153
 C          2.5747898679       -1.6837746541        0.7193635911
 C          5.1751315278        1.2272289301       -0.3140888939
 C          1.0313251602        2.6067426365        0.1757733276
 C         -2.3101675381        1.4597089501        0.7734524899
 C         -5.1295687982       -1.4357479809        0.1991120918
 O         -0.0796348733       -4.0060324006        0.9218004082
 O          3.6146430996       -1.1371328191       -0.0981078365
 O          4.9390564131        2.4147676946       -1.0686536133
 O          0.3596651861        3.8112995579        0.5443646660
 O         -3.4366307224        0.8725271060        0.1113353052
 O         -4.9001444644       -2.6913933186       -0.4414513549
 C         -1.3791655377       -2.1497140047        1.7182152589
 C          2.6428844537       -1.1970006105        2.1519333918
 C          6.1163146977        1.5183776439        0.8538675433
 C          1.8319182530        2.0667814416        1.3508835316
 C         -2.1900928691        1.0681205925        2.2291043176
 C         -6.1856160634       -1.6314303366        1.2833630263
 O         -2.1098197192       -3.0611169614        2.4860606985
 O          1.4959329678       -0.6340808670        2.6168483644
 O          5.7298690827        2.6481686465        1.5962422105
 O          2.7962737255        2.9881495199        1.7737455758
 O         -0.9284546656        0.7110294410        2.5914166427
 O         -7.2717076696       -2.3437255493        0.7666598967
 H          1.2098979200       -5.4386372997        0.2663871457
 H          5.0802166209       -1.5098894187        1.2261264089
 H          3.7161887184        3.1619776834       -2.5229565569
 H         -1.0213075003        5.1699669332       -0.1004742886
 H         -4.8198083679        1.3578355024        1.4913881855
 H         -3.7376118702       -3.6004979249       -1.8462120692
 H         -0.7777674724       -5.8011188351       -1.1410799483
 H          5.8914360577       -3.6201701559        0.0743633721
 H          5.2673041845        1.5073613658       -3.6125304621
 H          0.8156619738        5.3971838806       -1.7377014809
 H         -5.6391269157        3.4250228149        0.2571068717
 H         -5.2959915834       -2.0191643275       -3.0387560196
 H          1.4979650409       -4.7539945634       -2.4360742658
 H          4.8880209965       -2.7016468828       -2.0640558190
 H          2.7204523648        1.7357180253       -4.0095804306
 H         -1.6095391341        4.2930153442       -2.6549497908
 H         -4.7501016248        2.3265850096       -1.8618057830
 H         -2.8079792493       -2.3824378067       -3.5409698653
 H         -0.4001178370       -2.9458829527       -2.1729456576
 H          3.7440470665       -4.9648074313        0.3944406500
 H          3.7187707243       -0.5343303081       -1.9502620673
 H          0.3057115173        2.4605401498       -2.4457196329
 H         -3.4747529433        4.7403643345        0.4372998522
 H         -3.6283819020        0.1092800508       -1.6261740097
 H         -1.4398517823       -4.7044473515       -3.4841669483
 H          4.1568799286       -3.1308032255        2.5129772981
 H          4.6510314800       -1.0811168986       -4.1277024280
 H          1.1848001519        4.0299408749       -4.0600854039
 H         -3.7001784393        2.9281142184        2.6099279471
 H         -4.5846815059        0.5147478826       -3.8151540173
 H         -2.4628318324       -4.0030924500       -0.1562764286
 H          1.8757354095       -3.5514122151        1.5089905190
 H          6.6227096401        0.3982366451       -1.6944629386
 H          2.5900940857        3.6984794659       -0.8141166795
 H         -1.5084908799        3.3587980625        1.3702148557
 H         -6.5649735292       -0.6658694993       -1.2211141763
 H         -0.0465400140       -2.1737640139        0.0257728190
 H          1.6649195626       -1.2585267888        0.2742030369
 H          4.1922858738        0.9340875328        0.0779104329
 H          0.2586219900        1.8831604804       -0.1115503306
 H         -1.4618887754        1.0008934539        0.2465120930
 H         -4.1685269155       -1.1208375771        0.6298099572
 H         -2.0488517933       -1.3368686051        1.4178136982
 H         -0.5881276690       -1.7252485150        2.3503174228
 H          6.1916061407        0.6585945259        1.5312047289
 H          7.1232217282        1.7268660561        0.4757239382
 H          2.3522094021        1.1441498992        1.0746105443
 H          1.1709560779        1.8302867806        2.1950246642
 H         -5.7896746363       -2.1869161383        2.1421858001
 H         -6.5609374869       -0.6693573865        1.6511819856
 H         -1.5960348376       -3.8820363609        2.5891387438
 H          4.7498363697        2.7333927904        1.6528771856
 H          2.3654341181        3.8258997936        2.0122598701
 H         -6.9482377159       -3.1330596723        0.2923875671
 C         -0.8400293779        0.4847675075        3.9784527196
 H         -1.2403554347       -0.5097919204        4.1984964849
 H         -1.4780252415        1.2266294286        4.4730905144
 O         -3.1467279551        1.1378539933        2.9654055439
 C          1.6321969808       -0.3116660416        3.9822772460
 H          2.6180256466        0.1489717957        4.1138944779
 H          1.6226161487       -1.2466983554        4.5524266598
 O          3.6543180951       -1.3552235270        2.7959476119
 C          0.5700979946        0.6295171530        4.4798408243
 O          0.8461439713        1.4886704480        5.2724643236
 O         -0.7442501966        7.1626434498        0.3302294217
 H         -0.3483619108        7.4632244155        1.1478326714
 H         -1.1203561309        7.9314258366       -0.0978582241
 O         -4.3060886784       -1.4695776684        3.5360464620
 H         -3.9464980035       -0.5714502475        3.4133247713
 H         -3.5890190790       -2.0671268884        3.2570122601
  136
        -21.27743765
 C          0.6819393986       -4.2644294909       -0.6432082263
 C          4.7948435491       -1.5271666452        0.1538286755
 C          3.9068327637        2.6322929287       -1.5607748822
 C         -0.6649300614        4.4880483664        0.0128655698
 C         -4.7317531317        1.5736821611        0.5990753471
 C         -3.9326609534       -2.2438143123       -1.7906937513
 O          1.7024021381       -3.3026489629       -0.7996766418
 O          5.9015914965       -0.8620247823       -0.4365486016
 O          2.6613165640        2.1452724454       -1.0725745221
 O         -1.6929770131        3.5612004158       -0.2699918566
 O         -5.8747664645        0.9953471069       -0.0166837756
 O         -2.6792860936       -1.8159512545       -1.2688954242
 C         -0.1019164705       -4.4700672158       -1.9752676968
 C          4.7541281762       -3.0008489875       -0.3244103226
 C          4.3830130109        1.7310297083       -2.7306454414
 C          0.1117689859        4.9076006685       -1.2710218922
 C         -4.7243367944        3.1022582460        0.3406493874
 C         -4.4578235280       -1.1705606866       -2.7799495961
 O          0.8056876649       -4.7265365963       -3.0260401244
 O          4.4147616264       -3.0579628276       -1.6979035949
 O          3.4162210297        1.7239406191       -3.7638116294
 O         -0.7673505594        5.3668877483       -2.2759700357
 O         -4.4601518284        3.3680234770       -1.0248978723
 O         -3.5271225540       -0.9812874670       -3.8287652891
 C         -0.9667768790       -3.2244334059       -2.2593628636
 C          3.7264437588       -3.7943323851        0.5209923257
 C          4.6127127501        0.3229238059       -2.1580538380
 C          0.9504579927        3.7183302395       -1.7759502082
 C         -3.6517853571        3.7728602884        1.2331332466
 C         -4.6729118124        0.1222943975       -1.9767986959
 O         -1.7567969356       -3.3747132782       -3.4191850456
 O          4.1585469542       -3.9865178781        1.8588175144
 O          5.0439195359       -0.5906491766       -3.1410030461
 O          1.6916136498        4.0583249036       -2.9290347619
 O         -3.9894519157        3.7208911644        2.6109938094
 O         -5.1505002241        1.1731763250       -2.7860977993
 C         -1.8271032192       -2.9193501079       -1.0163131982
 C          2.3540968402       -3.0713465009        0.4485413263
 C          5.6008968637        0.4092236159       -0.9754287337
 C          1.8391819092        3.2083887151       -0.6219707873
 C         -2.2804755751        3.1050510359        0.9497597824
 C         -5.6107082170       -0.1632671171       -0.7838142206
 C         -0.8923188319       -2.7119247102        0.1914459619
 C          2.4768505415       -1.5492679736        0.7185096657
 C          5.0771647135        1.4204560194        0.0728104433
 C          0.9251060447        2.8224891090        0.5602653978
 C         -2.3677372128        1.5575817813        0.9818210164
 C         -5.0588411930       -1.3409900893        0.0589593195
 O         -0.1872735656       -3.9287784842        0.4409042890
 O          3.5215190286       -0.9269801319       -0.0340687687
 O          4.8885668659        2.7006640210       -0.5289002917
 O          0.2280460531        3.9855250035        1.0115276552
 O         -3.4723002883        1.0213691175        0.2445933095
 O         -4.8799445000       -2.4984745418       -0.7556723105
 C         -1.6311540336       -2.2557944297        1.4402513963
 C          2.5468250145       -1.2166551697        2.1930140346
 C          6.0066624102        1.5548966823        1.2719212036
 C          1.6714505453        2.1646076749        1.7118423650
 C         -2.2733589705        1.0246286491        2.3945779229
 C         -5.9271004987       -1.6738447595        1.2697949918
 O         -2.5572797863       -3.2167397135        1.8609006303
 O          1.3885766893       -0.7311189017        2.7103098583
 O          7.2223448513        2.1366886653        0.8945390044
 O          2.6251275662        3.0222665646        2.2690043601
 O         -1.0183302696        0.6283740284        2.7399703650
 O         -5.4812052260       -2.8105834975        1.9685435695
 H          1.1809469866       -5.2064672281       -0.3694278031
 H          4.9746607557       -1.4808712718        1.2375364176
 H          3.7574070827        3.6589653667       -1.9249587923
 H         -1.1566671094        5.3736323605        0.4434144610
 H         -4.8409928242        1.3650278604        1.6728956078
 H         -3.7807296066       -3.1938742075       -2.3230794902
 H         -0.7622211466       -5.3468747848       -1.8888563908
 H          5.7602750485       -3.4382185693       -0.2312598414
 H          5.3262705952        2.1162775226       -3.1462776297
 H          0.7927239051        5.7382511473       -1.0275590000
 H         -5.7250202794        3.5093441056        0.5528769048
 H         -5.4128948757       -1.4942339780       -3.2204281813
 H          0.3745549641       -4.6598508180       -3.9075716397
 H          3.4377640316       -3.1100078935       -1.7499410961
 H          3.6115112634        1.0219125125       -4.4035653601
 H         -0.2993805829        5.4573928220       -3.1225895803
 H         -3.4876040933        3.4438446420       -1.1166454205
 H         -3.7522782296       -0.1904775071       -4.3427860885
 H         -0.2825749329       -2.3813096419       -2.4407922650
 H          3.6224356507       -4.8008129058        0.0878270627
 H          3.6340035979       -0.0237201386       -1.7886667941
 H          0.2502544329        2.9201471079       -2.0671355302
 H         -3.5932411374        4.8402010915        0.9706162036
 H         -3.6808741072        0.4168776214       -1.5983481369
 H         -2.2710284182       -2.5524418306       -3.5962809117
 H          4.0415082523       -3.1406525886        2.3416360487
 H          5.0064791549       -1.4926815782       -2.7582083151
 H          2.1904133881        3.2770981222       -3.2618985528
 H         -3.8113658974        2.8123539899        2.9376320011
 H         -5.0965578940        2.0052541718       -2.2705830429
 H         -2.4687698492       -3.7815043197       -0.7862642778
 H          1.7113627955       -3.4983587446        1.2353725739
 H          6.5624684310        0.7817965373       -1.3577004347
 H          2.5030506358        4.0120005965       -0.2736340828
 H         -1.6009471319        3.4078741966        1.7634552843
 H         -6.5885365327       -0.4589491176       -1.1909559894
 H         -0.1437636227       -1.9621583426       -0.0933288090
 H          1.5717597019       -1.0666512684        0.3235502290
 H          4.0803954908        1.0863645820        0.3927738776
 H          0.1669723077        2.1313629718        0.1723255711
 H         -1.5028682669        1.1626637923        0.4312139608
 H         -4.0524375383       -1.0642538603        0.3993514850
 H         -2.1796700827       -1.3278279575        1.2501191669
 H         -0.9259612980       -2.0566087072        2.2568892600
 H          5.5486253994        2.1758089865        2.0533036903
 H          6.2348111046        0.5752395553        1.7070491357
 H          2.1980502232        1.2676667396        1.3696410998
 H          0.9738301197        1.8532494941        2.5003720931
 H         -5.9774796763       -0.8274941854        1.9653058377
 H         -6.9503971479       -1.8914914767        0.9438716528
 H         -2.1040143076       -4.0594400185        2.0302311192
 H          7.0672963684        2.9888064217        0.4526906718
 H          2.2097174209        3.8510368325        2.5618962551
 H         -4.5026614788       -2.9188841770        1.9123652494
 C         -0.9477010035        0.2615620232        4.0985857602
 H         -1.3251608388       -0.7610080246        4.2047814894
 H         -1.6090369895        0.9339909680        4.6562777086
 O         -3.2427471137        1.0317561484        3.1171615683
 C          1.5313726233       -0.4949850376        4.0910383987
 H          2.5065178869       -0.0179326660        4.2442529715
 H          1.5461173571       -1.4637107099        4.6018328836
 O          3.5649304024       -1.4124913044        2.8153725956
 C          0.4479868079        0.3884132415        4.6420975347
 O          0.6956220318        1.1883548851        5.5029799050
 O         -0.3210505207       -4.5343456276       -5.6462450798
 H         -0.0158296606       -3.9779727901       -6.3597781938
 H         -1.1739234807       -4.8827732117       -5.9051985456
 O         -3.7366311804       -1.1175039005        4.9957776325
 H         -3.6243292572       -0.3810529620        4.3632878807
 H         -4.4217816535       -0.8556295923        5.6103048123
  136
        -21.27734082
 C          0.6290101014       -4.5559260145       -0.2704045256
 C          4.6457957808       -1.4735338078        0.2335185654
 C          3.4180833502        2.4490011828       -1.8545447544
 C         -0.8907681405        4.2819837275        0.3378941106
 C         -4.8789117170        1.2483874501        0.7602288131
 C         -3.8628619214       -2.4591834095       -1.8074463566
 O          1.6452040734       -3.6339852241       -0.6055627264
 O          5.7130625798       -0.7366164233       -0.3520474474
 O          2.1852665755        1.9735158458       -1.3524128737
 O         -1.9509226665        3.4021871186        0.0245602266
 O         -5.9736080282        0.6317088402        0.0938707277
 O         -2.6260952678       -2.0902567995       -1.2247961094
 C         -0.1750875159       -4.9641453105       -1.5337048383
 C          4.7515064889       -2.9676409346       -0.1741224317
 C          4.0282966781        1.4854026364       -2.9069275007
 C         -0.2180125793        4.8848636582       -0.9322479285
 C         -4.9485708058        2.7859976576        0.5608573160
 C         -4.3970584144       -1.3304490671       -2.7340030066
 O          0.7159309547       -5.3034719432       -2.5762790029
 O          4.4982438579       -3.1567551682       -1.5540746567
 O          3.1648973473        1.2830453060       -4.0010187549
 O         -1.2248060864        5.4310190246       -1.7648825001
 O         -4.6785054634        3.1213290045       -0.7876766902
 O         -3.4811129851       -1.0300715739       -3.7662840202
 C         -1.1215951286       -3.8320873545       -1.9917904642
 C          3.7686072863       -3.8195951791        0.6650946010
 C          4.4100377057        0.1605842698       -2.2223615345
 C          0.6370743317        3.8231779476       -1.6675527638
 C         -3.9294433652        3.4877489729        1.4929571958
 C         -4.6739908753       -0.0922399505       -1.8679234910
 O         -1.9969431598       -4.3024151719       -2.9988892501
 O          4.1920135801       -3.9471278939        2.0125728104
 O          4.9832688203       -0.7727841385       -3.1144970441
 O          1.4669069169        4.4096718100       -2.6533267128
 O         -4.3011543254        3.4172070062        2.8601493770
 O         -5.1713946131        0.9764704543       -2.6407871441
 C         -1.9121737992       -3.2431045900       -0.7985738054
 C          2.3386497323       -3.2264246373        0.5730020628
 C          5.3270199310        0.4492692142       -1.0198556967
 C          1.5191332536        3.0308517155       -0.6702802840
 C         -2.5223099497        2.8870613047        1.2321925959
 C         -5.6349146877       -0.4736092793       -0.7243186834
 C         -0.9396525034       -2.9062192863        0.3527609341
 C          2.3291187094       -1.6872448163        0.7560556048
 C          4.6822618796        1.5051238803       -0.0889920673
 C          0.6618501897        2.5350114850        0.5108493612
 C         -2.5408105397        1.3354514511        1.2364569504
 C         -5.0645015861       -1.6780682452        0.0643065808
 O         -0.2275954641       -4.0722785330        0.7621624067
 O          3.3293865246       -0.9975149996       -0.0032882160
 O          4.3512852910        2.6990411346       -0.8055324022
 O          0.0655956981        3.6455618858        1.1774891368
 O         -3.5811785915        0.7752663145        0.4279981679
 O         -4.8308796132       -2.7864379453       -0.8097471707
 C         -1.6417456402       -2.2955539230        1.5559081971
 C          2.3320912328       -1.3137682424        2.2232109382
 C          5.5966679202        1.8533740734        1.0796071735
 C          1.4457547714        1.7143331757        1.5199285295
 C         -2.5116600424        0.7589081514        2.6368045278
 C         -5.9498820963       -2.0928906307        1.2373869304
 O         -2.5356827014       -3.2081336185        2.1271911835
 O          1.1072343194       -0.9769690878        2.7079959045
 O          6.7919929454        2.4307285658        0.6100600610
 O          2.4586995334        2.4770439333        2.1137486914
 O         -1.2965491657        0.2871756880        3.0230493071
 O         -5.4659699710       -3.2279136796        1.9085080881
 H          1.1375780501       -5.4435278436        0.1367007833
 H          4.7910813987       -1.3650773146        1.3183907485
 H          3.2111762316        3.4207724947       -2.3315990659
 H         -1.3343420683        5.1011774295        0.9249986260
 H         -5.0085757133        0.9954379776        1.8223856598
 H         -3.6827111292       -3.3705078117       -2.3993667482
 H         -0.7794218698       -5.8612531455       -1.3325425794
 H          5.7833287188       -3.3099483325        0.0063439956
 H          4.9397119989        1.9426849953       -3.3205311314
 H          0.4441799713        5.7125004155       -0.6351591407
 H         -5.9731938388        3.1298461721        0.7706913839
 H         -5.3372713355       -1.6563041283       -3.2047780055
 H          1.4848036809       -4.7009207793       -2.5521168946
 H          4.7153406710       -2.3508551404       -2.0739716893
 H          2.3209685377        0.9079642516       -3.6980367722
 H         -0.8851125857        5.6670078373       -2.6575482849
 H         -3.7106891271        3.2589393240       -0.8557893415
 H         -3.7372000719       -0.2109872979       -4.2221958410
 H         -0.5281904379       -3.0178971884       -2.4332690050
 H          3.7528260704       -4.8367110506        0.2444284464
 H          3.4869153301       -0.3077056950       -1.8533175242
 H         -0.0334793939        3.1136910487       -2.1728362908
 H         -3.9081485258        4.5589094229        1.2393937856
 H         -3.7052893101        0.2195315077       -1.4466173766
 H         -1.5011606931       -4.7272741268       -3.7170252855
 H          4.0032739607       -3.0986112585        2.4681629894
 H          5.7136032042       -0.3737687203       -3.6137311499
 H          0.9471828941        4.9266866006       -3.3075354102
 H         -4.1120022566        2.5095172404        3.1799850156
 H         -5.1775435335        1.7820732979       -2.0823781589
 H         -2.6500230862       -3.9723789225       -0.4364712818
 H          1.7720114417       -3.6435129660        1.4228101531
 H          6.2709784805        0.8625823039       -1.3983176097
 H          2.2989055453        3.6916331630       -0.2649097593
 H         -1.8687027041        3.2050054671        2.0607310827
 H         -6.5866700303       -0.7836933825       -1.1798886728
 H         -0.2031138980       -2.2026976813       -0.0513328568
 H          1.3948706825       -1.3046919472        0.3258474371
 H          3.7310265803        1.0981345630        0.2760558500
 H         -0.1526849998        1.9396417028        0.0808742331
 H         -1.6299942846        0.9845117542        0.7356154531
 H         -4.0763613157       -1.3891968423        0.4433858153
 H         -2.2069188292       -1.4036499165        1.2693208536
 H         -0.9127374015       -1.9925063775        2.3192732434
 H          5.0873104425        2.5725649682        1.7329073876
 H          5.8316435313        0.9524298950        1.6591257371
 H          1.9106811146        0.8493096159        1.0399345831
 H          0.7809929419        1.3374193554        2.3080604168
 H         -6.0615522873       -1.2745966912        1.9596050389
 H         -6.9511781686       -2.3488831439        0.8741265418
 H         -2.0555329914       -4.0128662385        2.3855191420
 H          7.3978416433        2.6617456439        1.3328031877
 H          2.0829148489        3.2932043542        2.4873400106
 H         -4.4852963197       -3.2006954584        1.9992932971
 C         -1.3531795598       -0.1577469744        4.3578945015
 H         -2.2506182112       -0.7784863200        4.4593496002
 H         -1.4833858441        0.7208593492        4.9994196375
 O         -3.5073332473        0.7726826717        3.3228476587
 C          1.1742476055       -0.7277705979        4.0928375977
 H          1.5401895208        0.2931861412        4.2442613264
 H          1.9149550343       -1.4178120314        4.5140508097
 O          3.3521915990       -1.3820791516        2.8699288184
 C         -0.1455685886       -0.9465148496        4.7815228464
 O         -0.2305471636       -1.7398606273        5.6795587800
 O          6.8457957018        2.7978598080       -2.3802500255
 H          6.8403558314        2.7976694428       -1.4099508367
 H          7.3586957830        3.5574414021       -2.6522895929
 O         -0.1673751438        5.9924854852       -4.4430440693
 H          0.1375016778        6.8588699002       -4.7020810327
 H         -0.6058742143        5.6241313442       -5.2064827490
  136
        -21.27715257
 C          0.7974354682       -4.5418497915       -0.2223946574
 C          4.8658693646       -1.5168926698        0.3283347224
 C          3.8534117633        2.3109618054       -2.0776242179
 C         -0.4707622970        4.5314985144       -0.3249657969
 C         -4.7303887545        1.6954927555        0.2763984151
 C         -3.8629430693       -2.5357433910       -1.3198984134
 O          1.8347095784       -3.6394562079       -0.5475979120
 O          5.9732499463       -0.8422526830       -0.2527477333
 O          2.5713049292        1.9290955743       -1.6200454340
 O         -1.5640113695        3.7336032771       -0.7393873341
 O         -5.8644837612        0.9759540967       -0.1841655060
 O         -2.5568141690       -2.0951690601       -0.9745121626
 C         -0.0358186263       -4.8649833239       -1.4918733834
 C          4.9668882498       -3.0366146095        0.0344800119
 C          4.4649556945        1.2502624008       -3.0364194389
 C          0.4116130857        5.0253521338       -1.5045444289
 C         -4.7865621612        3.1462087419       -0.2605371291
 C         -4.4435770118       -1.6774836483       -2.4757092086
 O          0.8193363404       -5.2012511741       -2.5635908218
 O          4.8374374538       -3.3053347026       -1.3477155875
 O          3.6141861574        0.9272607393       -4.1205984580
 O         -0.3162314793        5.7650958707       -2.4588082178
 O         -4.6002067681        3.1491781874       -1.6630912561
 O         -3.5604971711       -1.6512871819       -3.5840927726
 C         -0.9174901125       -3.6571072836       -1.8702328534
 C          3.8979444553       -3.8142759999        0.8418445869
 C          4.7757888020       -0.0350802599       -2.2488624472
 C          1.1620003192        3.8452915548       -2.1494704727
 C         -3.7238539227        4.0179013392        0.4543838725
 C         -4.6986297167       -0.2494935589       -1.9669508682
 O         -1.7563926756       -3.9479241779       -2.9747475674
 O          4.2288269022       -3.8806338100        2.2196192259
 O          5.3874773984       -1.0039399122       -3.0760227551
 O          2.0426478521        4.2922159732       -3.1629049456
 O         -4.0943296953        4.3064052413        1.7933626031
 O         -5.2748036390        0.5692576038       -2.9660994973
 C         -1.7285769000       -3.2031386937       -0.6398395064
 C          2.4926369674       -3.1896654644        0.6337127425
 C          5.6370689237        0.3036135465       -1.0139137540
 C          1.9174395344        3.0563668083       -1.0531266745
 C         -2.3255583527        3.3451102787        0.4061829576
 C         -5.5736912156       -0.3097629915       -0.6975997129
 C         -0.7771406710       -2.9133121817        0.5385130431
 C          2.5190041799       -1.6433134453        0.7063421706
 C          4.9368751369        1.4108839374       -0.1909458917
 C          0.9306076998        2.6734548488        0.0717709490
 C         -2.3826064568        1.8087021567        0.6394066235
 C         -4.9267969973       -1.2507735638        0.3494451032
 O         -0.0316116234       -4.0927525400        0.8540340817
 O          3.5813741191       -1.0367743445       -0.0331946043
 O          4.7404120827        2.5769342894       -0.9913984718
 O          0.3312961038        3.8432574343        0.6331798445
 O         -3.4594945417        1.1412258120       -0.0251264594
 O         -4.7390742817       -2.5598532907       -0.1939324944
 C         -1.5433942267       -2.4536812756        1.7713037746
 C          2.4395273792       -1.1592920896        2.1370016186
 C          5.6946307254        1.7785699890        1.0772004499
 C          1.5861960087        1.8743031052        1.1853385552
 C         -2.3418285092        1.4701475851        2.1144840954
 C         -5.7330785125       -1.3381457821        1.6442588918
 O         -2.5290146406       -3.3877113741        2.1168870565
 O          1.2074883235       -0.7002042708        2.4765138467
 O          6.9078239151        2.4061917631        0.7737484391
 O          2.5901254080        2.6173846469        1.8182063109
 O         -1.2320236798        0.7926553632        2.5041554598
 O         -5.0158448232       -1.9229989514        2.7056735151
 H          1.2902056467       -5.4592271966        0.1345432247
 H          4.9460906736       -1.3312623761        1.4094675336
 H          3.7271156314        3.2661394240       -2.6110261282
 H         -0.8998198220        5.4081380991        0.1849693245
 H         -4.7991696594        1.6854171096        1.3738469117
 H         -3.7778525996       -3.5746595909       -1.6740365065
 H         -0.6831030742       -5.7372324486       -1.3177012804
 H          5.9705784141       -3.3853600009        0.3276000506
 H          5.4050995727        1.6336591154       -3.4609289088
 H          1.1679049369        5.7238828663       -1.1139772808
 H         -5.7909920750        3.5581334593       -0.0715970575
 H         -5.3947342376       -2.1074133454       -2.8245349175
 H          1.6136981633       -4.6347614031       -2.5313763666
 H          5.1118540846       -2.5309258532       -1.8882614966
 H          3.1293761563        1.7110802538       -4.4304654493
 H         -1.1155229314        5.2755460602       -2.7538120458
 H         -4.9379377986        2.3091139535       -2.0486203589
 H         -2.9086443894       -2.3821461257       -3.4919128767
 H         -0.2659871499       -2.8255629024       -2.1765226668
 H          3.8784287878       -4.8511736382        0.4727403744
 H          3.8162410597       -0.4587336043       -1.9141254657
 H          0.4327660066        3.1718311223       -2.6241532539
 H         -3.6622080606        4.9836966994       -0.0695421668
 H         -3.7216294051        0.1905493437       -1.7144549046
 H         -1.2760397063       -4.4916410880       -3.6201641255
 H          4.0315570676       -3.0049904235        2.6166355178
 H          5.0075923874       -0.9608266768       -3.9697948041
 H          1.6114878137        4.9588541334       -3.7219302130
 H         -3.8974100389        3.5095298804        2.3314547554
 H         -4.9229256661        0.3269265634       -3.8389219373
 H         -2.3883896097       -4.0211298991       -0.3186824854
 H          1.8735589610       -3.5358593031        1.4789730513
 H          6.6025880466        0.6949186756       -1.3656787195
 H          2.7003068752        3.6899544883       -0.6120465801
 H         -1.7738922074        3.7471965290        1.2733915688
 H         -6.5508536862       -0.7260949775       -0.9824004308
 H         -0.0633816513       -2.1438614560        0.2270102021
 H          1.6268549638       -1.2740167000        0.1823654125
 H          3.9317785128        1.0485879901        0.0604553224
 H          0.1284914093        2.0908263894       -0.3967157190
 H         -1.4958039676        1.3573516841        0.1787536796
 H         -3.9216038517       -0.8664184127        0.5705002494
 H         -2.0413769339       -1.4940593096        1.5959925878
 H         -0.8639746589       -2.3180622921        2.6226089558
 H          5.0957451016        2.4547272385        1.7009573277
 H          5.9271087069        0.8875955261        1.6715024881
 H          2.0391683856        0.9591318215        0.7941960295
 H          0.8426090995        1.5792663399        1.9371324700
 H         -6.0495441730       -0.3418685508        1.9760023275
 H         -6.6377221751       -1.9348854239        1.4789864686
 H         -2.1291719111       -4.2650458005        2.2410784929
 H          6.7589456771        3.1688806700        0.1893067709
 H          2.2303050081        3.4688260807        2.1222730329
 H         -4.2718389557       -2.4882570779        2.3936597576
 C         -1.2446164905        0.6029529481        3.8991962403
 H         -2.2652384635        0.3203686726        4.1816915201
 H         -1.0113895867        1.5609305173        4.3773080410
 O         -3.2431415621        1.8215619760        2.8404918716
 C          1.1378408167       -0.3919331673        3.8475765336
 H          1.5710421258        0.6014554747        4.0053799044
 H          1.7481226268       -1.1264388142        4.3857588265
 O          3.3942995062       -1.2500288087        2.8737864759
 C         -0.2838459498       -0.4706042511        4.3236715217
 O         -0.6530173841       -1.4061172580        4.9772217532
 O         -2.6247456529        4.4210802783       -3.4385101706
 H         -3.2478635201        3.9941454004       -2.8256769095
 H         -3.0215125019        4.3667643295       -4.3060762784
 O         -2.0338620141       -3.4794442299        6.3992894494
 H         -2.9571769145       -3.2485086951        6.2888574309
 H         -1.5227320678       -2.7796793502        5.9572281399
  136
        -21.27664838
 C          0.6612614557       -4.5348370570       -0.4972310098
 C          4.7129254715       -1.6567901564        0.1592583083
 C          3.6937864823        2.3979132383       -1.7433185517
 C         -0.8827627516        4.2391445038       -0.1685681539
 C         -4.8798930807        1.2856236025        0.5599557705
 C         -4.0305387210       -2.6522070398       -1.6378385247
 O          1.6601082411       -3.5597462974       -0.7106750757
 O          5.7977698523       -0.9799759979       -0.4585601725
 O          2.4598984756        1.9111404356       -1.2292743529
 O         -1.8827699211        3.2624104307       -0.3753598767
 O         -6.0124829648        0.6558738070       -0.0209471462
 O         -2.7678421958       -2.1841985209       -1.1765229209
 C         -0.1568709288       -4.8276605450       -1.7918452722
 C          4.7108372648       -3.1481068951       -0.2637549614
 C          4.1885503987        1.4527350427       -2.8689808629
 C         -0.1579770526        4.5985284041       -1.4999796828
 C         -4.8992948719        2.8035543593        0.2465530297
 C         -4.5950084317       -1.6428518482       -2.6721550112
 O          0.6939999269       -5.1436126154       -2.8737463898
 O          4.3607330092       -3.2660355287       -1.6303157270
 O          3.2085969412        1.3589358646       -3.8852425810
 O         -1.0785668605        4.9821911148       -2.4994591108
 O         -4.6442983667        3.0197878426       -1.1292467884
 O         -3.6938679528       -1.5030820921       -3.7539411167
 C         -1.0476381395       -3.6160832332       -2.1284895628
 C          3.7089358663       -3.9379206347        0.6157443554
 C          4.4709722849        0.0825047341       -2.2315869311
 C          0.6830651578        3.3924220465       -1.9584540713
 C         -3.8361377989        3.5255183805        1.1132714787
 C         -4.8106628128       -0.3098935148       -1.9364555606
 O         -1.8356113540       -3.8510860091       -3.2768355063
 O          4.1504146869       -4.0664299245        1.9582418023
 O          4.9357066802       -0.8577586209       -3.1734803490
 O          1.3712558547        3.6627141212       -3.1606704654
 O         -4.1870449103        3.5403662324        2.4879695818
 O         -5.3103887294        0.6963608381       -2.7877388479
 C         -1.8936602136       -3.2626594049       -0.8886690490
 C          2.3163858299       -3.2570710070        0.5226570087
 C          5.4539328086        0.2551223966       -1.0541703206
 C          1.6268234502        2.9792804615       -0.8109598011
 C         -2.4540130310        2.8607070430        0.8694886465
 C         -5.7250378406       -0.5434746059       -0.7142258700
 C         -0.9341548705       -2.9770712909        0.2842286235
 C          2.4002124420       -1.7225853367        0.7356705264
 C          4.8908317597        1.2945657492       -0.0552269898
 C          0.7740854577        2.6564549590        0.4356577978
 C         -2.5293387384        1.3133049601        0.9504140965
 C         -5.1265415483       -1.6554251941        0.1855137278
 O         -0.1973773291       -4.1638226117        0.5841949974
 O          3.4227858639       -1.1006678586       -0.0461461139
 O          4.6724606679        2.5405737079       -0.7152854267
 O          0.0579578347        3.8300362499        0.8287831724
 O         -3.6140312203        0.7465334414        0.2130366933
 O         -4.9473944610       -2.8570468251       -0.5638440930
 C         -1.6471632443       -2.4641688583        1.5241002979
 C          2.4672903929       -1.3243344161        2.1954640722
 C          5.7943819927        1.5052700469        1.1525606755
 C          1.5932735381        2.1122853865        1.5986008071
 C         -2.4581703949        0.7975930721        2.3705493170
 C         -5.9474208408       -1.9293271786        1.4442493631
 O         -2.5431655757       -3.4138671114        2.0270012705
 O          1.3012452199       -0.8268991677        2.6816135366
 O          7.0156732557        2.0728269145        0.7718244585
 O          2.6105034857        2.9946912623        1.9791231012
 O         -1.2504831318        0.2512443955        2.6734513069
 O         -5.4756315573       -3.0346838081        2.1752824846
 H          1.1844757312       -5.4519859978       -0.1867655667
 H          4.8940886464       -1.5664843436        1.2400471216
 H          3.5194817906        3.4003663419       -2.1636265274
 H         -1.3940862717        5.1323327555        0.2214040330
 H         -4.9751627149        1.1187718545        1.6425177489
 H         -3.8814330395       -3.6287343639       -2.1208622247
 H         -0.8052847178       -5.7011986935       -1.6204970854
 H          5.7289998119       -3.5544075152       -0.1624123926
 H          5.1123226079        1.8500365341       -3.3160717936
 H          0.5159028019        5.4525186341       -1.3281737071
 H         -5.9062671502        3.2009722275        0.4467409509
 H         -5.5557504125       -2.0036522392       -3.0692550474
 H          0.1971430443       -5.1512686212       -3.7087587434
 H          3.3841853546       -3.3378630025       -1.6668667842
 H          3.4256200527        0.6400551261       -4.4990283594
 H         -0.6399037824        5.0322318942       -3.3649842124
 H         -3.6731226538        3.1029765222       -1.2299141243
 H         -3.9419438411       -0.7433847917       -4.3033339225
 H         -0.3829658238       -2.7698001397       -2.3607626929
 H          3.6317937960       -4.9623400127        0.2203615410
 H          3.5052505403       -0.2821644476       -1.8460239589
 H         -0.0110037675        2.5632587283       -2.1652203268
 H         -3.7859056197        4.5791348308        0.7987921674
 H         -3.8155585334        0.0128553045       -1.5903765716
 H         -2.3810570730       -3.0590288520       -3.4893025324
 H          4.0092024489       -3.2069506343        2.4099823127
 H          4.9234474966       -1.7426307362       -2.7515062657
 H          1.9049820596        2.8821577584       -3.4369732520
 H         -3.9726426471        2.6591509504        2.8638175215
 H         -5.2656943801        1.5517814692       -2.3101715626
 H         -2.5152870031       -4.1221117165       -0.6014258721
 H          1.6922657701       -3.6699551349        1.3316144397
 H          6.4018876440        0.6444020641       -1.4531708951
 H          2.2821071820        3.8208445709       -0.5469026043
 H         -1.7691799249        3.2062895465        1.6633276043
 H         -6.6991990757       -0.8911418365       -1.0876464657
 H         -0.2065810100       -2.2315263622       -0.0602177817
 H          1.4806494444       -1.2797313035        0.3276926155
 H          3.8986178375        0.9465358004        0.2645072380
 H          0.0214252923        1.9154449539        0.1396901152
 H         -1.6505139177        0.9148519795        0.4240294899
 H         -4.1153005779       -1.3413160742        0.4749556445
 H         -2.2156001733       -1.5565721108        1.2974332304
 H         -0.9214922086       -2.2081971817        2.3060891069
 H          5.3135096493        2.1673588815        1.8849685887
 H          6.0179708235        0.5545011221        1.6495518777
 H          2.0689188421        1.1636836242        1.3287596244
 H          0.9499489503        1.9179955158        2.4663118618
 H         -5.9705831031       -1.0538012573        2.1049883592
 H         -6.9825501169       -2.1597346792        1.1686947116
 H         -2.0747289389       -4.2477346779        2.1990617319
 H          6.8682003388        2.9008626952        0.2843099247
 H          2.2419407093        3.8672501113        2.2004437548
 H         -4.4959029768       -3.1255728443        2.1191307076
 C         -1.1081892037        0.0156746956        4.0567038493
 H         -1.3322637440       -1.0361751416        4.2606964321
 H         -1.8417944527        0.6349441976        4.5868907160
 O         -3.3953023502        0.9208210735        3.1235808234
 C          1.4157634444       -0.4988595961        4.0482085300
 H          2.3706848817        0.0207435959        4.1865894953
 H          1.4458801831       -1.4301821804        4.6233868783
 O          3.4851278365       -1.4777844960        2.8292271403
 C          0.2825561996        0.3847348538        4.4906158378
 O          0.4794114848        1.3904124695        5.1161248398
 O          4.5832907612        4.9565515245       -3.2288906633
 H          5.0663418223        5.6198113288       -2.7352305264
 H          4.5425166359        5.2640257045       -4.1350800870
 O         -1.1975921276        3.4818791207        3.8561757012
 H         -0.6397407613        2.8138879816        4.2999055862
 H         -1.2073479631        4.2469402339        4.4316727154
  136
        -21.27646023
 C          0.6310575289       -4.5349909601       -0.4460242525
 C          4.6427998023       -1.5763419863        0.1807060614
 C          3.6607183295        2.5009409290       -1.6969448427
 C         -1.0298642113        4.2787896055       -0.3733276499
 C         -4.9754105257        1.2396592858        0.4118112071
 C         -4.0884357936       -2.7721347446       -1.6302686173
 O          1.6170751794       -3.5570572364       -0.7013485076
 O          5.7392826590       -0.8889061515       -0.4012575474
 O          2.4079474220        2.0056334442       -1.2390782364
 O         -2.0103832442        3.2878623134       -0.6029895220
 O         -6.1016801460        0.5666696035       -0.1315985809
 O         -2.8323883355       -2.2623609615       -1.1971971452
 C         -0.1903136701       -4.8921454771       -1.7220367806
 C          4.6708615740       -3.0672218812       -0.2388241128
 C          4.1996437380        1.5728847319       -2.8180796689
 C         -0.2493869649        4.6377498637       -1.6724393476
 C         -5.0323345696        2.7403934829        0.0298968521
 C         -4.6751805789       -1.8144132935       -2.7002559503
 O          0.6589321570       -5.2387464893       -2.7959250551
 O          4.3367174651       -3.1896280435       -1.6093858706
 O          3.2614457047        1.4886037016       -3.8734570225
 O         -1.1295493882        4.9827319901       -2.7215211635
 O         -4.7721152599        2.9019549609       -1.3529881057
 O         -3.7859386154       -1.7073991751       -3.7954569247
 C         -1.1020311792       -3.7095910324       -2.1017306047
 C          3.6708805807       -3.8673177185        0.6326436134
 C          4.4581005515        0.1947714389       -2.1888144872
 C          0.6483984701        3.4530053970       -2.0751016822
 C         -3.9912854310        3.5228318411        0.8669190879
 C         -4.8997960778       -0.4559160041       -2.0161610778
 O         -1.8980209142       -4.0076851497       -3.2297512747
 O          4.0975416379       -3.9811126086        1.9811667742
 O          4.9452413839       -0.7411845965       -3.1235140740
 O          1.3951181535        3.7441050737       -3.2365646436
 O         -4.3314986342        3.5669716869        2.2446345109
 O         -5.4171457683        0.5099596957       -2.9030927233
 C         -1.9404334478       -3.3129778377       -0.8692356797
 C          2.2690171286       -3.2081244709        0.5209674774
 C          5.4038676431        0.3545904642       -0.9806485748
 C          1.5376466519        3.0652326390       -0.8751850932
 C         -2.5926500326        2.8907276080        0.6390428383
 C         -5.8015515848       -0.6536216564       -0.7787831926
 C         -0.9729924616       -2.9613922636        0.2789853999
 C          2.3202691898       -1.6673652911        0.7046672896
 C          4.7991046675        1.3709067914        0.0178109765
 C          0.6208809125        2.7293983214        0.3207968141
 C         -2.6153489342        1.3458212752        0.7754747651
 C         -5.1812705813       -1.7189345414        0.1609718912
 O         -0.2247575875       -4.1280156704        0.6249507539
 O          3.3504889886       -1.0405358209       -0.0639091145
 O          4.5981367340        2.6279213467       -0.6278501557
 O         -0.1329329229        3.8917331528        0.6721909042
 O         -3.6979343878        0.7141384533        0.0828818568
 O         -4.9929404528       -2.9473891202       -0.5408947811
 C         -1.6718063722       -2.3899280750        1.5026068879
 C          2.3589357462       -1.2497985909        2.1593565518
 C          5.6553317248        1.5589430121        1.2640403198
 C          1.3720717284        2.1959316767        1.5327905946
 C         -2.5003614930        0.9137488516        2.2205364301
 C         -5.9885507245       -1.9508416703        1.4368661851
 O         -2.5502813304       -3.3205812691        2.0679087622
 O          1.1904387858       -0.7468131450        2.6355227749
 O          6.8886741108        2.1371662927        0.9431287595
 O          2.2759621500        3.1371730770        2.0354454618
 O         -1.2405880457        0.5556899029        2.5851716236
 O         -5.4919368075       -3.0145358871        2.2114216468
 H          1.1665526073       -5.4325382533       -0.1007626864
 H          4.7895660318       -1.4819333525        1.2660594629
 H          3.5015599919        3.5098591797       -2.1075938000
 H         -1.5680257358        5.1701348862       -0.0163943192
 H         -5.0613114893        1.1170451755        1.5008639094
 H         -3.9254134465       -3.7650428765       -2.0737370092
 H         -0.8240836502       -5.7677988605       -1.5109351881
 H          5.6942120474       -3.4570321983       -0.1256763334
 H          5.1390955835        1.9774997721       -3.2241746537
 H          0.3913581563        5.5129415139       -1.4810341350
 H         -6.0501521605        3.1210520241        0.2066382698
 H         -5.6349343285       -2.2030330129       -3.0728030186
 H          0.1563049884       -5.2983644591       -3.6253154162
 H          3.3622939369       -3.2793315512       -1.6570143453
 H          3.5042906899        0.7767765880       -4.4855496240
 H         -0.6513460330        5.0350472751       -3.5657195040
 H         -3.8033600857        3.0120856504       -1.4501428311
 H         -4.0483927609       -0.9730967386       -4.3718163696
 H         -0.4525042385       -2.8651953978       -2.3794332373
 H          3.6134978382       -4.8950108035        0.2423624301
 H          3.4794825485       -0.1688546735       -1.8359124569
 H         -0.0103112846        2.6053521271       -2.3196526431
 H         -3.9747525070        4.5674680966        0.5205212767
 H         -3.9061950375       -0.1086532038       -1.6897412869
 H         -2.4537705696       -3.2325627717       -3.4752032040
 H          3.9356110271       -3.1212105501        2.4246679785
 H          4.9187459659       -1.6297250148       -2.7089465052
 H          1.9566726898        2.9751022141       -3.4885193730
 H         -4.1132308442        2.6967453903        2.6430731043
 H         -5.3756886390        1.3848493452       -2.4619263701
 H         -2.5463758139       -4.1673207189       -0.5365511746
 H          1.6536565160       -3.6131398255        1.3408765979
 H          6.3600997537        0.7594154163       -1.3428791059
 H          2.1620100407        3.9196645228       -0.5795206787
 H         -1.9346298143        3.2754498369        1.4356670397
 H         -6.7731950340       -1.0301222272       -1.1302426789
 H         -0.2549158341       -2.2299182510       -0.1122127749
 H          1.4020348677       -1.2453948523        0.2732096869
 H          3.7978832287        1.0109180779        0.2925971415
 H         -0.0999481502        1.9779114787       -0.0232537217
 H         -1.7351774161        0.9511096541        0.2495104414
 H         -4.1720400221       -1.3796403091        0.4287975786
 H         -2.2530955352       -1.5006748910        1.2388366267
 H         -0.9374583831       -2.0881849921        2.2603331841
 H          5.1454888845        2.2004592472        1.9954986337
 H          5.8646006055        0.5979383204        1.7473499551
 H          1.9416013996        1.2971489643        1.2745844187
 H          0.6726231133        1.9189627888        2.3323555753
 H         -6.0219467941       -1.0477818068        2.0590475748
 H         -7.0214746525       -2.2109248508        1.1800353479
 H         -2.0706182701       -4.1401786107        2.2741773637
 H          6.7593392038        2.9823783364        0.4810046735
 H          1.8225909336        3.9754854955        2.2291162275
 H         -4.5103639682       -3.0836176745        2.1585547930
 C         -1.1786839469        0.2634345928        3.9611351425
 H         -1.5397930543       -0.7584845171        4.1165198414
 H         -1.8637047356        0.9492608325        4.4739968511
 O         -3.4624873724        0.9594513328        2.9516202211
 C          1.3276058089       -0.4153924209        3.9965336046
 H          2.2820606784        0.1135419487        4.1035239585
 H          1.3966454270       -1.3476532725        4.5673282244
 O          3.3708388814       -1.3974281152        2.8047673330
 C          0.2087023049        0.4489731712        4.5101383991
 O          0.4212430088        1.2814154602        5.3496916159
 O          4.5620069685        5.1186226504       -3.0574116084
 H          4.5371845192        5.4925900978       -3.9386336361
 H          5.0562623190        5.7318583566       -2.5122155412
 O          3.2203335546        1.9214010692        5.8131305796
 H          2.2657065666        1.7427830012        5.7185990452
 H          3.3013591471        2.7576039378        6.2705901102
  136
        -21.27608477
 C          0.6747531736       -4.4196239041       -0.2005160791
 C          4.9316060650       -1.6765974503        0.2750834807
 C          4.0733140196        2.3934919214       -1.6285504190
 C         -0.3376358291        4.4487708983        0.0990191778
 C         -4.4990635912        1.6749172632        0.7321743602
 C         -3.6687209187       -2.0799317770       -1.7823219933
 O          1.7499531239       -3.5744002159       -0.5512332123
 O          6.0468174492       -1.0617967157       -0.3553975178
 O          2.8416883559        1.9524260336       -1.0762614960
 O         -1.4247226436        3.5864277960       -0.1545358230
 O         -5.6378268533        1.1086576258        0.0929289400
 O         -2.4013055783       -1.7581135334       -1.2413652092
 C         -0.1505880601       -4.7988806990       -1.4580597290
 C          4.9018461841       -3.1763229977       -0.1131375033
 C          4.5003769292        1.4255136024       -2.7625848052
 C          0.3768560143        4.8068231639       -1.2362913161
 C         -4.4937973629        3.2096710466        0.4977917485
 C         -4.1601592547       -0.9460772581       -2.7228729978
 O          0.7181733423       -5.2359686572       -2.4827062284
 O          4.6530983525       -3.3370162605       -1.4973456100
 O          3.4911242156        1.3543476183       -3.7560714934
 O         -0.5769330588        5.2089906605       -2.1974605184
 O         -4.3456174055        3.5304871379       -0.8717556339
 O         -3.2273454093       -0.7068271583       -3.7491744421
 C         -0.9885460273       -3.5994051913       -1.9484422314
 C          3.8405518258       -3.9245928734        0.7280735082
 C          4.7561520024        0.0400563927       -2.1428157596
 C          1.1812724170        3.5949367092       -1.7543730961
 C         -3.3769727363        3.8843360554        1.3294754050
 C         -4.4256576328        0.3290070516       -1.9027754171
 O         -1.8726957763       -3.9940675100       -2.9793720004
 O          4.2434676246       -4.0706747481        2.0801250760
 O          5.1819372902       -0.9023986093       -3.1071853417
 O          1.9195619931        3.8922108825       -2.9274722369
 O         -3.6948826831        3.9332402295        2.7104635371
 O         -4.9742692820        1.3690550359       -2.6902410311
 C         -1.7536222602       -2.9368694020       -0.7784621682
 C          2.4708742145       -3.2057251937        0.6225350592
 C          5.7640464736        0.1768097393       -0.9780789945
 C          2.0794266757        3.0564684387       -0.6207686912
 C         -2.0230586093        3.1747764710        1.0727641311
 C         -5.3638346925       -0.0132207478       -0.7250957458
 C         -0.7724632047       -2.6434895402        0.3780762169
 C          2.5956098882       -1.6682891535        0.7848274401
 C          5.2867054326        1.2597929990        0.0245330142
 C          1.1866897808        2.7113137284        0.5870546765
 C         -2.1448307006        1.6323573936        1.1502732113
 C         -4.8216066692       -1.2205593101        0.0797846930
 O         -0.1485546862       -3.8503522221        0.8149384993
 O          3.6636733094       -1.0852469634        0.0311764135
 O          5.0929265387        2.5082590755       -0.6388407307
 O          0.5637398849        3.9032155988        1.0641285413
 O         -3.2396263135        1.1119814684        0.3890887218
 O         -4.6310535950       -2.3554530113       -0.7655937012
 C         -1.4441053226       -1.9787730636        1.5691402038
 C          2.6136684276       -1.2706426110        2.2450506512
 C          6.2219026232        1.4286877162        1.2207406378
 C          1.9438795330        2.0263864388        1.7119867452
 C         -2.1213842980        1.1286463589        2.5786922711
 C         -5.7119096920       -1.5756823739        1.2697465626
 O         -2.3706383208       -2.8451380601        2.1587105958
 O          1.4229431450       -0.8010506881        2.7051547781
 O          5.8439720775        2.4867991174        2.0660355166
 O          2.9216917986        2.8695010516        2.2507587632
 O         -0.9314659715        0.5978255275        2.9682499902
 O         -5.2797467249       -2.7229156314        1.9541184133
 H          1.1194370354       -5.3303211307        0.2295198940
 H          5.0992722024       -1.5610475449        1.3554127300
 H          3.9095106826        3.3991698985       -2.0451844987
 H         -0.7585399229        5.3622076530        0.5456850069
 H         -4.6251102268        1.4541742975        1.8022017997
 H         -3.5409910150       -3.0084782452       -2.3614149705
 H         -0.8295597297       -5.6364905655       -1.2395489435
 H          5.8967205970       -3.6103308467        0.0784106025
 H          5.4215753439        1.7827639053       -3.2469263159
 H          1.0625653316        5.6550863687       -1.0945287907
 H         -5.4714824797        3.6139275075        0.8070595004
 H         -5.0976112086       -1.2403162816       -3.2179331044
 H          1.5336486738       -4.6977176965       -2.4636857568
 H          4.9146336904       -2.5323954067       -1.9998276371
 H          2.8850540679        2.1196835431       -3.6396542755
 H         -1.3949861902        4.6869923328       -2.0776757965
 H         -4.6583556853        2.7960471729       -1.4455798519
 H         -2.3385487520       -0.5924277632       -3.3684028972
 H         -0.3097913066       -2.8468550620       -2.3739205038
 H          3.7352370528       -4.9415450012        0.3202494597
 H          3.7951551648       -0.3209080603       -1.7458953084
 H          0.4715769644        2.8009638479       -2.0297066205
 H         -3.2912308481        4.9294300256        0.9940711275
 H         -3.4663988741        0.6914480740       -1.5062142068
 H         -1.3997766504       -4.4878117508       -3.6683386759
 H          4.1219949294       -3.2040188487        2.5247617696
 H          4.7147901525       -0.7559416986       -3.9464593765
 H          1.3998532301        4.4709056916       -3.5090472179
 H         -3.5738792043        3.0318392404        3.0776085396
 H         -4.5857915638        1.4003521968       -3.5941018435
 H         -2.5350268496       -3.6144545193       -0.4074372495
 H          1.8672387108       -3.5576606529        1.4765365704
 H          6.7237320703        0.5010256545       -1.4058925414
 H          2.7858419856        3.8346290517       -0.2991772275
 H         -1.3384907297        3.4859553678        1.8795172037
 H         -6.3371500010       -0.2905668894       -1.1574070163
 H          0.0145943833       -1.9953090961       -0.0240879004
 H          1.7062699455       -1.2074489444        0.3352660124
 H          4.2918903469        0.9652284971        0.3834976831
 H          0.3871566037        2.0553679677        0.2227823900
 H         -1.2717634296        1.2004150391        0.6437699347
 H         -3.8206499446       -0.9560889707        0.4420153443
 H         -1.9725714364       -1.0701116010        1.2669852279
 H         -0.7010973410       -1.6934937484        2.3260930030
 H          6.2816217240        0.5077846999        1.8137836965
 H          7.2340487184        1.6584066476        0.8699774263
 H          2.4436410505        1.1219822555        1.3509478726
 H          1.2533680610        1.7257845915        2.5100531774
 H         -5.7769795484       -0.7420137603        1.9799428961
 H         -6.7285430771       -1.7870688200        0.9216096342
 H         -1.9236282525       -3.6696716308        2.4144490104
 H          4.8646766196        2.5777384232        2.1276213088
 H          2.5120321238        3.7040311501        2.5346305304
 H         -4.2988200753       -2.7409115968        2.0422041669
 C         -0.9841388251        0.2365621888        4.3286242237
 H         -1.9462011084       -0.2604863605        4.4982905779
 H         -0.9765082258        1.1573632039        4.9221413292
 O         -3.0979582708        1.2486810807        3.2819113280
 C          1.4814658791       -0.5681188643        4.0939323665
 H          1.9323210578        0.4149151502        4.2649557687
 H          2.1490272264       -1.3241090384        4.5239670492
 O          3.6119960165       -1.4327662444        2.9086577684
 C          0.1324268257       -0.6773172073        4.7514932464
 O         -0.0484195800       -1.4840243235        5.6230926454
 O         -3.9475509996        1.7017725686       -5.3936570115
 H         -4.3326465374        1.3498952657       -6.1947455259
 H         -3.2642663620        2.3146687851       -5.6617953820
 O         -7.2284848602       -1.5631458956       -2.8012057399
 H         -7.5210551220       -2.4751469266       -2.7719135341
 H         -7.8951625869       -1.0809855271       -3.2916008652
  136
        -21.27592420
 C          0.7137627168       -4.2602214461       -0.5824069603
 C          4.9147733414       -1.5514861279        0.0902834735
 C          3.9248661852        2.5320366983       -1.6679725067
 C         -0.5484893665        4.4100558638        0.0946583054
 C         -4.6688109025        1.5379191448        0.7789290171
 C         -3.8406005485       -2.1636631557       -1.7397167542
 O          1.7564168992       -3.3368543964       -0.8052877471
 O          6.0201030472       -0.8874295834       -0.5098719297
 O          2.7123405634        2.0343462608       -1.1195934314
 O         -1.6148896071        3.5276230167       -0.1795396867
 O         -5.8235197858        0.9642312989        0.1744117854
 O         -2.6009092207       -1.7421764934       -1.1917942329
 C         -0.0867095119       -4.4667107210       -1.9011809947
 C          4.8693251625       -3.0255504512       -0.3899353529
 C          4.3816363069        1.6189000412       -2.8377230185
 C          0.1595140660        4.8124755903       -1.2298535417
 C         -4.6861218414        3.0713376156        0.5408734688
 C         -4.3897213559       -1.0714399839       -2.6894403474
 O          0.8169985127       -4.7163390949       -2.9569089632
 O          4.5647476223       -3.1150894611       -1.7698735526
 O          3.3587978478        1.5406194552       -3.8177010212
 O         -0.7991282084        5.2110056513       -2.1872678769
 O         -4.5756938450        3.3898280048       -0.8331203527
 O         -3.4616588615       -0.7993063061       -3.7259997262
 C         -0.9524098307       -3.2222394160       -2.1999424881
 C          3.8314521564       -3.8214850864        0.4375421567
 C          4.7224344525        0.2288737323       -2.2642488622
 C          0.9942266208        3.6310963691       -1.7670123283
 C         -3.5558198783        3.7567931593        1.3443695804
 C         -4.6687349648        0.1927676887       -1.8603153414
 O         -1.7869620757       -3.3799416142       -3.3338067225
 O          4.2707534547       -4.0584229534        1.7649423947
 O          5.1832142358       -0.6863366139       -3.2387601183
 O          1.7195309296        3.9724924260       -2.9358514580
 O         -3.8274442035        3.7739570702        2.7363062113
 O         -5.2256458020        1.2171224713       -2.6599767637
 C         -1.7710428405       -2.8624440871       -0.9400196551
 C          2.4641081881       -3.0903104771        0.4055529542
 C          5.7121322069        0.3686409761       -1.0862425744
 C          1.9102557087        3.1019737904       -0.6431790839
 C         -2.1978836907        3.0758178674        1.0398553282
 C         -5.5779702775       -0.1552089156       -0.6586566963
 C         -0.7996850033       -2.6451237115        0.2368814825
 C          2.5995699897       -1.5699160510        0.6776543513
 C          5.1894616880        1.4006542940       -0.0533757894
 C          1.0359528115        2.7108485154        0.5658779558
 C         -2.2891067540        1.5308561696        1.0929359193
 C         -5.0315353913       -1.3738354337        0.1295206669
 O         -0.1209171967       -3.8701392491        0.5093209798
 O          3.6416168687       -0.9439464213       -0.0779953840
 O          4.9464074775        2.6583061868       -0.6816324860
 O          0.3669430959        3.8741443785        1.0541855314
 O         -3.4165912983        0.9877033189        0.3940046313
 O         -4.7975590663       -2.4853983909       -0.7362427789
 C         -1.4886785409       -2.1309437437        1.4906590671
 C          2.6807219975       -1.2601409186        2.1570369065
 C          6.1188435124        1.5728073938        1.1472565804
 C          1.8354252549        2.0558178466        1.6815681104
 C         -2.1431567312        1.0214880253        2.5114833374
 C         -6.0009120683       -1.8182616924        1.2183227707
 O         -2.3963942694       -3.0661075915        1.9985094270
 O          1.5368735453       -0.7519824510        2.6863487184
 O          5.7231626556        2.6177930121        2.0004225681
 O          2.7928756311        2.9332981742        2.2012481799
 O         -0.8992729935        0.5521667694        2.7992994138
 O         -7.1877601051       -2.2933325598        0.6496167348
 H          1.1887245947       -5.2092372058       -0.2908669820
 H          5.1072452713       -1.5102895475        1.1722783510
 H          3.7227650396        3.5433384628       -2.0532562740
 H         -0.9939467128        5.3044375166        0.5562841899
 H         -4.7588928304        1.3191029125        1.8521155960
 H         -3.6532151376       -3.0864645383       -2.3098899995
 H         -0.7422196310       -5.3468534504       -1.8276937050
 H          5.8684979234       -3.4714914031       -0.2581861053
 H          5.2730610346        2.0449773939       -3.3206820380
 H          0.8242793727        5.6738948696       -1.0684182947
 H         -5.6600583710        3.4658786152        0.8736374172
 H         -5.3255318860       -1.4092839051       -3.1594914784
 H          1.6187376175       -4.1688186684       -2.8331670624
 H          4.8374697155       -2.3019262618       -2.2513570840
 H          2.7274368829        2.2811475421       -3.6711005904
 H         -1.6011214782        4.6613207010       -2.0881986757
 H         -4.8962342459        2.6529897721       -1.3999131994
 H         -2.8248597322       -1.5455768145       -3.7736747856
 H         -0.2808064834       -2.3796061242       -2.4206804405
 H          3.7104216621       -4.8105455261       -0.0304141360
 H          3.7803663777       -0.1981921704       -1.8889035498
 H          0.3067857366        2.8216075553       -2.0537670298
 H         -3.5003949569        4.8084814634        1.0237317599
 H         -3.7015624534        0.5614783170       -1.4858737354
 H         -1.2874260078       -3.7604176766       -4.0905259177
 H          4.1670402358       -3.2236162454        2.2696552979
 H          5.8934019861       -0.3029045081       -3.7778308644
 H          1.1806487763        4.5462642703       -3.5047215170
 H         -3.6375296612        2.8783979894        3.0905778102
 H         -4.8260464395        1.2035373389       -3.5456290487
 H         -2.4302448323       -3.7001782906       -0.6710969635
 H          1.8527721297       -3.5112061482        1.2211403007
 H          6.6660828207        0.7422760417       -1.4830232061
 H          2.5906368167        3.8986044577       -0.3105546770
 H         -1.5066833411        3.3786735712        1.8448627444
 H         -6.5691126659       -0.4229126099       -1.0533218377
 H         -0.0402930208       -1.9249842073       -0.0922968329
 H          1.6932985980       -1.0807575128        0.2943822227
 H          4.2063600158        1.0580381846        0.2949712517
 H          0.2623007405        2.0213951737        0.2071487955
 H         -1.4417898176        1.1309247992        0.5192462636
 H         -4.0576524033       -1.1011783384        0.5587640998
 H         -2.0487897749       -1.2150271590        1.2756284030
 H         -0.7504331185       -1.8935318017        2.2670173177
 H          6.1919360845        0.6471066918        1.7315925818
 H          7.1281778355        1.8221630244        0.8016705434
 H          2.3620432710        1.1698279891        1.3131006203
 H          1.1737917757        1.7303811294        2.4950150708
 H         -5.5589591699       -2.6114747193        1.8355947011
 H         -6.2719359171       -0.9923988328        1.8862513474
 H         -1.9581136560       -3.9223016613        2.1424261972
 H          4.7425675471        2.6944076014        2.0591103329
 H          2.3562047000        3.7405172108        2.5206837912
 H         -6.9989301761       -3.0170200522        0.0281240210
 C         -0.7916549221        0.2160805425        4.1633277077
 H         -1.1922520477       -0.7927600383        4.3052351335
 H         -1.4214987591        0.9173442581        4.7238787609
 O         -3.0610416260        1.1063758052        3.2938176607
 C          1.6784137812       -0.5754990441        4.0765774482
 H          2.6676211778       -0.1378864467        4.2535581608
 H          1.6601847670       -1.5641083816        4.5474885855
 O          3.6936453522       -1.4977276499        2.7736035384
 C          0.6225316901        0.3188682834        4.6635250193
 O          0.9056923805        1.1064052198        5.5250633564
 O         -0.4119432971       -4.3836159799       -5.6436825372
 H         -0.0773388345       -3.8878886648       -6.3884354409
 H         -0.1142378401       -5.2868294908       -5.7519913026
 O         -5.3763882405       -0.5465936125        3.7297379031
 H         -4.5737940778       -0.0017427895        3.6306047944
 H         -5.5444002076       -0.6176635221        4.6677562917
  136
        -21.27582108
 C          0.6204771241       -4.5212287646       -0.0086131567
 C          4.6961486151       -1.5328200957        0.3905351184
 C          3.5980641405        2.2601343613       -1.9989611658
 C         -0.7412609853        4.4259302042       -0.1533912878
 C         -4.8144134646        1.4190297364        0.2526983272
 C         -3.7606019832       -2.5125507138       -1.9408401099
 O          1.6816673170       -3.6606057855       -0.3632449740
 O          5.7748020190       -0.8966844881       -0.2833763025
 O          2.3618737070        1.9022859381       -1.4135961103
 O         -1.7991944934        3.5636522617       -0.5271313570
 O         -5.8962597586        0.7527344651       -0.3856696861
 O         -2.5340724243       -2.1017088520       -1.3657602564
 C         -0.1275947135       -5.0315810988       -1.2702653651
 C          4.7792100043       -3.0619597330        0.1404693785
 C          4.0651827127        1.1538757851       -2.9838866217
 C          0.0886280065        4.9254354362       -1.3666765659
 C         -4.8663175912        2.9321305462       -0.0820518670
 C         -4.2648689962       -1.4707635081       -2.9796183064
 O          0.8079747251       -5.4844212346       -2.2269358539
 O          4.6057050858       -3.3736825332       -1.2280925257
 O          3.0599524297        0.8855107652       -3.9344646626
 O         -0.7243613397        5.5299452312       -2.3488784949
 O         -4.5188407030        3.1325925543       -1.4371663215
 O         -3.3241433107       -1.2709035612       -4.0138104867
 C         -1.0284735346       -3.9364469097       -1.8861511060
 C          3.7379358325       -3.8162950471        1.0018666002
 C          4.4380479033       -0.1230060221       -2.2040727399
 C          0.9233881228        3.7788256475       -1.9702451937
 C         -3.8779759228        3.7068634481        0.8256405115
 C         -4.5511795055       -0.1568515857       -2.2372425928
 O         -1.8716763159       -4.4933651366       -2.8765986038
 O          4.1139393439       -3.8698921271        2.3678061847
 O          5.0012410902       -1.1133480001       -3.0430368574
 O          1.7804824944        4.2646401945       -2.9850336906
 O         -4.2885675853        3.7225957386        2.1840263296
 O         -5.0146248481        0.8433602350       -3.1161118866
 C         -1.8550970003       -3.2129937849       -0.7959339203
 C          2.3319838038       -3.1884465865        0.8171959150
 C          5.4142566242        0.2316683124       -1.0601778274
 C          1.7248405627        3.0493487927       -0.8653158855
 C         -2.4603813617        3.0974617291        0.6561227778
 C         -5.5450857913       -0.4251551115       -1.0894509128
 C         -0.9161926096       -2.7756236729        0.3484838514
 C          2.3642379856       -1.6399509078        0.8929410934
 C          4.8598668958        1.3973329866       -0.2057759644
 C          0.7786185004        2.6691068636        0.2948563192
 C         -2.4798436617        1.5484122408        0.7468505390
 C         -5.0041313304       -1.5541661158       -0.1781238330
 O         -0.2715020696       -3.9117144507        0.9195742285
 O          3.3936444687       -1.0501774183        0.0928077141
 O          4.5995855723        2.5390642530       -1.0226688994
 O          0.1157521006        3.8224071892        0.8139259605
 O         -3.5135045845        0.9223242618       -0.0212514085
 O         -4.7537733447       -2.7395944524       -0.9397067091
 C         -1.6330145446       -2.0131757344        1.4488249645
 C          2.3765408698       -1.1439439465        2.3239416478
 C          5.7860932175        1.7678433014        0.9520388862
 C          1.5038554815        1.9694670157        1.4329749645
 C         -2.4443669892        1.0778175974        2.1847005741
 C         -5.9253890707       -1.8565025553        1.0019013004
 O         -2.5426657873       -2.8466541819        2.1080111831
 O          1.1853500148       -0.6580521546        2.7626274604
 O          5.3308017326        2.8781361461        1.6808032227
 O          2.4291695339        2.8329783277        2.0286754667
 O         -1.2092911211        0.6935615952        2.6033525694
 O         -5.4583230764       -2.9142660820        1.7990472796
 H          1.0755005457       -5.3784061846        0.5114236008
 H          4.8447841329       -1.3102256217        1.4570856768
 H          3.4291912483        3.1982118910       -2.5512828767
 H         -1.2108064222        5.2912831875        0.3389352476
 H         -4.9627303606        1.2560278522        1.3296813638
 H         -3.5747876125       -3.4757981113       -2.4420887673
 H         -0.7596099723       -5.8959859500       -1.0173772317
 H          5.7913170689       -3.4059618182        0.4098347794
 H          4.9460333005        1.4930149415       -3.5481901740
 H          0.7856685677        5.7101098372       -1.0351388757
 H         -5.8961842692        3.3000845560        0.0422405407
 H         -5.1967064424       -1.8332893734       -3.4401681593
 H          1.5939707515       -4.9042426490       -2.2102681528
 H          4.8337072338       -2.6075378464       -1.8006773793
 H          2.2064190041        0.7596263485       -3.4830029916
 H         -1.4950934600        4.9684210322       -2.5397621167
 H         -3.5390817764        3.1803881815       -1.4588451969
 H         -3.5645321928       -0.4970060957       -4.5500628149
 H         -0.3986732147       -3.1837998623       -2.3828423963
 H          3.7006023398       -4.8588231381        0.6499212995
 H          3.5184684466       -0.5452783125       -1.7748073403
 H          0.2462155668        3.0491204975       -2.4362322547
 H         -3.8543666945        4.7582487071        0.5004810155
 H         -3.5893833182        0.1815996754       -1.8206411794
 H         -1.3571389673       -4.9946967308       -3.5294650005
 H          3.9574727721       -2.9828167201        2.7554410349
 H          4.5303007423       -1.1808886992       -3.9048448181
 H          1.2982400252        4.8381664048       -3.6021418059
 H         -4.0876313976        2.8447751932        2.5739982765
 H         -5.0241221530        1.6963494387       -2.6335093243
 H         -2.6176933294       -3.8906363047       -0.3874217601
 H          1.7193661160       -3.5305382537        1.6683104704
 H          6.3557164214        0.5616261103       -1.5234235416
 H          2.5156227006        3.7051265480       -0.4752152343
 H         -1.8584219561        3.4527003537        1.5088770256
 H         -6.4872035761       -0.7709366061       -1.5392579852
 H         -0.1361681689       -2.1511753493       -0.1033714893
 H          1.4458167713       -1.2576522202        0.4295724050
 H          3.8848980917        1.0889792733        0.1913634433
 H          0.0106095755        2.0134218550       -0.1288082126
 H         -1.5708712997        1.1688085790        0.2650796714
 H         -4.0258182292       -1.2348195212        0.2016015528
 H         -2.1818685024       -1.1571852310        1.0453749957
 H         -0.9116884358       -1.6308156369        2.1828405202
 H          5.9226638607        0.9233812864        1.6389780746
 H          6.7743924670        2.0371567545        0.5635181591
 H          2.0423721988        1.0869220938        1.0751847012
 H          0.7929982487        1.6358953451        2.2009141462
 H         -6.0650164823       -0.9709998971        1.6344914627
 H         -6.9127905285       -2.1565562284        0.6341671624
 H         -2.0789705771       -3.6436177352        2.4176275417
 H          4.3563871767        2.8411146757        1.8196507391
 H          1.9708302878        3.6345204718        2.3331178714
 H         -4.4827870112       -2.8643902631        1.9271256012
 C         -1.2190631590        0.3915071636        3.9783676725
 H         -1.6032576324       -0.6253537905        4.1100438211
 H         -1.9213897599        1.0824843763        4.4594372024
 O         -3.4420618599        1.1156758001        2.8668473938
 C          1.2761337263       -0.3141487111        4.1260682521
 H          2.2252033531        0.2159674160        4.2675151078
 H          1.3222693922       -1.2420922084        4.7059348282
 O          3.3827505854       -1.2318983697        2.9891882626
 C          0.1423852477        0.5538027893        4.5964807691
 O          0.3257697247        1.3691934715        5.4588993002
 O         -1.1370177314        3.7065669489        6.4057192909
 H         -0.8190909547        4.4451292272        5.8866180406
 H         -0.6236516750        2.9254381062        6.1283747353
 O          3.7132730099       -1.5267693292       -5.6072942676
 H          3.0683245734       -2.2040857581       -5.8043712538
 H          3.9369434895       -1.1080465627       -6.4368543951
  136
        -21.27567577
 C          0.7691139339       -4.3249724898       -0.2169560693
 C          4.8275081026       -1.4843525697        0.5186442906
 C          3.8737333395        2.3394064907       -1.8915664370
 C         -0.4804110093        4.4657766017       -0.0698853963
 C         -4.6759591534        1.6394920435        0.3699829974
 C         -3.7296717377       -2.2830952566       -1.7326318060
 O          1.8244606756       -3.4051053695       -0.4001074818
 O          5.9404601292       -0.8412253926       -0.0912084693
 O          2.6281229404        1.9528814573       -1.3401115038
 O         -1.5337119477        3.5933723695       -0.4189226347
 O         -5.7910722982        1.0347911745       -0.2768101355
 O         -2.5130986252       -1.8474027468       -1.1388229925
 C          0.0226342426       -4.6060143635       -1.5567924609
 C          4.8428957466       -3.0013824166        0.1872852429
 C          4.4285825566        1.2571568046       -2.8602586040
 C          0.2819832056        4.9266699488       -1.3399339933
 C         -4.6496987243        3.1531138671        0.0331136889
 C         -4.1756188108       -1.2701966119       -2.8193559748
 O          0.9470425037       -4.9653724022       -2.5609424353
 O          4.5710335418       -3.2160385154       -1.1840832428
 O          3.5328679591        1.0031656885       -3.9226537891
 O         -0.6413727198        5.3675638503       -2.3139154353
 O         -4.3781597069        3.3760347617       -1.3392484892
 O         -3.1443700678       -1.1155421491       -3.7792473698
 C         -0.7935479770       -3.3602509830       -1.9594350040
 C          3.7949955791       -3.7446504868        1.0532497793
 C          4.7040554603       -0.0224590897       -2.0555537133
 C          1.1551647739        3.7892773940       -1.9135696277
 C         -3.5982826858        3.8753829525        0.9086304245
 C         -4.5077948454        0.0596146129       -2.1208970407
 O         -1.5243447804       -3.5590736389       -3.1498621756
 O          4.1711770465       -3.8161074822        2.4192715186
 O          5.2447499848       -1.0326838078       -2.8777151034
 O          2.0078828899        4.2887601619       -2.9259976368
 O         -3.9935695314        3.9548731004        2.2683028133
 O         -4.9593307456        1.0477962071       -3.0236925175
 C         -1.7017997469       -2.9541274889       -0.7796970750
 C          2.4123791687       -3.0656565004        0.8572672172
 C          5.6260095499        0.3041284714       -0.8629074847
 C          1.9671583605        3.0883402429       -0.7979114234
 C         -2.2229654360        3.1783236150        0.7583528716
 C         -5.5037007524       -0.1702460302       -0.9624105260
 C         -0.8069355794       -2.6888798846        0.4464648120
 C          2.4936478396       -1.5255853646        1.0102518801
 C          5.0138865556        1.4607007086       -0.0385323645
 C          1.0305509887        2.7152185176        0.3740008382
 C         -2.3287087345        1.6355100667        0.8710038955
 C         -5.0197104714       -1.3027745359       -0.0233117952
 O         -0.1325340593       -3.8961917888        0.8062702173
 O          3.5468414954       -0.9373586513        0.2399838872
 O          4.8207036854        2.6140733046       -0.8602279058
 O          0.4001328756        3.8859379229        0.8899411298
 O         -3.4033255370        1.0615291973        0.1152938578
 O         -4.7570707674       -2.4918298610       -0.7685001057
 C         -1.5701118829       -2.1323493953        1.6375785728
 C          2.5016889535       -1.0798755521        2.4568849261
 C          5.8488425027        1.8260514351        1.1805927374
 C          1.7466958614        1.9903629397        1.5032807752
 C         -2.2990261425        1.1902231231        2.3182031754
 C         -6.0627608329       -1.6471010855        1.0334812143
 O         -2.4970760038       -3.0566697165        2.1299315351
 O          1.3081517418       -0.6057061438        2.9012145982
 O          7.0699418646        2.3939217662        0.8005000861
 O          2.7548168070        2.7854744864        2.0611981004
 O         -1.0847912240        0.7323684786        2.7267551264
 O         -7.1645369764       -2.2526580942        0.4220906112
 H          1.2318684751       -5.2575218997        0.1405640682
 H          4.9692577130       -1.3319827268        1.5986641991
 H          3.7053376305        3.2779004842       -2.4434923687
 H         -0.9423815587        5.3407317661        0.4129236148
 H         -4.8463543636        1.4910459673        1.4449793942
 H         -3.5477855466       -3.2615319021       -2.2004545824
 H         -0.6681213370       -5.4524761063       -1.4209429106
 H          5.8529908495       -3.3986625950        0.3717150086
 H          5.3739188510        1.6109243743       -3.2996530065
 H          0.9323571289        5.7837640993       -1.1103083396
 H         -5.6484961757        3.5757084070        0.2289052056
 H         -5.0678878305       -1.6498605738       -3.3375092889
 H          0.5088837977       -5.0673321435       -3.4359069119
 H          3.5976934910       -3.2858859990       -1.2732165557
 H          3.8054486169        0.2133947881       -4.4190699781
 H         -1.4349968151        4.7972115679       -2.2863732201
 H         -4.6242469970        2.5961810967       -1.8862549768
 H         -3.2947685335       -0.3278880944       -4.3254276342
 H         -0.0754782936       -2.5490373210       -2.1549929101
 H          3.7309790152       -4.7858310233        0.7014222888
 H          3.7312600430       -0.3754434874       -1.6779597708
 H          0.5065518654        3.0328194669       -2.3794560831
 H         -3.5079764244        4.9114984298        0.5479413954
 H         -3.5641650082        0.4446205470       -1.7082365943
 H         -1.9861290394       -2.7291791910       -3.4142957627
 H          4.0260588935       -2.9333092658        2.8212130900
 H          5.2168314329       -1.8763250847       -2.3816897047
 H          1.5016451685        4.7745743483       -3.5970470060
 H         -3.8308302691        3.0785544138        2.6801257693
 H         -5.8236375417        0.8099358531       -3.3988157003
 H         -2.3757852377       -3.7828367747       -0.5208798258
 H          1.7417577357       -3.4455735913        1.6448395358
 H          6.5934922084        0.6436733421       -1.2604217982
 H          2.7437312148        3.7664100553       -0.4165912685
 H         -1.6053219469        3.5094187590        1.6105574953
 H         -6.4666518724       -0.4863703032       -1.3873263187
 H         -0.0371584864       -1.9741566441        0.1336073901
 H          1.5926274679       -1.0982255258        0.5503348063
 H          4.0103614713        1.1431953522        0.2717540807
 H          0.2367035698        2.0794903562       -0.0372694999
 H         -1.4420046050        1.2051374307        0.3864863665
 H         -4.0704462404       -0.9959933640        0.4369823677
 H         -2.1229321680       -1.2294609320        1.3573085516
 H         -0.8780136105       -1.8601581296        2.4443173940
 H          5.3111759954        2.5415672806        1.8162260182
 H          6.0737238017        0.9391940296        1.7840919684
 H          2.2112694052        1.0693639600        1.1411519547
 H          1.0388973313        1.7100659928        2.2948640800
 H         -5.6526897375       -2.3387859566        1.7811549421
 H         -6.4270494932       -0.7593477204        1.5634601069
 H         -2.0620862912       -3.9048886232        2.3225457586
 H          6.9218618035        3.1463041430        0.2026493786
 H          2.3809128734        3.6254825284        2.3778022074
 H         -6.8601518097       -2.9879942895       -0.1418665241
 C         -1.0935135483        0.4569235119        4.1088225221
 H         -1.4927188069       -0.5510583126        4.2598675377
 H         -1.7808183166        1.1699972277        4.5798035274
 O         -3.2760414707        1.3119016321        3.0202912223
 C          1.4028972063       -0.2567100363        4.2621271491
 H          2.3496008538        0.2793874120        4.3974754592
 H          1.4576636305       -1.1822381772        4.8451044146
 O          3.5050192652       -1.1868650827        3.1234947332
 C          0.2659144040        0.6054792604        4.7352791996
 O          0.4395124527        1.3999327689        5.6194692139
 O         -5.8192178355        0.0169412749        3.4010911684
 H         -6.1157843591        0.1397739743        4.3011357337
 H         -4.9409918635        0.4353748845        3.3344705906
 O         -0.2595164890       -5.3390205867       -5.1404751898
 H         -0.0077369692       -4.8975534169       -5.9493397150
 H         -1.0267731238       -5.8730364573       -5.3400812232
  136
        -21.27543200
 C          0.6585408817       -4.3469117493       -0.6497357819
 C          4.7092086397       -1.3867035575        0.1497887578
 C          3.5956373781        2.6882787726       -1.5978469265
 C         -0.9668528335        4.3564337064        0.1073784859
 C         -4.9472902012        1.3550583590        0.7481951384
 C         -4.0711738876       -2.4798865746       -1.6170974811
 O          1.6620102729       -3.3810367220       -0.8828389563
 O          5.7955909658       -0.6546810251       -0.4005683506
 O          2.3754602367        2.1307472772       -1.1319826750
 O         -1.9859103247        3.4164749174       -0.1593251568
 O         -6.0781015919        0.7237299774        0.1647697339
 O         -2.8093148993       -2.0103963160       -1.1553609374
 C         -0.1600305206       -4.5783058078       -1.9535046327
 C          4.7842892362       -2.8552873394       -0.3367937056
 C          4.1578631803        1.8219483646       -2.7545401007
 C         -0.2586119473        4.8380251756       -1.1986460349
 C         -4.9945123285        2.8788061022        0.4663961129
 C         -4.6671057307       -1.4387313416       -2.6011196673
 O          0.7286326629       -4.7722278839       -3.0327397183
 O          4.5789197421       -2.9355663386       -1.7322775978
 O          3.2053496103        1.7175173290       -3.7998473131
 O         -1.2469918556        5.2514913105       -2.1221058851
 O         -4.7502410308        3.1312321037       -0.9054777925
 O         -3.7862024527       -1.2384570677       -3.6902577629
 C         -1.1004561849       -3.3782957009       -2.2111280681
 C          3.7480900107       -3.7220604646        0.4207625976
 C          4.5124952246        0.4322266769       -2.1970545042
 C          0.6385368331        3.7103107459       -1.7667331371
 C         -3.9387948067        3.6012560930        1.3389076049
 C         -4.8941406193       -0.1402330813       -1.8094574050
 O         -1.9371055445       -3.5872086680       -3.3312758777
 O          4.1205892347       -3.9415592674        1.7711064715
 O          5.0817005371       -0.4035060427       -3.1858112572
 O          1.4435152110        4.0942546790       -2.8727483387
 O         -4.2744105891        3.5919952380        2.7177775887
 O         -5.4302414614        0.8844897635       -2.6158209739
 C         -1.9120344221       -3.0846591134       -0.9317346696
 C          2.3398248108       -3.0776836985        0.3330505076
 C          5.4389863118        0.5899396533       -0.9692119777
 C          1.5317399096        3.1540301953       -0.6332010426
 C         -2.5502336581        2.9614794339        1.0722292262
 C         -5.7831650729       -0.4394712656       -0.5833823454
 C         -0.9296929792       -2.8235075327        0.2276743722
 C          2.3710587476       -1.5529013757        0.6066189550
 C          4.8065272142        1.5641264397        0.0555745722
 C          0.6409220663        2.7002072894        0.5378682251
 C         -2.5915359428        1.4114023612        1.1297243337
 C         -5.1534464002       -1.5769677912        0.2606452599
 O         -0.1725257889       -4.0104414942        0.4652882868
 O          3.4116052189       -0.8613708094       -0.0900279869
 O          4.5502900653        2.8291760401       -0.5503093493
 O         -0.0387056680        3.8398031803        1.0602302896
 O         -3.6736205809        0.8407635731        0.3868436452
 O         -4.9681705048       -2.7439028931       -0.5396212347
 C         -1.6235184135       -2.3647444758        1.5024728089
 C          2.3555563755       -1.2550244323        2.0901254986
 C          5.6679324978        1.7578860760        1.2963583721
 C          1.4013749567        1.9820658380        1.6416339220
 C         -2.5127523015        0.8848557025        2.5470552283
 C         -5.9512996036       -1.9156240160        1.5182675823
 O         -2.5061682975       -3.3394157475        1.9810763347
 O          1.1325901204       -0.9046909852        2.5692800610
 O          6.8600686311        2.4178735892        0.9775710540
 O          2.3487744905        2.8161137843        2.2448516267
 O         -1.2975807200        0.3834067863        2.8932561000
 O         -5.4524716313       -3.0454224942        2.1914075821
 H          1.1799128086       -5.2774540983       -0.3778846002
 H          4.8428278147       -1.3376616900        1.2400654095
 H          3.3760365305        3.7000706357       -1.9715540152
 H         -1.4599280860        5.2181992013        0.5830095921
 H         -5.0347782131        1.1637347044        1.8273364681
 H         -3.9145482579       -3.4341302836       -2.1405445279
 H         -0.7679032866       -5.4927412549       -1.8833818747
 H          5.8022602946       -3.2397616862       -0.1541978313
 H          5.0637582997        2.2847920448       -3.1739872746
 H          0.3725502915        5.7098656351       -0.9688233022
 H         -6.0066975029        3.2550102442        0.6808442528
 H         -5.6278088212       -1.7994849481       -2.9984345538
 H          1.4660609993       -4.1351212751       -2.9616579635
 H          4.8442190435       -2.0999830935       -2.1789446769
 H          2.5349852403        2.4255158240       -3.6785078453
 H         -0.8528484886        5.5384278648       -2.9759731182
 H         -3.7818170573        3.2412045629       -1.0077699436
 H         -4.0567397836       -0.4625633384       -4.2052482283
 H         -0.4717825254       -2.5043821808       -2.4391481746
 H          3.7134857325       -4.7115225609       -0.0605692067
 H          3.5723235842       -0.0428025200       -1.8771306197
 H         -0.0159091862        2.9018800203       -2.1243509079
 H         -3.9060424023        4.6602660931        1.0402917846
 H         -3.9007218044        0.1903965972       -1.4657400101
 H         -2.4832888485       -2.7864553404       -3.5108562561
 H          3.9594587597       -3.1089887020        2.2655756621
 H          4.6573541802       -0.2423477589       -4.0451143074
 H          0.9713081129        4.7118859398       -3.4743832601
 H         -4.0760553250        2.6994704969        3.0735498818
 H         -5.3845561347        1.7250337374       -2.1132455259
 H         -2.5129001439       -3.9638060155       -0.6603863609
 H          1.7402890791       -3.5298624539        1.1414837316
 H          6.3900911502        1.0222546555       -1.3124595397
 H          2.1835229772        3.9529745601       -0.2513925947
 H         -1.8773676963        3.2979058937        1.8778983763
 H         -6.7578353932       -0.7875470749       -0.9551412607
 H         -0.2224676229       -2.0547937730       -0.1059344722
 H          1.4590927143       -1.1170626463        0.1758631505
 H          3.8225872360        1.1619368357        0.3327991637
 H         -0.1259342840        2.0358795427        0.1203863497
 H         -1.7085249200        1.0313724982        0.5987782438
 H         -4.1426868951       -1.2587248923        0.5479999898
 H         -2.2021596590       -1.4530757789        1.3222495609
 H         -0.8892264100       -2.1350029226        2.2858068509
 H          5.1319550524        2.3468863603        2.0524894588
 H          5.9375636938        0.7949955222        1.7447329603
 H          1.9339604689        1.1132895365        1.2424292222
 H          0.7098320968        1.6173995813        2.4120299522
 H         -5.9748917197       -1.0697957478        2.2166897245
 H         -6.9876227302       -2.1479302341        1.2488767425
 H         -2.0238790316       -4.1676547932        2.1414880085
 H          6.6717554813        3.2561521421        0.5224062656
 H          1.9301963240        3.6382995024        2.5525370033
 H         -4.4727252784       -3.1172738920        2.1136887021
 C         -1.2958069406        0.0074208767        4.2507843240
 H         -2.2512977220       -0.4886025797        4.4561067628
 H         -1.2569393823        0.9210882869        4.8541131994
 O         -3.4727187467        0.9616547776        3.2783792795
 C          1.1797585586       -0.7230005134        3.9649866509
 H          1.5844152399        0.2737150535        4.1711549976
 H          1.8800546851       -1.4639786850        4.3681238217
 O          3.3614088673       -1.3851884182        2.7494363524
 C         -0.1661354881       -0.9173189164        4.6071334542
 O         -0.3357686623       -1.8020471533        5.4016515696
 O          7.4213922618       -3.7084548196        1.0875480663
 H          8.1387773429       -3.1570364331        1.3999825753
 H          7.6794614731       -4.6164877913        1.2477271199
 O          0.0527820269        6.0031752600       -4.5821602248
 H         -0.3013714169        5.7698262952       -5.4366117646
 H          0.4295103944        6.8746597100       -4.6776496135
  136
        -21.27532207
 C          0.7267639065       -4.4651999544       -0.2172106838
 C          4.9043849058       -1.6544025477        0.0544258013
 C          4.0371494576        2.3098079624       -2.0755009961
 C         -0.4968815017        4.3357170159       -0.6173633114
 C         -4.6084168682        1.5708212157        0.5026987593
 C         -3.9524721276       -2.5641655523       -1.2953012762
 O          1.7492277009       -3.5649701399       -0.5906983171
 O          6.0095459750       -1.0718566736       -0.6205176914
 O          2.8025820539        1.8891370636       -1.5039204177
 O         -1.5061020589        3.3592705837       -0.7816875987
 O         -5.7974780664        0.9140166708        0.0831789098
 O         -2.6636053336       -2.0729709081       -0.9490321555
 C         -0.1772147037       -4.8579344726       -1.4239102593
 C          4.8443722144       -3.1707567234       -0.2583058269
 C          4.4707121511        1.2792476297       -3.1516682559
 C          0.2611296553        4.6267518554       -1.9476775556
 C         -4.6233089845        3.0362310545       -0.0041018913
 C         -4.5693940446       -1.6685444520       -2.4013027238
 O          0.5919581161       -5.3241882673       -2.5123441636
 O          4.4514457689       -3.3753091443       -1.6036647050
 O          3.4790685804        1.1760207040       -4.1557947335
 O         -0.6258641462        5.0013674525       -2.9810992831
 O         -4.5321913102        3.1037522010       -1.4154082516
 O         -3.7034035848       -1.6324371721       -3.5220598297
 C         -1.0387609719       -3.6498300440       -1.8362790187
 C          3.8419052915       -3.8541125098        0.7036591838
 C          4.6904534379       -0.0611204674       -2.4316578357
 C          1.0836370104        3.3869103095       -2.3427840090
 C         -3.4729877692        3.8397037534        0.6484822178
 C         -4.7898630573       -0.2666250017       -1.8074121523
 O         -1.8973032028       -3.9685090819       -2.9112375675
 O          4.3031011265       -3.8627261700        2.0464447924
 O          5.0714692175       -1.0891999133       -3.3179576095
 O          1.8022631448        3.5994676562       -3.5396102110
 O         -3.7333277565        4.1242134979        2.0128776390
 O         -5.3695530822        0.6295170636       -2.7320600035
 C         -1.7998233316       -3.1397917185       -0.5953773956
 C          2.4652465781       -3.1489343868        0.5722637246
 C          5.7142012241        0.1359467142       -1.2929698249
 C          1.9932642484        2.9994666387       -1.1582927704
 C         -2.1240297774        3.0938007305        0.4750429982
 C         -5.5999632839       -0.3617220467       -0.4970993832
 C         -0.7710614375       -2.7709085080        0.4927003743
 C          2.5853431147       -1.6037465911        0.6296053833
 C          5.2425389925        1.2714740419       -0.3489202271
 C          1.1066948691        2.7476229570        0.0796350755
 C         -2.2367820761        1.5743258216        0.7666764185
 C         -4.9546440824       -1.3851213884        0.4720791987
 O         -0.0519527100       -3.9483446716        0.8672556864
 O          3.6331330718       -1.0695326360       -0.1859784220
 O          5.0503486670        2.4787185279       -1.0854249425
 O          0.4145531885        3.9520551949        0.4166635800
 O         -3.3760244924        0.9508991848        0.1619512669
 O         -4.8107024030       -2.6560103766       -0.1609583900
 C         -1.4075094630       -2.1192436621        1.7115750197
 C          2.6265396251       -1.0993817096        2.0543944258
 C          6.1832271090        1.5096635801        0.8310671402
 C          1.8905524854        2.2115984231        1.2691268142
 C         -2.1350712572        1.2875451884        2.2507825586
 C         -5.7365849456       -1.5363174050        1.7741813501
 O         -2.3108860572       -2.9844869985        2.3381305545
 O          1.4329626507       -0.6265775830        2.5007606541
 O          5.8230525225        2.6336215124        1.5952963307
 O          2.9065426497        3.0870930911        1.6689784702
 O         -0.9499731634        0.7512848544        2.6444381280
 O         -5.2181115840       -2.5327723211        2.6195192247
 H          1.2332678848       -5.3667629776        0.1601132281
 H          5.0963313473       -1.4903590336        1.1244552477
 H          3.8843316220        3.2920244159       -2.5455516165
 H         -0.9996980718        5.2553606651       -0.2805445242
 H         -4.6423250522        1.5473281231        1.6017307510
 H         -3.8352867312       -3.5871651004       -1.6823227706
 H         -0.8470412563       -5.6785403413       -1.1224043025
 H          5.8516575172       -3.6025339930       -0.1537173319
 H          5.4098682242        1.6003274152       -3.6268445378
 H          0.9529929262        5.4693568825       -1.7915381038
 H         -5.5891229546        3.4919695858        0.2689261138
 H         -5.5316262151       -2.0893981438       -2.7273145560
 H          0.0416981631       -5.4052887906       -3.3090615548
 H          3.4733439066       -3.4319045550       -1.6089308502
 H          3.6490567365        0.4054970505       -4.7194879917
 H         -0.1725524746        4.9905606386       -3.8405951849
 H         -4.8470473437        2.2738375133       -1.8396988977
 H         -3.9373254749       -0.9013909549       -4.1152012803
 H         -0.3578249541       -2.8603718009       -2.1899604455
 H          3.7347536831       -4.9089678733        0.4082148060
 H          3.7158508722       -0.3402126412       -2.0001622003
 H          0.3740737951        2.5666005838       -2.5323724080
 H         -3.4040653093        4.8097712378        0.1322005071
 H         -3.7948414844        0.1433865562       -1.5798735490
 H         -2.4274353082       -3.1817003447       -3.1756210211
 H          4.1674410943       -2.9662124002        2.4226391076
 H          5.0285097412       -1.9416305606       -2.8349511555
 H          2.2887538930        2.7835100844       -3.7996668562
 H         -3.5760395783        3.3011181911        2.5230594959
 H         -6.2874054956        0.3803918161       -2.9303409510
 H         -2.4263148738       -3.9447159714       -0.1855632464
 H          1.8637093431       -3.4568382312        1.4435142722
 H          6.6665101260        0.4429124437       -1.7493310710
 H          2.6668738834        3.8324001107       -0.9127621189
 H         -1.4453141008        3.5042931262        1.2417895545
 H         -6.6108688729       -0.7217769499       -0.7369343340
 H         -0.0449873470       -2.0839882507        0.0416629698
 H          1.6831904220       -1.1824096709        0.1645391805
 H          4.2477829580        1.0015527898        0.0304823665
 H          0.3383536409        2.0182992825       -0.2093714156
 H         -1.3893585881        1.0750346135        0.2764332030
 H         -3.9338782430       -1.0468327545        0.6929216586
 H         -1.9577653373       -1.2172410403        1.4250140812
 H         -0.6420382875       -1.8173814733        2.4385917246
 H          6.2267214640        0.6342474561        1.4909936470
 H          7.1989557633        1.6956878266        0.4649448086
 H          2.3667812664        1.2591521984        1.0132733977
 H          1.2210666982        2.0229336890        2.1176537922
 H         -5.7793489939       -0.5896773775        2.3267536867
 H         -6.7663923265       -1.8373392526        1.5480024355
 H         -1.8551185347       -3.8023513148        2.5977377740
 H          4.8466538726        2.7627963085        1.6181609163
 H          2.5273886058        3.9412689392        1.9787965077
 H         -4.2464625953       -2.6520473313        2.5043582859
 C         -0.9181857356        0.6185374696        4.0465387843
 H         -1.8962340302        0.2383300993        4.3626508514
 H         -0.7917476654        1.6174965198        4.4783530600
 O         -3.0527230541        1.5703680003        2.9862508182
 C          1.5087201053       -0.2781130890        3.8629811055
 H          1.9714626455        0.7109673667        3.9442166413
 H          2.1694283070       -1.0037988968        4.3513339681
 O          3.6416860000       -1.1862555494        2.7058233503
 C          0.1591576390       -0.3136613725        4.5249902274
 O         -0.0559385828       -1.0794839678        5.4249165983
 O          1.9011275271        5.6075261500        2.6767279527
 H          2.1881514580        6.4673977957        2.3736909528
 H          1.3662603505        5.7532958846        3.4556107020
 O         -8.4935082236       -1.4983223856        0.3413965850
 H         -9.1681965209       -0.8592203539        0.5703954791
 H         -8.9483847892       -2.2739194411        0.0133047324
  136
        -21.27519308
 C          0.8010520797       -4.2747387756       -0.4754435014
 C          4.6751673483       -1.1574122481        0.2556390241
 C          3.4463677946        2.6727994025       -2.0174428814
 C         -0.9075200651        4.5441384935        0.0651585626
 C         -4.9172370173        1.5032525484        0.3985674146
 C         -3.8975638861       -2.4465763648       -1.7216540320
 O          1.7564331290       -3.2541980729       -0.6792198962
 O          5.7336023622       -0.4371270811       -0.3708442462
 O          2.2545909467        2.2151167108       -1.4076316026
 O         -1.9346518567        3.6419430419       -0.2953167755
 O         -5.9979012362        0.8598399201       -0.2586636343
 O         -2.6576852530       -1.9861887480       -1.1946292691
 C          0.0042403502       -4.5909629412       -1.7768041122
 C          4.7621477382       -2.6604413670       -0.1305370250
 C          3.9947202544        1.6344958570       -3.0326950942
 C         -0.1518712892        5.1274764763       -1.1635929329
 C         -4.9702072904        3.0252871569        0.1170517419
 C         -4.4047060487       -1.4429332387       -2.7926743374
 O          0.8685067982       -4.8774034056       -2.8560219333
 O          4.4576133351       -2.8466097268       -1.4984812853
 O          3.0541366308        1.3541995779       -4.0487131405
 O         -1.0229859827        5.6913056565       -2.1257538458
 O         -4.6279039025        3.2691906760       -1.2350006409
 O         -3.4480098556       -1.3040762675       -3.8256899171
 C         -0.9137169980       -3.4014032308       -2.1169576008
 C          3.7815333566       -3.4875120273        0.7369906517
 C          4.3701172968        0.3596898125       -2.2636575341
 C          0.7030894009        4.0366985508       -1.8399162549
 C         -3.9886959625        3.7622966910        1.0629454712
 C         -4.6658746831       -0.1074458763       -2.0782242758
 O         -1.6715429361       -3.6511618211       -3.2821023727
 O          4.1802742864       -3.5390317303        2.0974015596
 O          4.9115842348       -0.6046833778       -3.1388447070
 O          1.4912140753        4.5991917067       -2.8695215927
 O         -4.4162363091        3.7403441914        2.4158225797
 O         -5.1151379852        0.8995837684       -2.9562506041
 C         -1.7916976191       -3.0689502451       -0.8918615168
 C          2.3566870872       -2.8981292027        0.5675325654
 C          5.3441787922        0.7047318781       -1.1179423463
 C          1.5730365232        3.3000898697       -0.7944115203
 C         -2.5725728530        3.1500078477        0.8887381561
 C         -5.6501574017       -0.3420360887       -0.9137869219
 C         -0.8629791628       -2.7846175214        0.3074224529
 C          2.3386405972       -1.3619447496        0.7626574106
 C          4.7733251664        1.8482962962       -0.2434972727
 C          0.6774933638        2.8289221804        0.3726333399
 C         -2.5956205446        1.5974083011        0.9339346757
 C         -5.0924319973       -1.4333557896        0.0310711837
 O         -0.0887110918       -3.9511620115        0.5961802541
 O          3.3604990324       -0.6673766013        0.0344405683
 O          4.4429840014        2.9862807209       -1.0462492726
 O          0.0120184803        3.9393582775        0.9728953215
 O         -3.6131837596        1.0181893304        0.1119108473
 O         -4.8689417854       -2.6425379277       -0.6951199866
 C         -1.6066530590       -2.3127734109        1.5489932330
 C          2.2553921171       -0.9897247822        2.2270128081
 C          5.7666441287        2.2989464483        0.8196167507
 C          1.4521445580        2.0696614380        1.4368012960
 C         -2.6286972920        1.0544014639        2.3480190577
 C         -6.0169884161       -1.7135577974        1.2088275322
 O         -2.4863048528       -3.2891210932        2.0276693529
 O          0.9898954082       -0.7088524228        2.6372891821
 O          6.8524150894        2.9369682655        0.2128885412
 O          2.4109812018        2.8893639307        2.0432364961
 O         -1.4431879746        0.5621352059        2.7932537625
 O         -7.2161139462       -2.2894560112        0.7730383183
 H          1.3667164167       -5.1657581101       -0.1574021693
 H          4.8442438372       -1.0375065163        1.3349460721
 H          3.2000966991        3.6084187676       -2.5438938173
 H         -1.3933791067        5.3643089907        0.6139381836
 H         -5.0688280043        1.3033655448        1.4686091648
 H         -3.7299401224       -3.4272598140       -2.1896368823
 H         -0.6210834288       -5.4821297098       -1.6112313395
 H          5.7970902973       -3.0080357041        0.0112068708
 H          4.8976488232        2.0363517261       -3.5172211742
 H          0.5352403673        5.9207413811       -0.8304730904
 H         -6.0010248755        3.3859765772        0.2546181270
 H         -5.3409852045       -1.8083013828       -3.2404093909
 H          0.3753538799       -4.8913807493       -3.6934411458
 H          3.4885250967       -2.9808537082       -1.5536723420
 H          3.3349861339        0.5850561186       -4.5721436854
 H         -1.5499713905        6.4207620538       -1.7594113645
 H         -3.6525803018        3.3593510832       -1.2634272807
 H         -3.6639045937       -0.5409304325       -4.3837636738
 H         -0.2663836040       -2.5373967003       -2.3328008060
 H          3.7801131556       -4.5306008513        0.3815774484
 H          3.4364947829       -0.0442456804       -1.8420407582
 H          0.0349106988        3.2989887353       -2.3096458355
 H         -3.9553018808        4.8230875001        0.7726304039
 H         -3.6941893527        0.2177296270       -1.6732535519
 H         -2.2053222805       -2.8584667360       -3.5203101569
 H          3.9335327438       -2.6892943065        2.5227645600
 H          4.9545451863       -1.4591325406       -2.6636846766
 H          0.9385290392        5.1161964721       -3.4773348025
 H         -4.2394342710        2.8446925836        2.7746860815
 H         -5.1156477348        1.7527492105       -2.4712492715
 H         -2.4186460383       -3.9321564277       -0.6290769966
 H          1.7297896890       -3.3358594445        1.3616908021
 H          6.2804067654        1.0649017402       -1.5694192095
 H          2.3388305331        3.9796595620       -0.3947656820
 H         -1.9630802120        3.4852746525        1.7435063206
 H         -6.5972068054       -0.7094143906       -1.3351391007
 H         -0.1574688604       -2.0089234565       -0.0117979416
 H          1.4220475934       -0.9837634228        0.2888532059
 H          3.8404015004        1.4987653926        0.2169643353
 H         -0.0993814000        2.1875365048       -0.0613504472
 H         -1.6694958266        1.2294667336        0.4740638986
 H         -4.1060839422       -1.1013937448        0.3844629630
 H         -2.1974502878       -1.4170424495        1.3301644494
 H         -0.9015373501       -2.0511279739        2.3485665652
 H          5.2960169801        2.9965874604        1.5242007148
 H          6.1611857258        1.4568125532        1.3999995539
 H          1.9757462243        1.2141394980        1.0001209186
 H          0.7734446154        1.6842653642        2.2085894511
 H         -5.5414818717       -2.3956094938        1.9260125097
 H         -6.2722584201       -0.7892538256        1.7392765714
 H         -2.0107012506       -4.1174615375        2.2096839740
 H          6.5294213833        3.6320829839       -0.3887763905
 H          1.9911451457        3.6918561938        2.3985616029
 H         -7.0364510382       -3.0865514041        0.2457367156
 C         -1.5658769837        0.1473495970        4.1337683792
 H         -2.5030280720       -0.4144372781        4.2197286427
 H         -1.6557344163        1.0434433460        4.7577516795
 O         -3.6492404740        1.1051872250        2.9948581741
 C          0.9498667837       -0.4765143704        4.0252533118
 H          1.2905403704        0.5462775825        4.2154091165
 H          1.6595193409       -1.1674970972        4.4946212535
 O          3.2359990943       -1.0174161056        2.9335534621
 C         -0.4220433948       -0.7114055159        4.5943530971
 O         -0.6016117575       -1.5740520078        5.4106741135
 O          3.0647794864       -6.5744838028       -0.2173847154
 H          3.0811162589       -7.2482028700        0.4629486401
 H          3.3953493314       -6.9850724564       -1.0174011589
 O          5.5069192290        0.7276983544        3.2501478280
 H          4.7208160786        0.1536074337        3.1919404696
 H          5.7920639105        0.7089970106        4.1623388554
  136
        -21.27505257
 C          0.6725504969       -4.3617502875       -0.1362606585
 C          4.7224053216       -1.3218718830        0.3115352930
 C          3.5490578214        2.4731811491       -2.0263431743
 C         -0.7513298867        4.5691729543       -0.0017200160
 C         -4.8017664316        1.5605278539        0.3593025560
 C         -3.7179634623       -2.2890620789       -1.9730264041
 O          1.7248822483       -3.4855465538       -0.4813962472
 O          5.7949314141       -0.6543572520       -0.3418279866
 O          2.3141418644        2.0956205528       -1.4537003479
 O         -1.8194073467        3.7167565423       -0.3664095965
 O         -5.8736621753        0.9103910616       -0.3121795526
 O         -2.4972997830       -1.9027851070       -1.3695902082
 C         -0.0877054544       -4.8291273476       -1.4059479396
 C          4.8237700245       -2.8450162915        0.0334681284
 C          4.0170548688        1.3783871208       -3.0252657779
 C          0.0424238288        5.1170181911       -1.2203065063
 C         -4.8605220878        3.0833669277        0.0712248406
 C         -4.2091111818       -1.2062899939       -2.9749104359
 O          0.8372131312       -5.2504093688       -2.3867923342
 O          4.6474130788       -3.1357355722       -1.3394805763
 O          2.9554789330        1.0866155868       -3.9122503559
 O         -0.8011033556        5.7557846444       -2.1537486478
 O         -4.5137904185        3.3271465716       -1.2764962497
 O         -3.2544172397       -0.9648882320       -3.9874296902
 C         -0.9877251925       -3.7077676475       -1.9716733777
 C          3.7913269267       -3.6230094563        0.8853298548
 C          4.4602319171        0.1065513209       -2.2648555003
 C          0.8691531028        4.0032730554       -1.8959276259
 C         -3.8779499535        3.8401411974        1.0001762215
 C         -4.5072451818        0.0771700501       -2.1850570494
 O         -1.8272371965       -4.2189352549       -2.9892203657
 O          4.1607580611       -3.6694841102        2.2536790232
 O          5.0833574663       -0.8516570082       -3.1066607217
 O          1.7117873795        4.5412420642       -2.8964560066
 O         -4.2982726982        3.8421448464        2.3551761305
 O         -4.9701649363        1.1042127281       -3.0323864476
 C         -1.8172368305       -3.0376658155       -0.8502989456
 C          2.3754689698       -3.0179871494        0.6995365537
 C          5.4153251853        0.4761207383       -1.1074354358
 C          1.6881623398        3.2177708597       -0.8437423918
 C         -2.4596759294        3.2337124723        0.8239369410
 C         -5.5122757122       -0.2374570095       -1.0593379054
 C         -0.8873309217       -2.6470698316        0.3185327269
 C          2.3858980848       -1.4712081527        0.7839473256
 C          4.8238409989        1.6133469749       -0.2416949217
 C          0.7533071982        2.7869174517        0.3066747237
 C         -2.4777854419        1.6819339856        0.8973597487
 C         -4.9840948334       -1.4026798951       -0.1875951610
 O         -0.2146353215       -3.7976627777        0.8267673944
 O          3.4172845644       -0.8519073948        0.0104759392
 O          4.5439926373        2.7583417261       -1.0457879090
 O          0.1320605087        3.9216416471        0.9078433801
 O         -3.4939910757        1.0776967596        0.0890916432
 O         -4.7227119977       -2.5560148841       -0.9935620458
 C         -1.6339799089       -1.9648157042        1.4534604701
 C          2.3517388181       -0.9932083154        2.2186490152
 C          5.7273434548        1.9883575652        0.9324349761
 C          1.4692829918        2.0204714487        1.4017327709
 C         -2.4920780727        1.1714070289        2.3241820964
 C         -5.9283494678       -1.7526450515        0.9611513453
 O         -2.5747454228       -2.8360611422        2.0135005078
 O          1.1203136709       -0.5889839062        2.6279240411
 O          5.2254566824        3.0600942215        1.6875588778
 O          2.3383198076        2.8780992054        2.0813849293
 O         -1.2963569322        0.7032328857        2.7708348349
 O         -5.4857110114       -2.8535889375        1.7121239795
 H          1.1411900022       -5.2335601682        0.3460352049
 H          4.8579181511       -1.1174301296        1.3835335054
 H          3.3693750029        3.4146104920       -2.5699971328
 H         -1.2020524166        5.4143660315        0.5404494766
 H         -4.9641611828        1.3631126961        1.4284854388
 H         -3.5275496558       -3.2315852798       -2.5106005475
 H         -0.7205667605       -5.6997435968       -1.1773257268
 H          5.8403598686       -3.1821950019        0.2943003324
 H          4.8564591884        1.7420542566       -3.6346436182
 H          0.7442932094        5.8927644530       -0.8781162813
 H         -5.8925259760        3.4419591552        0.2051751133
 H         -5.1342429987       -1.5504132364       -3.4624706321
 H          1.6226734122       -4.6698884268       -2.3611109477
 H          4.8875287528       -2.3659651490       -1.9019477424
 H          2.1228583282        1.0493867127       -3.4040708731
 H         -1.5702191720        5.1945622006       -2.3522360599
 H         -3.5338475308        3.3723579078       -1.2954850829
 H         -3.4891256437       -0.1724400885       -4.4984746996
 H         -0.3574859948       -2.9318628805       -2.4307236431
 H          3.7744574009       -4.6652674190        0.5311734046
 H          3.5597389523       -0.3692032439       -1.8518104035
 H          0.1848491994        3.2994344658       -2.3897606809
 H         -3.8512209503        4.8961174478        0.6901600839
 H         -3.5519983774        0.4060345480       -1.7461541906
 H         -1.3101896104       -4.6925412440       -3.6604307270
 H          3.9753522905       -2.7889419778        2.6448817834
 H          4.7127509151       -0.8406598067       -4.0161661363
 H          1.2227668783        5.1509022581       -3.4722011246
 H         -4.1123618379        2.9563480707        2.7325919715
 H         -4.9966450971        1.9382495513       -2.5188069235
 H         -2.5802919510       -3.7346967591       -0.4767637541
 H          1.7675443298       -3.3739709807        1.5487061371
 H          6.3524094331        0.8354886735       -1.5573549072
 H          2.4860024832        3.8527682089       -0.4340548141
 H         -1.8509334834        3.5831828540        1.6736220886
 H         -6.4492521726       -0.5644236347       -1.5335104724
 H         -0.1236945425       -1.9770561995       -0.0914782926
 H          1.4729579495       -1.1009473570        0.3005828583
 H          3.8533059317        1.2741058366        0.1392857381
 H         -0.0365541302        2.1759492723       -0.1449727464
 H         -1.5550338123        1.3069383253        0.4394216175
 H         -4.0120567041       -1.1003796811        0.2217831897
 H         -2.1637048923       -1.0753776762        1.0988117123
 H         -0.9377760452       -1.6434570745        2.2398785518
 H          5.8926428383        1.1314981310        1.5973711915
 H          6.7066042142        2.3060284307        0.5578143451
 H          2.0446745333        1.1825440562        0.9987010993
 H          0.7453188333        1.6189880427        2.1231137075
 H         -6.0691809325       -0.8979205636        1.6345977132
 H         -6.9127897794       -2.0233390507        0.5637230817
 H         -2.1282618354       -3.6507741978        2.2994383318
 H          4.2579556099        2.9667540346        1.8477576514
 H          1.8451459601        3.6810519702        2.3347576274
 H         -4.5092546391       -2.8299701741        1.8385098272
 C         -1.3932471302        0.3489211035        4.1311748601
 H         -2.3034994303       -0.2497491105        4.2498412628
 H         -1.5242818273        1.2702910771        4.7094031470
 O         -3.5056406200        1.2326618814        2.9805271931
 C          1.1359173687       -0.2335643379        3.9905527667
 H          1.4763306085        0.8036785886        4.0774561832
 H          1.8743378320       -0.8708816233        4.4894948134
 O          3.3465663852       -1.0386739541        2.9048595846
 C         -0.2086983714       -0.4283734236        4.6350045541
 O         -0.3351624519       -1.1949203632        5.5505933326
 O         -0.1510423296       -3.9888923045        6.3848721280
 H          0.7623864012       -4.2397798709        6.2450052257
 H         -0.2299082999       -3.0512514415        6.1357187363
 O          3.9407343100       -0.7461134754       -5.8268768109
 H          3.4715069589       -0.0297443943       -5.3667285632
 H          3.4298697734       -0.9661049311       -6.6012813690
  136
        -21.27498493
 C          0.7274289856       -4.4925712812       -0.5758217597
 C          4.7673690272       -1.6334509974        0.3115062390
 C          3.8790556374        2.4340845572       -1.7389963019
 C         -0.4765532623        4.4871511620        0.1622143107
 C         -4.6354979238        1.5776192380        0.2429293915
 C         -3.7934894894       -2.3715351010       -1.9535602886
 O          1.7775760374       -3.5613315423       -0.7431203242
 O          5.8827983556       -0.9402430267       -0.2329290905
 O          2.6117079160        2.0376555351       -1.2492688254
 O         -1.5240425396        3.6601589756       -0.3101630913
 O         -5.7413129134        0.9966817527       -0.4297034644
 O         -2.5358047363       -1.9708220152       -1.4234482077
 C         -0.0471217535       -4.7541037737       -1.9040551599
 C          4.8027709881       -3.1205233537       -0.1314605778
 C          4.4193414553        1.4299003867       -2.7967239131
 C          0.3913296486        5.0874454614       -0.9806458037
 C         -4.6224682391        3.1062513729       -0.0014988439
 C         -4.2560197373       -1.3288480776       -3.0066788741
 O          0.8314901242       -5.1195654571       -2.9476090672
 O          4.5260787049       -3.2313926784       -1.5147486195
 O          3.5294155615        1.2945312635       -3.8849528950
 O         -0.3775594723        5.7517071718       -1.9656050681
 O         -4.2396268579        3.3693823297       -1.3396804178
 O         -3.2909118451       -1.2211241934       -4.0358759957
 C         -0.8613625791       -3.5024490873       -2.2838873677
 C          3.7651678053       -3.9366727741        0.6788494647
 C          4.6537833372        0.0765310957       -2.1081151961
 C          1.2261637979        3.9832715136       -1.6585878694
 C         -3.6321654738        3.7710769622        0.9865278299
 C         -4.4531779090        0.0042285654       -2.2665566187
 O         -1.6045087106       -3.6979004815       -3.4690624710
 O          4.1374018416       -4.0914800084        2.0390953958
 O          5.1722643761       -0.8749025172       -3.0101021715
 O          2.1186446858        4.5497142840       -2.5966058333
 O         -4.0774987934        3.6911519944        2.3322094313
 O         -4.8528535880        1.0514897262       -3.1214091389
 C         -1.7457729766       -3.0980784738       -1.0857712690
 C          2.3730087824       -3.2669810511        0.5239724218
 C          5.5738196010        0.2762235171       -0.8871113668
 C          1.9787559083        3.1353453325       -0.6060219685
 C         -2.2346179426        3.1201686367        0.8087364315
 C         -5.4447503129       -0.2077787609       -1.1031272245
 C         -0.8235684042       -2.8591991604        0.1266001427
 C          2.4301417627       -1.7356831629        0.7690826278
 C          4.9679523553        1.3546164623        0.0406537159
 C          0.9938043761        2.6731203973        0.4906997157
 C         -2.3086315436        1.5693153961        0.7732998259
 C         -4.9293480190       -1.3364690461       -0.1786542268
 O         -0.1632922720       -4.0804038002        0.4638158192
 O          3.4842348753       -1.0830215073        0.0530146792
 O          4.8122107242        2.5853727205       -0.6698692967
 O          0.3513456168        3.7943921016        1.0980639211
 O         -3.3524795771        1.0478958451       -0.0559301273
 O         -4.7669034743       -2.5421841210       -0.9251076435
 C         -1.5373591662       -2.2810368781        1.3383295164
 C          2.4161230160       -1.3822103176        2.2416119360
 C          5.7900413877        1.5823955175        1.3012305730
 C          1.6630647312        1.8041206703        1.5479510460
 C         -2.3228448221        0.9845417612        2.1693292324
 C         -5.8384385309       -1.5750615744        1.0207460136
 O         -2.5091307745       -3.1554730528        1.8356028108
 O          1.2158918712       -0.9411735766        2.7030015931
 O          7.0295289019        2.1573710407        0.9993184384
 O          2.7488422590        2.4521873814        2.1521019614
 O         -1.1110294941        0.5330418887        2.5894031894
 O         -7.1229211848       -1.9676763788        0.6258081801
 H          1.1962748840       -5.4304298775       -0.2409305801
 H          4.8914070655       -1.5591555181        1.4017064143
 H          3.7499116606        3.4247210640       -2.2032763889
 H         -0.9593054541        5.3056764538        0.7160922195
 H         -4.7949509168        1.3596686120        1.3081925871
 H         -3.6673524108       -3.3510665309       -2.4372125230
 H         -0.7451371357       -5.5928852908       -1.7557898289
 H          5.8186330779       -3.5171409892        0.0191540271
 H          5.3774529799        1.7976910105       -3.1948505167
 H          1.0981377482        5.8193876680       -0.5596059028
 H         -5.6406567835        3.5051934849        0.1237279280
 H         -5.2083986810       -1.6430357857       -3.4591901341
 H          0.3685629815       -5.1104110264       -3.8019865285
 H          3.5536032704       -3.3119618819       -1.6021991298
 H          3.7862045949        0.5425022956       -4.4442643064
 H         -0.9028023804        6.4785654382       -1.5921712371
 H         -3.2620317166        3.4333122766       -1.3453754387
 H         -3.4719680861       -0.4446811036       -4.5881703481
 H         -0.1438285977       -2.6922625156       -2.4853467652
 H          3.7179318090       -4.9531074000        0.2587653206
 H          3.6685531238       -0.2809480912       -1.7690465329
 H          0.5503099444        3.3170842038       -2.2161748405
 H         -3.5623545991        4.8430590720        0.7489044281
 H         -3.4663551700        0.2739021129       -1.8572901833
 H         -2.0867006545       -2.8742479653       -3.7127010242
 H          3.9710849292       -3.2408430265        2.4982786366
 H          5.1345366440       -1.7549269134       -2.5808657405
 H          1.6440243949        5.1398323779       -3.2036016414
 H         -3.9136852064        2.7780671804        2.6537565638
 H         -4.8076679890        1.8936899793       -2.6194174754
 H         -2.4302455379       -3.9176265464       -0.8256643342
 H          1.7162548140       -3.6976248192        1.2972142225
 H          6.5441831011        0.6472796725       -1.2480490381
 H          2.7686424513        3.7344316248       -0.1308979955
 H         -1.6484214764        3.3803996854        1.7049587001
 H         -6.4070210772       -0.5315846819       -1.5260757786
 H         -0.0444963743       -2.1634754115       -0.2058736318
 H          1.5291235736       -1.2908089187        0.3272889990
 H          3.9531400137        1.0292403298        0.3062086180
 H          0.2074358155        2.1023164091       -0.0170209597
 H         -1.4031084599        1.1952927824        0.2792478854
 H         -3.9216263275       -1.0572543885        0.1597701789
 H         -2.0391638121       -1.3423046783        1.0820443753
 H         -0.8179987087       -2.0610741407        2.1373198745
 H          5.2549087856        2.2444341730        1.9937925888
 H          5.9855943531        0.6370695103        1.8201836763
 H          2.0481764285        0.8861896985        1.0932831708
 H          0.9433315727        1.5045704669        2.3214727231
 H         -5.4153086814       -2.3428019206        1.6818813424
 H         -5.9544051659       -0.6567611016        1.6075549253
 H         -2.1217002593       -4.0294645311        2.0141959736
 H          6.9091493749        2.9745293587        0.4863105779
 H          2.4433336609        3.1746236473        2.7481646985
 H         -7.1107962646       -2.8450950864        0.1782830913
 C         -1.1758711114        0.1089509044        3.9305677155
 H         -1.6040475092       -0.8985988417        3.9580925058
 H         -1.8649959400        0.7829498392        4.4534225222
 O         -3.3386657334        0.9954768815        2.8257915841
 C          1.2944060505       -0.6897389003        4.0872331793
 H          2.2483427492       -0.1829475597        4.2739025507
 H          1.3242797895       -1.6546870720        4.6043500714
 O          3.4116209138       -1.5296835340        2.9123787207
 C          0.1666805554        0.1579191524        4.6071959376
 O          0.3353632580        0.8640303051        5.5643146404
 O         -7.1831749938       -4.5862787843       -0.6326418534
 H         -7.6386311901       -4.8050955179       -1.4438132440
 H         -6.8579926034       -5.4077432431       -0.2676339661
 O          1.9522667980        4.4518463703        4.0708752504
 H          2.4897553897        4.6152421708        4.8442467967
 H          1.1631844933        4.9837648335        4.1696308290
  136
        -21.27495713
 C          0.7001007111       -4.4017766550       -0.3673838878
 C          4.7998060060       -1.5200117822        0.0774824216
 C          3.8262943108        2.5513805400       -1.8382928445
 C         -0.8215591606        4.4944713005       -0.5666296992
 C         -4.7523230680        1.5417515420        0.5221931187
 C         -4.0215352989       -2.5541577352       -1.4096827144
 O          1.7064945433       -3.4612279169       -0.6787204458
 O          5.8910065480       -0.8599373209       -0.5459550384
 O          2.5577806492        2.1215947337       -1.3570025981
 O         -1.7947140105        3.4786992657       -0.6963707174
 O         -5.9133597887        0.8701161240        0.0554721533
 O         -2.7338370445       -2.0627510202       -1.0616526503
 C         -0.1728119306       -4.7663549333       -1.6068334152
 C          4.7888252509       -3.0180640543       -0.3178315111
 C          4.3213877876        1.5878259971       -2.9512162594
 C         -0.0827034998        4.7535491711       -1.9109304947
 C         -4.7989562010        3.0273758178        0.0843431760
 C         -4.6414305663       -1.6255245755       -2.4857795730
 O          0.6296828201       -5.1621145511       -2.6993150469
 O          4.4136071466       -3.1571640106       -1.6761749926
 O          3.3648361593        1.5024967193       -3.9897635804
 O         -0.9932133669        5.0250483411       -2.9557791950
 O         -4.6001501045        3.1296382970       -1.3139466228
 O         -3.7976770644       -1.5661611340       -3.6200253886
 C         -1.0646782519       -3.5684314211       -1.9851378847
 C          3.7980855740       -3.7871272918        0.5917454245
 C          4.5671909160        0.2162999536       -2.3063495760
 C          0.7989464281        3.5377986285       -2.2517169661
 C         -3.7073599637        3.8211023287        0.8428434608
 C         -4.8187566204       -0.2404270286       -1.8426222131
 O         -1.9030142514       -3.8673291844       -3.0806419559
 O          4.2619440108       -3.8994630253        1.9279277313
 O          5.0030334207       -0.7453877677       -3.2403025182
 O          1.5217527929        3.7610459402       -3.4439953224
 O         -3.9885470241        3.9287859315        2.2304828310
 O         -5.3671963868        0.6987568813       -2.7395376311
 C         -1.8526310337       -3.1236567913       -0.7362616127
 C          2.4062949198       -3.1011371524        0.5137342816
 C          5.5577982423        0.3806872781       -1.1362287444
 C          1.7214608160        3.2303686319       -1.0553384933
 C         -2.3314730570        3.1511668850        0.5844071179
 C         -5.6624760426       -0.3783918837       -0.5578160168
 C         -0.8369683500       -2.7665160366        0.3679610936
 C          2.4913324041       -1.5581356597        0.6647480833
 C          5.0003972171        1.4196357448       -0.1315256123
 C          0.8714289026        3.0226082292        0.2153587674
 C         -2.3777740289        1.6137113136        0.7818837751
 C         -5.0123724502       -1.4155430828        0.3926320766
 O         -0.1077919754       -3.9434136997        0.7202668123
 O          3.5111178120       -0.9665778641       -0.1439234170
 O          4.7792693010        2.6739035173       -0.7821970342
 O          0.1124566448        4.2060300858        0.4784325164
 O         -3.5000279113        0.9790846442        0.1588965404
 O         -4.8716636188       -2.6720140614       -0.2689785072
 C         -1.4744950957       -2.1408451135        1.5985401944
 C          2.5786482073       -1.1087153796        2.1077291154
 C          5.8887074119        1.6140451456        1.0983400015
 C          1.7347724939        2.6756343841        1.4206254816
 C         -2.2124414488        1.2333750596        2.2362894445
 C         -5.7670136541       -1.5857162070        1.7103257742
 O         -2.3511727057       -3.0324133964        2.2257236348
 O          1.4586275118       -0.5058224446        2.5840629577
 O          5.2196862173        2.2418118241        2.1686899672
 O          2.7101227607        3.6583871952        1.6374367094
 O         -0.9489445530        0.8516766639        2.5605846168
 O         -5.2607183242       -2.6329015567        2.5008863734
 H          1.2200506722       -5.3063424031       -0.0165810272
 H          4.9758656310       -1.4091358821        1.1572610280
 H          3.7054824044        3.5546637109       -2.2724351034
 H         -1.3616744870        5.4054284395       -0.2671561242
 H         -4.7923619234        1.4634398377        1.6180253679
 H         -3.9027748504       -3.5659842598       -1.8264696078
 H         -0.8230554938       -5.6184666655       -1.3534703016
 H          5.8075118190       -3.4252868216       -0.2265634454
 H          5.2614781697        1.9620310331       -3.3840830837
 H          0.5657110308        5.6374808466       -1.8046138807
 H         -5.8003401758        3.4348460008        0.2922230379
 H         -5.6200225230       -2.0170522389       -2.8026042144
 H          0.0966509101       -5.2300732430       -3.5088708940
 H          3.4366826678       -3.2302096754       -1.6949044641
 H          3.5774409190        0.7662340927       -4.5838852074
 H         -0.5418712457        5.0029001442       -3.8159039881
 H         -3.6343678714        3.2069409159       -1.4593972605
 H         -4.0851479606       -0.8592888198       -4.2186970294
 H         -0.4026779755       -2.7478376311       -2.3021959110
 H          3.7076516306       -4.8168949223        0.2132448351
 H          3.5930198307       -0.1193955172       -1.9157242312
 H          0.1356795990        2.6765823341       -2.4249567262
 H         -3.6859461121        4.8498584622        0.4521409644
 H         -3.8070718189        0.1059916110       -1.5766007790
 H         -2.4657528639       -3.0911924341       -3.3069317138
 H          4.1210512173       -3.0356038628        2.3703511272
 H          4.9793437996       -1.6249096831       -2.8070747618
 H          2.0844028344        2.9830296108       -3.6616424248
 H         -3.7683343547        3.0715165540        2.6550287179
 H         -5.2909954533        1.5890000881       -2.3352192006
 H         -2.4633751701       -3.9572665395       -0.3621045744
 H          1.8116411696       -3.4776973758        1.3619646822
 H          6.5043691758        0.7645224942       -1.5434022933
 H          2.3736197371        4.0935621713       -0.8631910816
 H         -1.6325866814        3.5550628876        1.3350895425
 H         -6.6547163839       -0.7533620533       -0.8480525957
 H         -0.1144625066       -2.0665653033       -0.0697785433
 H          1.5704084715       -1.1259358447        0.2495837565
 H          4.0110494620        1.0679101997        0.1908202018
 H          0.1552629196        2.2155501635        0.0205698221
 H         -1.5268550430        1.1835115878        0.2348068460
 H         -3.9881658209       -1.0805690536        0.6022009687
 H         -2.0441116807       -1.2456479303        1.3295602902
 H         -0.7050461838       -1.8342996625        2.3185323271
 H          6.2589795455        0.6497865227        1.4660885364
 H          6.7603160563        2.2249029905        0.8361731179
 H          2.2537743828        1.7236067928        1.2681258170
 H          1.1222996436        2.5685047126        2.3251682438
 H         -5.7540676439       -0.6611804256        2.3008292884
 H         -6.8156639284       -1.8304484758        1.5079176325
 H         -1.8830170991       -3.8573157207        2.4369731323
 H          4.4745707480        2.8056640293        1.8574234227
 H          2.2915536543        4.5199495500        1.7972171021
 H         -4.2856147632       -2.7338107841        2.4005079775
 C         -0.8335701962        0.6113444090        3.9428649650
 H         -1.1948824221       -0.4010107562        4.1514761319
 H         -1.4915380691        1.3220328155        4.4575872490
 O         -3.1402410434        1.3346024811        3.0050579836
 C          1.6545614483       -0.1169560946        3.9216072112
 H          2.6283257087        0.3853467253        3.9645538904
 H          1.7191167501       -1.0212887582        4.5361073918
 O          3.5858367777       -1.3148165971        2.7441162319
 C          0.5779364015        0.8045622992        4.4242594448
 O          0.8349016365        1.6870868398        5.1971264952
 O          4.2782790690        1.2832141068        4.8147189733
 H          4.9858509081        1.3109762587        5.4570515595
 H          4.6407213975        1.6208814192        3.9799968846
 O         -5.1609612133       -5.1142724323       -2.6023061509
 H         -5.6606847630       -5.6408060135       -1.9771107813
 H         -5.2402860773       -5.5460218089       -3.4529995828
  136
        -21.27479896
 C          0.7935134599       -4.3740761154       -0.5896588905
 C          4.7958755273       -1.5484334680        0.2931612286
 C          4.3028070166        2.4108756373       -1.8954689110
 C         -0.4207584197        4.3791752344       -0.8470456462
 C         -4.3765523141        1.6881279087        0.6902307415
 C         -4.0305512282       -2.4463931310       -1.2083326404
 O          1.6595641811       -3.2651949266       -0.7199991575
 O          6.0022336288       -1.0272345665       -0.2503292152
 O          3.0062343741        2.0317140069       -1.4391770006
 O         -1.3365564176        3.3041877807       -0.8490644353
 O         -5.6251511741        1.0844936282        0.3732855859
 O         -2.6825055733       -2.0657162798       -0.9521954634
 C         -0.0324671873       -4.5758735718       -1.8909882423
 C          4.6978909433       -3.0629917778       -0.0170805210
 C          4.8134403737        1.3671707900       -2.9255466203
 C          0.2456297833        4.4890252583       -2.2470316295
 C         -4.3576385667        3.1604475163        0.2104514059
 C         -4.6757486764       -1.4856340850       -2.2436772308
 O          0.8064618995       -4.7289202000       -3.0160710161
 O          4.4719071284       -3.2639632052       -1.4003854071
 O          3.9204255584        1.2740070093       -4.0184266217
 O         -0.7586599452        4.5159657225       -3.2393127922
 O         -4.3696362281        3.2432772216       -1.2028729730
 O         -3.8870798754       -1.4400428767       -3.4184867735
 C         -0.9824278708       -3.3776112593       -2.0710367272
 C          3.5509042922       -3.6884337738        0.8139008640
 C          4.9350442245        0.0230010002       -2.1945229139
 C          1.2204914677        3.3081906816       -2.4683708479
 C         -3.1118289388        3.8792899494        0.7835335992
 C         -4.8062102834       -0.0900020114       -1.6130070883
 O         -1.7886410574       -3.5497403087       -3.2177621568
 O          3.8555991338       -3.7433898842        2.1996381477
 O          5.3746840257       -1.0120205398       -3.0450241775
 O          1.9632610159        3.4755781997       -3.6594951955
 O         -3.2385287309        4.1356702203        2.1796610601
 O         -5.4412412081        0.8268483944       -2.4770127106
 C         -1.8295368656       -3.1979495518       -0.7962271717
 C          2.2385250731       -2.9057829743        0.5304900896
 C          5.8476033923        0.1866556543       -0.9612062010
 C          2.1548939196        3.1559978563       -1.2494973632
 C         -1.8280327790        3.0650808586        0.4642663071
 C         -5.5205138075       -0.1837848505       -0.2477994574
 C         -0.9270256711       -3.1071879683        0.4552438806
 C          2.4302220092       -1.3640039917        0.5832091630
 C          5.3356596765        1.3420933058       -0.0659375398
 C          1.3270080672        3.0705520901        0.0503784668
 C         -2.0014140836        1.5463126052        0.7395714162
 C         -4.8362155372       -1.2445969056        0.6500894961
 O         -0.0778076904       -4.2561881321        0.5355049781
 O          3.5942649849       -0.9056697301       -0.1074832018
 O          5.2212015902        2.5562076148       -0.8125009012
 O          0.5516515422        4.2611787010        0.1898876108
 O         -3.2184560604        1.0208282083        0.2089356392
 O         -4.7989773138       -2.5114005919       -0.0086980809
 C         -1.7624753582       -3.0148699533        1.7263646562
 C          2.3296188004       -0.7923697646        1.9809036611
 C          6.2164899283        1.5635858630        1.1637264230
 C          2.2013575177        2.8793194420        1.2826486237
 C         -1.8377551162        1.1888038572        2.2056187190
 C         -5.5110780594       -1.3981355842        2.0110495442
 O         -2.7195738379       -4.0364692012        1.7878422820
 O          1.2939704895        0.0818696571        2.1604448449
 O          5.6168680751        2.3767330542        2.1461423650
 O          3.2109076488        3.8490812922        1.3483613341
 O         -2.0392496608       -0.1187781760        2.5150170380
 O         -4.7598519044       -2.1819028198        2.9063116574
 H          1.4262578199       -5.2563745852       -0.4144928937
 H          4.8610172177       -1.3850498680        1.3789475054
 H          4.2263842050        3.3897326611       -2.3905468894
 H         -0.9966491970        5.2926909656       -0.6379835443
 H         -4.2994230598        1.6605597175        1.7872649733
 H         -4.0271849381       -3.4590481251       -1.6378910783
 H         -0.6350461973       -5.4933210029       -1.8018107060
 H          5.6605030048       -3.5425407296        0.2182891095
 H          5.7997604088        1.6666343536       -3.3109160303
 H          0.8079630650        5.4296711484       -2.3448865356
 H         -5.2718947690        3.6625859916        0.5659637118
 H         -5.6742016743       -1.8555628301       -2.5183472629
 H          0.2885559380       -4.6697640129       -3.8359616536
 H          3.5015634657       -3.2487146564       -1.5379176675
 H          4.1394909882        0.5042925730       -4.5661903045
 H         -1.4658083897        3.8863024011       -2.9984003051
 H         -4.7824290609        2.4456339038       -1.6042588709
 H         -4.1715008135       -0.7106230256       -3.9917077532
 H         -0.3704895686       -2.4767513069       -2.2298086958
 H          3.4230908593       -4.7329248132        0.4923614066
 H          3.9156805133       -0.2319459117       -1.8645601465
 H          0.6260888026        2.3893075573       -2.5796606238
 H         -3.0384735984        4.8611964686        0.2913234991
 H         -3.7851606722        0.2902324937       -1.4662008811
 H         -2.4418774946       -2.8180678506       -3.3022402985
 H          3.6566048974       -2.8638907639        2.5858405873
 H          5.2578406403       -1.8639198369       -2.5739910998
 H          2.5709556013        2.7136454243       -3.8054957127
 H         -2.6960580503        3.4752824373        2.6624189234
 H         -6.3962219612        0.6062744985       -2.5492555270
 H         -2.4646449791       -4.0837855228       -0.6630144211
 H          1.5163531085       -3.1788272710        1.3158753680
 H          6.8564788361        0.4407899048       -1.3167646476
 H          2.7899240704        4.0481235794       -1.1670560981
 H         -1.0435103240        3.4178898857        1.1539539386
 H         -6.5567886378       -0.5053143243       -0.4255237672
 H         -0.2794504093       -2.2249820188        0.3609192992
 H          1.6063625810       -0.9251314106       -0.0013481320
 H          4.3175098385        1.0851260166        0.2547716885
 H          0.6202311217        2.2345341692       -0.0417778384
 H         -1.2207946324        1.0117994791        0.1787890644
 H         -3.7885395120       -0.9442371950        0.7937663283
 H         -2.2996843060       -2.0633782449        1.7706450537
 H         -1.1305323801       -3.0731491752        2.6215857983
 H          6.4650561314        0.6076383135        1.6406224239
 H          7.1580138956        2.0381886325        0.8641561691
 H          2.6833491446        1.8973081974        1.2728516886
 H          1.5967967690        2.9300678597        2.1967097843
 H         -5.6683686774       -0.4205802905        2.4820122289
 H         -6.4933386801       -1.8687970953        1.8886189839
 H         -2.2899758807       -4.9078489811        1.7944058330
 H          4.8842867651        2.9278245560        1.7858126450
 H          2.8232469524        4.7394836707        1.3705025906
 H         -4.2346467559       -2.8730714363        2.4422160490
 C         -1.5823739309       -0.3851356865        3.8255742231
 H         -2.2355417099       -1.1476614050        4.2635050214
 H         -1.6705283980        0.5311026764        4.4219241533
 O         -1.5316040955        2.0484885974        3.0012746522
 C          0.9195953812        0.1446518743        3.5213026020
 H          0.5576198010        1.1567390437        3.7290747387
 H          1.8032863191       -0.0509162566        4.1396300440
 O          3.1149900872       -1.1397089000        2.8319989327
 C         -0.1569589516       -0.8652990312        3.7946372463
 O          0.1035016894       -2.0312132725        3.8903530286
 O         -0.6750084769        1.1921025313        6.2156279475
 H         -0.7666622856        2.1207748908        6.4312834057
 H         -0.5605459891        0.7278795249        7.0448272511
 O         -8.2357110471        0.1004946147       -2.5489779639
 H         -8.8955385746        0.6997611494       -2.2040861211
 H         -8.7013634109       -0.5181782183       -3.1094594900
  136
        -21.27476605
 C          0.6702664672       -4.2398998249       -0.3738439632
 C          4.7439094493       -1.4136719246        0.4082975794
 C          4.0193215923        2.6281446026       -1.6223614309
 C         -0.6412986666        4.5936005807       -0.5073667043
 C         -4.7516981572        1.7275402953        0.0660852305
 C         -3.8981312665       -2.3381285774       -1.8796276384
 O          1.6910052872       -3.2892808129       -0.5922061166
 O          5.8953932405       -0.7977872030       -0.1475970464
 O          2.7414078325        2.1803383285       -1.1826493488
 O         -1.6503843369        3.6464539877       -0.7911343736
 O         -5.8679283815        1.0904010759       -0.5376556343
 O         -2.6549252051       -1.8669228228       -1.3732067863
 C         -0.0874902317       -4.5998965386       -1.6873492184
 C          4.7256923235       -2.9168422092        0.0343977345
 C          4.5590610219        1.6487681227       -2.6981757986
 C          0.2250746047        4.9198912683       -1.7602823146
 C         -4.7261812520        3.2229708736       -0.3387956188
 C         -4.3799158911       -1.3720638034       -2.9935731424
 O          0.8090534949       -5.0020678895       -2.7014545539
 O          4.4635579902       -3.0692299991       -1.3490458764
 O          3.6604309636        1.5789891562       -3.7887350917
 O         -0.5799748664        5.3031848470       -2.8552860965
 O         -4.3761574217        3.3513703441       -1.7049317092
 O         -3.4180145423       -1.3127509990       -4.0297114370
 C         -0.9296008577       -3.3935308136       -2.1440999899
 C          3.6447072071       -3.6464865040        0.8691378171
 C          4.7336648626        0.2807922936       -2.0200742146
 C          1.0933884657        3.6988396468       -2.1165656816
 C         -3.7072758621        3.9790890510        0.5481935769
 C         -4.5955029131        0.0019019689       -2.3371715665
 O         -1.6649820135       -3.6829712548       -3.3146129844
 O          3.9868012448       -3.7373896803        2.2441162582
 O          5.2108869865       -0.7021534339       -2.9104275777
 O          1.9153730673        3.9581298095       -3.2350392334
 O         -4.1283727612        4.0618416197        1.9013183080
 O         -5.0248539417        0.9747761455       -3.2623925190
 C         -1.8260949047       -2.9428710172       -0.9723666894
 C          2.2828367860       -2.9336462092        0.6577302629
 C          5.6473483344        0.4373100130       -0.7861507904
 C          1.8962686194        3.2740852971       -0.8688962003
 C         -2.3236826778        3.2890984340        0.4166474696
 C         -5.5766951535       -0.1474899036       -1.1543891907
 C         -0.9185139697       -2.6032288756        0.2272904659
 C          2.3919891793       -1.3932253901        0.8101000821
 C          5.0739470535        1.5206444941        0.1592600196
 C          0.8992481789        2.9740326488        0.2704026911
 C         -2.4160380540        1.7485796799        0.5727740486
 C         -5.0551372161       -1.2243893607       -0.1694349992
 O         -0.2335067274       -3.7874407544        0.6373319641
 O          3.4900972247       -0.8290918671        0.0874038895
 O          4.9345540482        2.7587459043       -0.5368425657
 O          0.1774699503        4.1662795262        0.5854760313
 O         -3.4783076779        1.1484189396       -0.1768880446
 O         -4.8739827872       -2.4667726064       -0.8473987550
 C         -1.6690578878       -1.9851158485        1.3961360397
 C          2.3673997774       -0.9521847918        2.2578323506
 C          5.9357183719        1.7309081151        1.3979781052
 C          1.5589121488        2.4018763085        1.5169630580
 C         -2.4090533153        1.3355397531        2.0279900868
 C         -5.9432541924       -1.4139176757        1.0585688574
 O         -2.6142781794       -2.8725504268        1.9218446545
 O          1.1801006500       -0.4384024772        2.6726541399
 O          7.1732433689        2.2867957830        1.0533832543
 O          2.4645529232        3.3042398505        2.0835602271
 O         -1.1934977444        0.9220539908        2.4744844287
 O         -5.5403803939       -2.5036525884        1.8516561860
 H          1.1625505357       -5.1427558963        0.0185288200
 H          4.8470713354       -1.2879774839        1.4955445203
 H          3.9027855649        3.6292314849       -2.0618433203
 H         -1.1585972617        5.5077008702       -0.1780747916
 H         -4.9089001996        1.6248668688        1.1492342367
 H         -3.7436987906       -3.3419859187       -2.3009281953
 H         -0.7645852309       -5.4468207709       -1.4940826517
 H          5.7229256532       -3.3468185684        0.2155490859
 H          5.5313869769        1.9983318476       -3.0767793776
 H          0.8899502650        5.7673848599       -1.5305015399
 H         -5.7371252463        3.6453495026       -0.2301160258
 H         -5.3280144833       -1.7289735899       -3.4232909273
 H          0.3520200301       -5.0670962595       -3.5562578243
 H          3.4908087868       -3.1265952942       -1.4507582494
 H          3.8900918830        0.8367687039       -4.3686468768
 H         -0.0545752537        5.3381172598       -3.6718545285
 H         -3.3996302891        3.4199583756       -1.7432778776
 H         -3.6128839491       -0.5781372797       -4.6316990229
 H         -0.2323796070       -2.5793004604       -2.3953071640
 H          3.5628253159       -4.6798560066        0.5000577087
 H          3.7286812847       -0.0294604502       -1.6909130156
 H          0.4131498950        2.8804247885       -2.3989723259
 H         -3.6277091558        5.0156916124        0.1864357297
 H         -3.6111562310        0.3179168643       -1.9551702351
 H         -2.1699617685       -2.8908021355       -3.6100672410
 H          3.8466241917       -2.8552269391        2.6479447548
 H          5.1396300939       -1.5754253053       -2.4700338692
 H          2.4307962049        3.1552890737       -3.4794503289
 H         -3.9703291287        3.1911477030        2.3262342104
 H         -4.9772217457        1.8525474916       -2.8278762977
 H         -2.4837384524       -3.7672248266       -0.6628194858
 H          1.6028032136       -3.2910844732        1.4483817654
 H          6.6367572379        0.7718608579       -1.1306133923
 H          2.5386597049        4.1002553593       -0.5334970059
 H         -1.7014866844        3.6598380930        1.2479436684
 H         -6.5395189983       -0.4907978024       -1.5600479251
 H         -0.1524730635       -1.9039623102       -0.1308833811
 H          1.5181013057       -0.9426122511        0.3194182883
 H          4.0572261439        1.2148380885        0.4431915286
 H          0.1675710826        2.2561077203       -0.1197191668
 H         -1.5216860182        1.3107881290        0.1086667736
 H         -4.0506692429       -0.9213303021        0.1539208691
 H         -2.2001571742       -1.0809192646        1.0823538402
 H         -0.9713666377       -1.6949781788        2.1921248266
 H          5.4380212072        2.4001259563        2.1124357739
 H          6.1355671193        0.7805620730        1.9061088573
 H          2.1138009081        1.4889222487        1.2767713091
 H          0.8056812153        2.1373496172        2.2708548508
 H         -5.9648082288       -0.5114736677        1.6823097232
 H         -6.9717872714       -1.6173990597        0.7416686634
 H         -2.1782538813       -3.7018474422        2.1796206566
 H          7.0487056206        3.1125744427        0.5554476645
 H          2.0251462845        4.1463032482        2.2907306318
 H         -4.5587938317       -2.5835008648        1.8774485536
 C         -1.2320546011        0.6509971743        3.8556439140
 H         -1.6521404918       -0.3495004683        4.0021681955
 H         -1.9146116600        1.3771200235        4.3135525764
 O         -3.4099839640        1.4398832296        2.6984017702
 C          1.2403653485       -0.1229002840        4.0442722381
 H          2.2030464762        0.3693333338        4.2258974301
 H          1.2337698377       -1.0622547921        4.6075054706
 O          3.3462685284       -1.0992772022        2.9524951613
 C          0.1240690199        0.7785919762        4.4928305615
 O          0.3132529610        1.5919472396        5.3561838251
 O         -7.4349217950       -4.5590014508        2.8421664939
 H         -7.3010549349       -5.3256130329        2.2856916969
 H         -6.8065958633       -3.8791606728        2.5420759526
 O          4.2893578935       -6.4170270001        3.3666701960
 H          5.1402200891       -6.7117963041        3.0439402562
 H          4.1694734410       -5.5069517568        3.0449335842
  136
        -21.27471846
 C          0.6926359477       -4.2477748028       -0.2903632152
 C          4.8013575437       -1.2841376100        0.2100243762
 C          3.6921378347        2.6678162758       -1.7874128094
 C         -0.8495456319        4.4935550917       -0.1612742634
 C         -4.8821362232        1.5420770895        0.5834674832
 C         -3.9374248545       -2.3684568068       -1.5757892321
 O          1.7342252324       -3.3568341716       -0.6309189360
 O          5.8838216522       -0.6055655686       -0.4115055577
 O          2.4820834101        2.1576488467       -1.2457332564
 O         -1.8788494724        3.5587901499       -0.3988686212
 O         -6.0106897542        0.8873888375        0.0163316362
 O         -2.6957179417       -1.8767619879       -1.0957548098
 C         -0.1365721237       -4.6095441132       -1.5568305717
 C          4.8699021206       -2.7891857059       -0.1532953404
 C          4.2061007449        1.7134042146       -2.8979821588
 C         -0.1440314215        4.8564498794       -1.4999449255
 C         -4.9355784462        3.0522024082        0.2337547302
 C         -4.5099806092       -1.3816236405       -2.6285822442
 O          0.7269970006       -4.9620172587       -2.6169432196
 O          4.6684646067       -2.9862585580       -1.5395814102
 O          3.2064942851        1.5584062100       -3.8907837355
 O         -1.1100976309        5.1728561089       -2.4804353260
 O         -4.7539833478        3.2728230078       -1.1534572944
 O         -3.5745228297       -1.2070724267       -3.6806444507
 C         -1.0289709858       -3.4200652128       -1.9673588655
 C          3.8343802023       -3.5878672914        0.6749883771
 C          4.5714429932        0.3618029325       -2.2546825712
 C          0.7362066846        3.6815979853       -1.9773413335
 C         -3.8652625016        3.8227779650        1.0427075995
 C         -4.8250712454       -0.0489746427       -1.9181297176
 O         -1.8539872506       -3.7159557662       -3.0813610526
 O          4.2230842503       -3.7005870565        2.0344710392
 O          5.1379451843       -0.5453766612       -3.1775523031
 O          1.4722832119        3.9957303861       -3.1472787699
 O         -4.1991493235        3.9208625043        2.4179553276
 O         -5.3736274568        0.9336561301       -2.7739728186
 C         -1.8422885695       -2.9515895783       -0.7429832475
 C          2.4274639937       -2.9476640849        0.5459073358
 C          5.5245286755        0.5988615150       -1.0586866670
 C          1.6488307627        3.2221902072       -0.8202607302
 C         -2.4772273249        3.1654558755        0.8341398097
 C         -5.7168706897       -0.3077567528       -0.6833004276
 C         -0.8588413366       -2.5850811167        0.3849388058
 C          2.4649898042       -1.4050826549        0.6897530125
 C          4.9385846810        1.6530841805       -0.0895097314
 C          0.7608809170        2.8583455753        0.3868775878
 C         -2.5259312295        1.6221536775        0.9785088320
 C         -5.0927941596       -1.4012283887        0.2202126330
 O         -0.1271626183       -3.7491942820        0.7725828247
 O          3.5044292602       -0.7756795946       -0.0641686122
 O          4.6781708275        2.8740552832       -0.7813341067
 O          0.0723344369        4.0285124118        0.8263595581
 O         -3.6045033259        1.0101400636        0.2605862315
 O         -4.8695088632       -2.5987194139       -0.5224921970
 C         -1.5635986339       -1.9433108376        1.5709106690
 C          2.4482867315       -0.9852154231        2.1434882802
 C          5.8567221243        1.9037767361        1.1028945238
 C          1.5310806905        2.2328687963        1.5381906870
 C         -2.4563891747        1.1831913043        2.4272901435
 C         -5.9238360063       -1.6993846889        1.4664528787
 O         -2.4682720788       -2.8238172816        2.1825821734
 O          1.2272472456       -0.5729567202        2.5768555922
 O          7.1334319967        2.2905139967        0.6593268387
 O          2.4754828116        3.1170244532        2.0703876695
 O         -1.2459233615        0.6934022299        2.8077206745
 O         -5.4159746853       -2.7817816760        2.2043860631
 H          1.1780719708       -5.1574995454        0.0954904136
 H          4.9435738806       -1.1423223508        1.2910636488
 H          3.4687242497        3.6522348835       -2.2272270369
 H         -1.3291204773        5.3922929021        0.2551463424
 H         -4.9807646114        1.3994671784        1.6694044327
 H         -3.7443835218       -3.3427756370       -2.0508480905
 H         -0.7756288498       -5.4841021860       -1.3650931000
 H          5.8832162655       -3.1603596423        0.0709495320
 H          5.0988782114        2.1320964822       -3.3865193866
 H          0.4881801760        5.7481116318       -1.3769260166
 H         -5.9371224123        3.4376537735        0.4846513457
 H         -5.4315988317       -1.7916930398       -3.0666426539
 H          1.5220151413       -4.3953550976       -2.5870423099
 H          4.9164433673       -2.1827292501       -2.0499903758
 H          2.5513487022        2.2864122537       -3.7952147260
 H         -1.8893496942        4.5944118304       -2.3630399336
 H         -5.0211120261        2.4863103018       -1.6805400251
 H         -2.9260434597       -1.9462727046       -3.6469470283
 H         -0.3770005494       -2.5902368971       -2.2779343136
 H          3.7917688432       -4.6121391320        0.2741169448
 H          3.6378081745       -0.0897699337       -1.8865152524
 H          0.0777761429        2.8413773086       -2.2431303424
 H         -3.8257497075        4.8534588453        0.6579403592
 H         -3.8632035357        0.3660813662       -1.5813331425
 H         -1.3670079247       -4.2627446099       -3.7191839904
 H          4.0515750853       -2.8367628351        2.4680828470
 H          4.6187795704       -0.5791339097       -4.0129956591
 H          0.9252387306        4.5226638328       -3.7523675363
 H         -4.0133138776        3.0530932197        2.8364616055
 H         -6.1105156624        0.5769929102       -3.2951434158
 H         -2.4778787205       -3.7694450260       -0.3736828720
 H          1.8362087050       -3.3256478276        1.3973063717
 H          6.4732152450        0.9957380049       -1.4507464161
 H          2.3041360781        4.0480313612       -0.5088673743
 H         -1.8206578503        3.5414218615        1.6367119249
 H         -6.6898578928       -0.6766480542       -1.0361789586
 H         -0.1315787159       -1.8801340352       -0.0355788539
 H          1.5546363010       -1.0030598987        0.2250697320
 H          3.9577377184        1.2929966981        0.2516767327
 H         -0.0028022858        2.1570685647        0.0284930421
 H         -1.6391325506        1.2136588880        0.4756991765
 H         -4.0955167792       -1.0574359748        0.5237625776
 H         -2.1327711210       -1.0687729309        1.2392188899
 H         -0.8335086649       -1.5937728858        2.3134011124
 H          5.4328072581        2.7031679632        1.7244109036
 H          5.9516429587        0.9956733441        1.7102988321
 H          2.0683174454        1.3392539412        1.2047963172
 H          0.8434189405        1.9249580847        2.3359717501
 H         -5.9915535045       -0.8222184367        2.1220840058
 H         -6.9442800795       -1.9730441916        1.1763063001
 H         -1.9793229130       -3.4171421456        2.7936620334
 H          7.7435526736        2.4870261972        1.3893967206
 H          2.0524547628        3.9562280184        2.3205233510
 H         -4.4310923356       -2.7919732517        2.1957035848
 C         -1.2436415714        0.3833061428        4.1836409437
 H         -2.2079445452       -0.0815386111        4.4175657748
 H         -1.1783607186        1.3229351416        4.7428424866
 O         -3.4186280584        1.3132096859        3.1478939267
 C          1.2346988513       -0.3343274249        3.9657864381
 H          1.5989183312        0.6828344743        4.1439876246
 H          1.9457087146       -1.0347251523        4.4189307375
 O          3.4454421039       -1.0830760528        2.8210474070
 C         -0.1276494880       -0.5506744534        4.5639945782
 O         -0.3217193173       -1.4683712356        5.3144619844
 O          3.6472638972       -0.8620908399       -5.6370414450
 H          2.8400820643       -1.3640081021       -5.7390071154
 H          3.8786773801       -0.5294019253       -6.5026056498
 O         -0.9130680746       -4.1115012343        4.1894904813
 H         -0.6909875464       -3.2746384717        4.6384739859
 H         -0.4840887619       -4.8105352390        4.6762921351
  136
        -21.27467651
 C          0.8032866311       -4.4342898415       -0.3631680804
 C          4.6661296534       -1.3543168864        0.4471894564
 C          4.0804065365        2.6295410124       -1.7096564047
 C         -0.6626608236        4.5056994976       -0.5793322575
 C         -4.5466403096        1.6578803327        0.6364946851
 C         -3.9780269289       -2.5216805284       -1.2474357459
 O          1.6607527288       -3.3255376226       -0.5475578327
 O          5.8492922234       -0.7912631222       -0.1020420906
 O          2.7924800599        2.2376524379       -1.2425182449
 O         -1.5325411107        3.3939013897       -0.6006085458
 O         -5.7294611929        1.0133139320        0.1845436638
 O         -2.6528619129       -2.1443481863       -0.8897850988
 C         -0.0073004805       -4.7114968556       -1.6599252988
 C          4.6645713179       -2.8809028148        0.1911995208
 C          4.5907555090        1.5947026663       -2.7496415297
 C          0.0163189344        4.6830911946       -1.9681849387
 C         -4.5325697704        3.1390348616        0.1837276322
 C         -4.5315676504       -1.5513250525       -2.3263717184
 O          0.8428173440       -4.9310108565       -2.7654683394
 O          4.4630069686       -3.1359394335       -1.1878187006
 O          3.6827646639        1.4947864717       -3.8293012098
 O         -0.9699069812        4.7774680553       -2.9742918822
 O         -4.3389497545        3.2221074678       -1.2158400847
 O         -3.6750806989       -1.5264100330       -3.4518878665
 C         -0.9481626254       -3.5207182112       -1.9145492612
 C          3.5490095866       -3.5390027118        1.0386206645
 C          4.7363239528        0.2489832460       -2.0257593788
 C          0.9741647747        3.4996966917       -2.2165884131
 C         -3.4021942609        3.8892209853        0.9320641915
 C         -4.6540123850       -0.1575435880       -1.6926061095
 O         -1.7276945670       -3.7357486670       -3.0720908377
 O          3.8260418351       -3.4785669902        2.4304137660
 O          5.1887787419       -0.7807954267       -2.8755299013
 O          1.6847009161        3.6557131949       -3.4262079259
 O         -3.6940062916        4.0582168263        2.3167726677
 O         -5.1545774672        0.7941320935       -2.6042415471
 C         -1.8204394988       -3.2782554221       -0.6668072869
 C          2.1939636822       -2.8659162880        0.6909169128
 C          5.6510880861        0.4234769365       -0.7966090197
 C          1.9356204915        3.3534349032       -1.0199362343
 C         -2.0596917040        3.1392063764        0.6972349252
 C         -5.5183991894       -0.2500430151       -0.4181427171
 C         -0.9443958583       -3.1300821623        0.5975866261
 C          2.2806839718       -1.3148774211        0.6709972580
 C          5.1217802171        1.5581836876        0.1102732991
 C          1.1333281629        3.2460560557        0.2972173580
 C         -2.1883553470        1.6094995766        0.9315316227
 C         -4.9190542496       -1.3066486747        0.5431157008
 O         -0.0829515213       -4.2638792776        0.7446152468
 O          3.4357707836       -0.8031069035        0.0001891164
 O          5.0013962038        2.7751990320       -0.6288043412
 O          0.3109594618        4.4017158423        0.4605295607
 O         -3.3197476139        1.0449578561        0.2689427135
 O         -4.8343975390       -2.5772478604       -0.1072204243
 C         -1.8141468739       -2.9815657022        1.8428220042
 C          2.0821358057       -0.6904988778        2.0331100458
 C          6.0468509557        1.8007548172        1.2972227902
 C          2.0192550416        3.0734260596        1.5294095549
 C         -2.1443335856        1.2077600421        2.3933984708
 C         -5.7012812807       -1.4502936761        1.8466594464
 O         -2.8037373009       -3.9716642227        1.9060328124
 O          0.9237110743        0.0189513642        2.1505247898
 O          7.2292708766        2.4052139469        0.8567206905
 O          1.2964082862        3.3331621232        2.7005990607
 O         -2.2387196485       -0.1275271196        2.6236549016
 O         -5.0108390924       -2.2014915947        2.8169625644
 H          1.4443413170       -5.2984419541       -0.1340300030
 H          4.7032202895       -1.1439340999        1.5257152453
 H          3.9920234280        3.6104298422       -2.1981239189
 H         -1.2769666354        5.3904534369       -0.3567518660
 H         -4.5811853347        1.6141797441        1.7351761459
 H         -3.9459081611       -3.5351544600       -1.6735902325
 H         -0.6143571242       -5.6200094849       -1.5250435502
 H          5.6526810834       -3.2924357476        0.4485752590
 H          5.5678885996        1.9064536395       -3.1481091081
 H          0.5971676485        5.6183078912       -1.9813976127
 H         -5.5132401708        3.5922090857        0.3956018224
 H         -5.5245230898       -1.8873264114       -2.6616047243
 H          0.3355931259       -4.9058013689       -3.5937264154
 H          3.4952437268       -3.1977083446       -1.3290495330
 H          3.9048459756        0.7319262249       -4.3854305924
 H         -0.5799116173        4.7204775458       -3.8756517570
 H         -3.3714578310        3.2484146745       -1.3708853225
 H         -3.9180461305       -0.7964540445       -4.0424994876
 H         -0.3263179208       -2.6308051570       -2.0961504363
 H          3.4990173474       -4.6078376557        0.7816918525
 H          3.7211463341       -0.0215516775       -1.6957953509
 H          0.3667391932        2.5862007943       -2.3069020601
 H         -3.3267360119        4.9027977406        0.5096826814
 H         -3.6308785836        0.1475348016       -1.4209514514
 H         -2.3364447285       -2.9778467267       -3.2283787778
 H          3.5627660026       -2.5895124844        2.7534259667
 H          5.1162331999       -1.6320249297       -2.3926703127
 H          2.3029767945        2.9017618850       -3.5688425691
 H         -3.1662811205        3.4047576678        2.8240776706
 H         -5.0510009577        1.6847997921       -2.2068543717
 H         -2.4713697882       -4.1477346340       -0.5023555116
 H          1.4804356216       -3.1496745299        1.4802769529
 H          6.6523443231        0.7082674073       -1.1517274548
 H          2.5584550915        4.2558097092       -0.9496768981
 H         -1.3234619458        3.5179974595        1.4231943857
 H         -6.5210599141       -0.5886179152       -0.7170518263
 H         -0.3046465076       -2.2456249533        0.4786208379
 H          1.4541845777       -0.9614544216        0.0345594573
 H          4.1101537521        1.2839189435        0.4406713656
 H          0.4474701969        2.3916726238        0.2255394434
 H         -1.3342977387        1.1231148476        0.4373196199
 H         -3.8852526659       -1.0096768896        0.7709303128
 H         -2.3352495524       -2.0194129229        1.8361814819
 H         -1.2090193968       -3.0167829287        2.7584140938
 H          5.5797524802        2.4561785764        2.0430328169
 H          6.3168037453        0.8606454168        1.7919437988
 H          2.8746448042        3.7577844090        1.4883606014
 H          2.4139855679        2.0535051916        1.5986026996
 H         -5.9168498767       -0.4682987599        2.2840798527
 H         -6.6600734661       -1.9448549278        1.6526036066
 H         -2.4064746873       -4.8624751419        2.0365237375
 H          7.0123293127        3.1602043194        0.2779495071
 H          0.8352131439        4.1897065338        2.6107207307
 H         -4.4054153575       -2.8639556805        2.4119671436
 C         -1.8474101168       -0.4183499136        3.9507194836
 H         -2.4427203204       -1.2710691642        4.2952660111
 H         -2.0848428887        0.4397461050        4.5910170645
 O         -2.0090101906        2.0470679393        3.2550450881
 C          0.6050038311        0.2698601195        3.5032674417
 H          0.1898623569        1.2833398322        3.5604110238
 H          1.5280747296        0.2359624887        4.0934519873
 O          2.9052054083       -0.8653696444        2.9010318288
 C         -0.3793660127       -0.7545651747        3.9956434659
 O         -0.0125089714       -1.8446955437        4.3352772244
 O          0.0490188379        4.6218184667       -5.6518948659
 H         -0.2525757995        4.0621722609       -6.3646149785
 H          0.8827320536        5.0035239226       -5.9272395706
 O         -1.6938553054       -6.5994790490        2.3523487594
 H         -1.0569951930       -6.8280039900        3.0276655593
 H         -2.0139221973       -7.4224490580        1.9869239914
  136
        -21.27461089
 C          0.7584404768       -4.3496192165       -0.3756985511
 C          4.8680017329       -1.3940924994       -0.0395154453
 C          3.6582489769        2.5170181861       -2.0303146565
 C         -0.8191790886        4.3552103919       -0.2522882020
 C         -4.7938891341        1.4226960356        0.8347510703
 C         -3.9301443611       -2.4691162178       -1.3791104835
 O          1.7563897017       -3.4208396300       -0.7397720713
 O          5.9331097856       -0.7092465318       -0.6836469186
 O          2.4790044522        2.0110003510       -1.4224795082
 O         -1.8602464700        3.4158467998       -0.4042851702
 O         -5.9463049237        0.7610819027        0.3249359945
 O         -2.6773283774       -1.9759744145       -0.9286422986
 C         -0.1290732514       -4.6762791117       -1.6095060845
 C          4.8922994856       -2.8930620345       -0.4357242238
 C          4.1263302506        1.5410022560       -3.1427405223
 C         -0.1823798920        4.6792147601       -1.6347297418
 C         -4.8822545614        2.9307187321        0.4790669328
 C         -4.5513990816       -1.4808977360       -2.3964052235
 O          0.6848835741       -4.9824319572       -2.7221903055
 O          4.5718513609       -3.0767361865       -1.8029512866
 O          3.0783482141        1.3481361012       -4.0797931143
 O         -1.1954615856        4.9641166285       -2.5762779359
 O         -4.8534998314        3.1381913973       -0.9202501140
 O         -3.6785672420       -1.2779228265       -3.4946491028
 C         -1.0467913518       -3.4793462007       -1.9326308709
 C          3.9090769122       -3.6872167737        0.4569927578
 C          4.5523284170        0.2117924210       -2.4873620744
 C          0.6810121682        3.4951434425       -2.1198589937
 C         -3.7441029686        3.7228941798        1.1654433020
 C         -4.8330658777       -0.1557746837       -1.6712487593
 O         -1.9220587465       -3.7496241418       -3.0145964222
 O          4.3793151609       -3.8054141883        1.7900376299
 O          5.1078391156       -0.6942791820       -3.4147141517
 O          1.3575787545        3.7800479571       -3.3324616074
 O         -3.9654595172        3.8805548780        2.5569091659
 O         -5.4508633135        0.7799501493       -2.5320856878
 C         -1.7999412082       -3.0545279736       -0.6531302644
 C          2.5035971444       -3.0333406658        0.4091694230
 C          5.5459356254        0.4855253688       -1.3346003582
 C          1.6514672305        3.0786180450       -0.9944471814
 C         -2.3757823345        3.0551545735        0.8756518357
 C         -5.6853507046       -0.4208881894       -0.4097109307
 C         -0.7636505624       -2.7278349537        0.4415000111
 C          2.5596685052       -1.4913821322        0.5613571836
 C          4.9969779004        1.5611636632       -0.3652166023
 C          0.8267920251        2.7417276760        0.2634312451
 C         -2.4120987125        1.5174314787        1.0681629615
 C         -5.0767813947       -1.5464532131        0.4649803935
 O         -0.0146827324       -3.9057854433        0.7432898127
 O          3.5664036488       -0.8622186581       -0.2363346916
 O          4.6893696694        2.7584216020       -1.0765617069
 O          0.1517850436        3.9202085323        0.7019612662
 O         -3.5365946552        0.8904343942        0.4408168346
 O         -4.8319149701       -2.7253956053       -0.3072164389
 C         -1.3945821947       -2.1587417852        1.7035012630
 C          2.6174626403       -1.0792317367        2.0153854393
 C          5.9457113334        1.8559560804        0.7958401698
 C          1.6657787019        2.1660335275        1.3918623356
 C         -2.2440773178        1.1186077064        2.5205249300
 C         -6.0164161290       -1.8963600951        1.6167103556
 O         -2.2452460534       -3.0844563986        2.3157033337
 O          1.4304713859       -0.6381094904        2.5093855661
 O          5.5193583715        2.9324302153        1.5927697529
 O          2.5942780846        3.1028041046        1.8570665971
 O         -1.0298239321        0.5892353635        2.8269482646
 O         -7.2839381589       -2.2321607933        1.1106038440
 H          1.2827715396       -5.2613134620       -0.0509883823
 H          5.0615771918       -1.2802335328        1.0371537017
 H          3.4060997177        3.4886033287       -2.4828110879
 H         -1.2767063832        5.2668681933        0.1609829707
 H         -4.8332341852        1.2857145644        1.9244808200
 H         -3.7442910094       -3.4335120581       -1.8768762396
 H         -0.7515104019       -5.5622095514       -1.4159853397
 H          5.9143849433       -3.2802144128       -0.2951148804
 H          4.9826406333        1.9625133081       -3.6884963913
 H          0.4505467071        5.5764431246       -1.5692492561
 H         -5.8538308778        3.3158412709        0.8297232801
 H         -5.4962050443       -1.8842803630       -2.7909640047
 H          1.4755091938       -4.4082855084       -2.7099640927
 H          4.8098163047       -2.2858478915       -2.3372221986
 H          2.4209723919        2.0723592016       -3.9686674447
 H         -1.9636227525        4.3843957186       -2.4073735356
 H         -5.1502949452        2.3371555829       -1.4074620286
 H         -3.0245583105       -2.0111581471       -3.5085389748
 H         -0.4157043812       -2.6356473520       -2.2489834701
 H          3.8345601833       -4.7103991325        0.0578559659
 H          3.6421460624       -0.2650566592       -2.0959313053
 H          0.0169027455        2.6433266570       -2.3282159619
 H         -3.7337206863        4.7366942331        0.7362966555
 H         -3.8632635946        0.2689301692       -1.3704057951
 H         -1.4627281497       -4.2766566470       -3.6886080032
 H          4.2287092716       -2.9457668572        2.2392893541
 H          5.9803261213       -0.3430471976       -3.6907699523
 H          0.7770694350        4.2837322496       -3.9260470902
 H         -3.7477847255        3.0286427565        2.9914943518
 H         -5.0921924143        0.6939222006       -3.4309895298
 H         -2.4144848378       -3.8884902895       -0.2851229439
 H          1.9499314233       -3.4163369099        1.2831659676
 H          6.4724047303        0.8773582651       -1.7783016259
 H          2.3093879963        3.9211110824       -0.7383723315
 H         -1.6666248954        3.4514743352        1.6219123648
 H         -6.6793435274       -0.7606187041       -0.7387981545
 H         -0.0598785815       -2.0006346088        0.0197203270
 H          1.6309733472       -1.0799350994        0.1426522866
 H          4.0379592933        1.2013800521        0.0292233044
 H          0.0553371926        2.0208376886       -0.0336607501
 H         -1.5620334282        1.0918396112        0.5178924756
 H         -4.0982586109       -1.2150258398        0.8410449876
 H         -1.9925247943       -1.2712208608        1.4697736776
 H         -0.6229517540       -1.8567232965        2.4237370541
 H          6.0805226896        0.9739256655        1.4342058020
 H          6.9319416959        2.1318681485        0.4064940660
 H          2.2191317299        1.2836191423        1.0555656858
 H          1.0257944126        1.8548307305        2.2272862024
 H         -5.6083656261       -2.7486604283        2.1753053138
 H         -6.1312008679       -1.0493624640        2.3034980611
 H         -1.7683217011       -3.9094948527        2.5090208837
 H          4.5383813670        2.9579479785        1.6806800703
 H          2.1323709772        3.9195856139        2.1106022550
 H         -7.9065929567       -2.5036284079        1.8050043847
 C         -0.9501519921        0.3315534807        4.2093213506
 H         -1.8813273437       -0.1661059728        4.5006260676
 H         -0.9065890011        1.2939151907        4.7312525601
 O         -3.1395953367        1.3101081979        3.3097978188
 C          1.5313802796       -0.3735508199        3.8892638763
 H          1.9342895298        0.6359544139        4.0226941079
 H          2.2526823873       -1.0853619640        4.3082386457
 O          3.6430028044       -1.2037959218        2.6444494638
 C          0.2128380673       -0.5405055070        4.5920403101
 O          0.0901410406       -1.3648973499        5.4570776767
 O          7.6338596643        0.5643235376       -3.7973390267
 H          8.4494022427        0.0770935986       -3.7016077812
 H          7.8641799526        1.4072122642       -4.1867252736
 O         -5.2252295229       -0.5122959595        4.0775248207
 H         -4.5007557383        0.1046281743        3.8620073682
 H         -5.4241998974       -0.3898898276        5.0043171716
  136
        -21.27458450
 C          0.6243927505       -4.4209095187       -0.1898429965
 C          4.6747781299       -1.3957143317        0.1262529599
 C          3.4182159570        2.5220704663       -1.9165420310
 C         -1.1064373637        4.3310258982       -0.2074543579
 C         -4.9932207098        1.1718688395        0.6201428037
 C         -3.8609120041       -2.5065715577       -1.9225681840
 O          1.6460415941       -3.5185590166       -0.5566642046
 O          5.7066512926       -0.7074544063       -0.5695037644
 O          2.2342853375        2.0207329013       -1.3151899436
 O         -2.1421523792        3.3976214366       -0.4316808539
 O         -6.0913435683        0.4508450168        0.0731206518
 O         -2.6097348133       -2.0469933463       -1.4523976049
 C         -0.1396120022       -4.9235922986       -1.4436038436
 C          4.7507380700       -2.9053049955       -0.2221138139
 C          3.8901809441        1.5370803692       -3.0170524053
 C         -0.4209983191        4.6897537330       -1.5569504697
 C         -5.1686320190        2.6868420579        0.3300303669
 C         -4.5478319710       -1.4503980936       -2.8296873933
 O          0.7842925200       -5.3516371374       -2.4223863375
 O          4.4851868659       -3.1326027070       -1.5935805115
 O          2.8737444485        1.3556189142       -3.9864173616
 O         -1.3990078029        4.9961604846       -2.5284939185
 O         -5.1064138430        2.9679128295       -1.0541436144
 O         -3.7264115018       -1.0757134564       -3.9138691035
 C         -1.0509649061       -3.8193861711       -2.0211882344
 C          3.7752872827       -3.7180816256        0.6630939344
 C          4.2560736661        0.2028243198       -2.3457663655
 C          0.4578593063        3.5145630160       -2.0344333977
 C         -4.1015277685        3.5109119447        1.0910778606
 C         -4.9435148180       -0.2137514864       -2.0010160243
 O         -1.8919921665       -4.3431904384       -3.0305768510
 O          4.2385294913       -3.8392035787        1.9960669135
 O          4.7117076835       -0.7501041592       -3.2849644252
 O          1.1578733407        3.8105063689       -3.2310451506
 O         -4.3701424650        3.5658630867        2.4824554643
 O         -5.6774843824        0.7098813520       -2.7839998524
 C         -1.8788383061       -3.1391312001       -0.9056618840
 C          2.3560908728       -3.0958135540        0.6074742849
 C          5.2920529899        0.4718459850       -1.2315439915
 C          1.4057092254        3.0896567120       -0.8931225572
 C         -2.6844986524        2.9487302857        0.8083947905
 C         -5.7396136732       -0.6472256708       -0.7509888404
 C         -0.9367765399       -2.7134455102        0.2423611961
 C          2.3787704557       -1.5512821734        0.7619641510
 C          4.7635901603        1.5571892008       -0.2568142071
 C          0.5610004305        2.7336560531        0.3455323793
 C         -2.6365185286        1.4056040787        0.9180636436
 C         -4.9655529413       -1.7514876112        0.0060898214
 O         -0.2607498691       -3.8536281877        0.7704631828
 O          3.3537924868       -0.9102377350       -0.0661547433
 O          4.4456774878        2.7583455366       -0.9580914345
 O         -0.1637303798        3.8874787094        0.7737795675
 O         -3.6990151582        0.7407664134        0.2275438655
 O         -4.7199802952       -2.8720221326       -0.8439798498
 C         -1.6520557077       -2.0021467699        1.3776949708
 C          2.4614827831       -1.1085716208        2.2106988962
 C          5.7255436286        1.8545595816        0.8914118078
 C          1.3996846096        2.1740506559        1.4849848900
 C         -2.4793414307        0.9565308566        2.3550550634
 C         -5.6738107193       -2.2092345974        1.2732352627
 O         -2.5882824410       -2.8432641924        1.9915015478
 O          1.3066804396       -0.5732875798        2.6918623408
 O          5.2949928180        2.9201460679        1.7021364660
 O          2.3376563441        3.1098485339        1.9353858783
 O         -1.2040053178        0.6184549571        2.6844442291
 O         -6.8534126859       -2.8981297733        0.9695493771
 H          1.1174873286       -5.2754193573        0.2986154960
 H          4.8829449890       -1.2400548432        1.1948369741
 H          3.1726007121        3.4928658553       -2.3740862225
 H         -1.5854281398        5.2300665479        0.2092813370
 H         -5.0360893829        0.9848539760        1.7032816535
 H         -3.6653816845       -3.4221136392       -2.5037949937
 H         -0.7619543601       -5.7956340896       -1.1934978437
 H          5.7808362051       -3.2546590122       -0.0435137707
 H          4.7779303765        1.9300550361       -3.5362768361
 H          0.2090081591        5.5847628742       -1.4473870078
 H         -6.1727787336        2.9937254197        0.6651278551
 H         -5.4595999976       -1.8795221838       -3.2703383493
 H          1.5544684192       -4.7500655900       -2.4218382471
 H          4.6529104033       -2.3240020727       -2.1280599090
 H          2.2189424283        2.0826997394       -3.8904957449
 H         -2.1728910758        4.4130582534       -2.4018887636
 H         -5.4028124384        2.1986211215       -1.5896259432
 H         -2.8300884195       -0.8688391844       -3.5984715614
 H         -0.4207606706       -3.0500168252       -2.4891701003
 H          3.7226335916       -4.7404241568        0.2581561338
 H          3.3377562863       -0.2034402308       -1.8945770530
 H         -0.1986805426        2.6623029779       -2.2638327351
 H         -4.1457549887        4.5474932683        0.7229456150
 H         -4.0233060707        0.2930582751       -1.6761837923
 H         -1.3772264692       -4.8397946839       -3.6870807631
 H          4.0744959429       -2.9803784958        2.4412177506
 H          4.2157338645       -0.6620539813       -4.1157919333
 H          0.5936172967        4.3314431568       -3.8254061193
 H         -4.1261808530        2.6976438112        2.8692424525
 H         -5.3666705547        0.6996152877       -3.7048881191
 H         -2.6130847009       -3.8492350879       -0.4994193306
 H          1.7993132172       -3.4887900480        1.4745352592
 H          6.2018396446        0.8541563980       -1.7185663717
 H          2.0627320353        3.9266130558       -0.6179604134
 H         -2.0247426969        3.3458663917        1.5984217325
 H         -6.7008511542       -1.0643312952       -1.0840493150
 H         -0.1728770550       -2.0593198745       -0.1958359196
 H          1.4311358095       -1.1617901524        0.3673398884
 H          3.8097554855        1.1996926157        0.1534125093
 H         -0.1776377926        1.9894497255        0.0296904922
 H         -1.7499540389        1.0600924418        0.3715923430
 H         -3.9773988176       -1.3433772160        0.2511061454
 H         -2.1789973750       -1.1168875573        1.0135433780
 H         -0.9301134362       -1.6671572056        2.1335897860
 H          5.8804025774        0.9698875118        1.5204923104
 H          6.7029381943        2.1443118519        0.4907075056
 H          1.9490440475        1.2841154845        1.1606175507
 H          0.7617601241        1.8750472868        2.3268479346
 H         -5.0227719307       -2.8693469701        1.8606803532
 H         -5.9464015497       -1.3546974612        1.9032352469
 H         -2.1560532218       -3.6671055787        2.2762066637
 H          4.3126374791        2.9567724671        1.7714102699
 H          1.8806508126        3.9159629084        2.2282556729
 H         -6.6711690148       -3.6284886831        0.3540087992
 C         -1.1074670539        0.3068240534        4.0541467110
 H         -1.4183363498       -0.7331107492        4.1984400252
 H         -1.8167794184        0.9511562173        4.5876649751
 O         -3.4246903854        0.9716877984        3.1092935651
 C          1.4317978306       -0.2514683451        4.0586265723
 H          2.3526320092        0.3286381663        4.1772440620
 H          1.5466984547       -1.1851386459        4.6193340318
 O          3.4825557103       -1.2680134036        2.8393514939
 C          0.2759319169        0.5502678895        4.5901629597
 O          0.4538682293        1.3807575430        5.4395576583
 O          6.9264404007        2.2772652280       -3.3135765671
 H          7.2214682712        3.1856623685       -3.2418447433
 H          7.5464034260        1.8369559739       -3.8964687793
 O          4.3259515155       -0.7383199111        5.5843830976
 H          4.0868538591       -0.9324437966        4.6577634922
 H          5.2812171235       -0.7282582503        5.6288323051
  136
        -21.27454601
 C          0.8031707474       -4.4950428159       -0.2537564084
 C          4.6393581080       -1.3326484411        0.3655418497
 C          4.0077871137        2.5810967463       -1.9174658432
 C         -0.7450373912        4.4683775525       -0.8376538810
 C         -4.5898118429        1.6039610942        0.5253344161
 C         -4.0194936458       -2.6764055635       -1.1283978065
 O          1.6421664835       -3.3853062766       -0.5054931343
 O          5.8116805154       -0.7764180342       -0.2123424473
 O          2.7208246231        2.1984638193       -1.4424090346
 O         -1.6135103999        3.3535652188       -0.8322661062
 O         -5.7733081710        0.9222449259        0.1355169103
 O         -2.6883125561       -2.2725219742       -0.8262570881
 C         -0.0265122134       -4.8447497620       -1.5203435718
 C          4.6552944428       -2.8676850892        0.1684936626
 C          4.5241187100        1.5173329809       -2.9245167454
 C         -0.0476660974        4.6190975543       -2.2196507218
 C         -4.6102740088        3.0624480986        0.0056128086
 C         -4.6064114888       -1.7726125899       -2.2470853863
 O          0.8070528233       -5.1074662235       -2.6293865285
 O          4.4388834242       -3.1769368568       -1.1972644499
 O          3.6168896630        1.3798004808       -4.0005512736
 O         -0.9890380002        4.7358270439       -3.2629417285
 O         -4.4376527475        3.0817317532       -1.3993585954
 O         -3.7793338893       -1.8072822483       -3.3939339115
 C         -0.9885395367       -3.6803069375       -1.8146389033
 C          3.5595168107       -3.5060061681        1.0558166524
 C          4.6772234587        0.1957257113       -2.1584282750
 C          0.8848609113        3.4159048616       -2.4446282823
 C         -3.4812319291        3.8633464741        0.7017460067
 C         -4.7233116225       -0.3455049408       -1.6910965733
 O         -1.7872655837       -3.9634502269       -2.9441707454
 O          3.8533970165       -3.3871811430        2.4404625342
 O          5.1300879662       -0.8603957709       -2.9749202637
 O          1.5541206114        3.5171487843       -3.6840305926
 O         -3.7528653213        4.0855725973        2.0831757349
 O         -5.2478806242        0.5532150350       -2.6424608177
 C         -1.8407056188       -3.3870620313       -0.5638986473
 C          2.1912492069       -2.8640651685        0.7010672811
 C          5.5956847675        0.4155602536       -0.9396973800
 C          1.8594272656        3.3157531796       -1.2557658096
 C         -2.1291311131        3.1276808603        0.4770081197
 C         -5.5587729762       -0.3721121698       -0.3947254905
 C         -0.9442252726       -3.1689186901        0.6758708729
 C          2.2575944974       -1.3142361619        0.6127896023
 C          5.0565403012        1.5707695188       -0.0652626288
 C          1.0626386708        3.2409237589        0.0690180446
 C         -2.2275719443        1.6052744553        0.7712290685
 C         -4.9257939250       -1.3648978192        0.6119205924
 O         -0.0659822197       -4.2840615356        0.8607625469
 O          3.3981748423       -0.8159445034       -0.0926034690
 O          4.9260942322        2.7649366614       -0.8396810920
 O          0.2254728268        4.3898772299        0.2094505718
 O         -3.3614736048        0.9964248104        0.1536043434
 O         -4.8469472681       -2.6706837039        0.0343707263
 C         -1.7932535095       -2.9691715797        1.9285434161
 C          2.0669025868       -0.6350316089        1.9495480305
 C          5.9780534609        1.8549828192        1.1152787642
 C          1.9569671342        3.1021018643        1.2998962967
 C         -2.1575532327        1.2641373725        2.2479315803
 C         -5.6726494979       -1.4387206779        1.9416932166
 O         -2.7784585301       -3.9576444111        2.0537375460
 O          0.9054604592        0.0721990091        2.0466237919
 O          7.1544160369        2.4593888575        0.6590421415
 O          1.2454869752        3.3973950977        2.4696761023
 O         -2.2401649716       -0.0604230039        2.5362353697
 O         -4.9492215724       -2.1277418915        2.9335899277
 H          1.4602321553       -5.3388452477        0.0039236914
 H          4.6809354228       -1.0809034859        1.4349522769
 H          3.9145505548        3.5450487355       -2.4369851890
 H         -1.3623174041        5.3570207763       -0.6402049159
 H         -4.5953091713        1.6102871106        1.6253695070
 H         -3.9916909548       -3.7125789636       -1.4962640927
 H         -0.6187388433       -5.7530689904       -1.3294569107
 H          5.6520473920       -3.2563208017        0.4280317220
 H          5.4997399467        1.8224616739       -3.3317972766
 H          0.5610192098        5.5374067446       -2.2249918036
 H         -5.5957040513        3.5079832388        0.2113212654
 H         -5.6050295591       -2.1336619139       -2.5361181368
 H          0.2856378893       -5.1308606308       -3.4488801197
 H          3.4703361301       -3.2573050568       -1.3230070098
 H          3.8454273026        0.6023300700       -4.5334080110
 H         -0.5517287094        4.6435347908       -4.1256694326
 H         -3.4729588347        3.1163116082       -1.5686323371
 H         -4.0481610998       -1.1188931291       -4.0221472939
 H         -0.3833336233       -2.7921677324       -2.0520473841
 H          3.5201446546       -4.5845926447        0.8412324432
 H          3.6647245306       -0.0681158366       -1.8149208585
 H          0.2651278495        2.5067937077       -2.4803783544
 H         -3.4300147464        4.8594186295        0.2365803487
 H         -3.6961671684       -0.0214768548       -1.4594714271
 H         -2.4124402037       -3.2243318471       -3.1235543985
 H          3.5809778720       -2.4900531406        2.7321388001
 H          5.0674820308       -1.6947874411       -2.4619948740
 H          2.1921703706        2.7763212280       -3.8007657322
 H         -3.2076533077        3.4606913659        2.6077417549
 H         -5.1450321474        1.4651001891       -2.2956303547
 H         -2.4787271569       -4.2544957463       -0.3464967490
 H          1.4948155301       -3.1207512679        1.5146113612
 H          6.5918953252        0.7016944658       -1.3077940462
 H          2.4747082324        4.2265748685       -1.2252339207
 H         -1.3955756656        3.5437810134        1.1851410044
 H         -6.5631870940       -0.7395270079       -0.6506140828
 H         -0.3171814481       -2.2842733702        0.5028111585
 H          1.4188210338       -0.9992684337       -0.0277496363
 H          4.0472918878        1.2969898044        0.2724009223
 H          0.3846401651        2.3785352261        0.0223131425
 H         -1.3736438954        1.1128105788        0.2834172636
 H         -3.8890707174       -1.0478358036        0.7955709619
 H         -2.3183839351       -2.0100144516        1.8875063909
 H         -1.1730661471       -2.9617767389        2.8347223429
 H          5.5036108809        2.5255213037        1.8428024583
 H          6.2572913529        0.9316593480        1.6357137340
 H          2.8158003771        3.7794541030        1.2321428855
 H          2.3485779549        2.0831279984        1.3957812549
 H         -5.8853614850       -0.4349742522        2.3279578300
 H         -6.6317402214       -1.9506889036        1.8021951409
 H         -2.3775832312       -4.8453897176        2.1934871729
 H          6.9295846669        3.1947438869        0.0583790609
 H          0.7793957613        4.2485158140        2.3572703234
 H         -4.3591790088       -2.8162452685        2.5499400922
 C         -1.8486928405       -0.2893962454        3.8755818531
 H         -2.4405200098       -1.1282666952        4.2583248882
 H         -2.0909988367        0.5954333652        4.4765273848
 O         -2.0187837026        2.1399837483        3.0718191165
 C          0.5991276261        0.3848706397        3.3893139409
 H          0.1827344793        1.3993892524        3.4029728781
 H          1.5275996608        0.3794496581        3.9718663616
 O          2.8984049746       -0.7687573118        2.8167696917
 C         -0.3792698513       -0.6158681248        3.9385939593
 O         -0.0065806764       -1.6827372288        4.3402072005
 O          2.3261424681        6.5195358909       -1.4785961328
 H          2.8588921029        7.0047236963       -2.1095755513
 H          2.2466069381        7.0803381626       -0.7051149338
 O         -1.6778945914       -6.5918352187        2.5100240021
 H         -1.0036031574       -6.8193750818        3.1484815010
 H         -2.0631230848       -7.4144129989        2.2124804777
  136
        -21.27454022
 C          0.6962100566       -4.3477208851       -0.4189289670
 C          4.9032875286       -1.6642707687        0.3756444335
 C          4.0757462139        2.4371483193       -1.4702774212
 C         -0.4148349205        4.4432547580        0.0918136924
 C         -4.6178769169        1.6542628322        0.6576124849
 C         -3.8367854395       -2.1978062587       -1.6527705763
 O          1.7605230238       -3.4476666535       -0.6350583395
 O          6.0356287737       -1.0279400585       -0.2010664601
 O          2.8309769793        1.9766831637       -0.9636259723
 O         -1.4915615717        3.5879356002       -0.2252808956
 O         -5.7697831144        1.0845181038        0.0509439899
 O         -2.5711191180       -1.7945669436       -1.1538366461
 C         -0.0848912805       -4.5726364435       -1.7452597843
 C          4.8724526743       -3.1467084652       -0.0767297874
 C          4.5489521264        1.4957354832       -2.6079190393
 C          0.3603972530        4.8182664937       -1.2029202170
 C         -4.6092719958        3.1808780071        0.3908725408
 C         -4.3487224969       -1.1434133049       -2.6687040349
 O          0.8198170421       -4.8547682621       -2.7925979191
 O          4.6595731715       -3.2522947605       -1.4716484549
 O          3.5765891933        1.4328189881       -3.6376798299
 O         -0.5444098812        5.2318729426       -2.2053166861
 O         -4.4557925959        3.4562783484       -0.9882737862
 O         -3.3870771687       -0.9642086271       -3.6938336351
 C         -0.9267521768       -3.3252980921       -2.0879656211
 C          3.7827916236       -3.9223596808        0.7008453405
 C          4.8004237448        0.1003965690       -2.0099760646
 C          1.1874874633        3.6123135678       -1.6948239489
 C         -3.4907770445        3.8607689487        1.2161567789
 C         -4.6093491795        0.1777058353       -1.9199984377
 O         -1.7225470419       -3.5087785751       -3.2459697110
 O          4.1512264829       -4.1503138648        2.0512405099
 O          5.2742372406       -0.8086906536       -2.9840874182
 O          1.9703418702        3.9250369513       -2.8342755447
 O         -3.8065768927        3.9014486176        2.5985574005
 O         -5.1681670260        1.1743139589       -2.7523900628
 C         -1.7674366800       -2.9238705364       -0.8576134893
 C          2.4260262477       -3.1789620921        0.5959686618
 C          5.7665722251        0.2213796110       -0.8089251191
 C          2.0397998757        3.0688233025       -0.5288566311
 C         -2.1344837184        3.1516078547        0.9691032898
 C         -5.5175782017       -0.0899176897       -0.6960990343
 C         -0.8101576884       -2.6900398860        0.3285997212
 C          2.5622168263       -1.6555269259        0.8518727197
 C          5.2473909795        1.2825155919        0.1971039371
 C          1.1042612207        2.7074529067        0.6426840370
 C         -2.2554355677        1.6080608348        1.0235696499
 C         -4.9493548567       -1.2410778187        0.1728356184
 O         -0.1557403824       -3.9180711161        0.6449556183
 O          3.6443006382       -1.0508676421        0.1367771073
 O          5.0638925256        2.5417251808       -0.4483023759
 O          0.4435414326        3.8902028488        1.0942368597
 O         -3.3683599198        1.0868595335        0.2902405550
 O         -4.7798507434       -2.4211224192       -0.6077184825
 C         -1.5037325880       -2.1283833661        1.5586440249
 C          2.5790842849       -1.3260283722        2.3296393247
 C          6.1410546593        1.4388236234        1.4262848617
 C          1.8378733199        2.0359238588        1.7940053061
 C         -2.1884015125        1.0998448844        2.4477010133
 C         -5.7979507727       -1.5368514712        1.4087809265
 O         -2.4353312808       -3.0357742909        2.0736853186
 O          1.4191336976       -0.7981841628        2.8026918712
 O          5.7354707082        2.4911748904        2.2662079298
 O          2.8026020032        2.8858561004        2.3458738368
 O         -0.9702134980        0.6078968671        2.7989978191
 O         -5.3575258229       -2.6685382601        2.1172415257
 H          1.1475216130       -5.2976782404       -0.0946561409
 H          5.0511705180       -1.5985472035        1.4632241413
 H          3.9170816289        3.4491260450       -1.8734781871
 H         -0.8564306714        5.3517631679        0.5289007873
 H         -4.7192982961        1.4523531689        1.7336624376
 H         -3.6996492988       -3.1591103973       -2.1731915850
 H         -0.7539283931       -5.4414649171       -1.6595349533
 H          5.8581546765       -3.5974092338        0.1234743252
 H          5.4819346787        1.8721297808       -3.0538100555
 H          1.0385302940        5.6644755352       -1.0184684753
 H         -5.5866706399        3.5960115066        0.6861610555
 H         -5.2816864163       -1.4869874442       -3.1407873264
 H          1.6328261260       -4.3265965919       -2.6674045864
 H          4.9588169816       -2.4397740173       -1.9384947811
 H          2.9610031384        2.1917269960       -3.5307376031
 H         -1.3605688847        4.6980906809       -2.1428144506
 H         -4.7811075485        2.7073899405       -1.5368763139
 H         -2.7676639528       -1.7287169845       -3.6829841316
 H         -0.2392678816       -2.4964431226       -2.3129857286
 H          3.6750577273       -4.9145196393        0.2361287682
 H          3.8322590346       -0.2838889976       -1.6538312707
 H          0.4926332419        2.8179637162       -2.0049684857
 H         -3.4067522976        4.9062837709        0.8822485363
 H         -3.6358550377        0.5554262994       -1.5719668074
 H         -1.2259835950       -4.0103158110       -3.9134269688
 H          4.0365769049       -3.3074670565        2.5400643080
 H          4.8376937929       -0.6433495301       -3.8363332224
 H          1.4724960749        4.5114927100       -3.4270867632
 H         -3.6644459077        3.0021376757        2.9653812897
 H         -4.7425349617        1.1916898966       -3.6398354454
 H         -2.4425587248       -3.7459354372       -0.5810915410
 H          1.7809936484       -3.5799980644        1.3957609971
 H          6.7385155382        0.5586869819       -1.1971051410
 H          2.7267357569        3.8491174479       -0.1719584871
 H         -1.4723097515        3.4447934997        1.8016033552
 H         -6.5022310067       -0.3973720652       -1.0773151235
 H         -0.0339834146       -1.9930261191       -0.0105712254
 H          1.6800955998       -1.1625235538        0.4208492317
 H          4.2434250509        0.9740748319        0.5175327423
 H          0.3299439731        2.0360409640        0.2529975233
 H         -1.3953997885        1.1857405987        0.4865318171
 H         -3.9376862280       -0.9542675124        0.4877217199
 H         -2.0363176340       -1.2033896522        1.3166395569
 H         -0.7698114559       -1.8909138380        2.3392314273
 H          6.1785355163        0.5127938669        2.0133038894
 H          7.1651689427        1.6699420330        1.1129961254
 H          2.3500406663        1.1308446153        1.4519375932
 H          1.1349984025        1.7365076880        2.5825192975
 H         -5.8215800317       -0.6791535447        2.0923666669
 H         -6.8307625376       -1.7442135427        1.1074696312
 H         -1.9984206074       -3.8849658966        2.2540051397
 H          4.7553119016        2.5915987644        2.2847574630
 H          2.3799250875        3.7064273203        2.6497637844
 H         -4.3760573872       -2.7550481694        2.1005020283
 C         -0.9447819228        0.2595918438        4.1635164799
 H         -1.3884099342       -0.7350031999        4.2777204209
 H         -1.5791148929        0.9777682941        4.6969936562
 O         -3.1468796264        1.2019114571        3.1783030488
 C          1.5019950873       -0.6123873504        4.1969485696
 H          2.4934960080       -0.1987118015        4.4146578266
 H          1.4382018134       -1.5961287617        4.6740469226
 O          3.5604372559       -1.5674189152        2.9941227473
 C          0.4458860738        0.3135820913        4.7330190414
 O          0.7113211665        1.0899342099        5.6102157209
 O         -4.0073330120        1.4389982211       -5.3966537854
 H         -3.2069401695        1.9162757464       -5.6099683828
 H         -4.3789112533        1.1362793477       -6.2240308074
 O         -5.2346540868       -4.3440635086       -3.2665901524
 H         -5.7904988423       -4.8743817022       -2.6933092988
 H         -5.3356492732       -4.6945903519       -4.1515526339
  136
        -21.27434895
 C          0.8024871366       -4.3425875407       -0.4581330520
 C          4.8855180004       -1.4361758176        0.1262691081
 C          3.8585425309        2.5203653437       -2.0556309317
 C         -0.4013120220        4.5948204301        0.0435597383
 C         -4.5603217170        1.7446177746        0.5306576823
 C         -3.7852638727       -2.2460034663       -1.6340317995
 O          1.8513290159       -3.4293768047       -0.7149240495
 O          5.9726699842       -0.7595394163       -0.4921979188
 O          2.6195795908        2.1218401886       -1.5000547063
 O         -1.4886254299        3.7622677978       -0.3091208635
 O         -5.6892673189        1.1365763360       -0.0846959806
 O         -2.5260855431       -1.8459232796       -1.1080607464
 C         -0.0459955931       -4.6119644608       -1.7389768893
 C          4.9091877739       -2.9396926654       -0.2579532008
 C          4.3765649044        1.4834357150       -3.0921328666
 C          0.3715325521        5.1492396529       -1.1849719099
 C         -4.5538907712        3.2595449636        0.2028659976
 C         -4.2538412714       -1.2077839584       -2.6858883662
 O          0.7791673459       -4.9655048380       -2.8270937953
 O          4.5691475690       -3.1080168573       -1.6213360612
 O          3.4495129941        1.2896346364       -4.1397461986
 O         -0.4875134332        5.7999432361       -2.0958812150
 O         -4.2312329942        3.4450912504       -1.1605765710
 O         -3.3034871192       -1.1003131520       -3.7282996351
 C         -0.8823459549       -3.3621913006       -2.0727218165
 C          3.9133235604       -3.7237480378        0.6324565133
 C          4.6595936322        0.1634900090       -2.3587605537
 C          1.1857226063        4.0432028084       -1.8885465835
 C         -3.5123786843        3.9896142619        1.0874153284
 C         -4.4426576825        0.1279873913       -1.9508450997
 O         -1.6723944287       -3.5543508374       -3.2269350971
 O          4.3408782620       -3.7990875127        1.9835490114
 O          5.1528928438       -0.8187045655       -3.2418355266
 O          2.0334503611        4.6077926099       -2.8705067428
 O         -3.8910805757        4.0422862075        2.4533196531
 O         -4.8613406923        1.1526219491       -2.8240392994
 C         -1.7063518395       -2.9677093343       -0.8286499434
 C          2.5091380820       -3.0745097311        0.5032788494
 C          5.6261811577        0.4251671916       -1.1861003318
 C          2.0015662593        3.2277512005       -0.8563634748
 C         -2.1294894500        3.3123564808        0.8922647580
 C         -5.4253021665       -0.0687289347       -0.7773654168
 C         -0.7178802535       -2.7067528032        0.3261865415
 C          2.5639061524       -1.5338124492        0.6665659308
 C          5.0452579792        1.5357042591       -0.2798105696
 C          1.0773584254        2.7859118379        0.3002285458
 C         -2.2113918990        1.7627261204        0.9824232064
 C         -4.9575243517       -1.2223921147        0.1437104617
 O         -0.0186521248       -3.9138084066        0.6344752671
 O          3.5912007420       -0.9023477245       -0.1048920447
 O          4.8311253022        2.7320546059       -1.0327745990
 O          0.4895709197        3.9232815013        0.9299540345
 O         -3.2872332801        1.1930262844        0.2258012572
 O         -4.7662420379       -2.4195381768       -0.6140389907
 C         -1.3738321128       -2.1070155861        1.5628954283
 C          2.5690682100       -1.1196486833        2.1212081456
 C          5.9251399165        1.8354403629        0.9258620442
 C          1.7932334590        1.9529990118        1.3501567631
 C         -2.1827316026        1.2643838427        2.4141273881
 C         -5.9846371288       -1.5272091690        1.2277015873
 O         -2.2994260037       -2.9803185255        2.1412127349
 O          1.3501103697       -0.7272999844        2.5767365323
 O          7.1278428204        2.4332390022        0.5327497018
 O          2.8195379371        2.6832923681        1.9614539854
 O         -1.0206791826        0.6653841308        2.7871209060
 O         -7.1293875320       -2.0795013204        0.6451292919
 H          1.2834251308       -5.2807537404       -0.1412700618
 H          5.0511081491       -1.3171496960        1.2070180191
 H          3.6916295171        3.4885211439       -2.5541680690
 H         -0.8288566122        5.4406173289        0.6036954855
 H         -4.6927931424        1.5851143401        1.6093448290
 H         -3.6573453291       -3.2252717585       -2.1163254294
 H         -0.7281806420       -5.4600226650       -1.5659064643
 H          5.9328437144       -3.3264750278       -0.1377799937
 H          5.3129199863        1.8502574932       -3.5398594186
 H          1.0814371657        5.9202207162       -0.8485826226
 H         -5.5637334108        3.6710451670        0.3523675293
 H         -5.2116965689       -1.5218347340       -3.1270638334
 H          0.2731790703       -4.9558191241       -3.6568246463
 H          3.5942773748       -3.1988788816       -1.6604886456
 H          3.6978593296        0.5189778548       -4.6770944886
 H         -1.2592048240        5.2400163589       -2.2886262128
 H         -3.2512687473        3.4373103743       -1.2069578977
 H         -3.4950257973       -0.3256235220       -4.2791533423
 H         -0.1759334358       -2.5492442419       -2.3018841327
 H          3.8610546248       -4.7615003507        0.2689324862
 H          3.6940835032       -0.1911828169       -1.9644077326
 H          0.5035807111        3.3518743720       -2.4046464875
 H         -3.4440075671        5.0353229400        0.7503686234
 H         -3.4527944957        0.4070320722       -1.5560535226
 H         -2.1549224748       -2.7264578636       -3.4551187017
 H          4.1692308412       -2.9304807404        2.4070608951
 H          5.1367141233       -1.6817210188       -2.7783487800
 H          1.5401613094        5.2111102869       -3.4494644913
 H         -3.7039861122        3.1649210515        2.8502719788
 H         -4.8144317409        2.0057716677       -2.3428619272
 H         -2.3639005213       -3.7988593513       -0.5344531542
 H          1.8932195217       -3.4696592238        1.3274519861
 H          6.5775311558        0.7880144428       -1.6015703652
 H          2.8056173959        3.8500557700       -0.4387836705
 H         -1.4916976373        3.6389009504        1.7300035773
 H         -6.3999814702       -0.3552109389       -1.1994756072
 H          0.0306591741       -2.0049134305       -0.0584268901
 H          1.6501128340       -1.1197552400        0.2204293032
 H          4.0522359960        1.2043505232        0.0496747744
 H          0.2588178307        2.2107785624       -0.1504595856
 H         -1.3235135346        1.3494625661        0.4874889859
 H         -3.9842179089       -0.9549232499        0.5786450094
 H         -1.9128216477       -1.1888096680        1.3035429585
 H         -0.6207217805       -1.8413515489        2.3164154322
 H          5.4096396732        2.5085054751        1.6230383082
 H          6.1774626831        0.9167331128        1.4676496610
 H          2.2369390706        1.0590047207        0.9035329021
 H          1.0883475066        1.6202987695        2.1232463516
 H         -5.5849890505       -2.2394405136        1.9616229141
 H         -6.2939283795       -0.6270325155        1.7714158427
 H         -1.8704825714       -3.8157728564        2.3919325572
 H          6.9533277860        3.2166195892       -0.0163102666
 H          2.4686032483        3.5199797626        2.3128431401
 H         -6.8754932762       -2.8235810331        0.0678613289
 C         -1.0773902429        0.3224023275        4.1520977880
 H         -2.0248225772       -0.2022227798        4.3156740002
 H         -1.1077551105        1.2522066238        4.7312069574
 O         -3.1357073957        1.4394082833        3.1371596031
 C          1.4046479985       -0.4289355129        3.9510815906
 H          1.8217895017        0.5763150307        4.0725292154
 H          2.0970862295       -1.1417985819        4.4139794794
 O          3.5797239662       -1.1999014635        2.7806127954
 C          0.0576483506       -0.5515730030        4.6079714194
 O         -0.1085100287       -1.3393815552        5.4995703219
 O         -2.4290646640       -6.4759355185       -0.8619440426
 H         -3.0625274534       -6.8164113479       -1.4949345814
 H         -2.4030682842       -7.1053883941       -0.1413195190
 O         -5.5842773167        0.0162042956        3.6458957730
 H         -5.8452834078        0.1416228329        4.5564594680
 H         -4.7388822189        0.4882261587        3.5276849878
  136
        -21.27419965
 C          0.6304144919       -4.5534185473       -0.0374034512
 C          4.8356040609       -1.6686342276        0.1278154385
 C          3.7110709934        2.2804051980       -1.9442975841
 C         -0.8993069277        4.3400605971       -0.7226658098
 C         -4.8371927586        1.3181651305        0.4193552842
 C         -3.8276387600       -2.6086649182       -1.8047332101
 O          1.7173202470       -3.7774354498       -0.4962137454
 O          5.9045961923       -1.0150197339       -0.5399592556
 O          2.4573216323        1.8806855490       -1.4052398932
 O         -1.9243823728        3.3780540967       -0.8643969358
 O         -5.9569029470        0.5659894037       -0.0337561047
 O         -2.5485538620       -2.1482928297       -1.4171508614
 C         -0.1938218088       -5.1152566068       -1.2268472835
 C          4.8919771924       -3.1881497354       -0.1693794039
 C          4.1926418505        1.2717614919       -3.0236421003
 C         -0.1643555155        4.5200572201       -2.0774197723
 C         -4.9944534637        2.8020953194       -0.0102824600
 C         -4.5136869898       -1.6209721899       -2.7864442881
 O          0.6769953565       -5.6738758159       -2.1878621096
 O          4.6601586264       -3.4404430839       -1.5431199514
 O          3.2021947519        1.0796510379       -4.0189259596
 O         -1.0998107100        4.7009477606       -3.1192386995
 O         -4.9728448471        2.9503627190       -1.4156523521
 O         -3.7065838901       -1.3612031366       -3.9140493317
 C         -1.0662284394       -4.0193887724       -1.8759256730
 C          3.8710043505       -3.9492687458        0.7134304477
 C          4.5303120206       -0.0665728334       -2.3477443981
 C          0.7220559784        3.2912285502       -2.3625582294
 C         -3.8934022437        3.6774999359        0.6378700395
 C         -4.8668826932       -0.3067485658       -2.0644140039
 O         -1.9565818817       -4.5846707445       -2.8185304706
 O          4.3034627272       -4.0501497844        2.0602359835
 O          5.0072400102       -1.0234752233       -3.2727750829
 O          1.4618479615        3.4498607361       -3.5610058802
 O         -4.1375007104        3.8880680635        2.0188307237
 O         -5.6051332091        0.5533184674       -2.9125600673
 C         -1.8315322186       -3.2125205338       -0.8014800391
 C          2.4659668572       -3.2946040867        0.6200276631
 C          5.5304285949        0.1812903205       -1.1976339374
 C          1.6361297151        3.0150046874       -1.1506956084
 C         -2.4905817125        3.0585897680        0.4036989652
 C         -5.6383898998       -0.6084952166       -0.7612140509
 C         -0.8355570253       -2.7244960028        0.2733631783
 C          2.5216295195       -1.7447637088        0.6734880135
 C          4.9658009211        1.2541301444       -0.2311778236
 C          0.7859398685        2.8672205302        0.1286856182
 C         -2.4742712928        1.5318597464        0.6494994964
 C         -4.8612208567       -1.6522304305        0.0747587459
 O         -0.1908210427       -3.8418872485        0.8859681848
 O          3.5353363759       -1.1759684520       -0.1540873131
 O          4.6968038768        2.4723144211       -0.9303596234
 O          0.0156771714        4.0544889127        0.3411493469
 O         -3.5605226023        0.8273762693        0.0420867735
 O         -4.6621212890       -2.8519364366       -0.6736429929
 C         -1.4915684672       -1.8815752277        1.3550077128
 C          2.5829543344       -1.2122495852        2.0893784755
 C          5.8856367885        1.5237783551        0.9609270170
 C          1.6623117136        2.5891440137        1.3465119246
 C         -2.2951330814        1.2193538010        2.1194205613
 C         -5.5394327446       -1.9754691635        1.3984662128
 O         -2.4445587823       -2.6239735132        2.0634976285
 O          1.4977616629       -0.4825896162        2.4522986409
 O          5.2374579079        2.1697683833        2.0320179756
 O          2.6983696728        3.5264784560        1.4593127224
 O         -1.0240467961        0.8519578636        2.4286420889
 O         -6.7397169909       -2.6654731326        1.1947027604
 H          1.0669194739       -5.3966353278        0.5202958210
 H          4.9915313404       -1.4798415740        1.2000909936
 H          3.5635382930        3.2579582971       -2.4283940366
 H         -1.3997339774        5.2821461179       -0.4509698203
 H         -4.8582532244        1.2374479078        1.5163077033
 H         -3.6764819178       -3.5788001787       -2.3049216167
 H         -0.8519871598       -5.9292205065       -0.8885146422
 H          5.9087278905       -3.5533657703        0.0482963944
 H          5.0933451770        1.6554036971       -3.5263880383
 H          0.4680309773        5.4196899152       -2.0601021651
 H         -5.9822445396        3.1588646417        0.3243542841
 H         -5.4428445378       -2.0666084873       -3.1705526927
 H          1.4683566505       -5.1073353153       -2.2722680286
 H          4.8525873158       -2.6422113553       -2.0854843619
 H          2.5585348582        1.8218857185       -3.9738840589
 H         -1.8767987404        4.1321414026       -2.9564672904
 H         -5.2916224431        2.1372664911       -1.8666870171
 H         -2.7974974514       -1.1606211538       -3.6327222280
 H         -0.4141221358       -3.3224945250       -2.4213500494
 H          3.7974510438       -4.9795845149        0.3330626858
 H          3.5924486769       -0.4665788520       -1.9338322299
 H          0.0729188177        2.4149041736       -2.5047987608
 H         -3.9216051713        4.6683973131        0.1591700363
 H         -3.9303423132        0.2105767918       -1.8105378373
 H         -1.4830363291       -5.1637523893       -3.4374386968
 H          4.1374327614       -3.1835918350        2.4888376174
 H          4.5304143170       -0.9383850947       -4.1153431268
 H          0.9182494746        3.9021035690       -4.2270801393
 H         -3.8985116086        3.0622630717        2.4923113600
 H         -5.3106684872        0.4576928053       -3.8339680024
 H         -2.5733903252       -3.8575303217       -0.3093706443
 H          1.9144671446       -3.6116911450        1.5210259268
 H          6.4617614350        0.5650472494       -1.6385299888
 H          2.3019802312        3.8743774654       -0.9893291414
 H         -1.8247104467        3.5092816659        1.1591410583
 H         -6.6130066785       -1.0391569670       -1.0324382663
 H         -0.0616246481       -2.1461651930       -0.2453045568
 H          1.5968575248       -1.3570207286        0.2274025059
 H          3.9936357305        0.8963205035        0.1356616880
 H          0.0788521498        2.0436852152       -0.0192206348
 H         -1.6028008149        1.1254354853        0.1182387747
 H         -3.8585171432       -1.2440896274        0.2532422913
 H         -1.9932450286       -1.0124645661        0.9215968463
 H         -0.7406807179       -1.5068417494        2.0628364829
 H          6.2977281551        0.5862897103        1.3533423252
 H          6.7292345529        2.1489075035        0.6460235765
 H          2.1281668644        1.5997565735        1.2767368573
 H          1.0631073588        2.6005299583        2.2662212787
 H         -4.8825829620       -2.5915400483        2.0257459027
 H         -5.7772538104       -1.0607334466        1.9534433505
 H         -2.0379851916       -3.4374484823        2.4094709065
 H          4.4542943284        2.6920431255        1.7419628608
 H          2.3399738737        4.4249187060        1.6397646599
 H         -6.5886626918       -3.4538149939        0.6456480857
 C         -0.8366455635        0.7506307412        3.8197565822
 H         -1.1905240863       -0.2320510047        4.1481113843
 H         -1.4481130208        1.5222475279        4.3013679017
 O         -3.2065497684        1.3635505476        2.9009907374
 C          1.5693895535       -0.1433347385        3.8160986551
 H          2.5973667362        0.1704091037        4.0314509436
 H          1.3489182885       -1.0481457931        4.3941241639
 O          3.5306710915       -1.4619580710        2.7976450761
 C          0.6100606214        0.9574257527        4.1624821948
 O          0.9924001640        1.9883540556        4.6436417394
 O          1.7069245197        6.1838275486        2.0442629512
 H          1.1604829127        6.4198687414        2.7922598988
 H          2.0004182992        7.0029673838        1.6480174968
 O          0.2960580667       -1.6130073535        6.1460324165
 H          0.0057470956       -2.5161849207        6.2696277181
 H          0.4302991113       -1.2453450923        7.0189580128
  136
        -21.27416480
 C          0.7406635345       -4.2631326546       -0.2880007791
 C          4.5797840040       -1.0659109764        0.1067942023
 C          3.6897349081        2.9680532191       -1.8149651276
 C         -1.0946195405        4.5701075761       -0.4539781889
 C         -4.8892284010        1.4868667504        0.4698707107
 C         -4.0643651415       -2.6212388796       -1.3940656656
 O          1.6006627218       -3.1949779766       -0.6303240669
 O          5.7030959473       -0.4396062399       -0.4918444011
 O          2.4535915333        2.4983262552       -1.2790095763
 O         -1.9251129995        3.4347508581       -0.5692023563
 O         -6.0209634752        0.8198858698       -0.0683767301
 O         -2.8001794794       -2.1218105504       -0.9693142989
 C         -0.1167394621       -4.7116992934       -1.5082171163
 C          4.6345337327       -2.5918621074       -0.1383173251
 C          4.1798913407        2.0063543857       -2.9347281382
 C         -0.3971180898        4.9018316737       -1.8015934931
 C         -4.9311373829        2.9816748104        0.0665386463
 C         -4.6262375576       -1.6991265876       -2.5099533739
 O          0.6921194833       -5.0597443967       -2.6119774454
 O          4.3335746890       -2.8636201632       -1.4951620280
 O          3.2148076210        1.9142889725       -3.9644782513
 O         -1.3391882962        5.0785764913       -2.8384391466
 O         -4.6755787983        3.1127465007       -1.3200566859
 O         -3.7350275422       -1.6576617303       -3.6080426338
 C         -1.0891338587       -3.5765381438       -1.8798176528
 C          3.6127492550       -3.2648055880        0.8109414620
 C          4.4269822430        0.6391706743       -2.2827743967
 C          0.5945081996        3.7766943734       -2.1435625534
 C         -3.8836180956        3.7705378483        0.8907022491
 C         -4.8255528015       -0.3080132165       -1.8877086046
 O         -1.9022361818       -3.9327666655       -2.9781532788
 O          3.9747406536       -3.0938362678        2.1736577875
 O          4.8554323773       -0.3477523004       -3.1938623233
 O          1.2705776633        4.0561617725       -3.3515704087
 O         -4.2410172496        3.8761351849        2.2601423408
 O         -5.3147976278        0.6365792442       -2.8125372141
 C         -1.9098389023       -3.1748613717       -0.6351965237
 C          2.2098709957       -2.6607960451        0.5424369119
 C          5.4090399792        0.7987472555       -1.1031387764
 C          1.5650899507        3.5655766845       -0.9625705865
 C         -2.4921985160        3.1076010316        0.6980193292
 C         -5.7393093821       -0.4346243884       -0.6515872220
 C         -0.9358647233       -2.7985605590        0.5026986226
 C          2.2293057351       -1.1099042577        0.4875273768
 C          4.8816050891        1.8654799393       -0.1144434706
 C          0.7661989462        3.3210254566        0.3411651808
 C         -2.5417573709        1.5667504929        0.8827486492
 C         -5.1450664455       -1.4637716690        0.3391460710
 O         -0.1051033709       -3.9195444452        0.8106976265
 O          3.3041763771       -0.5866725794       -0.2909608496
 O          4.6758360563        3.1055000861       -0.7929031184
 O         -0.1270992182        4.4122622495        0.5840298614
 O         -3.6109390482        0.9474603588        0.1595660540
 O         -4.9796665252       -2.7274046445       -0.3048733997
 C         -1.6353349727       -2.3005269765        1.7591628235
 C          2.1518534233       -0.4780871603        1.8608919704
 C          5.8283608175        2.0807990674        1.0599077377
 C          1.6772492576        3.1714419367        1.5538867177
 C         -2.5204448114        1.1356750467        2.3353158319
 C         -6.0050227293       -1.6368879913        1.5843027717
 O         -2.4855519100       -3.2694489337        2.3014115239
 O          1.1203742185       -0.9404982208        2.6160226180
 O          7.0251957097        2.6685233026        0.6327794363
 O          2.4024619642        4.3468760907        1.7760893496
 O         -1.3379330421        0.6148966106        2.7528923575
 O         -7.2373420533       -2.2158694791        1.2596048644
 H          1.3840028950       -5.0908006913        0.0509571809
 H          4.6448778680       -0.8614279261        1.1869719057
 H          3.5251543241        3.9663895270       -2.2449515562
 H         -1.7421622934        5.4107727220       -0.1643158883
 H         -4.9859838417        1.3809969529        1.5596828659
 H         -3.9208677451       -3.6358345417       -1.7924963990
 H         -0.7017020294       -5.6028406306       -1.2322851520
 H          5.6558444341       -2.9600364962        0.0414451577
 H          5.1168563573        2.3806846229       -3.3731897042
 H          0.1619345434        5.8452232135       -1.6998819012
 H         -5.9450803734        3.3742990577        0.2389135776
 H         -5.5934452189       -2.0837994223       -2.8667013831
 H          0.1515410900       -5.1553920896       -3.4140674040
 H          3.3618139521       -2.9753713178       -1.5524557281
 H          3.4310331744        1.1827017945       -4.5632032925
 H         -0.8925426663        5.1062065854       -3.7007683322
 H         -3.7044401182        3.1927527815       -1.4237901433
 H         -3.9781826917       -0.9386309999       -4.2116427272
 H         -0.4812378105       -2.7141205069       -2.1943823928
 H          3.5757915116       -4.3477147944        0.6089368232
 H          3.4431933328        0.3209375405       -1.9051911996
 H          0.0147158942        2.8535721969       -2.2971210084
 H         -3.8475812960        4.8010291280        0.5066154627
 H         -3.8270167980        0.0300259384       -1.5671336777
 H         -2.4645332498       -3.1707407274       -3.2485422095
 H          4.9206558450       -3.3284394122        2.3026124198
 H          4.8487484004       -1.2153706285       -2.7342826448
 H          1.8783980659        3.3188574937       -3.5887466891
 H         -4.0633965491        3.0109418209        2.6869242713
 H         -5.2688327553        1.5243627736       -2.3968920627
 H         -2.5137906917       -4.0247953793       -0.2889906645
 H          1.5765478676       -2.9461064880        1.3989017808
 H          6.3726314342        1.1479696251       -1.5016325290
 H          2.1686941763        4.4706575486       -0.8100867671
 H         -1.8187009027        3.5162087873        1.4680783893
 H         -6.7176504593       -0.8101074270       -0.9853636951
 H         -0.2749144241       -2.0105945913        0.1203883846
 H          1.3386950512       -0.7846580561       -0.0706327570
 H          3.8941684606        1.5377746969        0.2424556053
 H          0.1540133749        2.4188654000        0.2092157702
 H         -1.6404953092        1.1525399853        0.4067166103
 H         -4.1356059686       -1.1243583583        0.6101098043
 H         -2.2414042750       -1.4148593480        1.5427889648
 H         -0.8966579846       -2.0170136803        2.5199922580
 H          5.3715024268        2.7267914061        1.8209803465
 H          6.0841626133        1.1282201243        1.5371709167
 H          2.4017705151        2.3616781685        1.4238048193
 H          1.0926849802        2.9439275759        2.4535447534
 H         -5.5015635611       -2.2756690081        2.3218695133
 H         -6.2126531658       -0.6710074997        2.0585158304
 H         -1.9916424800       -4.0821467213        2.5038471773
 H          6.8444172443        3.4975908432        0.1576925638
 H          1.7993005954        5.1037778668        1.8735525023
 H         -7.1018304140       -3.0518059387        0.7815746098
 C         -1.4095817673        0.2722226323        4.1180019549
 H         -2.3243000010       -0.3117803444        4.2676524264
 H         -1.5052948308        1.1975861475        4.6966524264
 O         -3.5005067354        1.2838186405        3.0277905113
 C          1.0919370686       -0.2961893090        3.8654430141
 H          1.2636050989        0.7734014459        3.7034526090
 H          1.9216506285       -0.6948805756        4.4600855472
 O          2.9424014216        0.3759326937        2.1897397463
 C         -0.2165167668       -0.5224295673        4.5693296142
 O         -0.3129099035       -1.3264377112        5.4555507258
 O          6.8053829502       -3.6668858120        2.2614495410
 H          7.4653375070       -3.0838755561        2.6319251525
 H          7.2081476508       -4.5317677419        2.2071185964
 O          3.0895752017       -6.4372089737        0.0085512898
 H          3.0973542925       -7.1151867511        0.6849142712
 H          3.4733754051       -6.8300350127       -0.7760367263
  136
        -21.27412524
 C          0.6209292942       -4.5153497633       -0.6051423114
 C          4.7268154362       -1.6475054036        0.0653751566
 C          3.6423288170        2.4208313639       -1.7140513005
 C         -0.8929209485        4.1700251082        0.0128525052
 C         -4.9290884618        1.1849855167        0.7211567736
 C         -4.0518707704       -2.6050455233       -1.6629664160
 O          1.6335326566       -3.5657477751       -0.8529906806
 O          5.8080259633       -0.9542179659       -0.5431294344
 O          2.4412630952        1.8898092323       -1.1733103080
 O         -1.9351518830        3.2641636248       -0.2677474004
 O         -6.0748883197        0.5638462030        0.1542593864
 O         -2.7994490769       -2.1291312988       -1.1924223570
 C         -0.1989098056       -4.7709414216       -1.9023699870
 C          4.7491743358       -3.1264079178       -0.3990312820
 C          4.1301788753        1.5147401920       -2.8750611751
 C         -0.1855925764        4.5954433618       -1.3043321484
 C         -4.9992888190        2.7109767811        0.4579099343
 C         -4.6615265708       -1.5695995098       -2.6424660986
 O          0.6775355288       -4.9998723610       -2.9862685589
 O          4.4962066612       -3.2316778341       -1.7872272030
 O          3.1390763605        1.4159178385       -3.8825265070
 O         -1.1455597723        4.9590083312       -2.2746600929
 O         -4.8992811668        2.9977296476       -0.9241056266
 O         -3.7778897697       -1.3275176937       -3.7246973061
 C         -1.1182823992       -3.5678750234       -2.2027955450
 C          3.7223841263       -3.9580978067        0.4058777736
 C          4.4635398574        0.1279086642       -2.2990963185
 C          0.6936085713        3.4432184399       -1.8331470263
 C         -3.8879740426        3.4398673855        1.2499993524
 C         -4.9373251740       -0.2712213717       -1.8642591236
 O         -1.9551772237       -3.7913472605       -3.3252076778
 O          4.1468283718       -4.1838715850        1.7400515515
 O          4.9455424954       -0.7527565561       -3.2948900977
 O          1.4243486417        3.8125570348       -2.9900683276
 O         -4.1573439898        3.4570721300        2.6426467288
 O         -5.5318388210        0.7158623963       -2.6839557435
 C         -1.9248432620       -3.2140807751       -0.9355967849
 C          2.3305131020       -3.2763093110        0.3557799847
 C          5.4595347212        0.2853912546       -1.1275065647
 C          1.6099054909        2.9350540628       -0.7003425640
 C         -2.5102075644        2.7967542090        0.9492884191
 C         -5.7989238950       -0.5880525274       -0.6199463665
 C         -0.9349174975       -2.9371508805        0.2131780843
 C          2.4059403280       -1.7505416091        0.6218524280
 C          4.9189993556        1.3122827782       -0.0959444242
 C          0.7345625332        2.5140526937        0.4974677198
 C         -2.5549953264        1.2491973113        1.0030201348
 C         -5.1536088433       -1.7288288987        0.2103430806
 O         -0.2079961377       -4.1326608201        0.4942065863
 O          3.4332884853       -1.0915847763       -0.1251431249
 O          4.6544852435        2.5697456879       -0.7198602494
 O          0.0265670415        3.6556061181        0.9813893300
 O         -3.6683725291        0.6752556799        0.3105974570
 O         -4.9521399381       -2.8895639159       -0.5945838110
 C         -1.6111926810       -2.4238380601        1.4735239169
 C          2.4621918812       -1.4331608815        2.1013560275
 C          5.8351091909        1.4961669544        1.1127726808
 C          1.5420635328        1.8786797216        1.6195718934
 C         -2.4089531644        0.7426376561        2.4214836993
 C         -5.9468507574       -2.0823330154        1.4669227033
 O         -2.4730590085       -3.3849858740        2.0122342835
 O          1.2983709324       -0.9626336674        2.6228194103
 O          5.4249455495        2.5513681559        1.9454904602
 O          2.4735287993        2.7799039817        2.1465559212
 O         -1.1555496690        0.3110220912        2.7243819656
 O         -5.4213830426       -3.1928479717        2.1507671770
 H          1.1280159350       -5.4449599481       -0.3050790737
 H          4.9086761311       -1.5831456801        1.1479273303
 H          3.4146709693        3.4248964925       -2.1029343470
 H         -1.3692451385        5.0522271492        0.4694946468
 H         -4.9838859250        0.9777354402        1.7996134014
 H         -3.8692031741       -3.5508074283       -2.1959180546
 H         -0.8174977283       -5.6743334865       -1.7976090838
 H          5.7605653301       -3.5323695491       -0.2341465551
 H          5.0318576401        1.9383916520       -3.3425153438
 H          0.4454015311        5.4805686032       -1.1339695223
 H         -5.9853645916        3.0804687052        0.7833581256
 H         -5.6057269309       -1.9491538873       -3.0611010660
 H          1.4687650324       -4.4345001305       -2.8866508695
 H          4.7413012823       -2.4025930350       -2.2566157836
 H          2.4870647258        2.1393717216       -3.7494634363
 H         -1.9352516996        4.3916809838       -2.1769019223
 H         -5.2000217817        2.2357296884       -1.4687557846
 H         -3.1090123246       -2.0472640569       -3.7489039026
 H         -0.4866904958       -2.7031763174       -2.4545281783
 H          3.6432271703       -4.9492601507       -0.0666785511
 H          3.5251967894       -0.3026185702       -1.9164587226
 H          0.0358452696        2.6144256394       -2.1340591898
 H         -3.8646151896        4.4904965612        0.9220125621
 H         -3.9645821675        0.1270453514       -1.5368736675
 H         -1.4654740187       -4.2672253159       -4.0157856332
 H          4.0137351606       -3.3518632554        2.2423500152
 H          4.4857607694       -0.5911130193       -4.1354942926
 H          0.8772853727        4.3747339929       -3.5626903640
 H         -3.9557795042        2.5650572569        2.9993367840
 H         -5.1734469856        0.6628774522       -3.5855872382
 H         -2.5444571721       -4.0709016373       -0.6353865179
 H          1.7335261801       -3.7126753516        1.1742512435
 H          6.4040481518        0.6684887042       -1.5413077394
 H          2.2671498513        3.7467637234       -0.3576803865
 H         -1.8317589656        3.1205704013        1.7570698214
 H         -6.7819919285       -0.9300723413       -0.9744328335
 H         -0.2094483239       -2.1981707661       -0.1486573566
 H          1.4872711254       -1.2950270546        0.2274019514
 H          3.9390455522        0.9539919600        0.2457988969
 H         -0.0141360821        1.8030507143        0.1279320255
 H         -1.6963523486        0.8705543240        0.4321093089
 H         -4.1467442347       -1.4006782078        0.4997034432
 H         -2.2018952116       -1.5274465245        1.2604723795
 H         -0.8625771410       -2.1539887611        2.2292863521
 H          5.9004547892        0.5779731237        1.7097341999
 H          6.8497333152        1.7389554830        0.7788118188
 H          2.0935898792        1.0061957108        1.2551551049
 H          0.8829355935        1.5360792025        2.4280997935
 H         -5.9976348643       -1.2327055931        2.1591560922
 H         -6.9749487149       -2.3450686826        1.1941009097
 H         -1.9842242926       -4.2108393706        2.1661992796
 H          4.4432888329        2.6070285164        2.0082330094
 H          2.0138881471        3.5738427615        2.4669215139
 H         -4.4375095353       -3.2216372134        2.1055686779
 C         -1.0615822434       -0.0395220649        4.0851744513
 H         -1.4518743252       -1.0548771747        4.2109630915
 H         -1.7095415601        0.6452852590        4.6456280879
 O         -3.3429989569        0.7950538659        3.1879639751
 C          1.4261212394       -0.7844606069        4.0146941035
 H          2.4026322584       -0.3212593224        4.1975011707
 H          1.4325925109       -1.7741681674        4.4836014700
 O          3.4773999441       -1.6357582320        2.7267387926
 C          0.3455132462        0.0802632040        4.6019129536
 O          0.6043608856        0.8595569529        5.4784928911
 O          7.0757755993        2.8383108369       -2.3119037091
 H          7.5200826401        3.6827153896       -2.2713107896
 H          6.3035730690        2.8896788409       -1.7180273318
 O         -1.0301162707        7.0418320323        0.9865925336
 H         -1.4712828114        7.8181345510        0.6427354568
 H         -0.5872435171        7.3058325142        1.7926201899
  136
        -21.27408124
 C          0.6974866140       -4.4356068250       -0.1634842232
 C          4.9556857467       -1.6767125016        0.2744997001
 C          4.0751776667        2.3975229630       -1.6241768216
 C         -0.3327829380        4.4584779589        0.1151090948
 C         -4.4628684677        1.6320085440        0.7885308438
 C         -3.6251231768       -2.1012438867       -1.8025748961
 O          1.7818742149       -3.6068890438       -0.5279942194
 O          6.0635255065       -1.0564041495       -0.3632112396
 O          2.8445788043        1.9590295203       -1.0678489714
 O         -1.4288591887        3.6055675142       -0.1339405720
 O         -5.6025431479        1.0213799871        0.1937131054
 O         -2.3369258980       -1.7732295686       -1.3201260933
 C         -0.1205537418       -4.8431643638       -1.4169746695
 C          4.9358875148       -3.1784102607       -0.1064013976
 C          4.4967543377        1.4285622221       -2.7596861745
 C          0.3793714816        4.8141597429       -1.2224068389
 C         -4.4999804369        3.1640352362        0.5411004369
 C         -4.1771320286       -0.9625483102       -2.7062513432
 O          0.7525294636       -5.3166844755       -2.4212629634
 O          4.6855449812       -3.3458488598       -1.4896040076
 O          3.4822447696        1.3566831393       -3.7477246067
 O         -0.5759491337        5.2154269917       -2.1822800138
 O         -4.3771653835        3.4758543825       -0.8322458247
 O         -3.2698928187       -0.6797809595       -3.7447031132
 C         -0.9456734383       -3.6525238175       -1.9492914686
 C          3.8824615534       -3.9314151244        0.7410340683
 C          4.7563165420        0.0433882791       -2.1406344252
 C          1.1836316797        3.6027145137       -1.7422064463
 C         -3.3874680091        3.8712052098        1.3530586910
 C         -4.4629849335        0.2966707839       -1.8641985264
 O         -1.8343450251       -4.0748187703       -2.9652547679
 O          4.2913962675       -4.0705420632        2.0919518842
 O          5.1760983147       -0.9005380067       -3.1061038485
 O          1.9190008919        3.9001936706       -2.9170893378
 O         -3.6932993430        3.9297448318        2.7363482145
 O         -5.1000704950        1.3100978785       -2.6186409063
 C         -1.7078958878       -2.9415302942       -0.8061673615
 C          2.5068207703       -3.2232412164        0.6392273336
 C          5.7708012431        0.1819177203       -0.9819284855
 C          2.0849855517        3.0645949739       -0.6109403201
 C         -2.0196369139        3.1876854069        1.0956586902
 C         -5.3166420728       -0.0888409743       -0.6350729572
 C         -0.7323392867       -2.6299917742        0.3513101755
 C          2.6226017188       -1.6838151949        0.7932317723
 C          5.2950307073        1.2624752933        0.0239708821
 C          1.1940695286        2.7188751727        0.5975864883
 C         -2.1101613550        1.6435114444        1.1792589620
 C         -4.6412750132       -1.2556561646        0.1209449321
 O         -0.1315266288       -3.8336588818        0.8279848780
 O          3.6824753639       -1.0969036885        0.0314262081
 O          5.0981403699        2.5114648601       -0.6377519800
 O          0.5697764899        3.9092056287        1.0774283598
 O         -3.1966574661        1.1002787447        0.4231480663
 O         -4.5186693904       -2.3926049728       -0.7304128605
 C         -1.3903778455       -1.9088618994        1.5180897468
 C          2.6468777029       -1.2782274032        2.2510966271
 C          6.2335098279        1.4314486993        1.2175875143
 C          1.9520594110        2.0311382154        1.7204991162
 C         -2.0778073271        1.1403931194        2.6082332231
 C         -5.3391195406       -1.6322486403        1.4210753778
 O         -2.4052628894       -2.6853201104        2.0903305403
 O          1.4567315188       -0.8106479571        2.7143774774
 O          5.8570577313        2.4889432497        2.0643519487
 O          2.9335837341        2.8710886192        2.2576327443
 O         -0.8858642001        0.6114399303        2.9934640863
 O         -6.5989251127       -2.1904969798        1.1842843837
 H          1.1320961637       -5.3376685030        0.2941716222
 H          5.1261677745       -1.5545116107        1.3536040448
 H          3.9115721462        3.4033614039       -2.0405063059
 H         -0.7458687749        5.3746225855        0.5636895395
 H         -4.5557279865        1.4233366437        1.8643889622
 H         -3.5186867586       -3.0242067659       -2.3952158782
 H         -0.8078598472       -5.6688744993       -1.1802213900
 H          5.9345363325       -3.6040294042        0.0842807893
 H          5.4152916773        1.7856994580       -3.2491200565
 H          1.0649850023        5.6628617870       -1.0829086445
 H         -5.4825549360        3.5472209114        0.8613158782
 H         -5.1135636697       -1.2719941979       -3.1942118277
 H          1.5681985888       -4.7786415670       -2.4170034771
 H          4.9312987238       -2.5374659184       -1.9941122841
 H          2.8788481696        2.1240642390       -3.6306901545
 H         -1.3907550034        4.6877855807       -2.0660273143
 H         -4.7198227930        2.7457055840       -1.3943872806
 H         -2.3719107149       -0.5830560487       -3.3811978622
 H         -0.2604618562       -2.9207240091       -2.4004761522
 H          3.7826474970       -4.9503557592        0.3368480802
 H          3.7976518610       -0.3171013132       -1.7378078172
 H          0.4738709305        2.8082315162       -2.0158714339
 H         -3.3257672032        4.9136285844        1.0044504652
 H         -3.5029588033        0.7050185518       -1.5161370450
 H         -1.3654870669       -4.5903051070       -3.6411970806
 H          4.1670122612       -3.2027969514        2.5335973873
 H          4.7021061543       -0.7565446296       -3.9419736727
 H          1.3979084727        4.4791700023       -3.4971828312
 H         -3.5560261205        3.0334929161        3.1102615739
 H         -4.7389508896        1.3765667500       -3.5320599657
 H         -2.5018274857       -3.5961783785       -0.4198402387
 H          1.9108946490       -3.5739853748        1.4990154690
 H          6.7262458774        0.5111015708       -1.4154241312
 H          2.7926669616        3.8422246914       -0.2909989795
 H         -1.3408550965        3.5154976558        1.9007014878
 H         -6.2958836273       -0.4319813107       -1.0009102822
 H          0.0708570307       -2.0135978639       -0.0682867080
 H          1.7283698843       -1.2292289250        0.3479259304
 H          4.3016216594        0.9662288282        0.3856208588
 H          0.3960035743        2.0632811099        0.2309427734
 H         -1.2303926071        1.2276037782        0.6722646412
 H         -3.6116931082       -0.9392971565        0.3307496962
 H         -1.8327012139       -0.9635715715        1.1937078312
 H         -0.6504309192       -1.6719327725        2.2942990536
 H          6.2955520242        0.5104120699        1.8101430475
 H          7.2445184544        1.6619772492        0.8641027694
 H          2.4484467553        1.1254123844        1.3578965907
 H          1.2626071579        1.7321462493        2.5201180683
 H         -4.7353445268       -2.3569881720        1.9826687946
 H         -5.4876650817       -0.7529171017        2.0578456415
 H         -2.0471817891       -3.5440035328        2.3739720972
 H          4.8778541991        2.5795839495        2.1278895591
 H          2.5267978637        3.7062905391        2.5436999432
 H         -6.5238430340       -2.9542358292        0.5870205773
 C         -0.9447185063        0.2282774111        4.3475529481
 H         -1.9017962307       -0.2838526479        4.5005037103
 H         -0.9546728563        1.1396832841        4.9554632552
 O         -3.0530364915        1.2550180966        3.3143798068
 C          1.5230409853       -0.5665838502        4.1007738682
 H          1.9691957411        0.4203478259        4.2612642341
 H          2.1975851638       -1.3153953960        4.5325268241
 O          3.6494101470       -1.4320010346        2.9103384379
 C          0.1788695167       -0.6782120099        4.7674819786
 O          0.0072906002       -1.4811463850        5.6444325781
 O         -4.1540497375        1.7206925424       -5.3468257281
 H         -4.5247135109        1.3410722226       -6.1420460719
 H         -3.5034109816        2.3637605544       -5.6250900009
 O         -7.2110780025       -1.6060764867       -3.0208276506
 H         -7.8714763325       -0.9779244689       -3.3178067197
 H         -7.5341035749       -2.4730108564       -3.2667175694
  136
        -21.27407571
 C          0.7693595048       -4.2404182017       -0.1488451179
 C          4.7617963360       -1.3631626943        0.4901509673
 C          3.9854976669        2.5052318504       -1.8542071555
 C         -0.7174719600        4.4815350603       -0.8207767015
 C         -4.7890153653        1.7195181719        0.0955347995
 C         -3.9364932277       -2.4851234666       -1.5028165120
 O          1.6490003169       -3.1539430335       -0.3406259919
 O          5.9045486767       -0.7930704694       -0.1346836505
 O          2.7208182101        2.1127669529       -1.3266424466
 O         -1.6687087363        3.4447765508       -0.9380880414
 O         -5.9192850436        1.0466790110       -0.4394199064
 O         -2.6701197020       -2.0216651985       -1.0414997594
 C          0.0437988836       -4.5993138409       -1.4745695386
 C          4.6939758915       -2.8832617611        0.1887124189
 C          4.4845254974        1.4301952099       -2.8559886728
 C          0.0830868285        4.6773657125       -2.1410142860
 C         -4.7401605119        3.1809376270       -0.4177762876
 C         -4.4314075159       -1.6050868085       -2.6836816860
 O          0.9644522959       -4.8755923432       -2.5091712599
 O          4.3905975868       -3.0994466739       -1.1757670301
 O          3.5487560673        1.2611475293       -3.9032857273
 O         -0.7797032158        4.8832648315       -3.2395158880
 O         -4.4253405576        3.2012289634       -1.7979646627
 O         -3.4853725565       -1.6039484844       -3.7346400054
 C         -0.8838524392       -3.4356875105       -1.8656945714
 C          3.6186241091       -3.5469866870        1.0853717541
 C          4.6918272721        0.1240985693       -2.0726891591
 C          0.9886484489        3.4541356163       -2.3748517707
 C         -3.6803279647        3.9783024140        0.3846747384
 C         -4.6602815095       -0.1856535246       -2.1471795362
 O         -1.5979699706       -3.7501872347       -3.0426985891
 O          4.0151032703       -3.6151364293        2.4449255261
 O          5.1480324391       -0.9190223268       -2.9045547762
 O          1.7522202695        3.6035793911       -3.5531480386
 O         -4.0844313610        4.2245780571        1.7215646949
 O         -5.0999532211        0.7004741140       -3.1515153042
 C         -1.8175624362       -3.1036948819       -0.6846351341
 C          2.2710473754       -2.7945638173        0.8889865956
 C          5.6456543889        0.3795611541       -0.8855826481
 C          1.8638602201        3.2283887373       -1.1250466661
 C         -2.3203356366        3.2292756089        0.3141371500
 C         -5.6353665571       -0.2408243098       -0.9529457696
 C         -0.9940465271       -2.8411005546        0.5994465474
 C          2.4277676812       -1.2498956309        0.9590330765
 C          5.1121302645        1.5509899726       -0.0258160092
 C          0.9472627625        3.0738926697        0.1089895283
 C         -2.4609061131        1.7066423208        0.5886879298
 C         -5.0939206730       -1.2238660088        0.1156136866
 O         -0.1766780002       -3.9799215515        0.8887221220
 O          3.5169643856       -0.7561814884        0.1796639547
 O          4.9473571524        2.7236590466       -0.8234595426
 O          0.1661803264        4.2589759002        0.2802643719
 O         -3.5324543234        1.1017596146       -0.1324925627
 O         -4.8965871423       -2.5229459081       -0.4479105623
 C         -1.9016332774       -2.5429625488        1.7902213351
 C          2.4328442525       -0.6997226745        2.3701859728
 C          6.0359240505        1.8814413783        1.1394017612
 C          1.7336101818        2.7900539138        1.3795545766
 C         -2.4966212073        1.3278402237        2.0561620817
 C         -5.9874362363       -1.3234357060        1.3510461709
 O         -2.9096395332       -3.5095440778        1.9132824625
 O          1.4505526060        0.2182474710        2.6174981090
 O          7.2062975363        2.4793913324        0.6607971580
 O          2.5967011928        3.8456741718        1.6926659651
 O         -1.4881801813        0.4914160858        2.4155519812
 O         -5.3387395075       -1.9153613892        2.4524568778
 H          1.3796162712       -5.0944367515        0.1833232016
 H          4.8994362568       -1.2000452346        1.5692426318
 H          3.8577017429        3.4619247493       -2.3807436041
 H         -1.2796473451        5.4007095052       -0.5982028898
 H         -4.9232224911        1.7031259336        1.1870141778
 H         -3.8162671958       -3.5176729240       -1.8617680379
 H         -0.5658330139       -5.5039223362       -1.3240050967
 H          5.6836182845       -3.3315700478        0.3667406758
 H          5.4409176936        1.7441452738       -3.3005666275
 H          0.7186079478        5.5723629102       -2.0513667050
 H         -5.7375725437        3.6350815143       -0.3139056586
 H         -5.3785966346       -2.0029055980       -3.0783483625
 H          0.5099379583       -4.9185504683       -3.3670260310
 H          3.4131612324       -3.1152986470       -1.2467822789
 H          3.7633248100        0.4701828771       -4.4216604311
 H         -0.2871250476        4.8224286781       -4.0747766839
 H         -3.4481105991        3.2280071509       -1.8666617317
 H         -3.7045452530       -0.9158329065       -4.3816940370
 H         -0.2557057445       -2.5584532820       -2.0831619648
 H          3.4973046753       -4.5949347873        0.7673193705
 H          3.7008265589       -0.1643010381       -1.6867322144
 H          0.3363350395        2.5787358426       -2.5175811848
 H         -3.5671368470        4.9679961260       -0.0830005814
 H         -3.6761134878        0.1693817778       -1.8018875097
 H         -2.1848511972       -3.0052484035       -3.3063066869
 H          3.8185035143       -2.7499100819        2.8607847388
 H          5.0755465603       -1.7597351133       -2.4064008990
 H          2.2995457703        2.8009770598       -3.7145579661
 H         -3.9080038957        3.4106581349        2.2400970784
 H         -5.0505389311        1.6131841555       -2.7964580769
 H         -2.4580510239       -3.9712085847       -0.4756412031
 H          1.5901723893       -3.1004043149        1.6995104367
 H          6.6257967608        0.6714670298       -1.2899862012
 H          2.5010128463        4.1063017149       -0.9502737982
 H         -1.6672821838        3.6501489304        1.0952095774
 H         -6.6002405213       -0.6203423531       -1.3187137382
 H         -0.3143510545       -1.9972401771        0.4198105816
 H          1.5491595554       -0.8184312726        0.4548619047
 H          4.1105172517        1.2754176413        0.3310767947
 H          0.2452810640        2.2529856425       -0.0890814867
 H         -1.5732093134        1.2192430354        0.1585995909
 H         -4.0973340174       -0.8717742473        0.4169643551
 H         -2.3930775634       -1.5715808177        1.6738232541
 H         -1.3304637596       -2.5067331953        2.7283014407
 H          5.5546023135        2.5765808682        1.8403320455
 H          6.3221053418        0.9792024302        1.6919871588
 H          2.3431208586        1.8874918522        1.2680047337
 H          1.0567405477        2.6210543666        2.2258409221
 H         -6.3263045226       -0.3298733617        1.6678939016
 H         -6.8784399602       -1.9186705636        1.1198223380
 H         -2.5221009391       -4.3858520451        2.0734115001
 H          6.9746184032        3.2039706139        0.0509180662
 H          2.1024140914        4.6800607244        1.7654312935
 H         -4.6194769016       -2.5307584164        2.1798466385
 C         -1.4499229168        0.2841426130        3.8086037948
 H         -2.3378741397       -0.2880833398        4.0964593141
 H         -1.4908260289        1.2599785311        4.3048501591
 O         -3.3561747974        1.7620329075        2.7860710030
 C          1.1069998029        0.2536330963        3.9902103008
 H          1.0412244542        1.3002049502        4.3041756857
 H          1.9014581187       -0.2347093577        4.5671191496
 O          3.2419038438       -1.0915037620        3.1778764227
 C         -0.2001596719       -0.4610366751        4.1846730502
 O         -0.2380486888       -1.6094765299        4.5289345458
 O         -4.0031137416        1.1917397290        5.5611098089
 H         -3.8281103367        1.4134823850        4.6266294750
 H         -4.9505739067        1.2385602267        5.6836861870
 O          2.9863860310       -6.4377202674       -0.2023670602
 H          3.0777434465       -7.2640485171        0.2719888207
 H          3.2248152390       -6.6179995949       -1.1147209944
  136
        -21.27402699
 C          0.5832146919       -4.5219571470       -0.4592472080
 C          4.6932870939       -1.5902076074        0.0101385566
 C          3.5286414194        2.4369205472       -1.8135026036
 C         -0.9574648848        4.1918562039        0.0322223601
 C         -4.9401965900        1.1450338677        0.7617981148
 C         -3.9532893350       -2.4713365238       -1.8822404581
 O          1.6099820218       -3.6128093838       -0.7915691128
 O          5.7521862111       -0.8986465543       -0.6378418938
 O          2.3452938136        1.9071806354       -1.2351007494
 O         -2.0136800684        3.2939859061       -0.2242012083
 O         -6.0723290553        0.5063919609        0.1819031117
 O         -2.6952752107       -2.0528480009       -1.3881929390
 C         -0.2318799911       -4.9164371416       -1.7205102579
 C          4.7381957907       -3.0812665374       -0.4127325672
 C          3.9939639446        1.5162218950       -2.9705662992
 C         -0.2821480201        4.6144782350       -1.3032803814
 C         -5.0484043439        2.6775861549        0.5407404498
 C         -4.5892850793       -1.3671392252       -2.7666744778
 O          0.6510537615       -5.2657647210       -2.7666881613
 O          4.4763736311       -3.2274378897       -1.7958632643
 O          2.9710543246        1.3897598834       -3.9442175357
 O         -1.2651416066        4.9817140107       -2.2488625312
 O         -4.9795431593        3.0164504770       -0.8306657716
 O         -3.7416177223       -0.9973102776       -3.8318455159
 C         -1.1578788383       -3.7652018403       -2.1697806595
 C          3.7377198380       -3.9130786897        0.4248647706
 C          4.3575923824        0.1443598038       -2.3772805474
 C          0.5783890092        3.4578988548       -1.8533218778
 C         -3.9429852106        3.4170224283        1.3318850819
 C         -4.9317125194       -0.1419431827       -1.9004033443
 O         -2.0380055197       -4.1977142387       -3.1890616321
 O          4.1877677226       -4.1074724904        1.7552938815
 O          4.8212084479       -0.7511088617       -3.3676510793
 O          1.2742004862        3.8157778446       -3.0351833405
 O         -4.1966705604        3.4094037007        2.7271851447
 O         -5.6002024203        0.8491202369       -2.6596241702
 C         -1.9386897254       -3.1817543840       -0.9691826971
 C          2.3326635266       -3.2579661628        0.3864783554
 C          5.3847008637        0.3300621896       -1.2373717178
 C          1.5267388171        2.9546074563       -0.7451920980
 C         -2.5553122931        2.8105310881        1.0026699130
 C         -5.7725493056       -0.5774002282       -0.6813290291
 C         -0.9449869290       -2.8382794717        0.1613174592
 C          2.3863069658       -1.7233807081        0.6088484679
 C          4.8733736574        1.3747806645       -0.2105950635
 C          0.6837254283        2.5350445994        0.4751587600
 C         -2.5680125105        1.2632930763        1.0437063949
 C         -5.0913610146       -1.7580371725        0.0560595708
 O         -0.2562709554       -4.0168906386        0.5758612498
 O          3.3861810295       -1.0657453977       -0.1759972395
 O          4.5639949158        2.6126370934       -0.8507435990
 O         -0.0153101786        3.6742689853        0.9776817876
 O         -3.6676350981        0.6722988208        0.3433406213
 O         -4.8461612625       -2.8491960129       -0.8339508315
 C         -1.6123008375       -2.2296104556        1.3810461155
 C          2.4719610317       -1.3682453210        2.0791456837
 C          5.8538760793        1.6103871217        0.9349499387
 C          1.5218811632        1.8976276167        1.5730956506
 C         -2.4059610058        0.7480501271        2.4572814772
 C         -5.8889860247       -2.2230557213        1.2732283194
 O         -2.4059485367       -3.1904586833        2.0131773407
 O          1.3170263701       -0.8936623540        2.6168778849
 O          5.4250026609        2.6060125815        1.8294169161
 O          2.4693202888        2.7958243191        2.0763785580
 O         -1.1367035622        0.3603078240        2.7532382099
 O         -5.3192528709       -3.3373891607        1.9101374279
 H          1.0771675641       -5.4184109338       -0.0539152629
 H          4.8918959856       -1.4895653718        1.0870760107
 H          3.2849933778        3.4335949778       -2.2127174564
 H         -1.4167350505        5.0765520639        0.5012469543
 H         -4.9902874531        0.9097707153        1.8350279289
 H         -3.7728978158       -3.3729371236       -2.4890987070
 H         -0.8501528885       -5.8040692489       -1.5200186595
 H          5.7588670291       -3.4628767706       -0.2469580506
 H          4.8784281774        1.9415592878       -3.4681879026
 H          0.3565507031        5.4970866901       -1.1497136425
 H         -6.0364755428        3.0136773738        0.8949529442
 H         -5.5154237423       -1.7444286085       -3.2242537824
 H          1.4293637488       -4.6751691126       -2.7416086491
 H          4.6811187936       -2.3991055473       -2.2857728279
 H          2.3212598128        2.1145518312       -3.8075213699
 H         -2.0552422059        4.4189386859       -2.1288332685
 H         -5.2892368130        2.2764227340       -1.3991721839
 H         -2.8395529865       -0.8444072403       -3.5005374830
 H         -0.5409628749       -2.9600164436       -2.5935968495
 H          3.6666330276       -4.9139004891       -0.0280129638
 H          3.4342508819       -0.2870478310       -1.9614307197
 H         -0.0907750158        2.6291949669       -2.1279112813
 H         -3.9463862088        4.4725944575        1.0190563707
 H         -3.9903800531        0.3006237670       -1.5443519859
 H         -1.5502614448       -4.6447301588       -3.8992299439
 H          4.0555412367       -3.2653157391        2.2403147853
 H          4.3251408511       -0.6217044722       -4.1931373473
 H          0.7106924447        4.3742208066       -3.5954605837
 H         -3.9802460879        2.5144741104        3.0671220202
 H         -5.2847809129        0.8454257643       -3.5788871272
 H         -2.6507807366       -3.9266074449       -0.5873168735
 H          1.7665190447       -3.6756585776        1.2359713520
 H          6.3172606567        0.7095099810       -1.6819703943
 H          2.1920772897        3.7680478653       -0.4230573686
 H         -1.8691456180        3.1445109955        1.7995197058
 H         -6.7492343357       -0.9171531913       -1.0550185095
 H         -0.2020914172       -2.1484946767       -0.2569052763
 H          1.4514436270       -1.2926061722        0.2269399815
 H          3.9216126944        1.0073174386        0.1950417294
 H         -0.0713927472        1.8229274752        0.1231054465
 H         -1.7027708685        0.9079486069        0.4688595007
 H         -4.1005023252       -1.4189991756        0.3802961577
 H         -2.2432327231       -1.3784962271        1.1111291797
 H         -0.8582237227       -1.8764268584        2.0967725772
 H          6.0424411398        0.6869276818        1.4958748408
 H          6.8119916895        1.9566297855        0.5301712471
 H          2.0622654052        1.0258965106        1.1903977180
 H          0.8848445730        1.5530650301        2.3982569583
 H         -6.0016328155       -1.4144795776        2.0061918239
 H         -6.8950254445       -2.5250402064        0.9619858916
 H         -1.8710715296       -3.9942172425        2.1499982906
 H          4.4427960433        2.6384203812        1.9033032850
 H          2.0192166102        3.5888069179        2.4126172383
 H         -4.3389752486       -3.2587555977        1.9685256969
 C         -1.0293015623       -0.0117019262        4.1067728979
 H         -1.3981362040       -1.0371169278        4.2158225684
 H         -1.6884908834        0.6494678538        4.6820994256
 O         -3.3402851050        0.7578648436        3.2250779656
 C          1.4742950956       -0.6979433716        4.0035828112
 H          2.4373025301       -0.1974428681        4.1564604564
 H          1.5315298371       -1.6829572811        4.4789500577
 O          3.5024399219       -1.5476405565        2.6865402225
 C          0.3780278010        0.1274854538        4.6179042727
 O          0.6244236977        0.8896613838        5.5130223794
 O          8.3090939917        1.6181652588       -0.9373377667
 H          8.6587509817        2.3839531807       -1.3927133147
 H          9.0404803298        1.0125462876       -0.8153971089
 O         -1.0171065309        7.0670473668        1.0078015096
 H         -1.4880051321        7.8382865113        0.6930301707
 H         -0.5235168979        7.3370456710        1.7817637524
  136
        -21.27398015
 C          0.7364957601       -4.1846531930       -0.4214886848
 C          4.8703721368       -1.4329412665        0.4516932353
 C          4.0343431587        2.6094534432       -1.5053353161
 C         -0.5449158374        4.5515687214       -0.1294546849
 C         -4.7113558533        1.6942793727        0.3710951412
 C         -3.8240284913       -2.2177548774       -1.8135028851
 O          1.7618975736       -3.2398558534       -0.6279098252
 O          6.0128105351       -0.7922447839       -0.1000614132
 O          2.7843095058        2.1336384075       -1.0260109203
 O         -1.5914049502        3.6649650913       -0.4613779077
 O         -5.8388144387        1.0851748990       -0.2429095878
 O         -2.5809768360       -1.7600727441       -1.3026243891
 C         -0.0091602669       -4.4876833904       -1.7540660437
 C          4.8685267546       -2.9246705614        0.0247965985
 C          4.5612524233        1.6547660782       -2.6075148965
 C          0.2629606863        4.9141117034       -1.4075292056
 C         -4.7199092211        3.2115152338        0.0563316231
 C         -4.3515937261       -1.2087400159       -2.8657604376
 O          0.9188852385       -4.7841777287       -2.7774407838
 O          4.7282673684       -3.0609469281       -1.3758412900
 O          3.6230726150        1.5497541040       -3.6652237609
 O         -0.6180142477        5.2857406791       -2.4467397868
 O         -4.5158950177        3.4449730835       -1.3243914179
 O         -3.4048927098       -1.0437963912       -3.9084776844
 C         -0.9006374567       -3.2916868923       -2.1553736003
 C          3.7522177756       -3.6959917052        0.7699148129
 C          4.8217750919        0.2773846984       -1.9731539553
 C          1.1284414779        3.7144756938       -1.8451714919
 C         -3.6445495903        3.9345283950        0.9021028265
 C         -4.6245901860        0.1295933370       -2.1569255361
 O         -1.6946693143       -3.5608728533       -3.2997899456
 O          4.0783075343       -3.8986071891        2.1339127068
 O          5.3448464294       -0.6392344418       -2.9141661738
 O          1.9373728483        4.0158521748       -2.9692719801
 O         -4.0084288970        4.0023089664        2.2716392870
 O         -5.1442539593        1.1014944586       -3.0424651680
 C         -1.7614932565       -2.8600677115       -0.9476200166
 C          2.3972127287       -2.9572433764        0.6140858520
 C          5.7461189855        0.4400195271       -0.7441789847
 C          1.9562743603        3.2174705086       -0.6415062246
 C         -2.2677676095        3.2455747158        0.7203674912
 C         -5.5536251284       -0.1088579491       -0.9442131399
 C         -0.8290693472       -2.5621985149        0.2441561249
 C          2.5151090682       -1.4316311483        0.8545406858
 C          5.1772163659        1.5141430082        0.2209016669
 C          0.9927172154        2.8628133417        0.5094723770
 C         -2.3626617867        1.7016454842        0.8093930863
 C         -4.9721210047       -1.2207679566       -0.0359384491
 O         -0.1549871117       -3.7646890737        0.6113550653
 O          3.6151819423       -0.8322593427        0.1644125124
 O          4.9894171048        2.7552544424       -0.4573903596
 O          0.2925808002        4.0406079507        0.9122253838
 O         -3.4420704472        1.1403935278        0.0554077480
 O         -4.7788583569       -2.4242795069       -0.7763967139
 C         -1.5450608549       -1.9625558826        1.4439210680
 C          2.4809742488       -1.0853566720        2.3278430538
 C          6.0290159245        1.7156594849        1.4728669666
 C          1.7048860683        2.2337051767        1.6977036155
 C         -2.3340237425        1.2292085125        2.2471782439
 C         -5.8377734482       -1.4895394795        1.1886868010
 O         -2.4947427108       -2.8411153384        1.9754407129
 O          1.2978303832       -0.5703411411        2.7556360334
 O          5.5772655749        2.7790070373        2.2745686311
 O          2.6345395408        3.1156541880        2.2595078674
 O         -1.1178532275        0.7744112654        2.6513832475
 O         -7.1095629240       -1.9506548935        0.8289408681
 H          1.2236910410       -5.1002226465       -0.0528194195
 H          4.9842949659       -1.3474496596        1.5420825919
 H          3.8674535157        3.6091493847       -1.9349337753
 H         -1.0202563727        5.4595275758        0.2718194807
 H         -4.8370410546        1.5250512764        1.4501971222
 H         -3.6479870347       -3.1923485282       -2.2943493553
 H         -0.6435713140       -5.3781683199       -1.6384534370
 H          5.8463066037       -3.3638675970        0.2820684139
 H          5.4999673284        2.0410469447       -3.0324360643
 H          0.9178772251        5.7781594216       -1.2217541271
 H         -5.7150595759        3.6180552253        0.2996529509
 H         -5.2849159621       -1.5772728285       -3.3171090478
 H          1.5373531901       -4.0374333017       -2.8756692698
 H          5.0290837802       -2.2508422321       -1.8459442746
 H          2.9878362106        2.2964868247       -3.5929975626
 H         -1.4236197902        4.7346167974       -2.3987923273
 H         -4.8120936220        2.6752171481       -1.8608033704
 H         -2.7625175169       -1.7868478083       -3.8667435385
 H         -0.2509128329       -2.4455679020       -2.4223148610
 H          3.6600507953       -4.7003122754        0.3232165361
 H          3.8503960713       -0.1202453711       -1.6412274702
 H          0.4586743514        2.8986297855       -2.1548624418
 H         -3.5686101119        4.9729040414        0.5448474645
 H         -3.6572042613        0.5108532715       -1.7949038453
 H         -1.1975797459       -4.1009837151       -3.9359696950
 H          3.9428017423       -3.0485379616        2.6048881857
 H          4.9326427451       -0.4982083236       -3.7827779775
 H          1.4433877264        4.5734805269       -3.5923448265
 H         -3.8618920475        3.1153664944        2.6660630388
 H         -4.7290195732        1.0131715833       -3.9167331528
 H         -2.4260889681       -3.6827209832       -0.6479184133
 H          1.7329777740       -3.3502836837        1.4025249013
 H          6.7251966384        0.7839168199       -1.1078416490
 H          2.6146771197        4.0210633529       -0.2826039962
 H         -1.6405870586        3.5716131700        1.5675963665
 H         -6.5291844327       -0.4492008287       -1.3210199602
 H         -0.0593273506       -1.8648750638       -0.1111901521
 H          1.6423719422       -0.9521126873        0.3892482954
 H          4.1697382679        1.1940893602        0.5178700049
 H          0.2450376887        2.1656169159        0.1128179179
 H         -1.4775662199        1.2839004907        0.3108217960
 H         -3.9669534645       -0.9027162666        0.2738598752
 H         -2.0696518438       -1.0443278174        1.1617449564
 H         -0.8249330408       -1.7012508729        2.2297922068
 H          6.0656905038        0.8041319782        2.0822932413
 H          7.0577684836        1.9598856407        1.1857992732
 H          2.2470940810        1.3335069708        1.3911313174
 H          0.9849293420        1.9350536770        2.4710350875
 H         -5.3610948797       -2.2285759019        1.8462053733
 H         -5.9851980354       -0.5707695508        1.7680203449
 H         -2.0874126430       -3.7005997646        2.1781511736
 H          4.5952476630        2.8604808977        2.2608361737
 H          2.1852384304        3.9301297170        2.5404715777
 H         -7.0618927533       -2.8277540159        0.3834168848
 C         -1.1340159246        0.4493407338        4.0216597248
 H         -1.5637950907       -0.5514268820        4.1371455113
 H         -1.7996966163        1.1642882063        4.5199067558
 O         -3.3201641745        1.3243937058        2.9410557791
 C          1.3289625105       -0.3681086447        4.1495714838
 H          2.3032271260        0.0696553073        4.3956908109
 H          1.2704540570       -1.3479925779        4.6352040633
 O          3.4436004865       -1.3053620867        3.0262461396
 C          0.2345250675        0.5394439478        4.6387924023
 O          0.4515105036        1.3295928484        5.5170447897
 O         -7.0563331741       -4.5749943530       -0.4219827222
 H         -7.5210820702       -4.8173996470       -1.2211548447
 H         -6.6727389876       -5.3771316808       -0.0708185013
 O          2.9238125566       -6.3025925092       -1.1102946227
 H          2.3106045377       -5.8858829510       -1.7421731318
 H          3.3743647370       -7.0015553345       -1.5808082065
  136
        -21.27395089
 C          0.6434652427       -4.5174491155       -0.3643300384
 C          4.6537594521       -1.4300703133        0.2086341305
 C          3.3885148278        2.5382631795       -1.7827466825
 C         -0.9092530510        4.3435020050        0.4751225927
 C         -4.8999383092        1.2582176073        0.8223030940
 C         -3.8846931728       -2.4232386092       -1.7925461865
 O          1.6607227770       -3.5933434044       -0.6898207685
 O          5.7147976547       -0.6552097652       -0.3372555068
 O          2.1529001716        2.0625331825       -1.2878900939
 O         -1.9833943940        3.5011930653        0.1046789185
 O         -5.9957908510        0.6320356026        0.1672379753
 O         -2.6402977835       -2.0506263898       -1.2287683593
 C         -0.1733953328       -4.9005700561       -1.6276079752
 C          4.7739568654       -2.9056575080       -0.2559995053
 C          3.9815007120        1.5833524904       -2.8563965921
 C         -0.1928429642        4.9886171497       -0.7449043115
 C         -4.9936463792        2.7950913557        0.6353464536
 C         -4.4441747683       -1.2918618139       -2.7005889935
 O          0.7075437506       -5.2103180988       -2.6877883606
 O          4.5172803144       -3.0427624566       -1.6410635649
 O          3.0693799784        1.3674093199       -3.9100265619
 O         -1.1137708157        5.6534929733       -1.5805510031
 O         -4.7153702331        3.1305431174       -0.7088829219
 O         -3.5481501367       -0.9748870174       -3.7452073472
 C         -1.1327769241       -3.7651871314       -2.0499113005
 C          3.7999646580       -3.7955690236        0.5546104140
 C          4.4163026543        0.2567689046       -2.2012372700
 C          0.6322283611        3.9446205607       -1.5298759423
 C         -3.9786982111        3.5060522446        1.5657651040
 C         -4.7182329630       -0.0631465342       -1.8202154496
 O         -2.0205557321       -4.2216956790       -3.0524684074
 O          4.2286873136       -3.9679047510        1.8956306170
 O          5.0610221396       -0.6047645350       -3.1130053145
 O          1.4464724398        4.5678210953       -2.5037371277
 O         -4.3364491895        3.4157565233        2.9354739052
 O         -5.2394537329        1.0062190945       -2.5766857427
 C         -1.9090731511       -3.2038692227       -0.8342948095
 C          2.3639491255       -3.2121239109        0.4918760319
 C          5.3074735489        0.5405756502       -0.9753018216
 C          1.5038059841        3.1032475560       -0.5650145933
 C         -2.5624376381        2.9333977255        1.2886858647
 C         -5.6559263311       -0.4631256151       -0.6638747872
 C         -0.9208243431       -2.8809113903        0.3070199153
 C          2.3400448246       -1.6789512511        0.7194320608
 C          4.6013091914        1.5401209176       -0.0337294460
 C          0.6305010386        2.5698028706        0.5902617684
 C         -2.5566639760        1.3801372083        1.2613771588
 C         -5.0597940806       -1.6669031119        0.1063113689
 O         -0.2009673719       -4.0523177899        0.6869190733
 O          3.3337708782       -0.9586100431       -0.0173490164
 O          4.3211477179        2.7593081292       -0.7256920117
 O          0.0259516416        3.6522488007        1.2963438903
 O         -3.6000512414        0.8146748327        0.4599435208
 O         -4.8319087987       -2.7665423494       -0.7803799815
 C         -1.6061726749       -2.2905506882        1.5300578397
 C          2.3408162008       -1.3424226351        2.1949873685
 C          5.4035217851        1.8057953446        1.2348498917
 C          1.3999142510        1.7143159555        1.5819317740
 C         -2.5037952268        0.7777647639        2.6509890435
 C         -5.9217304137       -2.0989425471        1.2906796713
 O         -2.4897208521       -3.2142823280        2.0993420078
 O          1.1191130200       -0.9973612756        2.6809538296
 O          6.6735865222        2.3139655574        0.9142820778
 O          2.4064593181        2.4567124820        2.2118514902
 O         -1.2873547128        0.2899121396        3.0132625490
 O         -5.4215359219       -3.2398468835        1.9394002827
 H          1.1529587443       -5.4145169549        0.0205104906
 H          4.7911955752       -1.3660240179        1.2979451003
 H          3.1876441237        3.5205253275       -2.2403211938
 H         -1.3444261252        5.1425663569        1.0947157058
 H         -5.0064779050        0.9931175022        1.8838071175
 H         -3.7082994128       -3.3282342067       -2.3952412063
 H         -0.7697269153       -5.8061037720       -1.4407787375
 H          5.8091252254       -3.2453561658       -0.0906416393
 H          4.8657118160        2.0494344823       -3.3132492583
 H          0.5024705764        5.7669239515       -0.3952315047
 H         -6.0227592924        3.1267089200        0.8411241925
 H         -5.3889682946       -1.6225583187       -3.1586530834
 H          1.4718289887       -4.6019927342       -2.6602649293
 H          4.7597580804       -2.2270295251       -2.1335269258
 H          2.2372771636        1.0021375706       -3.5644458009
 H         -1.8564503194        5.0618095192       -1.7955110399
 H         -3.7380689310        3.1933206897       -0.7701597378
 H         -3.8218162751       -0.1571154221       -4.1931917516
 H         -0.5508272698       -2.9392701361       -2.4847644029
 H          3.7906642701       -4.7968360530        0.0972158606
 H          3.5115790203       -0.2715479038       -1.8709743997
 H         -0.0516849360        3.2621697187       -2.0539957257
 H         -3.9781790039        4.5797111933        1.3230333872
 H         -3.7456340281        0.2545584669       -1.4127072524
 H         -1.5329322583       -4.6268774902       -3.7873238864
 H          4.0294700138       -3.1396757795        2.3831271719
 H          5.8882301988       -0.1794838422       -3.4254512989
 H          0.9125422085        5.0726906912       -3.1570663288
 H         -4.1267868437        2.5087690534        3.2440593945
 H         -5.2458177834        1.8071810893       -2.0120120261
 H         -2.6343239215       -3.9461567275       -0.4731720326
 H          1.8102029867       -3.6581412336        1.3355021923
 H          6.2399496340        1.0134291682       -1.3185074172
 H          2.2922129151        3.7348215540       -0.1314095557
 H         -1.9208546894        3.2366856996        2.1320188621
 H         -6.6110459377       -0.7813526495       -1.1066455078
 H         -0.1923045542       -2.1697506427       -0.0980129225
 H          1.4029433533       -1.2927005800        0.2992381259
 H          3.6212980932        1.1176154696        0.2208731262
 H         -0.1782927349        1.9916342282        0.1283116402
 H         -1.6489727162        1.0505889727        0.7422553283
 H         -4.0678964648       -1.3712430247        0.4705250978
 H         -2.1762993041       -1.3944101611        1.2667889514
 H         -0.8669660696       -1.9995886329        2.2882667617
 H          4.8665265456        2.5363416692        1.8522908582
 H          5.5244774029        0.8799527977        1.8102269640
 H          1.8663882401        0.8605447398        1.0840594277
 H          0.7242018707        1.3175108046        2.3508913614
 H         -6.0233834627       -1.2897104740        2.0245035128
 H         -6.9285167928       -2.3548283771        0.9427878746
 H         -2.0042959458       -4.0231962909        2.3339431180
 H          7.2074161505        2.5201478737        1.6994676583
 H          2.0248357239        3.2596191947        2.6077885905
 H         -4.4392896647       -3.2112398209        2.0100319029
 C         -1.3324431244       -0.1659157167        4.3455007257
 H         -2.2441049976       -0.7641327580        4.4560596995
 H         -1.4302281938        0.7100041555        4.9964358605
 O         -3.4884572622        0.7851604074        3.3530355143
 C          1.1844614429       -0.7778573646        4.0703404495
 H          1.5656672480        0.2339318428        4.2442572283
 H          1.9123552875       -1.4884587202        4.4797662587
 O          3.3574208673       -1.4402379406        2.8433730723
 C         -0.1419696135       -0.9913925063        4.7468557311
 O         -0.2465884358       -1.8119475186        5.6179936798
 O          7.4585732022        0.7982725383       -3.8055396728
 H          7.5626181211        1.5199014844       -4.4245254340
 H          8.3335652333        0.4462304304       -3.6528022624
 O         -0.0604984113        6.0012495908       -4.5156527176
 H         -0.3874925501        5.6334287341       -5.3347812720
 H         -0.1818442080        6.9479210527       -4.5687929796
  136
        -21.27391824
 C          0.7771360657       -4.2752168341       -0.4549689648
 C          4.8296573813       -1.4120729122        0.3712251789
 C          3.8937934828        2.6232713567       -1.7185033055
 C         -0.4568836870        4.6570824928        0.2285572737
 C         -4.6113112716        1.7416877670        0.4883478765
 C         -3.7947827423       -2.2131565368       -1.7113204929
 O          1.8341383046       -3.3539196803       -0.6366558777
 O          5.9368440536       -0.7162751679       -0.1868950267
 O          2.6327778261        2.2173646859       -1.2210933370
 O         -1.5263966728        3.8408861163       -0.2108190396
 O         -5.7344684006        1.1373836288       -0.1334235485
 O         -2.5264479125       -1.7821244487       -1.2343796485
 C         -0.0135545120       -4.5247311980       -1.7774461097
 C          4.8661181820       -2.9013719292       -0.0642395447
 C          4.4415494549        1.6148313496       -2.7678176803
 C          0.3811182759        5.2430551246       -0.9401776013
 C         -4.6236806908        3.2661461579        0.2184380263
 C         -4.3157366182       -1.1869639708       -2.7530906405
 O          0.8540946273       -4.8848910895       -2.8295784369
 O          4.5744955624       -3.0215418751       -1.4435388382
 O          3.5498631425        1.4592330758       -3.8518569405
 O         -0.4269045979        5.9210456679       -1.8773147738
 O         -4.2937653968        3.5034530890       -1.1360729156
 O         -3.3894802258       -1.0660766161       -3.8154597952
 C         -0.8318605825       -3.2706732970       -2.1385936563
 C          3.8409898225       -3.7177399268        0.7616153414
 C          4.6923463989        0.2708160969       -2.0667756752
 C          1.2254180728        4.1507768459       -1.6282915040
 C         -3.5985666169        3.9627677018        1.1481730738
 C         -4.5094306199        0.1486629288       -2.0158916770
 O         -1.5841579768       -3.4520154950       -3.3192734895
 O          4.2305732136       -3.8669101561        2.1175192720
 O          5.2160451697       -0.6837742197       -2.9624911131
 O          2.1168512537        4.7337239652       -2.5594406531
 O         -3.9920889248        3.9205472857        2.5111828256
 O         -4.9638134304        1.1782140564       -2.8646433675
 C         -1.7027716359       -2.8905436318       -0.9238982265
 C          2.4446407255       -3.0532999477        0.6219606999
 C          5.6159661793        0.4913161594       -0.8520351581
 C          1.9930288452        3.3113096713       -0.5782305661
 C         -2.2032148851        3.3158342188        0.9374813197
 C         -5.4487725020       -0.0682852146       -0.8109351134
 C         -0.7584928543       -2.6402560337        0.2687898882
 C          2.4994260181       -1.5204371422        0.8590955390
 C          5.0034210398        1.5734499139        0.0673149416
 C          1.0216655014        2.8441180263        0.5291119191
 C         -2.2682756250        1.7641732075        0.9339813511
 C         -4.8766440732       -1.1812070312        0.0995720396
 O         -0.0919695683       -3.8584318415        0.6019602808
 O          3.5412862497       -0.8683754338        0.1247272873
 O          4.8286171777        2.7952471374       -0.6539849789
 O          0.3883907809        3.9647243785        1.1459731146
 O         -3.3344194838        1.2231480416        0.1470459248
 O         -4.7250723369       -2.3902736243       -0.6441925816
 C         -1.4388296717       -2.0341772874        1.4864597507
 C          2.5057684565       -1.1579108693        2.3294251373
 C          5.8286841393        1.8254131494        1.3215571331
 C          1.7032297375        2.0006005399        1.5965801968
 C         -2.2432655820        1.2013243215        2.3392612238
 C         -5.7362413340       -1.4425294205        1.3294489854
 O         -2.4079180841       -2.8858943639        2.0251881583
 O          1.3136871811       -0.7111236370        2.8061539382
 O          7.0551025575        2.4210952197        1.0062890104
 O          2.7181512525        2.7184882848        2.2405640777
 O         -1.0291419186        0.7294406654        2.7285543272
 O         -6.9772657055       -1.9791342091        0.9679462362
 H          1.2419305404       -5.2189017799       -0.1305231046
 H          4.9651365770       -1.3319557288        1.4596564393
 H          3.7521559933        3.6077765126       -2.1920899004
 H         -0.9151284930        5.4872663762        0.7879252162
 H         -4.7279656483        1.5375535984        1.5618331692
 H         -3.6656104398       -3.1956736219       -2.1901561420
 H         -0.7140563256       -5.3634135254       -1.6374686968
 H          5.8851516996       -3.2931233445        0.0775410760
 H          5.3944859810        1.9889295148       -3.1725288134
 H          1.0750454729        6.0012314829       -0.5461798903
 H         -5.6395201220        3.6594279431        0.3756567520
 H         -5.2772773123       -1.5213884162       -3.1700471635
 H          0.3848119508       -4.8667236328       -3.6803828706
 H          3.6012585236       -3.1041393418       -1.5199519621
 H          3.8130566516        0.7045316892       -4.4045190801
 H         -1.1911000126        5.3712527250       -2.1213212572
 H         -3.3140090484        3.5095853345       -1.1802731561
 H         -3.6092262731       -0.3004437176       -4.3687210036
 H         -0.1187499078       -2.4556270698       -2.3364481374
 H          3.7916852629       -4.7357649426        0.3454555503
 H          3.7123526509       -0.0931412917       -1.7191330242
 H          0.5661859024        3.4715946148       -2.1885015523
 H         -3.5432117137        5.0275951842        0.8756668054
 H         -3.5123238205        0.4412902359       -1.6494156751
 H         -2.1088208849       -2.6436250776       -3.5236869237
 H          4.0687988549       -3.0147958547        2.5754415650
 H          5.1834500920       -1.5608027407       -2.5271501895
 H          1.6504689210        5.3484215948       -3.1485339140
 H         -3.8174704364        3.0156407128        2.8490992105
 H         -4.9137958848        2.0262761901       -2.3735494284
 H         -2.3631727522       -3.7303837778       -0.6626180148
 H          1.7999357321       -3.4834000897        1.4054398660
 H          6.5820047216        0.8659994925       -1.2204000578
 H          2.7813078196        3.9205520207       -0.1139441067
 H         -1.5925172295        3.5958986841        1.8119508005
 H         -6.4231887548       -0.4067643155       -1.1920649519
 H          0.0162160351       -1.9527843381       -0.0908580000
 H          1.5909442054       -1.0805906940        0.4279143455
 H          3.9946584348        1.2376254740        0.3400714833
 H          0.2340532109        2.2647757223        0.0334804015
 H         -1.3756733091        1.3860419799        0.4205248027
 H         -3.8632929415       -0.8798142283        0.3991625253
 H         -1.9359346301       -1.0947448217        1.2236667558
 H         -0.6989370452       -1.8058295591        2.2642453124
 H          5.2868498638        2.4822728908        2.0143574121
 H          6.0456146594        0.8873946005        1.8453184118
 H          2.1544034711        1.1064677694        1.1572455608
 H          0.9784308358        1.6642841794        2.3500344532
 H         -5.2360275819       -2.1437735251        2.0107246819
 H         -5.9299426420       -0.5154777841        1.8806621271
 H         -2.0250440517       -3.7609861865        2.2087924269
 H          6.9161220872        3.2303051164        0.4852938192
 H          2.3557728456        3.5315551457        2.6323728907
 H         -6.8569428570       -2.7833871701        0.4350004459
 C         -1.0716778433        0.3102303066        4.0724841275
 H         -1.4986535245       -0.6974894013        4.1099777541
 H         -1.7547604167        0.9849653145        4.6027704346
 O         -3.2365714382        1.2400433990        3.0283295691
 C          1.4186348525       -0.4471339798        4.1859531071
 H          2.3593014063        0.0933312090        4.3441189051
 H          1.4966079373       -1.4071913397        4.7072761037
 O          3.5108357539       -1.3026272470        2.9863980466
 C          0.2774419392        0.3629090949        4.7357968980
 O          0.4397731890        1.0411487995        5.7140104256
 O         -4.7241136698       -5.5155394253       -2.9667211944
 H         -5.6529441826       -5.6772087853       -2.8030166694
 H         -4.5755612443       -5.6962389972       -3.8954545490
 O         -2.6327101985       -5.8953875860       -0.9166395173
 H         -3.3269378573       -5.7886573737       -1.5921718730
 H         -2.8526513959       -6.6893196810       -0.4309136178
  136
        -21.27390889
 C          0.6249202250       -4.1528652169       -0.4853552949
 C          4.7471515889       -1.3309718339        0.3561658623
 C          3.9536780462        2.7963516266       -1.5845726114
 C         -0.7014739241        3.7552846252        0.0828397196
 C         -5.0524406454        1.5053183096        0.6559902195
 C         -3.9023480245       -2.1170304071       -1.9526471410
 O          1.6614462929       -3.2267763856       -0.7325062741
 O          5.8859857070       -0.6749690618       -0.1772680626
 O          2.6315362096        2.4294071897       -1.2446529794
 O         -2.1081449202        3.8368407027       -0.0700796868
 O         -6.1408944219        0.8237170878        0.0446465760
 O         -2.6517457164       -1.6903541017       -1.4460698765
 C         -0.1621462339       -4.5413112559       -1.7743836564
 C          4.7875087669       -2.8260597683       -0.0486174213
 C          4.5276930262        1.8321403471       -2.6588940226
 C          0.0560150348        4.3947704399       -1.1003665396
 C         -5.2257369692        3.0319513208        0.4411554721
 C         -4.5352315916       -1.0225786811       -2.8516403268
 O          0.7157217774       -4.8972225086       -2.8340649260
 O          4.6983401724       -2.9768136010       -1.4544615481
 O          3.6974527481        1.7586933891       -3.7974420107
 O         -0.0694070076        3.5576636976       -2.2277754598
 O         -5.1276284131        3.3872921293       -0.9238402679
 O         -3.6736628024       -0.6434639941       -3.9016735788
 C         -1.1010618990       -3.3940732998       -2.2252085247
 C          3.6661892753       -3.6102961338        0.6778875102
 C          4.7292203929        0.4374944135       -2.0391388939
 C          1.5450446956        4.5771713320       -0.7131937309
 C         -4.1920325400        3.8180489290        1.2819148391
 C         -4.9107955236        0.1988299111       -1.9946614918
 O         -1.9996221509       -3.8162050108       -3.2348018359
 O          3.9697476637       -3.8158540987        2.0463598437
 O          5.2798975374       -0.4820725986       -2.9631343540
 O          1.7336455288        5.6369130780        0.2090650119
 O         -4.5291764281        3.8180643756        2.6600295440
 O         -5.5690391035        1.1845162670       -2.7688917030
 C         -1.8907398164       -2.8159143045       -1.0267394660
 C          2.2992189395       -2.8984371847        0.5014609115
 C          5.6078878676        0.5726401922       -0.7795821657
 C          2.1444279532        3.2426099871       -0.1837905936
 C         -2.7579299805        3.2679546912        1.0572353740
 C         -5.7766851819       -0.2528891272       -0.8003247139
 C         -0.9141582344       -2.4807335943        0.1184336543
 C          2.3932855225       -1.3678188622        0.7251203457
 C          4.9773701680        1.5933870131        0.1954864912
 C          1.1744587784        2.4319882626        0.7295734879
 C         -2.7092198742        1.7210467676        1.0391868933
 C         -5.0851497851       -1.4100573918       -0.0369664866
 O         -0.2495919452       -3.6725117973        0.5340680543
 O          3.4859017425       -0.7645418244        0.0295867882
 O          4.8140972555        2.8604677925       -0.4449196599
 O         -0.1810540949        2.4459923436        0.2677343655
 O         -3.7458228762        1.0978481166        0.2739641884
 O         -4.8040590689       -2.5023955850       -0.9147283022
 C         -1.5965118252       -1.8631251607        1.3256906283
 C          2.3744906886       -1.0115204251        2.1974059068
 C          5.8460468820        1.7899236736        1.4326072185
 C          1.2440556280        2.7950480052        2.2165060496
 C         -2.5964203610        1.1565011734        2.4390793966
 C         -5.8996772697       -1.8817653485        1.1665945897
 O         -2.4172932593       -2.8133211219        1.9390535375
 O          1.1904293419       -0.5234683869        2.6511632705
 O          7.0070477903        2.4892474895        1.0864357287
 O          0.9643471633        4.1537874727        2.4626618760
 O         -1.3668933421        0.6567539462        2.7309604678
 O         -5.3257493570       -2.9840144020        1.8204362179
 H          1.1111401883       -5.0525456501       -0.0779833858
 H          4.8350387493       -1.2247315324        1.4468728441
 H          3.9098630232        3.8135963895       -1.9987548890
 H         -0.4698144031        4.3034333115        1.0061184614
 H         -5.1217247513        1.2625593762        1.7266831666
 H         -3.7113907451       -3.0200503901       -2.5537563218
 H         -0.7850354465       -5.4270172119       -1.5748933584
 H          5.7664496797       -3.2399426471        0.2434669004
 H          5.5012312668        2.2017246608       -3.0130111843
 H         -0.4009388414        5.3610759540       -1.3654282047
 H         -6.2422935998        3.3145607409        0.7607966205
 H         -5.4473242269       -1.4127573525       -3.3265987683
 H          1.6147844128       -5.1117555999       -2.5000528684
 H          4.9661559256       -2.1504695369       -1.9141705089
 H          2.7635078000        1.7285646878       -3.5275730613
 H          0.0064565989        2.6307740762       -1.9279438382
 H         -5.3563678915        2.6314240107       -1.5094846237
 H         -2.7796585805       -0.4788960415       -3.5552426602
 H         -0.4833333063       -2.5886302654       -2.6490920791
 H          3.5958205990       -4.6137797596        0.2330185985
 H          3.7438131066        0.0468004557       -1.7448565127
 H          2.0882118278        4.8708044508       -1.6234290145
 H         -4.2117982456        4.8687526787        0.9514521138
 H         -3.9839194086        0.6504046087       -1.6130217839
 H         -1.5163272939       -4.1270409940       -4.0287568764
 H          3.8422813398       -2.9614315638        2.5106651465
 H          4.9408645314       -0.3091783312       -3.8573345868
 H          1.4839183149        5.3060662867        1.0964673411
 H         -4.2801232981        2.9414588638        3.0245125892
 H         -5.2272929411        1.1885858782       -3.6786092199
 H         -2.6037198095       -3.5660111540       -0.6562929562
 H          1.6448324401       -3.2875892071        1.3000633292
 H          6.5922356529        0.9548732088       -1.0876959571
 H          3.0209479822        3.5063092066        0.4285016818
 H         -2.1764614188        3.5931141035        1.9344996358
 H         -6.7294259972       -0.6253168699       -1.2039742630
 H         -0.1544324456       -1.7997984500       -0.2855980484
 H          1.5119310552       -0.9045839514        0.2620383684
 H          3.9736946872        1.2381786456        0.4666932316
 H          1.4629107009        1.3738282245        0.6150221491
 H         -1.7992947995        1.4470543732        0.4862615616
 H         -4.1073022301       -1.0489638976        0.3043729860
 H         -2.2074700897       -1.0005569359        1.0433164671
 H         -0.8548587902       -1.5199469432        2.0594878238
 H          5.3176876517        2.3586608127        2.2081087136
 H          6.1516861071        0.8299797525        1.8642777751
 H          2.2341536881        2.5593069006        2.6238925264
 H          0.5003973251        2.1941762330        2.7552831589
 H         -6.0396468441       -1.0719060296        1.8933837916
 H         -6.8945723836       -2.2010420864        0.8371025366
 H         -1.8970938505       -3.6251563992        2.0842119483
 H          6.7692597881        3.2749344754        0.5589981031
 H          0.9625766740        4.3492672579        3.4135608052
 H         -4.3464808717       -2.8974483876        1.8828908988
 C         -1.2502876337        0.3344153512        4.0973467811
 H         -1.5833050778       -0.6989258490        4.2407166915
 H         -1.9213398270        0.9972335530        4.6570635734
 O         -3.5336605359        1.2210862608        3.2004320544
 C          1.2306903878       -0.3829054795        4.0533152272
 H          2.2173818649        0.0150804476        4.3177107426
 H          1.1377462738       -1.3796213875        4.4974530568
 O          3.3526247204       -1.2073048333        2.8817402922
 C          0.1624558862        0.5398884946        4.5651504322
 O          0.4418416533        1.4495689207        5.2972418269
 O         -0.3257844643       -4.6887659585       -5.4694523241
 H          0.2925698426       -4.4663709735       -6.1604995372
 H          0.1944028609       -4.8655383702       -4.6664892370
 O          3.3699582857       -5.5191672425       -1.9549228278
 H          3.8416233879       -4.6715040392       -1.8680809351
 H          4.0183420057       -6.1697569870       -2.2157191990
  136
        -21.27385182
 C          0.7649591746       -4.2472897615       -0.1222817220
 C          4.7327162846       -1.3077993398        0.4240729103
 C          3.8500166494        2.5362552430       -1.9493452764
 C         -0.8650117489        4.4674998131       -0.8881221165
 C         -4.8784321851        1.6314408311        0.1352459684
 C         -4.0031685311       -2.5896859215       -1.3955762767
 O          1.6281283472       -3.1517742049       -0.3390350810
 O          5.8527133438       -0.7110987968       -0.2183275468
 O          2.5944079312        2.1288279832       -1.4127382383
 O         -1.8187907754        3.4315277830       -0.9983147129
 O         -6.0127593652        0.9332113297       -0.3560713923
 O         -2.7315813596       -2.0972987844       -0.9790534322
 C          0.0216896075       -4.6304033511       -1.4316299156
 C          4.6863742062       -2.8269010110        0.1127692136
 C          4.3583422957        1.4604020100       -2.9450190749
 C         -0.0736090610        4.6677089526       -2.2142496840
 C         -4.8773873742        3.0898052362       -0.3878362621
 C         -4.5439045168       -1.7435478738       -2.5816622580
 O          0.9275517443       -4.9011655636       -2.4803959882
 O          4.3600092874       -3.0427558542       -1.2462842341
 O          3.4154377170        1.2662614972       -3.9818230889
 O         -0.9438321163        4.8679344398       -3.3079312042
 O         -4.6021618682        3.1047930828       -1.7769152280
 O         -3.6257982905       -1.7494800842       -3.6571250475
 C         -0.9332697282       -3.4876696003       -1.8190359197
 C          3.6427617826       -3.5201224021        1.0239737792
 C          4.5973181392        0.1651671069       -2.1518253155
 C          0.8407215960        3.4516862303       -2.4544054152
 C         -3.8118251501        3.9137273164        0.3792151409
 C         -4.7806685355       -0.3170372908       -2.0687571219
 O         -1.6637274956       -3.8301543691       -2.9781293542
 O          4.0737811150       -3.6134506647        2.3722554308
 O          5.0669490790       -0.8735030446       -2.9818197383
 O          1.5960406539        3.6041302689       -3.6377054607
 O         -4.1800946197        4.1554814326        1.7283278771
 O         -5.2571229973        0.5460755135       -3.0763396371
 C         -1.8506846279       -3.1580730470       -0.6250590408
 C          2.2790655665       -2.7863262143        0.8741769178
 C          5.5577114357        0.4490982930       -0.9766104557
 C          1.7250257029        3.2341504613       -1.2096374666
 C         -2.4376566160        3.1961814567        0.2673594658
 C         -5.7223508559       -0.3610514495       -0.8476017997
 C         -1.0079368382       -2.8655799095        0.6401430830
 C          2.4123986038       -1.2394488781        0.9526869159
 C          5.0084319132        1.6167046551       -0.1218473332
 C          0.8132733837        3.0654025874        0.0247594304
 C         -2.5336408339        1.6705859824        0.5431208746
 C         -5.1360491096       -1.3109229516        0.2272582198
 O         -0.1672690190       -3.9875579264        0.9283045927
 O          3.4705403935       -0.7210193919        0.1465802153
 O          4.8150839877        2.7800892728       -0.9269357212
 O          0.0268503953        4.2450827235        0.2070913577
 O         -3.6175951136        1.0396317001       -0.1357029669
 O         -4.9338622881       -2.6188062536       -0.3137949971
 C         -1.8995402478       -2.5681891931        1.8431109806
 C          2.4479979347       -0.6972635395        2.3680349133
 C          5.9329581951        1.9725498452        1.0352006191
 C          1.6035504802        2.7683297408        1.2890058886
 C         -2.5093896483        1.3033322556        2.0121830335
 C         -5.9931109681       -1.3948101318        1.4891568943
 O         -2.8890489610       -3.5496095416        1.9942509449
 O          1.5241999487        0.2797345075        2.6203106359
 O          7.0911612493        2.5860258537        0.5464609471
 O          2.4453502064        3.8327300807        1.6285375406
 O         -1.4583407569        0.5188612835        2.3616597004
 O         -5.3146909952       -1.9758767812        2.5784436068
 H          1.3903015163       -5.0911380466        0.2096096514
 H          4.8903339743       -1.1536560823        1.5019996308
 H          3.7037964706        3.4860738010       -2.4835232661
 H         -1.4264090677        5.3858259765       -0.6595546911
 H         -4.9735280546        1.6185588850        1.2308818036
 H         -3.8768242096       -3.6277389900       -1.7360841884
 H         -0.5694842721       -5.5436861584       -1.2611015512
 H          5.6876420940       -3.2572091214        0.2687033350
 H          5.3044708060        1.7865907557       -3.4023850255
 H          0.5558340499        5.5673265724       -2.1284449706
 H         -5.8811027491        3.5227436729       -0.2582591640
 H         -5.4946676013       -2.1645135666       -2.9421619909
 H          0.4571618740       -4.9678392322       -3.3282095829
 H          3.3821132799       -3.0820088382       -1.2987276146
 H          3.6372721894        0.4731528116       -4.4940733645
 H         -0.4552261036        4.8085379273       -4.1457177628
 H         -3.6280890212        3.1524721147       -1.8732769985
 H         -3.8747118134       -1.0798797444       -4.3128749395
 H         -0.3252680761       -2.6022786396       -2.0592742637
 H          3.5262053776       -4.5605851696        0.6816004089
 H          3.6168895492       -0.1399830631       -1.7520101110
 H          0.1941063594        2.5712820127       -2.5920119318
 H         -3.7351625258        4.9040911249       -0.0944777042
 H         -3.7922741530        0.0565473709       -1.7576101531
 H         -2.2772639568       -3.1042027363       -3.2340902722
 H          3.8578850696       -2.7664716170        2.8150064345
 H          5.0106746900       -1.7128298449       -2.4795888063
 H          2.1490002383        2.8052092720       -3.7986423599
 H         -3.9755038227        3.3474490475        2.2454520369
 H         -5.2159659971        1.4650311229       -2.7357088028
 H         -2.4695613766       -4.0355214032       -0.3937343042
 H          1.6269296987       -3.1081924634        1.7020542623
 H          6.5264663642        0.7594287987       -1.3944653869
 H          2.3517840928        4.1196216386       -1.0351878954
 H         -1.7770372183        3.6297458477        1.0350529295
 H         -6.6902166706       -0.7639843482       -1.1788363014
 H         -0.3450394560       -2.0133869612        0.4383536069
 H          1.5122859940       -0.8198303406        0.4774006505
 H          4.0149601956        1.3244578362        0.2438229984
 H          0.1154783035        2.2433560620       -0.1815713438
 H         -1.6516163986        1.2012649041        0.0830040590
 H         -4.1372031599       -0.9374103813        0.4928493175
 H         -2.4078941517       -1.6060287138        1.7238261186
 H         -1.3144832223       -2.5128955234        2.7716227217
 H          5.4431629047        2.6646991275        1.7331512995
 H          6.2367727895        1.0796548254        1.5934326398
 H          2.2309374416        1.8808844245        1.1556788470
 H          0.9299023319        2.5633426390        2.1296728979
 H         -6.3204570230       -0.3970968472        1.8054430289
 H         -6.8914996252       -1.9905216372        1.2903396079
 H         -2.4841726269       -4.4181670328        2.1543577834
 H          6.8450562133        3.3037938901       -0.0655180408
 H          1.9355706948        4.6569329898        1.7105007198
 H         -4.5963473149       -2.5862264555        2.2924593655
 C         -1.3908625591        0.3701250104        3.7582352552
 H         -2.3009968121       -0.1378240614        4.0940443883
 H         -1.3648275888        1.3735819488        4.2003948188
 O         -3.3652717232        1.7082872493        2.7631267693
 C          1.1505022527        0.2967412420        3.9842875647
 H          1.0685183338        1.3404413982        4.3038382740
 H          1.9312460109       -0.1962006360        4.5751683498
 O          3.2306017869       -1.1389962172        3.1761246762
 C         -0.1650692353       -0.4098648651        4.1385640266
 O         -0.2278391363       -1.5664504318        4.4485892617
 O         -0.1313200684        2.3282244395        5.8918405579
 H         -0.2420158273        2.0414037419        6.7980599008
 H         -0.0945059780        3.2843606123        5.9130242365
 O          2.9524641153       -6.5889783009        0.1136884413
 H          2.9436120053       -7.2419509866        0.8140890369
 H          3.3025268569       -7.0258926303       -0.6636137847
  136
        -21.27381073
 C          0.7185987070       -4.2099131242       -0.6124211600
 C          4.8884245201       -1.4535759873       -0.0340797559
 C          3.8449443670        2.6026507979       -1.8138693197
 C         -0.6530829377        4.4282165483       -0.0533332687
 C         -4.7326929521        1.5221555085        0.7436193655
 C         -3.9363430068       -2.2613969278       -1.6674448650
 O          1.7101809709       -3.2427433084       -0.8683874479
 O          5.9854160095       -0.7850910433       -0.6443374951
 O          2.6426612394        2.0931856643       -1.2529555223
 O         -1.7033534871        3.5193476506       -0.3022515154
 O         -5.8936438469        0.9258244742        0.1749930769
 O         -2.6876895454       -1.8123913488       -1.1629578004
 C         -0.1017477112       -4.4653978006       -1.9080220812
 C          4.8410900881       -2.9302510592       -0.5096926688
 C          4.3062920650        1.6870247604       -2.9797467050
 C          0.0368649911        4.8211607801       -1.3900530418
 C         -4.7666345805        3.0482998813        0.4680939880
 C         -4.5112549990       -1.2045037746       -2.6422932941
 O          0.7873338181       -4.6625118650       -2.9871361823
 O          4.5275918696       -3.0264036475       -1.8865486433
 O          3.2787216953        1.5869173868       -3.9527646681
 O         -0.9360578835        5.1849174016       -2.3468100689
 O         -4.6792844471        3.3291104017       -0.9156968738
 O         -3.6090986160       -0.9664664346       -3.7098533723
 C         -1.0342338590       -3.2675056178       -2.1930351722
 C          3.8138496988       -3.7238626682        0.3343397963
 C          4.6689452914        0.3059333752       -2.3986675596
 C          0.8907840348        3.6475077691       -1.9137658619
 C         -3.6301381081        3.7619200872        1.2377524918
 C         -4.7730701545        0.0873331056       -1.8505197547
 O         -1.8818142020       -3.4931878097       -3.3074823656
 O          4.2749896813       -3.9452009841        1.6559527218
 O          5.1361893110       -0.6090762632       -3.3700867829
 O          1.6029308801        3.9858402275       -3.0914946183
 O         -3.8807965182        3.8077361400        2.6327970053
 O         -5.3471755878        1.0874400689       -2.6687073152
 C         -1.8289596433       -2.9125072896       -0.9170471315
 C          2.4468749601       -2.9905026367        0.3218878902
 C          5.6633862407        0.4648737604       -1.2271679537
 C          1.8238944045        3.1535982864       -0.7880867771
 C         -2.2705665210        3.0852656574        0.9308849997
 C         -5.6544405053       -0.2226819545       -0.6182532737
 C         -0.8317859542       -2.6490810347        0.2302844577
 C          2.5807516336       -1.4691655748        0.5816152657
 C          5.1351272500        1.4997911887       -0.1993914660
 C          0.9661982401        2.7677309275        0.4347363595
 C         -2.3481612007        1.5406655140        1.0175607138
 C         -5.0758628819       -1.4043455696        0.2019516483
 O         -0.1047475623       -3.8473842450        0.4957177667
 O          3.6128527738       -0.8475552141       -0.1900819692
 O          4.8719666674        2.7491546783       -0.8360123799
 O          0.2803005745        3.9274690679        0.9078195454
 O         -3.4825604708        0.9739496893        0.3488708320
 O         -4.8670373176       -2.5476528949       -0.6281061366
 C         -1.4991544726       -2.1429056302        1.4991401403
 C          2.6757107465       -1.1502062897        2.0579083253
 C          6.0695891462        1.6945800727        0.9938921566
 C          1.7876402680        2.1483818501        1.5548130597
 C         -2.1765852797        1.0628391121        2.4446154693
 C         -6.0073396929       -1.8223971022        1.3331346913
 O         -2.3640718155       -3.0993046368        2.0406525610
 O          1.5352261298       -0.6416484474        2.5939335059
 O          5.6703555841        2.7478341881        1.8353329382
 O          2.7366956724        3.0508444210        2.0463739218
 O         -0.9240987659        0.6110321216        2.7233915261
 O         -7.1568474939       -2.4091192581        0.7968267575
 H          1.2438504297       -5.1307161312       -0.3160281113
 H          5.0916988294       -1.4095672288        1.0459385342
 H          3.6271586194        3.6081140419       -2.2057407088
 H         -1.1126338870        5.3216900794        0.3960467275
 H         -4.8014533677        1.3286612544        1.8228294166
 H         -3.7567586139       -3.2027049264       -2.2090594295
 H         -0.7052607734       -5.3794584698       -1.8146331696
 H          5.8419747642       -3.3741258416       -0.3839431655
 H          5.1889066558        2.1211916183       -3.4716659801
 H          0.6858693478        5.6980164918       -1.2485564583
 H         -5.7389719973        3.4435744215        0.8048221835
 H         -5.4570015611       -1.5602727703       -3.0778030058
 H          1.4327426938       -3.9275580835       -2.9931299572
 H          4.7991929756       -2.2174463733       -2.3757086693
 H          2.6365292272        2.3183429147       -3.8070836541
 H         -1.7250883238        4.6194579483       -2.2352496935
 H         -5.0013798111        2.5732983585       -1.4561981922
 H         -2.9645791935       -1.7076034800       -3.7425282595
 H         -0.4122899386       -2.3978162371       -2.4508351222
 H          3.6842830293       -4.7222430148       -0.1162863877
 H          3.7345506924       -0.1307110559       -2.0151767523
 H          0.2177194883        2.8205968250       -2.1844121057
 H         -3.5888222011        4.8064195003        0.8925545975
 H         -3.7978366447        0.4675624422       -1.5095298508
 H         -1.4056515277       -3.9850685762       -3.9964307332
 H          4.1714767292       -3.1077593262        2.1568210795
 H          5.8418295452       -0.2216053248       -3.9121074015
 H          1.0500212916        4.5408473151       -3.6653564327
 H         -3.6750928882        2.9221817155        3.0035785268
 H         -4.9783723309        1.0381775187       -3.5663215797
 H         -2.4605501395       -3.7612637977       -0.6189697321
 H          1.8536613411       -3.4056865014        1.1540522652
 H          6.6116727174        0.8447015468       -1.6314948231
 H          2.4917900026        3.9680474031       -0.4739443982
 H         -1.5733820578        3.4096767891        1.7223874192
 H         -6.6501881148       -0.5165619947       -0.9815394655
 H         -0.1047569063       -1.9080016130       -0.1267276561
 H          1.6671116685       -0.9880573608        0.2039595387
 H          4.1584052718        1.1486612232        0.1583006007
 H          0.2015564879        2.0579048791        0.0961229634
 H         -1.5060922976        1.1359127355        0.4391539740
 H         -4.0912255913       -1.1085086924        0.5886772859
 H         -2.0907482063       -1.2447095942        1.2937963148
 H         -0.7459983693       -1.8781278471        2.2520538311
 H          6.1530163307        0.7772377339        1.5900111149
 H          7.0751240001        1.9474760350        0.6398208725
 H          2.3249415438        1.2639787426        1.1982588876
 H          1.1399107929        1.8284018418        2.3815182952
 H         -5.5190450249       -2.5489491347        1.9962287717
 H         -6.3263871706       -0.9716654797        1.9467539905
 H         -1.8984516990       -3.9425053787        2.1743834948
 H          4.6895895247        2.8208959379        1.8955695905
 H          2.2912719269        3.8568454521        2.3565547130
 H         -6.9005683441       -3.1029199610        0.1609541279
 C         -0.7924876755        0.3059983243        4.0926860648
 H         -1.1805004179       -0.7034604016        4.2624287088
 H         -1.4214759188        1.0129108038        4.6470724477
 O         -3.0828004236        1.1562560566        3.2397112258
 C          1.6857631095       -0.4569403469        3.9819958284
 H          2.6733326107       -0.0120631759        4.1495241402
 H          1.6769030753       -1.4430197905        4.4584802595
 O          3.6949101493       -1.3824106497        2.6659769606
 C          0.6276748345        0.4342969212        4.5699971936
 O          0.9136931152        1.2397642551        5.4138341221
 O          2.8687024404       -6.2975596474       -1.5304616466
 H          3.2837792042       -6.9807722515       -2.0537984381
 H          2.2249280778       -5.8493342337       -2.1080656117
 O         -5.5253999559       -0.2849800794        3.7523369557
 H         -4.6762131540        0.1800636446        3.6389233395
 H         -5.7540695339       -0.2166310270        4.6775344193
  136
        -21.27374341
 C          0.5707480396       -4.2847876938       -0.5363053990
 C          4.7309217543       -1.4753406295       -0.0128809485
 C          3.9323502146        2.5965919218       -2.1368572339
 C         -0.5816166244        3.6064799180       -0.1589479829
 C         -4.9346578919        1.4287507762        0.5318289298
 C         -3.8784016984       -2.1784620213       -2.1326305694
 O          1.6158578968       -3.3954417925       -0.8538638449
 O          5.8505326464       -0.8551923117       -0.6272845615
 O          2.6215600675        2.2757116609       -1.7136483862
 O         -1.9925541032        3.7144430182       -0.2477305356
 O         -6.0423137805        0.7779596806       -0.0813582020
 O         -2.6276938569       -1.7760241992       -1.6111397918
 C         -0.2118432847       -4.6954284036       -1.8119853156
 C          4.7259665897       -2.9791551814       -0.3883133290
 C          4.4508210929        1.5632164404       -3.1795394440
 C          0.1265436875        4.2928255646       -1.3476498194
 C         -5.0857033836        2.9607238842        0.3367877917
 C         -4.4920903408       -1.0595995109       -3.0152801937
 O          0.6971837868       -5.0686713834       -2.8277193293
 O          4.4821047010       -3.1606140383       -1.7704971648
 O          3.6032465893        1.3893956937       -4.2975680155
 O         -0.0748970019        3.5449603024       -2.5245908700
 O         -5.0044308446        3.3318159874       -1.0253109071
 O         -3.6312299740       -0.6833868037       -4.0674646872
 C         -1.1124859009       -3.5443471839       -2.3106055412
 C          3.6751284477       -3.7360849784        0.4558786494
 C          4.6172560491        0.2012503885       -2.4835820067
 C          1.6351991361        4.4346003323       -1.0302410343
 C         -4.0277251251        3.7211699121        1.1699219361
 C         -4.8407568635        0.1574507433       -2.1402116934
 O         -1.9757934601       -3.9955667816       -3.3357707039
 O          4.0795105111       -3.8835748390        1.8069523878
 O          5.0485981339       -0.7811432377       -3.4005394074
 O          1.8857899400        5.4423692003       -0.0651293970
 O         -4.3384544956        3.7035924392        2.5540029912
 O         -5.4852560095        1.1645402813       -2.8985408118
 C         -1.9098710537       -2.9116565894       -1.1457586007
 C          2.3015112845       -3.0274360324        0.3408856277
 C          5.5680294219        0.3650425312       -1.2829737078
 C          2.2332836239        3.0673408281       -0.5978084204
 C         -2.6067635380        3.1568446931        0.9048132425
 C         -5.7125224124       -0.2921359117       -0.9492592686
 C         -0.9364952888       -2.5596798878        0.0000625121
 C          2.4047402195       -1.4876641865        0.5104559784
 C          5.0056180428        1.4570227367       -0.3445684243
 C          1.3103214513        2.2415888556        0.3455512834
 C         -2.5789723416        1.6104144148        0.8887099099
 C         -5.0532343931       -1.4806127607       -0.2074225020
 O         -0.2888098477       -3.7428504652        0.4627617529
 O          3.4561403597       -0.8970160625       -0.2626754838
 O          4.8500959127        2.6948986794       -1.0426431774
 O         -0.0700364135        2.2865306936       -0.0325704499
 O         -3.6368310936        1.0018751679        0.1377071016
 O         -4.7909047315       -2.5632463309       -1.1034773587
 C         -1.6131329150       -1.9012764334        1.1878422082
 C          2.4514648606       -1.0880567454        1.9719578036
 C          5.8545668183        1.6925751537        0.9003030182
 C          1.4907928305        2.5504152962        1.8327606635
 C         -2.4519699165        1.0503272567        2.2896890005
 C         -5.8878525401       -1.9540706479        0.9815061560
 O         -2.4326199012       -2.8300684270        1.8349165823
 O          1.2861584394       -0.5958070813        2.4737193485
 O          5.4170509737        2.8441932225        1.5676857514
 O          1.1747208539        3.8832681604        2.1573274858
 O         -1.2048932543        0.6052965554        2.5962413383
 O         -5.3246204699       -3.0576122078        1.6414593732
 H          1.0458302790       -5.1785562418       -0.1009433878
 H          4.8904158739       -1.3526322794        1.0680374002
 H          3.8871337637        3.5950791012       -2.5928176960
 H         -0.3057139148        4.1193760728        0.7725836021
 H         -5.0023446524        1.1729827150        1.5995926888
 H         -3.6941400611       -3.0746763812       -2.7464726443
 H         -0.8417045791       -5.5749798364       -1.6106689393
 H          5.7270185316       -3.3955947764       -0.1898778017
 H          5.4367117915        1.8784774978       -3.5537505402
 H         -0.3244661576        5.2816583247       -1.5259779975
 H         -6.0924432789        3.2555758742        0.6758385423
 H         -5.4143788620       -1.4264744508       -3.4890430835
 H          1.4940559490       -4.5047262875       -2.7711290744
 H          4.7528520355       -2.3667066996       -2.2846772914
 H          3.4160563409        2.2297014831       -4.7459113299
 H          0.1378454296        2.6121214314       -2.3489679530
 H         -5.2457884743        2.5852082864       -1.6178581515
 H         -2.7362325492       -0.5170685901       -3.7251364901
 H         -0.4739657112       -2.7620292631       -2.7445968675
 H          3.5780769685       -4.7537381920        0.0472878062
 H          3.6272548316       -0.1128381403       -2.1170618588
 H          2.1400719816        4.7653729219       -1.9499516562
 H         -4.0413023987        4.7771643795        0.8563846700
 H         -3.9043328452        0.5872782094       -1.7565330198
 H         -1.4781447727       -4.4628105852       -4.0258867685
 H          3.9619688773       -3.0167606326        2.2508824839
 H          4.6258143913       -0.6181690139       -4.2632252800
 H          1.6603736083        5.0769504773        0.8153771213
 H         -4.1041751816        2.8150008575        2.8987649378
 H         -5.1515557271        1.1712177107       -3.8111338993
 H         -2.6490428729       -3.6300041455       -0.7641172385
 H          1.6864666867       -3.3938799903        1.1800975848
 H          6.5400192340        0.7061806681       -1.6683144091
 H          3.1527933137        3.2876932799       -0.0355485453
 H         -1.9937276746        3.4788330003        1.7614902510
 H         -6.6775077894       -0.6297101884       -1.3544446925
 H         -0.1666273164       -1.8997484785       -0.4185540218
 H          1.4975340444       -1.0439859875        0.0806848392
 H          3.9946504312        1.1557626818       -0.0406906948
 H          1.5770506843        1.1853647068        0.1750702346
 H         -1.6822087793        1.3223906812        0.3215218993
 H         -4.0710523600       -1.1480551932        0.1480627647
 H         -2.2208501787       -1.0451710643        0.8820977097
 H         -0.8645043862       -1.5413257345        1.9061014738
 H          5.7967395831        0.8493153598        1.5987017189
 H          6.9084611998        1.8245055323        0.6289711512
 H          2.5236963820        2.3507998224        2.1446469074
 H          0.8291585129        1.8914320855        2.4095583873
 H         -6.0375175270       -1.1451866806        1.7074491108
 H         -6.8778405638       -2.2708679565        0.6355133645
 H         -1.9144298353       -3.6416964384        1.9934609402
 H          5.4066491338        3.5936064526        0.9419528191
 H          1.2151020747        4.0111805023        3.1303179770
 H         -4.3494391724       -2.9568728047        1.7373534135
 C         -1.1161484841        0.2271608327        3.9499374964
 H         -1.4776574659       -0.8017923369        4.0484323193
 H         -1.7875107047        0.8800736404        4.5204766157
 O         -3.3981125794        1.0728411945        3.0426489187
 C          1.3866572931       -0.4538740458        3.8736419542
 H          2.3564403355        0.0093394105        4.0875185518
 H          1.3953267415       -1.4570216765        4.3127890148
 O          3.4626723596       -1.2636930497        2.6123981718
 C          0.2856868032        0.3767229988        4.4729122036
 O          0.5243750684        1.1543407270        5.3568223258
 O          0.7136282258       -7.1739497315        0.4086139173
 H          1.1008998999       -7.9573716032        0.0188535014
 H          0.3260660558       -7.4395037442        1.2424238695
 O          1.2806809138        3.9301268894        4.9982133384
 H          1.0250121893        3.0116217603        5.1983100379
 H          1.4182317574        4.3673355555        5.8341108447
  136
        -21.27373786
 C          0.7579407214       -4.3985935803       -0.3448916221
 C          4.9909755054       -1.6566093497        0.2773642787
 C          4.1442011830        2.4299807830       -1.5892339114
 C         -0.3136841668        4.4449630736        0.0596915153
 C         -4.4980060905        1.6887251048        0.7464828416
 C         -3.7752943343       -2.2258711702       -1.5143043064
 O          1.8189847277       -3.5150883875       -0.6397157964
 O          6.1164841053       -1.0273418696       -0.3199840289
 O          2.9045935275        1.9714198592       -1.0687897336
 O         -1.4018990985        3.5881719365       -0.2070427098
 O         -5.6545530359        1.0988626407        0.1678116004
 O         -2.4931523753       -1.8244910273       -1.0545219555
 C         -0.0801907241       -4.6653462167       -1.6270550928
 C          4.9645256970       -3.1469089835       -0.1464591708
 C          4.6044921800        1.4814696179       -2.7264998191
 C          0.4194916495        4.8064908064       -1.2646472138
 C         -4.4961137831        3.2109260406        0.4538467493
 C         -4.3025498978       -1.1807184917       -2.5358671873
 O          0.7758305442       -4.9986851170       -2.6997903437
 O          4.7341405559       -3.2771881684       -1.5367339886
 O          3.6194174379        1.4145392523       -3.7441458556
 O         -0.5209149521        5.2026594455       -2.2412018069
 O         -4.3586018922        3.4645709286       -0.9311519317
 O         -3.3670815799       -1.0405028090       -3.5890712631
 C         -0.9213405285       -3.4214512359       -1.9811870954
 C          3.8902711875       -3.9119943527        0.6623275728
 C          4.8595989847        0.0897826579       -2.1210793140
 C          1.2415464878        3.6021018259       -1.7722541796
 C         -3.3698992061        3.9081220695        1.2547177719
 C         -4.5245011960        0.1565098725       -1.8041582045
 O         -1.7672940914       -3.6365470467       -3.0987085805
 O          4.2744219343       -4.0881625417        2.0164725283
 O          5.3168044549       -0.8322156083       -3.0909396468
 O          2.0020886948        3.9134793125       -2.9272665017
 O         -3.6760748468        3.9942193329        2.6368850322
 O         -5.0847843269        1.1520175280       -2.6362301393
 C         -1.7083876028       -2.9604068129       -0.7357221497
 C          2.5236694671       -3.1877316022        0.5546923641
 C          5.8402704456        0.2179882991       -0.9324904487
 C          2.1200473090        3.0640541867       -0.6233519851
 C         -2.0171994956        3.1884643644        1.0157000488
 C         -5.4033855058       -0.0887774289       -0.5543218176
 C         -0.7114432913       -2.7073019775        0.4142789046
 C          2.6480610047       -1.6552116841        0.7546270577
 C          5.3330954869        1.2845784561        0.0734886185
 C          1.2052098318        2.7060082346        0.5642081935
 C         -2.1400951257        1.6463400710        1.1151456691
 C         -4.7858822066       -1.2084702293        0.3181764555
 O         -0.0506627058       -3.9307640347        0.7378297467
 O          3.7277003145       -1.0568980326        0.0298442871
 O          5.1422645397        2.5402044873       -0.5771249633
 O          0.5722538424        3.8945589920        1.0370696117
 O         -3.2486263350        1.1181831347        0.3813668302
 O         -4.6820023574       -2.4145621930       -0.4324918057
 C         -1.3601632947       -2.1061528807        1.6529287528
 C          2.6425818923       -1.2906882859        2.2232386849
 C          6.2413636014        1.4449798940        1.2914235969
 C          1.9437975723        2.0141788380        1.6976857644
 C         -2.1030302056        1.1581716928        2.5490142254
 C         -5.5422876732       -1.4595986060        1.6166199263
 O         -2.3333016080       -2.9529883351        2.1944192650
 O          1.4438058092       -0.8309987231        2.6718469202
 O          5.8376568774        2.4895345437        2.1417614256
 O          2.9086623859        2.8559392967        2.2612769178
 O         -0.9247051645        0.5917027806        2.9227519561
 O         -6.8173970879       -1.9784572201        1.3703198604
 H          1.2184549718       -5.3394719769       -0.0069711157
 H          5.1425989308       -1.5676507081        1.3626623310
 H          3.9808849798        3.4395563555       -1.9965082630
 H         -0.7366160376        5.3592257466        0.5030767623
 H         -4.5884698443        1.5098037923        1.8275306294
 H         -3.6597667309       -3.2001431701       -2.0140558874
 H         -0.7540574396       -5.5213663688       -1.4765930168
 H          5.9558188041       -3.5872632144        0.0490641586
 H          5.5329952678        1.8534634059       -3.1851306754
 H          1.0967263918        5.6597335888       -1.1122563398
 H         -5.4708497225        3.6290300732        0.7536665599
 H         -5.2545437690       -1.5049651281       -2.9837488414
 H          1.5913884177       -4.4638256900       -2.6383149089
 H          5.0169098451       -2.4680139211       -2.0198450703
 H          3.0012624504        2.1705094201       -3.6297936479
 H         -1.3327244540        4.6670548821       -2.1428760089
 H         -4.6876702120        2.7053365124       -1.4630381912
 H         -2.7643409872       -1.8181952389       -3.5815835865
 H         -0.2352289455       -2.6100646011       -2.2651370830
 H          3.7891693400       -4.9193601018        0.2302924663
 H          3.8939717178       -0.2868324005       -1.7505929198
 H          0.5435682485        2.8048050733       -2.0674116308
 H         -3.2842790393        4.9429437956        0.8892823096
 H         -3.5374164284        0.5231979737       -1.4827205948
 H         -1.3098453704       -4.1754564429       -3.7648241372
 H          4.1462821397       -3.2318194319        2.4790476784
 H          4.8695969930       -0.6743881635       -3.9390383570
 H          1.4894694613        4.4910652387       -3.5162111019
 H         -3.5464696141        3.1036319157        3.0274609580
 H         -4.6712231012        1.1548009529       -3.5297529541
 H         -2.3952109776       -3.7542945154       -0.4092668057
 H          1.9062534382       -3.5624110454        1.3888125780
 H          6.8072871289        0.5533657395       -1.3343520494
 H          2.8112724848        3.8474584728       -0.2819528403
 H         -1.3406789868        3.5069080257        1.8266136501
 H         -6.3918249588       -0.4254514259       -0.9013596998
 H          0.0566499916       -2.0242050761        0.0329603341
 H          1.7659236218       -1.1843248424        0.2999205984
 H          4.3332796151        0.9777076799        0.4075356497
 H          0.4129164450        2.0515621153        0.1808756770
 H         -1.2752009559        1.2059803886        0.6015091695
 H         -3.7511616855       -0.9117005626        0.5393555715
 H         -1.8494710961       -1.1573719112        1.4109496682
 H         -0.6064772649       -1.8962954737        2.4229022979
 H          6.2949385292        0.5170259639        1.8740075869
 H          7.2590852393        1.6863114753        0.9654197355
 H          2.4539228807        1.1149803741        1.3380212358
 H          1.2406651964        1.7038546547        2.4810308187
 H         -4.9931989219       -2.1680745214        2.2513258551
 H         -5.6740061527       -0.5310522060        2.1831308090
 H         -1.9501978662       -3.8217658346        2.4039003693
 H          4.8567829777        2.5759648936        2.1794573238
 H          2.4908155983        3.6865620258        2.5447554548
 H         -6.7544592624       -2.7931569868        0.8430296504
 C         -0.9653166177        0.2435212175        4.2872208573
 H         -1.9458113197       -0.2067709145        4.4808870097
 H         -0.8999676222        1.1666750969        4.8734933470
 O         -3.0631809899        1.3157751764        3.2675489160
 C          1.4788566709       -0.6164802677        4.0639919386
 H          1.9337540136        0.3610329596        4.2552358129
 H          2.1309413772       -1.3842247886        4.4967367395
 O          3.6296409430       -1.4681257325        2.8996182979
 C          0.1145333790       -0.7224204649        4.6886575531
 O         -0.1096930782       -1.5719128100        5.5078257387
 O         -3.9459426287        1.3773458348       -5.2948048326
 H         -4.3322117777        1.0772300896       -6.1161260031
 H         -3.1342186720        1.8303039845       -5.5189339310
 O         -7.3596112185       -1.7340208152       -2.8305971846
 H         -7.7424053700       -2.5945185750       -3.0024252624
 H         -7.9608489116       -1.0898491007       -3.2079181811
  136
        -21.27370186
 C          0.7645853112       -4.4543327235       -0.4913395853
 C          4.7960494405       -1.5376282324        0.1077843723
 C          3.8971138363        2.5332369913       -1.8084244820
 C         -0.7877518920        4.4325401121       -0.5601348722
 C         -4.7305507351        1.5739305843        0.5657093653
 C         -4.0227781082       -2.5683823459       -1.2983712962
 O          1.6921306677       -3.4127825608       -0.7143646257
 O          5.9134582735       -0.8964283203       -0.4880824889
 O          2.6281659875        2.1161755066       -1.3102424654
 O         -1.6910683447        3.3499834661       -0.6351642131
 O         -5.9008214585        0.9032164656        0.1198135342
 O         -2.7043648696       -2.1327657779       -0.9907887389
 C         -0.0845124589       -4.7298573082       -1.7649017819
 C          4.7729672109       -3.0405117565       -0.2673144456
 C          4.3857344300        1.5608048049       -2.9180244893
 C         -0.0819893644        4.6606432756       -1.9249193575
 C         -4.7320307621        3.0458592480        0.0807835444
 C         -4.6473767281       -1.6446893129       -2.3780179735
 O          0.7355846183       -4.9956072823       -2.8833059072
 O          4.4409865799       -3.1907475494       -1.6354887592
 O          3.4279810394        1.4703630072       -3.9547469449
 O         -1.0186101490        4.8602790017       -2.9625914735
 O         -4.5266131984        3.0999681285       -1.3186421776
 O         -3.8186027720       -1.5927340518       -3.5229843405
 C         -1.0055799619       -3.5245722128       -2.0300047013
 C          3.7384534368       -3.7800212845        0.6194190763
 C          4.6274400537        0.1903254816       -2.2710641958
 C          0.8269291843        3.4560680803       -2.2268409887
 C         -3.6202927797        3.8381666081        0.8141404524
 C         -4.8209053792       -0.2492504714       -1.7608637954
 O         -1.8195187103       -3.7537848829       -3.1600514339
 O          4.1637389498       -3.8928118605        1.9686410953
 O          5.0655576316       -0.7744658495       -3.2008718243
 O          1.5206500936        3.6551016161       -3.4404910008
 O         -3.9357886027        4.0898637740        2.1748100309
 O         -5.3733716645        0.6697712074       -2.6762421691
 C         -1.8316462644       -3.2334017079       -0.7619463281
 C          2.3615399375       -3.0675246301        0.4971015476
 C          5.6097712313        0.3464260023       -1.0916397566
 C          1.7821688465        3.2284543378       -1.0384640977
 C         -2.2649014191        3.0934864798        0.6434966953
 C         -5.6583780828       -0.3602469147       -0.4708391542
 C         -0.8858070739       -3.0210124141        0.4397526779
 C          2.4728418582       -1.5220743063        0.6122487637
 C          5.0607080044        1.4017034665       -0.0990139151
 C          0.9830196115        3.0883829298        0.2792897702
 C         -2.3760480169        1.5604408914        0.8775303757
 C         -4.9923711088       -1.3718889931        0.4947276234
 O         -0.0805061465       -4.1880194000        0.6307553528
 O          3.5268303010       -0.9706729686       -0.1745905670
 O          4.8586982527        2.6529822433       -0.7605421300
 O          0.1758643999        4.2528895007        0.4804858750
 O         -3.4947979609        0.9680192867        0.2206596521
 O         -4.8454724068       -2.6477994284       -0.1333000158
 C         -1.6600641294       -2.7150077363        1.7149783688
 C          2.5203087647       -1.0028092750        2.0326401644
 C          5.9436923036        1.6024465363        1.1317072560
 C          1.9155197332        2.9009851454        1.4721964744
 C         -2.3031304990        1.1562985484        2.3361695493
 C         -5.7489389382       -1.5223315548        1.8143207914
 O         -2.6266311507       -3.6977660736        1.9715019111
 O          1.5082011073       -0.1517435509        2.3345231784
 O          5.2890468523        2.3166376308        2.1540773924
 O          2.9116545081        3.8872522391        1.4901571233
 O         -1.3943287837        0.1736182976        2.6057061614
 O         -4.9911236363       -2.1508149919        2.8218515055
 H          1.3519751618       -5.3507741272       -0.2427994160
 H          4.9305838300       -1.4171726430        1.1926401723
 H          3.7816210473        3.5339158201       -2.2497330166
 H         -1.3781910209        5.3239969718       -0.3013142308
 H         -4.7698582821        1.5416970402        1.6647786619
 H         -3.9554424252       -3.5875400259       -1.7091267398
 H         -0.7112193610       -5.6201562879       -1.5987725767
 H          5.7808386728       -3.4633586756       -0.1361951094
 H          5.3264934596        1.9293241589       -3.3542519406
 H          0.5417556313        5.5664211350       -1.8662616961
 H         -5.7213118097        3.4888975485        0.2726687289
 H         -5.6292101323       -2.0373432563       -2.6836551603
 H          0.2114628739       -4.9807818595       -3.7012980205
 H          3.4634597006       -3.2388414770       -1.6873652781
 H          3.6441746638        0.7352992151       -4.5491646685
 H         -0.5802905516        4.8167655132       -3.8284697848
 H         -3.5581310359        3.1317170178       -1.4651963917
 H         -4.1168630273       -0.8911030288       -4.1226612893
 H         -0.3702348460       -2.6540212476       -2.2536561218
 H          3.6399712111       -4.8106323010        0.2459409243
 H          3.6471288327       -0.1402637041       -1.8926345775
 H          0.1880317430        2.5683957424       -2.3510434892
 H         -3.5415311500        4.8280680870        0.3395836880
 H         -3.8076641921        0.1018459008       -1.5073489242
 H         -2.4385184195       -3.0017905320       -3.3045387194
 H          3.9843282718       -3.0367932743        2.4125856242
 H          5.0323524960       -1.6535749377       -2.7671084109
 H          2.1125520104        2.8932785444       -3.6358477044
 H         -3.6777082467        3.2980535250        2.6910940182
 H         -5.2804293800        1.5698090016       -2.2989813150
 H         -2.4540108744       -4.1075852855       -0.5261897113
 H          1.7309303963       -3.4211872551        1.3280742370
 H          6.5671026393        0.7101363774       -1.4918083626
 H          2.4262953445        4.1103934707       -0.9207333900
 H         -1.5668712352        3.4924526959        1.3971497923
 H         -6.6525634975       -0.7426964497       -0.7432336363
 H         -0.2032615312       -2.1945366348        0.2044192588
 H          1.5718215517       -1.0959180511        0.1457077091
 H          4.0644811800        1.0676511970        0.2231719428
 H          0.2995105367        2.2335836568        0.1919039322
 H         -1.5164477509        1.0937197979        0.3735763716
 H         -3.9732250606       -1.0163531803        0.6977855833
 H         -2.1800386959       -1.7544508832        1.6392264132
 H         -0.9809382245       -2.6462986871        2.5733256019
 H          6.2572346953        0.6390365769        1.5504755573
 H          6.8492657766        2.1548335446        0.8557577342
 H          2.4166439482        1.9288464555        1.4259630994
 H          1.3643044030        2.9375143131        2.4221340147
 H         -6.0526561037       -0.5426013978        2.2023663261
 H         -6.6594157134       -2.1118514572        1.6557017858
 H         -2.2077718337       -4.5701488805        2.0556130280
 H          4.6085836365        2.9272072322        1.7877808904
 H          2.5147070654        4.7687115256        1.5843230176
 H         -4.2932496218       -2.7427513762        2.4575494042
 C         -0.9874603929        0.2191431869        3.9590615325
 H         -0.8810405997       -0.8082950335        4.3209108183
 H         -1.7697562510        0.7165278212        4.5456679387
 O         -3.0062451872        1.7005660910        3.1547797521
 C          1.5590914646        0.2227391496        3.6882003661
 H          2.4495364004        0.8464446131        3.8199378379
 H          1.6833330029       -0.6807638591        4.2952916765
 O          3.3990744837       -1.3509919601        2.7857407037
 C          0.3109422962        0.9707646965        4.0634158521
 O          0.3400506152        2.1375822459        4.3404531482
 O          3.9962415833        1.7859833192        4.7839278545
 H          4.5093999797        2.1322549571        5.5118443432
 H          4.4943119234        1.9718806031        3.9722873964
 O         -5.1561512671       -5.1807891530       -2.3830441670
 H         -5.2151669559       -5.6528044132       -3.2135505205
 H         -5.7048505158       -5.6534018270       -1.7561299684
  136
        -21.27369765
 C          0.4192379140       -4.1524298224       -0.9102654863
 C          4.4343655360       -1.1357929173        0.2349687997
 C          4.1489359071        3.2505319967       -0.2799576012
 C         -0.8681319231        3.7105002752       -1.8738097349
 C         -4.6546380793        1.4319742616        0.9415010924
 C         -4.5543636047       -2.6544344792       -0.9008514027
 O          1.0806006455       -3.0189122133       -1.4243705022
 O          5.7149868864       -0.5420030926        0.3390162074
 O          2.9460485048        2.5676231245       -0.6422767547
 O         -1.4012607750        2.4691958255       -1.4753225277
 O         -5.9276137934        0.7955512890        0.9533009237
 O         -3.2354134038       -2.1295302170       -0.7722764323
 C         -0.6592475828       -4.6218543460       -1.9249999166
 C          4.5702502443       -2.6886378573        0.0635929836
 C          5.2637398827        2.8624673321       -1.2823855862
 C          0.1482829778        3.4567085805       -3.0188929884
 C         -4.7716222099        2.8262161751        0.2164532961
 C         -5.3989777881       -1.7420719167       -1.8292881062
 O         -0.0990289664       -4.9311505676       -3.1827925012
 O          5.7947206296       -3.0282456427       -0.5524281146
 O          4.9689051867        3.2784073533       -2.5967391068
 O         -0.4527189661        2.7651828275       -4.0913170737
 O         -6.0478322399        2.9743202455       -0.3577978286
 O         -4.8183306308       -1.6580435910       -3.1214280134
 C         -1.7271972969       -3.5199655845       -2.0543689851
 C          3.4088139229       -3.2889987668       -0.7736699226
 C          5.4890284699        1.3391771644       -1.2195798845
 C          1.3462657612        2.6600776106       -2.4636066256
 C         -3.6938584711        3.0135533897       -0.8808115118
 C         -5.4974380238       -0.3456619345       -1.1903625352
 O         -2.7663654064       -3.8826394490       -2.9486080162
 O          3.2816490738       -4.6755791914       -0.5312005068
 O          6.6040839321        0.9772526531       -2.0103336494
 O          2.3267502360        2.4547337143       -3.4611318603
 O         -3.6859501789        4.3461594323       -1.3526789868
 O         -6.3266847056        0.5178755757       -1.9453834085
 C         -2.2714658183       -3.1675925401       -0.6556861560
 C          2.0743282226       -2.5487286991       -0.5244245590
 C          5.6844176799        0.8757041212        0.2452985645
 C          1.9367829461        3.3863541279       -1.2389611143
 C         -2.2911975706        2.6015500333       -0.3795097194
 C         -5.9742019433       -0.4528091475        0.2786784731
 C         -1.1128541017       -2.8209782101        0.3147306344
 C          2.2352829738       -1.0091713468       -0.7038807225
 C          4.6437098581        1.5072379217        1.2099776592
 C          0.8191186034        3.6910034154       -0.2111365981
 C         -2.3204347225        1.2535582029        0.4046747251
 C         -5.1861665345       -1.5448155786        1.0545966954
 O         -0.1746257483       -3.8995506062        0.3637925167
 O          3.6054299414       -0.5766545384       -0.7813274109
 O          4.5630435370        2.9205055593        1.0465819981
 O         -0.2486176228        4.4298719611       -0.8049506536
 O         -3.6064327020        0.6298299451        0.3906357190
 O         -5.1955588166       -2.7920951955        0.3642799171
 C         -1.6454370965       -2.5609636287        1.7192178988
 C          1.4617791687       -0.2377652607        0.3458180572
 C          5.0125314270        1.2155248502        2.6618028392
 C          1.3604571943        4.4269784753        1.0149881740
 C         -1.7592944177        1.3514949427        1.8058232089
 C         -5.6933147631       -1.7284529055        2.4846866669
 O         -2.4608359708       -3.6134163503        2.1490148958
 O          2.0186259155       -0.1855468432        1.5847419701
 O          6.1260982381        1.9793278461        3.0230156392
 O          0.3651453173        4.7012635999        1.9637927027
 O         -1.9630230214        0.2483321326        2.5758922021
 O         -5.1283082722       -2.8402638269        3.1383303361
 H          1.1824889804       -4.9342062766       -0.7692572037
 H          3.9278231033       -0.9276718958        1.1869057083
 H          3.9742293190        4.3353828417       -0.2990387728
 H         -1.7126029960        4.3201667174       -2.2334212641
 H         -4.3859946929        1.5792899489        1.9983787222
 H         -4.4776300722       -3.6577127212       -1.3462424665
 H         -1.1414632368       -5.5417704726       -1.5635020258
 H          4.5716244696       -3.1706818348        1.0529713435
 H          6.2028378486        3.3633955090       -1.0058645123
 H          0.5134336146        4.4117212890       -3.4241059348
 H         -4.6736180185        3.6461727304        0.9422306221
 H         -6.4116338597       -2.1557558584       -1.9462844640
 H          0.5199462366       -4.2318974946       -3.4527164040
 H          6.4730837435       -2.3605988715       -0.3397688889
 H          4.0753664247        2.9675949580       -2.8695240688
 H         -0.9848286234        2.0270091781       -3.7479035523
 H         -6.2647838768        2.1408656389       -0.8352374310
 H         -4.1152032569       -2.3417508581       -3.1983183054
 H         -1.2531034243       -2.6179986497       -2.4676758311
 H          3.6608095435       -3.1641948390       -1.8372096152
 H          4.6077486804        0.8302060233       -1.6351643471
 H          1.0066846419        1.6683944538       -2.1289108249
 H         -3.9443194309        2.3701502757       -1.7349566225
 H         -4.4864682308        0.0836766477       -1.2098112037
 H         -2.4048853323       -4.4049993942       -3.6837843981
 H          4.1286183138       -5.1303106702       -0.6695060598
 H          6.5419367594        1.3652705299       -2.8993450693
 H          1.9113221726        2.1630601744       -4.2885313040
 H         -4.5867399629        4.6446070945       -1.5605122204
 H         -6.2281031698        0.3315114764       -2.8940013609
 H         -2.7888151843       -4.0415919645       -0.2368508515
 H          1.7265533270       -2.7602566512        0.4961386955
 H          6.6869346974        1.1977064881        0.5630330747
 H          2.3923034088        4.3240508646       -1.5821087009
 H         -1.8985097926        3.3959886788        0.2698573214
 H         -7.0369438085       -0.7325180822        0.2653154816
 H         -0.5662223357       -1.9428979151       -0.0603888786
 H          1.8074374318       -0.7561176584       -1.6847282777
 H          3.6403351696        1.1295387418        0.9640726667
 H          0.3782858411        2.7307652085        0.0974651403
 H         -1.6731227066        0.5535372296       -0.1446837884
 H         -4.1314990802       -1.2390054039        1.0775335545
 H         -2.2453586890       -1.6472194111        1.7546638965
 H         -0.8277081183       -2.4419500544        2.4407216602
 H          4.1901480837        1.4601292132        3.3440616333
 H          5.2773378867        0.1617862194        2.8105005083
 H          1.7783998001        5.3933009808        0.7127524926
 H          2.1639491178        3.8554753631        1.4972431135
 H         -5.5080039526       -0.8311684274        3.0883659008
 H         -6.7761554526       -1.8958175656        2.4743554183
 H         -1.9506596295       -4.4400167757        2.1842516900
 H          5.9792186364        2.9099624206        2.7680103181
 H         -0.2038842579        3.9068264748        2.0877389153
 H         -4.2462382798       -3.0814180429        2.7709821277
 C         -1.0716593957        0.2425158255        3.6702865047
 H         -1.5171625433       -0.3789915670        4.4540716119
 H         -0.9798151474        1.2646598512        4.0549133431
 O         -1.1315577462        2.3285276177        2.1443317677
 C          1.2031987272        0.5445221868        2.4777123044
 H          0.6368586788        1.2693332881        1.8854662759
 H          1.8584524599        1.0993371232        3.1557624353
 O          0.4071158534        0.2615165285        0.0250370180
 C          0.2646849196       -0.3245564073        3.2633032278
 O          0.5515165272       -1.4498229060        3.5569137446
 O          2.7570335370       -2.9711129261        4.6126201712
 H          1.9978678293       -2.4644897943        4.2720072304
 H          2.4030996718       -3.6216744716        5.2160358296
 O          5.0478436655       -1.9883190738        3.1588258113
 H          5.8168899027       -2.3214621657        3.6238596752
 H          4.2773908876       -2.3098121411        3.6593956547
  136
        -21.27369502
 C          0.7865996887       -4.4289362014       -0.2130747709
 C          4.8514570710       -1.5042392252       -0.1409516628
 C          3.8350636128        2.4609011118       -2.1902997979
 C         -0.7693701584        4.4008894075       -0.7933937465
 C         -4.7254433973        1.4804702444        0.3404999878
 C         -3.9585880510       -2.7016705649       -1.3546353873
 O          1.7459426219       -3.4747811800       -0.6170865990
 O          5.9240984074       -0.9065204201       -0.8477937755
 O          2.6072248511        2.0216558424       -1.6174162164
 O         -1.7691436273        3.4117286755       -0.9268895415
 O         -5.8783970592        0.7883587578       -0.1161870249
 O         -2.6846479820       -2.1809241611       -0.9916244512
 C         -0.1081832834       -4.8975011269       -1.3994891683
 C          4.8129741595       -3.0278764260       -0.3940448847
 C          4.2892389690        1.4543683608       -3.2811754795
 C         -0.0250741232        4.6695638504       -2.1344898579
 C         -4.7774837149        2.9481349179       -0.1535423901
 C         -4.5545416476       -1.8343984900       -2.4947780400
 O          0.6747970079       -5.3595225546       -2.4797428748
 O          4.3779313092       -3.2854832188       -1.7170456642
 O          3.2944968740        1.3279861498       -4.2792680430
 O         -0.9326055081        4.9610507940       -3.1765441632
 O         -4.5641176441        2.9965375663       -1.5531443372
 O         -3.6902542949       -1.8409640791       -3.6152939233
 C         -1.0260047704       -3.7417333037       -1.8408235046
 C          3.8590316158       -3.6716848687        0.6443432940
 C          4.5527441134        0.1164287191       -2.5768284663
 C          0.8497888167        3.4535690735       -2.4925720596
 C         -3.6986446350        3.7769990402        0.5846659403
 C         -4.7440288700       -0.4177058226       -1.9302282980
 O         -1.8771012034       -4.1302996476       -2.8986189751
 O          4.3645176066       -3.5755906058        1.9681054384
 O          4.9355683446       -0.9053878781       -3.4696143252
 O          1.5673033358        3.6778459578       -3.6879197384
 O         -3.9886981668        3.9276690741        1.9662825986
 O         -5.2695803723        0.4763652156       -2.8850065648
 C         -1.7974698052       -3.2184730435       -0.6103587912
 C          2.4632367230       -3.0033762528        0.5244222079
 C          5.5884305652        0.3238670742       -1.4493272875
 C          1.7684042303        3.1211330781       -1.2973742423
 C         -2.3160129051        3.1104151465        0.3575215439
 C         -5.6202845613       -0.4887900507       -0.6619613279
 C         -0.7666723234       -2.7843226812        0.4527502440
 C          2.5544294224       -1.4538122427        0.5260220186
 C          5.0796972494        1.4206110395       -0.4744957042
 C          0.8859007053        2.8765352940       -0.0547887743
 C         -2.3501743019        1.5798581137        0.6067203668
 C         -5.0111998879       -1.4803516097        0.3580430276
 O         -0.0093306235       -3.9242342466        0.8610864988
 O          3.5599352664       -0.9508225001       -0.3569297545
 O          4.8444257754        2.6368545240       -1.2003333400
 O          0.1554164139        4.0675249902        0.2456722900
 O         -3.4668929533        0.9139665595        0.0064534826
 O         -4.8442788604       -2.7661607435       -0.2386387040
 C         -1.3853977970       -2.0993264619        1.6604423246
 C          2.6684569624       -0.8717900209        1.9190268098
 C          5.9977068213        1.7046582292        0.7197247453
 C          1.6765279249        2.4223917409        1.1636238236
 C         -2.1815250877        1.2504846180        2.0732128226
 C         -5.8800776374       -1.6177999589        1.6008068565
 O         -2.2183754475       -2.9663036497        2.3741170970
 O          1.4834991953       -0.5081864426        2.4781807768
 O          6.1888825660        0.6231005529        1.5968863950
 O          2.5772788909        3.4054444457        1.5846335029
 O         -0.9167371468        0.8838307083        2.4115717707
 O         -7.1093652618       -2.2057682865        1.2791332142
 H          1.3475903387       -5.2900562616        0.1804573949
 H          5.0754569560       -1.3234449204        0.9163289561
 H          3.6677175184        3.4451264714       -2.6510793661
 H         -1.2847433827        5.3204125829       -0.4762636766
 H         -4.7747323774        1.4393409048        1.4381731024
 H         -3.8217529107       -3.7333343055       -1.7094490123
 H         -0.7378837405       -5.7382402073       -1.0684686776
 H          5.8308310128       -3.4388305432       -0.3081484033
 H          5.2147666058        1.8070716855       -3.7607532834
 H          0.6290262947        5.5477894735       -2.0161752870
 H         -5.7838781141        3.3560724461        0.0276737480
 H         -5.5284117857       -2.2385098883       -2.8094267725
 H          0.1244933304       -5.4863092486       -3.2703365018
 H          3.4017770618       -3.3600692712       -1.6880472945
 H          3.4807023276        0.5635795515       -4.8458930392
 H         -0.4799082827        4.9525058396       -4.0362482580
 H         -3.5982783224        3.0856890616       -1.6909739929
 H         -3.9548917296       -1.1581103379       -4.2508383485
 H         -0.3813630527       -2.9368043647       -2.2265442496
 H          3.7680199519       -4.7459724882        0.4236438404
 H          3.5894483830       -0.1834393923       -2.1336414734
 H          0.1766563535        2.6012316146       -2.6727248918
 H         -3.6830327400        4.7923002043        0.1597772087
 H         -3.7379144547       -0.0599729114       -1.6585569307
 H         -2.4181184479       -3.3659584615       -3.2035514882
 H          4.2454574079       -2.6521936870        2.2811361780
 H          4.9166743206       -1.7602617802       -2.9883010016
 H          2.0831575383        2.8770239659       -3.9375590042
 H         -3.7578732750        3.0887848610        2.4210584930
 H         -5.2071011265        1.3856817776       -2.5222600100
 H         -2.4028193454       -4.0243750836       -0.1721435028
 H          1.8829167000       -3.2974541833        1.4142438390
 H          6.5231651640        0.6793358219       -1.9068603155
 H          2.4188732841        3.9778088077       -1.0726184620
 H         -1.6286034547        3.5415381362        1.1040417825
 H         -6.6111565959       -0.8680886451       -0.9522255044
 H         -0.0641937638       -2.0987921209       -0.0380301754
 H          1.6254516089       -1.0622543907        0.0882064698
 H          4.0961954610        1.1037759474       -0.1042241734
 H          0.1490941140        2.1099948904       -0.3236371204
 H         -1.4964467160        1.1360452836        0.0761843642
 H         -4.0043496394       -1.1275491888        0.6218770125
 H         -1.9906249836       -1.2397628349        1.3536337602
 H         -0.6010444136       -1.7295090896        2.3332107553
 H          6.9887064436        1.9968416975        0.3548927888
 H          5.6103433448        2.5544137603        1.2964564715
 H          2.2556270831        1.5212152838        0.9375637449
 H          1.0042726536        2.1805644362        1.9972343589
 H         -5.3834114690       -2.2344101022        2.3628687126
 H         -6.0943175370       -0.6387527471        2.0440789882
 H         -1.7422974631       -3.7806086721        2.6106761935
 H          5.3376293024        0.2564305637        1.9351791726
 H          2.1131766447        4.2421407014        1.7580566509
 H         -6.9722409838       -3.0708690431        0.8570596658
 C         -0.8091846327        0.6837109049        3.8009349035
 H         -1.1917369011       -0.3138050476        4.0403141768
 H         -1.4562535370        1.4221454018        4.2898621224
 O         -3.1101381215        1.3760889087        2.8375071084
 C          1.6836748442       -0.0565251997        3.7989854517
 H          2.6442714126        0.4699900752        3.8251961322
 H          1.7678155241       -0.9359190097        4.4460799372
 O          3.7491071436       -0.7907155828        2.4562095757
 C          0.6012615943        0.8647601308        4.2889268990
 O          0.8615996275        1.7409381844        5.0681334669
 O          3.3619133669        2.5217883231        6.3548159536
 H          2.5016879867        2.2743808446        5.9685191774
 H          3.5711872399        3.3960916822        6.0262932401
 O         -5.4414236138       -2.4764400930        4.4973959017
 H         -5.7291389165       -3.3071121068        4.8753379386
 H         -5.1571662786       -1.9211054926        5.2226093411
  136
        -21.27365293
 C          0.7254060572       -4.4194446443       -0.4562678745
 C          4.9596157506       -1.7423151552        0.2891431506
 C          4.1287991728        2.4031018509       -1.4695669775
 C         -0.3367747690        4.4199762109        0.1575689398
 C         -4.5381651920        1.6093539543        0.7376901483
 C         -3.8031695624       -2.2428168779       -1.6156129081
 O          1.7973054286       -3.5347562800       -0.7004283939
 O          6.0865472271       -1.0956649251       -0.2861471460
 O          2.8829363025        1.9443889534       -0.9642333723
 O         -1.4304729034        3.5885623074       -0.1679242252
 O         -5.6974830376        1.0217979746        0.1622626472
 O         -2.5217088641       -1.8343347918       -1.1609509234
 C         -0.0870799503       -4.6508889967       -1.7633303584
 C          4.9281198630       -3.2180890449       -0.1839409440
 C          4.5873377699        1.4800545565       -2.6283369753
 C          0.4368560338        4.8123507743       -1.1331736759
 C         -4.5546992068        3.1379703104        0.4839539799
 C         -4.3542952207       -1.1827267428       -2.6085134625
 O          0.7925524893       -4.9521927971       -2.8265737190
 O          4.7020623344       -3.3035539889       -1.5783275909
 O          3.6064316517        1.4428849274       -3.6511620070
 O         -0.4661283212        5.2577652442       -2.1231381261
 O         -4.4357230474        3.4266281000       -0.8957189382
 O         -3.4290756175       -1.0073136000       -3.6659110549
 C         -0.9279072913       -3.4016864943       -2.1030064617
 C          3.8484901566       -4.0074668101        0.5939743035
 C          4.8353477299        0.0721358239       -2.0589441492
 C          1.2499818950        3.6089083898       -1.6537081018
 C         -3.4265371246        3.8239602638        1.2925643101
 C         -4.5859037545        0.1354541645       -1.8456035615
 O         -1.7646696425       -3.5945150289       -3.2314181734
 O          4.2325109019       -4.2544950280        1.9366968412
 O          5.2949581873       -0.8226298680       -3.0529223221
 O          2.0288152776        3.9370984443       -2.7916423544
 O         -3.7194056340        3.8536018220        2.6803242715
 O         -5.1695161786        1.1418531845       -2.6481268663
 C         -1.7282416823       -2.9677123850       -0.8566904583
 C          2.4883393347       -3.2667312799        0.5176029314
 C          5.8126403174        0.1662842085       -0.8647397325
 C          2.1046045599        3.0355222221       -0.5038545721
 C         -2.0657203595        3.1302531246        1.0234495677
 C         -5.4443274733       -0.1472264323       -0.5889927101
 C         -0.7371785790       -2.7317208369        0.3008826978
 C          2.6237378713       -1.7446504433        0.7863186797
 C          5.3045936581        1.2079371590        0.1668539647
 C          1.1726214053        2.6594645078        0.6655682310
 C         -2.1724243321        1.5852030243        1.0603290873
 C         -4.8000367260       -1.2772239036        0.2501565427
 O         -0.0986624593       -3.9672872039        0.6200105963
 O          3.6974531483       -1.1292398395        0.0676984485
 O          5.1237990550        2.4810376457       -0.4517535617
 O          0.5213501233        3.8373375269        1.1438204838
 O         -3.2898976682        1.0639044970        0.3352068652
 O         -4.6942402030       -2.4658014752       -0.5273552307
 C         -1.3749435257       -2.1249516569        1.5405934709
 C          2.6554655877       -1.4308299130        2.2675029145
 C          6.2069774741        1.3343715578        1.3931145186
 C          1.9079511116        1.9613497934        1.8000020054
 C         -2.0867439315        1.0574651613        2.4766409752
 C         -5.5265221788       -1.5636125668        1.5583381808
 O         -2.3441402289       -2.9682294467        2.0946732093
 O          1.5034448866       -0.9016772917        2.7588053663
 O          5.8141753860        2.3729920178        2.2559558776
 O          2.8849441983        2.7925799367        2.3588204357
 O         -0.8640079750        0.5623109645        2.8063371505
 O         -6.7990832816       -2.0962169686        1.3290079588
 H          1.1713579322       -5.3716011687       -0.1308093856
 H          5.1149876124       -1.6918412020        1.3764425563
 H          3.9763883624        3.4238699045       -1.8525790011
 H         -0.7623138548        5.3258920443        0.6156694613
 H         -4.6073777221        1.4011675697        1.8150094541
 H         -3.6802954224       -3.2044952166       -2.1375601749
 H         -0.7602398712       -5.5134652446       -1.6521913735
 H          5.9169490226       -3.6687664857        0.0001452322
 H          5.5190228017        1.8593595079       -3.0744051619
 H          1.1248654350        5.6470959028       -0.9337306155
 H         -5.5302025429        3.5383039771        0.8047115135
 H         -5.3059238459       -1.5094254113       -3.0552995013
 H          1.6076825273       -4.4216301980       -2.7299931400
 H          4.9902900926       -2.4812441458       -2.0350580815
 H          2.9992588359        2.2059030450       -3.5267891495
 H         -1.2842472402        4.7264099745       -2.0748820353
 H         -4.7641939631        2.6780535301       -1.4429445271
 H         -2.8085240999       -1.7709906435       -3.6740413817
 H         -0.2406338971       -2.5837258556       -2.3645773003
 H          3.7370386072       -4.9926909284        0.1156807282
 H          3.8679483369       -0.3126916043       -1.7014959121
 H          0.5463658275        2.8268511547       -1.9750602235
 H         -3.3574944682        4.8718870576        0.9629837507
 H         -3.5992318469        0.5085950466       -1.5305706816
 H         -1.2965889994       -4.1080049311       -3.9100550955
 H          4.1202740585       -3.4190070661        2.4386046488
 H          4.8528991063       -0.6386222014       -3.8984954123
 H          1.5333628972        4.5410368558       -3.3688089053
 H         -3.5676841594        2.9518876335        3.0374128233
 H         -4.7794602522        1.1586834215       -3.5519896887
 H         -2.4090465331       -3.7738866014       -0.5480302966
 H          1.8614742912       -3.6751312331        1.3281731214
 H          6.7811882528        0.5108139630       -1.2551135879
 H          2.8008441536        3.8024476678       -0.1362012617
 H         -1.4014399158        3.4178442634        1.8562449577
 H         -6.4336800553       -0.4883584823       -0.9287898043
 H          0.0443249903       -2.0612487362       -0.0770900252
 H          1.7371081275       -1.2477504393        0.3701580273
 H          4.3011024656        0.8976726153        0.4871827081
 H          0.3930914524        2.0004079266        0.2663405183
 H         -1.3161441424        1.1765702141        0.5076614237
 H         -3.7650674403       -0.9723696086        0.4582512738
 H         -1.8631595288       -1.1757187133        1.2993131568
 H         -0.6116117480       -1.9160768898        2.3008733570
 H          6.2416977866        0.3969162450        1.9618139786
 H          7.2307307543        1.5641993407        1.0777425641
 H          2.4082665780        1.0566443095        1.4396479785
 H          1.2077195696        1.6567456340        2.5888182908
 H         -4.9537323302       -2.2752319360        2.1682196816
 H         -5.6594181448       -0.6480012844        2.1451792017
 H         -1.9693318218       -3.8492212493        2.2654055417
 H          4.8350009246        2.4815797119        2.2807454559
 H          2.4725096811        3.6130822652        2.6768017872
 H         -6.7361721357       -2.8992600363        0.7842197639
 C         -0.8302525403        0.1776313359        4.1604615675
 H         -1.2881319245       -0.8129701656        4.2523056165
 H         -1.4491340203        0.8904199905        4.7187428039
 O         -3.0379539105        1.1443897454        3.2187758225
 C          1.6027809417       -0.7358348642        4.1548428861
 H          2.6021439263       -0.3388671668        4.3675911719
 H          1.5310687008       -1.7251058077        4.6191906005
 O          3.6420078353       -1.6852186111        2.9194788876
 C          0.5663907625        0.1967618893        4.7173964427
 O          0.8525842036        0.9517328531        5.6066747848
 O         -4.1032034572        1.4001813592       -5.3347626158
 H         -3.3033914398        1.8661138375       -5.5738502343
 H         -4.5027469078        1.0986215772       -6.1494565344
 O         -7.4051410381       -1.7724994357       -2.8926891907
 H         -8.0409388154       -1.1486903090       -3.2463129582
 H         -7.7549354491       -2.6453960952       -3.0719691118
  136
        -21.27363464
 C          0.7006482912       -4.4302930148       -0.0359643986
 C          4.7361571235       -1.3561463190       -0.0167316072
 C          3.5947670230        2.3909700439       -2.5070420429
 C         -0.6721029159        4.5662436524       -0.5127270219
 C         -4.7085676984        1.5990233951        0.2185775786
 C         -3.7652277293       -2.4662617047       -1.8019966201
 O          1.7334453707       -3.5849422569       -0.5063239865
 O          5.7920231751       -0.7176781498       -0.7216646048
 O          2.3699703966        2.0300467791       -1.8984077189
 O         -1.7471339158        3.6890347588       -0.7867651749
 O         -5.8126436045        0.8978340911       -0.3388193242
 O         -2.5105690651       -2.0455716223       -1.2996875267
 C         -0.1779202849       -5.0240887531       -1.1748069845
 C          4.8021741484       -2.8890348409       -0.2416053854
 C          4.1049458080        1.2724185912       -3.4603091562
 C          0.0767321561        5.0378285679       -1.7900791510
 C         -4.7794137965        3.0909739244       -0.1985876488
 C         -4.2978716671       -1.4715181012       -2.8717677713
 O          0.5856433155       -5.6380420535       -2.1958228361
 O          4.4144832021       -3.2022905472       -1.5662646758
 O          3.1594865651        0.9799638413       -4.4680292050
 O         -0.8049955445        5.5982965137       -2.7384918506
 O         -4.4818164292        3.2151729754       -1.5743563798
 O         -3.3964506775       -1.3366183473       -3.9502357432
 C         -1.0646621594       -3.9303070204       -1.8037297249
 C          3.8651632284       -3.6033877190        0.7642036284
 C          4.4146553847        0.0249989086       -2.6187058547
 C          0.9077191134        3.8971865790       -2.4154751524
 C         -3.7639849467        3.9214401425        0.6258400169
 C         -4.5412331988       -0.1179511934       -2.1874282802
 O         -1.9585778157       -4.5015874706       -2.7375797428
 O          4.3328028408       -3.5089317960        2.1008145522
 O          4.8943073637       -1.0343228945       -3.4152324389
 O          1.7344741281        4.4000648690       -3.4474182602
 O         -4.1354950294        4.0412476492        1.9895951469
 O         -5.0344698404        0.8375369123       -3.0989081939
 C         -1.8211125256       -3.1395508359       -0.7103137227
 C          2.4323556367       -3.0251052839        0.6107775207
 C          5.4042138698        0.3999040072       -1.4978373733
 C          1.7511787061        3.1784739649       -1.3346007095
 C         -2.3528241521        3.2971408408        0.4532329447
 C         -5.4906751750       -0.3177051012       -0.9897359252
 C         -0.8200559812       -2.6627042164        0.3636183191
 C          2.4309190507       -1.4732340754        0.5788264097
 C          4.8217810229        1.5713595849       -0.6737039539
 C          0.8495037880        2.8143202477       -0.1348492670
 C         -2.3658239864        1.7553869445        0.6466561371
 C         -4.9223057401       -1.4023354645       -0.0420082783
 O         -0.1194525180       -3.7708769189        0.9281093325
 O          3.4198810517       -0.8983086635       -0.2823850427
 O          4.5801045351        2.6976638295       -1.5208435536
 O          0.2430490322        3.9844041327        0.4109821007
 O         -3.4139240040        1.0900778883       -0.0679892699
 O         -4.7183098979       -2.6285570444       -0.7507954813
 C         -1.4898780600       -1.8756039643        1.4794466177
 C          2.4544134094       -0.8907891349        1.9748882123
 C          5.7157035037        1.9818032555        0.4883106401
 C          1.5923177005        2.0811145743        0.9692795576
 C         -2.3262963206        1.3645697959        2.1098651248
 C         -5.7960614134       -1.6330328378        1.1893653572
 O         -2.3914852971       -2.6852596268        2.1787367425
 O          1.2362053678       -0.4834983796        2.4194716311
 O          6.8998717762        2.5668488107        0.0267625137
 O          2.6195859163        2.8718335636        1.4982580023
 O         -1.1207139792        0.9132887025        2.5470017985
 O         -5.3216062689       -2.6731098478        2.0053033435
 H          1.2001511567       -5.2513208635        0.4995642439
 H          4.9116989004       -1.1161150347        1.0418523639
 H          3.4095985324        3.3114702508       -3.0835129169
 H         -1.1107234860        5.4440897094       -0.0137743435
 H         -4.8208934724        1.4977107465        1.3074320347
 H         -3.6136209813       -3.4564470216       -2.2602459887
 H         -0.8518049087       -5.7889012130       -0.7580961815
 H          5.8427164681       -3.2292388746       -0.1262154788
 H          5.0288617304        1.6073022341       -3.9564820826
 H          0.7735197120        5.8473403777       -1.5238328632
 H         -5.8060972356        3.4621637858       -0.0585183071
 H         -5.2507122183       -1.8446399353       -3.2777877375
 H          1.1307664404       -6.3675319269       -1.8583184175
 H          3.4407931719       -3.3103670170       -1.5561636597
 H          3.4032375369        0.1674238632       -4.9418441882
 H         -1.5692960136        5.0126782694       -2.8760530338
 H         -3.5033022917        3.2543636471       -1.6338742552
 H         -3.6476826709       -0.5859309606       -4.5136703592
 H         -0.4248986290       -3.2257417865       -2.3568766041
 H          3.8447538274       -4.6770164648        0.5236115565
 H          3.4604893646       -0.2964023730       -2.1718972278
 H          0.2356861962        3.1539169744       -2.8686212089
 H         -3.7472150608        4.9466878062        0.2252407935
 H         -3.5613526348        0.2336467372       -1.8273797419
 H         -1.4783849057       -5.0554182071       -3.3735131747
 H          4.1369765977       -2.6053265363        2.4295372050
 H          4.9053644276       -1.8487660504       -2.8697087153
 H          1.2218905938        4.9329800631       -4.0764528400
 H         -3.9369367954        3.1898671476        2.4336074932
 H         -5.0265320135        1.7138547907       -2.6601706063
 H         -2.5738012437       -3.7808864070       -0.2310305844
 H          1.8713107921       -3.3214306693        1.5126085899
 H          6.3374861858        0.7455694778       -1.9661231806
 H          2.5538871121        3.8406548850       -0.9805288331
 H         -1.7195925847        3.7078641469        1.2567603957
 H         -6.4506570764       -0.6806035360       -1.3853254497
 H         -0.0817956172       -2.0398142104       -0.1520877878
 H          1.4944904661       -1.1451811405        0.1116816846
 H          3.8391048958        1.2548223589       -0.3010684635
 H          0.0405147413        2.1896046786       -0.5322580926
 H         -1.4599163095        1.3445129612        0.1852440657
 H         -3.9249537544       -1.0760763850        0.2784212553
 H         -2.0408397212       -1.0175498789        1.0823296047
 H         -0.7441714596       -1.4895134080        2.1872098776
 H          5.1994015276        2.6998514343        1.1386461103
 H          5.9948382712        1.1143602531        1.0973302788
 H          2.0385641020        1.1562064414        0.5932158647
 H          0.9040283557        1.8093784683        1.7803543775
 H         -5.8835788017       -0.7207278455        1.7926422755
 H         -6.8067548493       -1.9195141398        0.8782461068
 H         -1.9243209299       -3.4653787975        2.5227306624
 H          6.7012254999        3.3021751751       -0.5775718022
 H          2.2643453118        3.7303890311        1.7870267482
 H         -4.3395731269       -2.6528890026        2.0804874953
 C         -1.1688501422        0.6875433665        3.9359074884
 H         -2.1128996834        0.1730688547        4.1482340153
 H         -1.2067242082        1.6635990758        4.4321553594
 O         -3.3115786794        1.4978304947        2.7979417821
 C          1.3156739414       -0.0627683496        3.7594930419
 H          1.7347302651        0.9487134557        3.7821734255
 H          2.0224559888       -0.7317355770        4.2640536302
 O          3.4834424280       -0.8654029561        2.6098095189
 C         -0.0165214893       -0.1266378374        4.4569247809
 O         -0.1566152741       -0.8145164551        5.4322341515
 O          2.1723264748       -2.1142407699        6.5996911805
 H          1.3615370760       -1.6849674597        6.2695119311
 H          2.0426098010       -3.0578857712        6.5065452321
 O         -2.8725298141       -0.9135299910        6.4817927692
 H         -3.1319903764       -1.8306957574        6.5636452361
 H         -1.9405104255       -0.9071396336        6.1949408046
  136
        -21.27362658
 C          0.6481737665       -4.5193528705       -0.3487443763
 C          4.6533613543       -1.4367394631        0.2251138821
 C          3.3649412876        2.5136271461       -1.7871163931
 C         -0.8985296892        4.3463599710        0.4992520586
 C         -4.8784040888        1.2665781829        0.8218756654
 C         -3.8461629924       -2.3867945845       -1.8269370463
 O          1.6691621381       -3.5955670798       -0.6632023352
 O          5.7078929684       -0.6663550410       -0.3395250229
 O          2.1385455651        2.0410664501       -1.2677626833
 O         -1.9692981166        3.4923136346        0.1480053213
 O         -5.9681987797        0.6544179011        0.1435588933
 O         -2.6072308805       -2.0290339484       -1.2423549400
 C         -0.1577573667       -4.8964983312       -1.6207084855
 C          4.7725269506       -2.9170189164       -0.2261777350
 C          3.9423756320        1.5471571180       -2.8572096988
 C         -0.1950492843        4.9805098451       -0.7372778371
 C         -4.9646963505        2.8067385522        0.6565934843
 C         -4.3863310453       -1.2397589028       -2.7272805245
 O          0.7321000450       -5.2110532886       -2.6720824167
 O          4.5170682512       -3.0706755482       -1.6100606737
 O          3.0224313612        1.3261351694       -3.9027206369
 O         -1.1195434416        5.6011549946       -1.6096087193
 O         -4.6852893077        3.1693571514       -0.6823229813
 O         -3.4740786060       -0.9139628325       -3.7550646296
 C         -1.1047430602       -3.7538835151       -2.0511247774
 C          3.7993172751       -3.7999282963        0.5927537391
 C          4.3769407203        0.2256737758       -2.1928404338
 C          0.6073862697        3.9129844442       -1.5128389870
 C         -3.9572513298        3.4983491131        1.6087908000
 C         -4.6654330114       -0.0212296217       -1.8342927353
 O         -1.9827710553       -4.2015300529       -3.0661286109
 O          4.2292913495       -3.9623328124        1.9345128022
 O          4.9987165212       -0.6497966274       -3.1064748600
 O          1.3909404926        4.5026088661       -2.5304611975
 O         -4.3288731576        3.3865212701        2.9732873380
 O         -5.1692462519        1.0617239185       -2.5828810520
 C         -1.8921043036       -3.1907753795       -0.8432584324
 C          2.3636777609       -3.2165042222        0.5244233863
 C          5.2922341705        0.5213482580       -0.9876747299
 C          1.4983515179        3.0907850172       -0.5511000420
 C         -2.5412033363        2.9253154765        1.3338621055
 C         -5.6217266014       -0.4314034234       -0.6969835277
 C         -0.9156505677       -2.8790452720        0.3114910698
 C          2.3410461638       -1.6831362305        0.7498047777
 C          4.6083257570        1.5368622478       -0.0461781223
 C          0.6425309819        2.5738141199        0.6232012732
 C         -2.5403141224        1.3725857798        1.2943073585
 C         -5.0421748678       -1.6479352449        0.0656108726
 O         -0.2055783249       -4.0551177648        0.6950941282
 O          3.3317267875       -0.9664850529        0.0060693048
 O          4.3151084278        2.7473989101       -0.7485056808
 O          0.0473054154        3.6672409604        1.3198297887
 O         -3.5758436392        0.8187813310        0.4746333754
 O         -4.8087006251       -2.7375821097       -0.8318409905
 C         -1.6110101805       -2.2899053237        1.5294615145
 C          2.3455222354       -1.3411992272        2.2241282637
 C          5.4407438489        1.8193932917        1.1990643454
 C          1.4237429327        1.7279514395        1.6137892872
 C         -2.4996694884        0.7582505560        2.6787219654
 C         -5.9205726813       -2.0890657422        1.2343425806
 O         -2.5024302184       -3.2130428279        2.0874272131
 O          1.1230876899       -1.0013993356        2.7125293757
 O          6.7038787128        2.3206734599        0.8414026223
 O          2.4402786982        2.4743861025        2.2225734081
 O         -1.2805634843        0.2839368958        3.0505271628
 O         -5.4308909538       -3.2363963094        1.8797233916
 H          1.1527035056       -5.4182399255        0.0382527475
 H          4.8005059643       -1.3615480366        1.3125142402
 H          3.1550425197        3.4900477252       -2.2531408008
 H         -1.3307428991        5.1455259197        1.1192797715
 H         -5.0018385377        0.9879619521        1.8782139310
 H         -3.6674115455       -3.2850485088       -2.4389334002
 H         -0.7621148745       -5.7980571688       -1.4407163401
 H          5.8077213222       -3.2549928483       -0.0573533753
 H          4.8268077927        2.0058262110       -3.3216803381
 H          0.5208646970        5.7488163009       -0.4062247046
 H         -5.9942711492        3.1358722130        0.8649926387
 H         -5.3265862818       -1.5584358295       -3.2028231993
 H          1.5008734302       -4.6088827834       -2.6348060391
 H          4.7411952245       -2.2549234188       -2.1109533612
 H          2.1923565884        0.9642241898       -3.5489858153
 H         -1.6068586732        6.3216429699       -1.1746080667
 H         -3.7141123909        3.2873423746       -0.7412104504
 H         -3.7342880546       -0.0858593924       -4.1919666531
 H         -0.5119272836       -2.9306291049       -2.4762864255
 H          3.7896370680       -4.8047224667        0.1432012624
 H          3.4752404582       -0.2924576566       -1.8394270583
 H         -0.1025844530        3.2263972401       -1.9968877109
 H         -3.9519160909        4.5758581964        1.3847639150
 H         -3.6969472019        0.2853463649       -1.4088616888
 H         -1.4884944524       -4.6102494449       -3.7945826948
 H          4.0321221635       -3.1299846496        2.4157626291
 H          5.7515739577       -0.1834540420       -3.5270122073
 H          0.8310411814        4.9716500411       -3.1884538260
 H         -4.1239506895        2.4744810608        3.2702387159
 H         -5.1792480760        1.8546606751       -2.0066850509
 H         -2.6286957929       -3.9278672047       -0.4946680395
 H          1.8044676916       -3.6622585773        1.3643927045
 H          6.2196764276        0.9848570450       -1.3554668318
 H          2.2907458014        3.7315570441       -0.1387114728
 H         -1.8965715631        3.2252593155        2.1758812547
 H         -6.5717625961       -0.7392700166       -1.1576554600
 H         -0.1794111982       -2.1699684883       -0.0827554187
 H          1.4030583100       -1.2963964539        0.3321883646
 H          3.6337312576        1.1203761417        0.2377140350
 H         -0.1725151528        1.9909332083        0.1791829708
 H         -1.6285357519        1.0439845811        0.7817287397
 H         -4.0533834639       -1.3622407816        0.4455799883
 H         -2.1761233066       -1.3915901553        1.2631445327
 H         -0.8782757916       -2.0028437236        2.2954548823
 H          4.9194885869        2.5595438767        1.8185044063
 H          5.5738892045        0.9015107819        1.7843844660
 H          1.8822299316        0.8682592660        1.1184155870
 H          0.7571412949        1.3395684203        2.3946707323
 H         -6.0304724635       -1.2861097298        1.9737932275
 H         -6.9231017668       -2.3397036359        0.8708219632
 H         -2.0212884511       -4.0238471103        2.3242648465
 H          7.2554693647        2.5390332036        1.6109391624
 H          2.0658557693        3.2810878489        2.6175597914
 H         -4.4499698539       -3.2079182120        1.9673059504
 C         -1.3328050706       -0.1868895926        4.3771187464
 H         -2.2366138533       -0.7994029513        4.4720561260
 H         -1.4501103392        0.6804582107        5.0361980642
 O         -3.4930973907        0.7470225454        3.3682094986
 C          1.1899620671       -0.7778990208        4.1013318327
 H          1.5651973117        0.2365917377        4.2723180515
 H          1.9233593068       -1.4826482813        4.5109407413
 O          3.3647080120       -1.4305988788        2.8696193370
 C         -0.1334972842       -0.9979488646        4.7821523028
 O         -0.2284702798       -1.8119493165        5.6605211533
 O          7.1099927889        0.9452811339       -4.1521292351
 H          6.9944095514        1.5438698105       -4.8893837660
 H          8.0494648128        0.7961083189       -4.0682919397
 O         -0.1956069454        5.8282045902       -4.5501026481
 H         -0.8366791911        5.4330074607       -5.1382602803
 H         -0.1290400092        6.7501777896       -4.7914345339
  136
        -21.27362621
 C          0.6959815103       -4.3577247872       -0.4712347513
 C          4.8245420373       -1.5746128884        0.4464805516
 C          3.9494095238        2.4737878961       -1.5048840087
 C         -0.6038401803        4.4283832200       -0.0900885744
 C         -4.7738029493        1.5566406729        0.2979707602
 C         -3.8143293567       -2.3238796913       -1.9283826538
 O          1.7582818874       -3.4498875547       -0.6673548660
 O          5.9565247947       -0.9140701368       -0.1063935635
 O          2.7049021254        1.9955696851       -1.0165353647
 O         -1.6585411760        3.5619918374       -0.4487392370
 O         -5.8814806905        0.9423043398       -0.3470692133
 O         -2.5740156642       -1.8736683854       -1.4031888245
 C         -0.0353813424       -4.6307976523       -1.8174200484
 C          4.8490621389       -3.0628821898        0.0103450141
 C          4.4728022021        1.5199063956       -2.6084312240
 C          0.2150401452        4.8071242966       -1.3561595517
 C         -4.7909726509        3.0794625710        0.0117836903
 C         -4.3277095072       -1.2969592210       -2.9725603497
 O          0.9074355565       -4.9329524606       -2.8241697601
 O          4.7091308090       -3.1939515293       -1.3913630992
 O          3.5270182519        1.4097700116       -3.6587201281
 O         -0.6547847604        5.2125396777       -2.3919526647
 O         -4.5680385777        3.3414853073       -1.3608398503
 O         -3.3625962080       -1.1178154037       -3.9940354893
 C         -0.8829431875       -3.4080189268       -2.2280979664
 C          3.7453625351       -3.8643445793        0.7410349927
 C          4.7452726811        0.1454610752       -1.9730343930
 C          1.0641591743        3.6033488376       -1.8125935374
 C         -3.7342388336        3.7952676367        0.8877398482
 C         -4.6111276597        0.0294497073       -2.2471808454
 O         -1.6443869174       -3.6393416545       -3.4018850125
 O          4.0597561386       -4.0889161313        2.1046667282
 O          5.2702270551       -0.7664984816       -2.9175463565
 O          1.8737525261        3.9083932245       -2.9352282383
 O         -4.1203903374        3.8361238378        2.2521481295
 O         -5.1085405323        1.0204909866       -3.1235661943
 C         -1.7664664102       -2.9786940557       -1.0377148970
 C          2.3760967894       -3.1551085351        0.5838542442
 C          5.6774347457        0.3155227376       -0.7508625381
 C          1.8864022560        3.0800839484       -0.6162669371
 C         -2.3486306138        3.1206544525        0.7169907077
 C         -5.5605028803       -0.2367993398       -1.0561319271
 C         -0.8517259117       -2.6982789210        0.1717843578
 C          2.4654556066       -1.6288140331        0.8446754135
 C          5.1161025460        1.3911819389        0.2167430336
 C          0.9194874052        2.7143911976        0.5279230279
 C         -2.4333631262        1.5752193706        0.7771586515
 C         -4.9625385617       -1.3431664527       -0.1512186556
 O         -0.1995427311       -3.9105233170        0.5484553366
 O          3.5579435764       -0.9954640336        0.1688571695
 O          4.9108386091        2.6278748080       -0.4649847019
 O          0.2222950853        3.8887537168        0.9469402099
 O         -3.4939636642        1.0211394450       -0.0061221286
 O         -4.7716673768       -2.5437260323       -0.8956320674
 C         -1.5808561093       -2.0946995007        1.3612267280
 C          2.3990870819       -1.2973544971        2.3227392004
 C          5.9916472911        1.6166060799        1.4476841972
 C          1.6306509539        2.0660094192        1.7068615208
 C         -2.4250255678        1.0724062241        2.2043903356
 C         -5.7886243648       -1.6232155484        1.0979367449
 O         -2.5535977327       -2.9617985581        1.8701166569
 O          1.2130638164       -0.7648740137        2.7224000653
 O          5.5254775225        2.6667063391        2.2590330983
 O          2.5652130290        2.9371707830        2.2781771041
 O         -1.2157259748        0.6025774856        2.6112609472
 O         -7.0240426972       -2.1922012782        0.7731293102
 H          1.1456783964       -5.2932508155       -0.1051829320
 H          4.9398693035       -1.4933104285        1.5358061888
 H          3.7754511714        3.4722215646       -1.9348601967
 H         -1.0718781782        5.3333933455        0.3261595465
 H         -4.9154652804        1.3680729924        1.3718065777
 H         -3.6370093810       -3.2920277045       -2.4215572279
 H         -0.6952159821       -5.5058416288       -1.7256425924
 H          5.8348566725       -3.4852878196        0.2651248403
 H          5.4065200218        1.9100270144       -3.0408498779
 H          0.8813884921        5.6574446591       -1.1490259527
 H         -5.7930711080        3.4730835353        0.2476055438
 H         -5.2542465180       -1.6474283572       -3.4529053167
 H          1.7038424830       -4.3819745063       -2.6945144549
 H          4.9947222170       -2.3761796722       -1.8572896174
 H          2.8970261653        2.1608493971       -3.5882574265
 H         -1.4666953615        4.6695194903       -2.3615287832
 H         -4.8351462938        2.5736882624       -1.9150817077
 H         -2.7168510930       -1.8578604385       -3.9480287464
 H         -0.2010653932       -2.5768132118       -2.4610806966
 H          3.6803234475       -4.8570890648        0.2695062658
 H          3.7792136945       -0.2591792524       -1.6342015604
 H          0.3830534408        2.8004342892       -2.1312492029
 H         -3.6605151414        4.8403676205        0.5501452090
 H         -3.6494265450        0.4009907292       -1.8605607359
 H         -1.1232626957       -4.1506209364       -4.0426825205
 H          3.8837251267       -3.2544026862        2.5906331644
 H          4.8491956492       -0.6303831176       -3.7826556331
 H          1.3863665361        4.4829069944       -3.5480945466
 H         -3.9720808045        2.9436550525        2.6333019473
 H         -4.6746835413        0.9471451520       -3.9902309646
 H         -2.4406289148       -3.7999307517       -0.7559558539
 H          1.7146586316       -3.5694491334        1.3634896072
 H          6.6520765857        0.6620864907       -1.1239952371
 H          2.5521287160        3.8716115071       -0.2440266894
 H         -1.7364953520        3.4374153248        1.5784869604
 H         -6.5177438355       -0.5969325858       -1.4618989579
 H         -0.0679679339       -2.0103456944       -0.1686680658
 H          1.5905713720       -1.1595677456        0.3741907398
 H          4.1178353623        1.0642948555        0.5366241153
 H          0.1713538154        2.0247569636        0.1203363365
 H         -1.5378884456        1.1725191358        0.2853287583
 H         -3.9535846608       -1.0152384190        0.1350095362
 H         -2.0848324821       -1.1662232730        1.0754737620
 H         -0.8712112475       -1.8498204035        2.1617372393
 H          6.0726251640        0.7080654145        2.0570247436
 H          7.0052953635        1.8919509600        1.1366318677
 H          2.1685814095        1.1673586741        1.3875038997
 H          0.9106335258        1.7600286326        2.4773025474
 H         -5.2533663303       -2.3084457341        1.7690492810
 H         -5.9926124250       -0.7001132480        1.6519206616
 H         -2.1629551185       -3.8293841151        2.0712694238
 H          4.5415253237        2.7237339947        2.2594711868
 H          2.1178812910        3.7469626545        2.5756334653
 H         -6.8955635039       -3.0011231056        0.2487373903
 C         -1.2490529482        0.2499438435        3.9737558768
 H         -1.6857251227       -0.7502743990        4.0646522618
 H         -1.9154564288        0.9590640119        4.4793997662
 O         -3.4193420505        1.1559099230        2.8880084902
 C          1.2021933797       -0.5974233302        4.1214249894
 H          2.1749876978       -0.1834765895        4.4076112030
 H          1.1115266349       -1.5879229046        4.5799407525
 O          3.3329931848       -1.5419299642        3.0515415640
 C          0.1138289142        0.3205814734        4.6039811436
 O          0.3325143334        1.1059064529        5.4861639643
 O         -7.3766406710       -1.8904841318       -3.3821393686
 H         -7.6970788657       -2.7687004797       -3.5888239048
 H         -8.0134371435       -1.2771430799       -3.7526532212
 O          6.0219284277       -0.6627499818        3.6853402398
 H          6.2122412531       -0.7569932960        4.6171033351
 H          5.1011010223       -0.9564455794        3.5524582491
  136
        -21.27361144
 C          0.6964016310       -4.2297634097       -0.5989567155
 C          4.7679506510       -1.3964428580        0.3219927404
 C          3.7028268793        2.6514919106       -1.5162372578
 C         -0.8660436547        4.4095023014        0.0909288374
 C         -4.9343085201        1.4100050180        0.5467738442
 C         -3.8984352918       -2.2964821521       -1.8819372466
 O          1.7264994367       -3.2798445346       -0.7604657947
 O          5.8636199324       -0.6927084141       -0.2509558096
 O          2.4927711533        2.1170834299       -1.0000993167
 O         -1.9016479265        3.5142196078       -0.2515154638
 O         -6.0539571256        0.7769583232       -0.0600979133
 O         -2.6689713953       -1.8144878605       -1.3602679018
 C         -0.0344332542       -4.4497605218       -1.9559774216
 C          4.8058032084       -2.8699990051       -0.1612954064
 C          4.2259752767        1.7414023959       -2.6560089399
 C         -0.1041595043        4.8448344478       -1.1926494031
 C         -4.9962732943        2.9391857487        0.2967877044
 C         -4.5022744506       -1.2543835738       -2.8616361913
 O          0.9268774790       -4.6566795412       -2.9693240007
 O          4.6118766911       -2.9627965577       -1.5596498673
 O          3.2538372854        1.6194480781       -3.6807328026
 O         -1.0225382063        5.2425249021       -2.1888704007
 O         -4.8078264177        3.2516910165       -1.0711546554
 O         -3.5704435679       -0.9688202178       -3.8930353672
 C         -0.9313507050       -3.2356333340       -2.2885401163
 C          3.7466008686       -3.7151323919        0.5859092315
 C          4.5678243441        0.3642304715       -2.0612590121
 C          0.7713170355        3.6830734949       -1.7054756702
 C         -3.9333250804        3.6578063227        1.1628445487
 C         -4.8679074297        0.0118380497       -2.0612249547
 O         -1.7200785483       -3.4239839695       -3.4498136817
 O          4.1119579631       -3.9697583374        1.9316152300
 O          5.1004558147       -0.5029762724       -3.0431461634
 O          1.5353126633        4.0435317408       -2.8437428938
 O         -4.2773447654        3.6494819151        2.5389311381
 O         -5.4615332304        1.0285511397       -2.8440394496
 C         -1.8094863831       -2.9019538876       -1.0628063141
 C          2.3594733155       -3.0303036017        0.4910031367
 C          5.5288839986        0.5403488782       -0.8623042284
 C          1.6493053307        3.1616269273       -0.5485417898
 C         -2.5374285361        3.0254978552        0.9263009834
 C         -5.7358948217       -0.3611475024       -0.8383782932
 C         -0.8902893316       -2.6553482645        0.1498291615
 C          2.4254948082       -1.5132873248        0.8018500657
 C          4.9619010461        1.5774146751        0.1437860904
 C          0.7337040467        2.7361201674        0.6170207215
 C         -2.5802268803        1.4771309825        0.9489736232
 C         -5.0570958782       -1.4870041157       -0.0208695445
 O         -0.1984060071       -3.8656622293        0.4525790455
 O          3.4805619961       -0.8347748281        0.1110884696
 O          4.6913282074        2.8194469099       -0.5042699972
 O          0.0127072315        3.8761636723        1.0868872491
 O         -3.6532419857        0.9132326858        0.1879241080
 O         -4.8182404938       -2.6256501765       -0.8452702117
 C         -1.6249547528       -2.1469166623        1.3792706549
 C          2.3977855190       -1.2306207915        2.2904520397
 C          5.8668964217        1.8085838186        1.3520895490
 C          1.5053955168        2.0870800993        1.7565875721
 C         -2.5095012870        0.9434627154        2.3634940494
 C         -5.8679893384       -1.9025170750        1.1990284579
 O         -2.5500194969       -3.0824496613        1.8550207352
 O          1.2088060088       -0.7479173195        2.7405193977
 O          5.3905363690        2.8257219777        2.1986065914
 O          2.4223902407        2.9800238931        2.3223850791
 O         -1.2727230999        0.5088620254        2.7248457754
 O         -7.0661406292       -2.5157244054        0.8153328778
 H          1.1790838457       -5.1689068385       -0.2884737257
 H          4.9233241327       -1.3477539924        1.4084044880
 H          3.4787162430        3.6515760104       -1.9182210903
 H         -1.3503571507        5.2882006693        0.5433937192
 H         -5.0303765149        1.1951593868        1.6210377596
 H         -3.6828401821       -3.2275268335       -2.4286742301
 H         -0.6596229670       -5.3540375701       -1.9214116710
 H          5.8088307773       -3.2794173950        0.0417423211
 H          5.1316734125        2.1749485109       -3.1062961268
 H          0.5387750517        5.7134956698       -0.9875047737
 H         -6.0011194492        3.3019356171        0.5674687055
 H         -5.4070262743       -1.6633944632       -3.3343960468
 H          1.7046409351       -4.0877149136       -2.7977405024
 H          4.8821952615       -2.1334011057       -2.0138647557
 H          2.6000534645        2.3456110539       -3.5755925815
 H         -1.8136938817        4.6708408317       -2.1442533942
 H         -5.0875226716        2.5086308250       -1.6519094397
 H         -2.8851945197       -1.6744375897       -3.9004542604
 H         -0.2828659560       -2.3696909213       -2.4873268984
 H          3.6863529751       -4.6960811568        0.0896239508
 H          3.6282564420       -0.0858216184       -1.7053603748
 H          0.1089742125        2.8643839508       -2.0237193095
 H         -3.8976298112        4.7138865232        0.8543550193
 H         -3.9199647196        0.4415810722       -1.7039586747
 H         -1.1734288328       -3.7658218947       -4.1923137763
 H          3.9315833533       -3.1550243701        2.4485229983
 H          4.6537370930       -0.3589095981       -3.8939653124
 H          1.0119327444        4.6180676622       -3.4260838048
 H         -4.0913633109        2.7519899808        2.8903931631
 H         -6.1996740891        0.6849630588       -3.3721979193
 H         -2.4463439182       -3.7635590927       -0.8161032738
 H          1.7210613066       -3.4886744583        1.2648587886
 H          6.4809960311        0.9249538805       -1.2556183385
 H          2.2985046858        3.9679037860       -0.1786441855
 H         -1.9029665140        3.3368548923        1.7734990200
 H         -6.7036501936       -0.7405914212       -1.1942501575
 H         -0.1329392142       -1.9242110162       -0.1589650029
 H          1.5256217223       -1.0495187659        0.3744495077
 H          3.9860249852        1.2096029913        0.4871050553
 H         -0.0045309650        2.0305593693        0.2180974977
 H         -1.6913993991        1.1115162082        0.4174363946
 H         -4.0654818702       -1.1257069702        0.2832658965
 H         -2.1734187678       -1.2284457210        1.1494364491
 H         -0.9133843630       -1.9127908163        2.1812207499
 H          5.9970281100        0.8914588098        1.9396752151
 H          6.8606158723        2.1247542242        1.0165631819
 H          2.0680521928        1.2191930025        1.3976542824
 H          0.8217449918        1.7336621639        2.5397719582
 H         -5.2986673981       -2.6051694302        1.8220390697
 H         -6.1273733694       -1.0342758523        1.8155313481
 H         -2.1172634612       -3.9396625456        2.0090128224
 H          4.4058116581        2.8451240952        2.2336140835
 H          1.9530748731        3.7643545397        2.6524110284
 H         -6.8885069566       -3.2605966750        0.2160504559
 C         -1.2536380844        0.1265305755        4.0799949584
 H         -1.6453522720       -0.8930135149        4.1597668615
 H         -1.9355069930        0.7954935861        4.6186968884
 O         -3.4842497339        0.9774327504        3.0788374232
 C          1.2349977700       -0.6152768375        4.1425736261
 H          2.1968501799       -0.1646353142        4.4096659851
 H          1.2025775328       -1.6194543595        4.5786100644
 O          3.3611721627       -1.4683605954        2.9818988243
 C          0.1210367071        0.2406514312        4.6779430518
 O          0.3282908096        1.0098206432        5.5769549887
 O         -0.1799833901       -4.3202974203       -5.6967047489
 H          0.1881987170       -3.8093632256       -6.4147407544
 H          0.1454046333       -5.2152231326       -5.7935425095
 O          6.0274509653       -0.4865812811        3.5519290854
 H          6.2448510237       -0.5797325949        4.4778207476
 H          5.1170543651       -0.8187143720        3.4393045037
  136
        -21.27360208
 C          0.7979914972       -4.4029211918       -0.2651230235
 C          4.8281074862       -1.4456471700       -0.1626814267
 C          3.7882937097        2.5629827209       -2.1091430955
 C         -0.8206860462        4.4367400862       -0.6430458087
 C         -4.7751054672        1.4780348655        0.3669989273
 C         -3.9932502312       -2.6846072547       -1.3371763522
 O          1.7206142356       -3.4066486668       -0.6508465175
 O          5.8949249246       -0.8293558987       -0.8625789439
 O          2.5666421281        2.1054244030       -1.5368727609
 O         -1.7997028232        3.4312483266       -0.8035677615
 O         -5.9192941476        0.8225294766       -0.1628812061
 O         -2.7340209486       -2.1905734979       -0.8856372249
 C         -0.1105419465       -4.8503918161       -1.4465701150
 C          4.7900711436       -2.9629071845       -0.4516849468
 C          4.2379176968        1.5846576573       -3.2274421988
 C         -0.0824517704        4.7490625454       -1.9773823019
 C         -4.8035042482        2.9632078554       -0.0736491741
 C         -4.5103878322       -1.7923323696       -2.4984126200
 O          0.6587641973       -5.2541626785       -2.5597005761
 O          4.3430209006       -3.1901673074       -1.7762511765
 O          3.2371208036        1.4793033071       -4.2219448986
 O         -0.9948077371        5.0624438326       -3.0088300658
 O         -4.5655825937        3.0575068254       -1.4673545662
 O         -3.5972209475       -1.7906560477       -3.5781278801
 C         -1.0657856822       -3.7034591878       -1.8261803140
 C          3.8478192395       -3.6334806033        0.5801788065
 C          4.5103521446        0.2309453984       -2.5576558483
 C          0.7986351653        3.5484185746       -2.3687559953
 C         -3.7313360185        3.7544173525        0.7129717198
 C         -4.7046244250       -0.3814692803       -1.9258531227
 O         -1.9164914126       -4.0859687338       -2.8861276947
 O          4.3683386438       -3.5729577817        1.9001564946
 O          4.8900406382       -0.7682537999       -3.4770948392
 O          1.5078999657        3.8063793583       -3.5623099743
 O         -4.0362252661        3.8423899544        2.0971408640
 O         -5.1454197963        0.5391208059       -2.8977805389
 C         -1.8323545593       -3.2414941768       -0.5661466947
 C          2.4504951995       -2.9629467470        0.4930619589
 C          5.5529064199        0.4142762766       -1.4324078812
 C          1.7253922001        3.1937981449       -1.1862516389
 C         -2.3503343284        3.0917383130        0.4694309247
 C         -5.6661382333       -0.4500575421       -0.7227150344
 C         -0.7918639772       -2.8338854849        0.5016032076
 C          2.5391676353       -1.4137260200        0.5291566607
 C          5.0478853016        1.4860114893       -0.4283666500
 C          0.8542611550        2.9175834306        0.0585385593
 C         -2.3940646536        1.5544687660        0.6697957430
 C         -5.1787818378       -1.4822632255        0.3218898147
 O          0.0098476466       -3.9658741791        0.8421121556
 O          3.5335499938       -0.8894820497       -0.3538955017
 O          4.8047877253        2.7187853331       -1.1230495770
 O          0.1113451950        4.0938124205        0.3860702451
 O         -3.5124028948        0.9112386813        0.0461647198
 O         -4.9583581845       -2.7568621681       -0.2872386470
 C         -1.4053340354       -2.2710052711        1.7732947974
 C          2.6691459836       -0.8602056681        1.9332376159
 C          5.9720054941        1.7432960835        0.7669531385
 C          1.6618927250        2.4556354354        1.2627521036
 C         -2.2210302618        1.1831037418        2.1255424538
 C         -6.2123563065       -1.6350657515        1.4325768453
 O         -2.0086641955       -3.2941566842        2.5101878949
 O          1.4928255519       -0.4759900298        2.4964934292
 O          6.1735480735        0.6406113578        1.6147376041
 O          2.5560174301        3.4426749721        1.6886796729
 O         -0.9427484289        0.8531091092        2.4533814574
 O         -7.3990942260       -2.1777463091        0.9283724803
 H          1.3905603841       -5.2623780317        0.0829095860
 H          5.0604501222       -1.2906050165        0.8969334359
 H          3.6136814394        3.5572504449       -2.5449784452
 H         -1.3529596843        5.3384939973       -0.3039654292
 H         -4.8596394823        1.3924817644        1.4599813414
 H         -3.8479415812       -3.7123479226       -1.6989033725
 H         -0.7125241524       -5.7174600381       -1.1323166975
 H          5.8094732728       -3.3734527858       -0.3846246470
 H          5.1591742818        1.9518995365       -3.7042148015
 H          0.5661832209        5.6278619297       -1.8359122521
 H         -5.8094556429        3.3742000951        0.1035007984
 H         -5.4741002559       -2.1740370692       -2.8675998612
 H          0.0941422502       -5.3631319557       -3.3429257970
 H          3.3669903518       -3.2641406967       -1.7403561201
 H          3.4212897387        0.7284111024       -4.8071039550
 H         -0.5441526153        5.0792541951       -3.8695052896
 H         -3.5975570385        3.1540588358       -1.5844162586
 H         -3.8179065780       -1.0835232330       -4.2034057093
 H         -0.4484156683       -2.8679840155       -2.1912353958
 H          3.7549245622       -4.7014996892        0.3319937443
 H          3.5510777100       -0.0822835927       -2.1151494950
 H          0.1305138125        2.6958065452       -2.5652749172
 H         -3.7079978216        4.7880167086        0.3353236469
 H         -3.7098890658       -0.0528686359       -1.5860980384
 H         -2.4440818799       -3.3139330596       -3.1937428399
 H          4.2476792772       -2.6594900823        2.2403175973
 H          4.8760346565       -1.6341854472       -3.0157562124
 H          2.0249433374        3.0140439839       -3.8354177282
 H         -3.8089876869        2.9847063645        2.5180723812
 H         -5.1121208729        1.4384934958       -2.5068416194
 H         -2.4255092327       -4.0706705835       -0.1565477406
 H          1.8803438559       -3.2788675294        1.3817517886
 H          6.4837130236        0.7829654005       -1.8874003604
 H          2.3740123678        4.0480809446       -0.9475570480
 H         -1.6624836058        3.4956426522        1.2304900292
 H         -6.6474700387       -0.7832237938       -1.0920667819
 H         -0.1271018475       -2.0892640736        0.0450181493
 H          1.6026336343       -1.0174585920        0.1109995899
 H          4.0675314120        1.1575199343       -0.0600568584
 H          0.1246105189        2.1454461822       -0.2150575648
 H         -1.5408949028        1.1247212418        0.1260370185
 H         -4.2107155687       -1.1498211208        0.7231707275
 H         -2.1612188527       -1.5097844732        1.5520039800
 H         -0.6314993912       -1.8094247674        2.4000218325
 H          6.9592459126        2.0494457227        0.4034524719
 H          5.5844163959        2.5761451633        1.3675185703
 H          2.2482015606        1.5637402522        1.0192748477
 H          1.0000628579        2.1955051713        2.0989884243
 H         -5.8528238715       -2.2908085562        2.2352150268
 H         -6.4593308038       -0.6632807130        1.8754168354
 H         -1.4083104549       -4.0621753501        2.5436489152
 H          5.3256325345        0.2610708738        1.9486142919
 H          2.0834252561        4.2688777188        1.8877748954
 H         -7.2273230133       -3.0337919871        0.5000140308
 C         -0.8126268227        0.6457953351        3.8398868924
 H         -1.1572075155       -0.3653076270        4.0765807834
 H         -1.4764524034        1.3587473124        4.3434112059
 O         -3.1538281520        1.2565429556        2.8915868292
 C          1.6828730846       -0.0607674958        3.8309226073
 H          2.6579913138        0.4377444918        3.8914840189
 H          1.7301404592       -0.9555202458        4.4597313620
 O          3.7517012347       -0.8160001561        2.4699955304
 C          0.5997858125        0.8688249861        4.3054607832
 O          0.8510833959        1.7840716031        5.0409564963
 O          4.0890728184        0.9915074929        5.4228234794
 H          4.2867507453        1.9123333292        5.5986823563
 H          4.6371368894        0.4714523109        6.0112740894
 O         -4.5283165971       -2.4655100573        3.7088647349
 H         -4.4927159628       -2.6104189692        4.6529283041
 H         -3.6845226298       -2.7847384141        3.3411656639
  136
        -21.27350856
 C          0.5657985071       -4.3237358410       -0.4414966552
 C          4.6747520845       -1.4009010723       -0.1296465954
 C          3.7198442780        2.5862080718       -2.3400333425
 C         -0.7074361252        3.5633850335       -0.2833370047
 C         -5.0065119058        1.3294880830        0.5311984954
 C         -3.9119987098       -2.3107671454       -2.0717903028
 O          1.5827105550       -3.4212280124       -0.8167896509
 O          5.7583692657       -0.7849720716       -0.8085447824
 O          2.4340164510        2.2693102715       -1.8432205627
 O         -2.1211143225        3.6325159641       -0.3583740367
 O         -6.1083796857        0.6486643060       -0.0593720851
 O         -2.6651934758       -1.8850069008       -1.5612943387
 C         -0.2328805013       -4.7924735580       -1.6865472936
 C          4.6943913010       -2.9188173556       -0.4410995503
 C          4.2023959150        1.5256893077       -3.3721325421
 C         -0.0251294099        4.2012459246       -1.5138918358
 C         -5.1862451957        2.8546378668        0.3062500332
 C         -4.5399740644       -1.2133551301       -2.9710186122
 O          0.6644734829       -5.2065197290       -2.6959578377
 O          4.4290457359       -3.1625147112       -1.8100475513
 O          3.3007123809        1.3045780134       -4.4379643057
 O         -0.1548820542        3.3544447021       -2.6328782154
 O         -5.1373506027        3.2007639894       -1.0639730160
 O         -3.6796782616       -0.8385867552       -4.0241679679
 C         -1.1441706049       -3.6649703677       -2.2178983472
 C          3.6779794324       -3.6642743396        0.4542939602
 C          4.4272860266        0.1895064324       -2.6430778047
 C          1.4693962824        4.4323446668       -1.1904501436
 C         -4.1266848376        3.6509893630        1.1024408038
 C         -4.9085647143        0.0119695662       -2.1157303691
 O         -2.0108440505       -4.1543604714       -3.2226284654
 O          4.1133246715       -3.7527418680        1.8021277990
 O          4.8398220286       -0.8134594716       -3.5463140435
 O          1.6724228387        5.4728897530       -0.2485148724
 O         -4.4127337958        3.6615596973        2.4918751172
 O         -5.5731798889        0.9923585897       -2.8910963354
 C         -1.9375846257       -3.0017009576       -1.0669918364
 C          2.2868031143       -2.9896589488        0.3453909863
 C          5.4271830106        0.4076548108       -1.4911174690
 C          2.1045984510        3.0920110973       -0.7311127717
 C         -2.7022180393        3.1028858588        0.8237434799
 C         -5.7683946199       -0.4300249068       -0.9128679688
 C         -0.9587401646       -2.6051276974        0.0594812483
 C          2.3618804862       -1.4425668057        0.4533776135
 C          4.8889070989        1.5204561887       -0.5637866088
 C          1.2282711542        2.2825152313        0.2701780746
 C         -2.6476834440        1.5578712118        0.8495420893
 C         -5.0882606105       -1.5958943002       -0.1544920889
 O         -0.2883983174       -3.7636325337        0.5507079746
 O          3.3809829791       -0.8621093525       -0.3681436512
 O          4.6861156639        2.7318426449       -1.2943838403
 O         -0.1591248914        2.2684783493       -0.0805399831
 O         -3.7067889411        0.9131698770        0.1318993220
 O         -4.8161802221       -2.6896585806       -1.0334508604
 C         -1.6335639510       -1.9232186610        1.2346455158
 C          2.4409640873       -0.9883613916        1.8970885801
 C          5.7854202241        1.8101526215        0.6355196382
 C          1.4251745973        2.6516348312        1.7409840672
 C         -2.4866958253        1.0382785069        2.2625631224
 C         -5.9080523508       -2.0611007984        1.0478136918
 O         -2.4309256314       -2.8459601427        1.9171433373
 O          1.2776152845       -0.5128315076        2.4187736168
 O          5.3569274927        2.9770290172        1.2820727150
 O          1.0474720285        3.9762943653        2.0291358853
 O         -1.2254185913        0.6295084392        2.5614358683
 O         -5.3190335490       -3.1387307411        1.7277523737
 H          1.0637883693       -5.1901286293        0.0201447664
 H          4.8635627966       -1.2254993318        0.9391756038
 H          3.6420953130        3.5682864506       -2.8258740380
 H         -0.4374036496        4.1364732814        0.6145229859
 H         -5.0595017586        1.0944106288        1.6046082391
 H         -3.7193662553       -3.2149466483       -2.6711995438
 H         -0.8584542105       -5.6636792617       -1.4414347500
 H          5.7084528312       -3.3048293759       -0.2472002094
 H          5.1626063172        1.8429575301       -3.8066098498
 H         -0.5281517209        5.1466133024       -1.7704847222
 H         -6.1914185777        3.1401725812        0.6579114330
 H         -5.4548031630       -1.5998886138       -3.4436677907
 H          1.4470966208       -4.6209919946       -2.6903890772
 H          4.6482404316       -2.3764801437       -2.3596302072
 H          3.0900738968        2.1253507539       -4.9119294626
 H          0.2926146039        2.5078845437       -2.4400021185
 H         -5.3661813702        2.4369407699       -1.6389783180
 H         -2.7916346234       -0.6434892801       -3.6789795738
 H         -0.5141724062       -2.8922292911       -2.6807360959
 H          3.5925490842       -4.6958606454        0.0807492490
 H          3.4600076227       -0.1325445097       -2.2262831132
 H          1.9660868769        4.7643901891       -2.1142407058
 H         -4.1633612561        4.6990116830        0.7646873812
 H         -3.9788380443        0.4660379475       -1.7439224015
 H         -1.5157426840       -4.6436367756       -3.8990815016
 H          3.9958905861       -2.8650032734        2.2028546322
 H          4.3763453776       -0.6895092401       -4.3939401902
 H          1.4757665707        5.1188759045        0.6432981623
 H         -4.1581055963        2.7856631538        2.8540527279
 H         -5.2340351469        0.9961743036       -3.8016840426
 H         -2.6696647576       -3.7118830918       -0.6574626460
 H          1.6989467455       -3.3349461584        1.2126136138
 H          6.3752921946        0.7509062997       -1.9302785881
 H          3.0468491592        3.3368396782       -0.2198989803
 H         -2.0767396741        3.4594267159        1.6575001684
 H         -6.7306868895       -0.7875683031       -1.3071570019
 H         -0.2029153736       -1.9466830024       -0.3854716509
 H          1.4360290581       -1.0305245490        0.0321029141
 H          3.8965338781        1.2146374547       -0.2073722347
 H          1.5225701300        1.2279308825        0.1362906671
 H         -1.7560020873        1.2709188043        0.2731607338
 H         -4.1088436587       -1.2431426621        0.1890204379
 H         -2.2585918060       -1.0864410789        0.9108240543
 H         -0.8831677418       -1.5301736028        1.9334065978
 H          5.7704353315        0.9904875880        1.3636561140
 H          6.8248032516        1.9487451248        0.3157663343
 H          2.4730066390        2.5143150557        2.0362865157
 H          0.8086256310        1.9805418585        2.3528574218
 H         -6.0715255356       -1.2404384967        1.7574342961
 H         -6.8925494230       -2.4058096044        0.7128992777
 H         -1.8973204985       -3.6430685250        2.0967930038
 H          5.3114358959        3.7057717934        0.6339587414
 H          1.0813843667        4.1331777166        2.9980650224
 H         -4.3466510921       -3.0131800955        1.8234838538
 C         -1.1043889167        0.2956345847        3.9243347274
 H         -1.4425279282       -0.7368469517        4.0613833780
 H         -1.7791805883        0.9520202380        4.4868025561
 O         -3.4211969446        1.0608607284        3.0297382611
 C          1.4138375111       -0.3237115521        3.8100348901
 H          2.3739447398        0.1761386929        3.9810086374
 H          1.4672899680       -1.3118750906        4.2789296789
 O          3.4765642932       -1.1119116992        2.5098677755
 C          0.3035724892        0.4895441421        4.4162433921
 O          0.5401700744        1.2878105412        5.2821600787
 O          5.0186104281       -6.1163580107        3.3321458504
 H          4.7371285273       -5.3391064839        2.8189846472
 H          4.5362152559       -6.0941407592        4.1582252020
 O          1.1393835936        4.0960021454        4.8655267320
 H          0.9352411305        3.1694727627        5.0864139787
 H          1.2572113465        4.5580533122        5.6908530540
  136
        -21.27349656
 C          0.7227683088       -4.1045557988       -0.7329162529
 C          4.6932314513       -1.2037990792        0.3896223463
 C          4.1053727617        2.8712103792       -1.5462054738
 C         -0.7076052230        4.5824424603       -0.3932425513
 C         -4.5627394018        1.6819287529        0.9257293751
 C         -4.1344866390       -2.2716882777       -1.2762321765
 O          1.5393402748       -2.9556442880       -0.8354084048
 O          5.8983633224       -0.6068957605       -0.0743864449
 O          2.8132390221        2.4330123111       -1.1347237258
 O         -1.5365706194        3.4400596355       -0.4365876699
 O         -5.8010681331        1.1160828354        0.5148664445
 O         -2.8064869774       -1.8698539798       -0.9620167109
 C         -0.1192048972       -4.2886162629       -2.0276611165
 C          4.6868328338       -2.7027615881        0.0027061171
 C          4.6692169199        1.9135718337       -2.6303810218
 C         -0.0617878323        4.7895239455       -1.7889955641
 C         -4.5619374376        3.1947468514        0.5944588111
 C         -4.7817543961       -1.2579639088       -2.2565379439
 O          0.6735419946       -4.3791758112       -3.1976688468
 O          4.6999861946       -2.8693233913       -1.4045062007
 O          3.8024327361        1.8274454626       -3.7510960536
 O         -1.0584620194        4.8258613451       -2.7885551194
 O         -4.6109760049        3.4058984114       -0.8037037165
 O         -4.0048184722       -1.1030720145       -3.4335847350
 C         -1.0920364161       -3.1033423196       -2.1497043965
 C          3.4753100255       -3.4230391366        0.6469101623
 C          4.8642731917        0.5231848248       -2.0038948304
 C          0.9379915328        3.6491597547       -2.0655398975
 C         -3.3221976696        3.8850939085        1.2134041266
 C         -4.9266442740        0.0953917844       -1.5419004261
 O         -1.9027531385       -3.2117448780       -3.3033939299
 O          3.6936306944       -3.6891968073        2.0251799666
 O          5.4084000666       -0.4029583714       -2.9231006455
 O          1.6177038778        3.8324290705       -3.2947318541
 O         -3.4588369981        4.0701875251        2.6131382602
 O         -5.5478029962        1.0616219959       -2.3663913466
 C         -1.9302477435       -2.9888876068       -0.8613420530
 C          2.1524016710       -2.6403594628        0.4079254854
 C          5.7241906315        0.6401428468       -0.7246807292
 C          1.9276732838        3.5239080298       -0.8899959317
 C         -2.0256717905        3.1064581885        0.8568701475
 C         -5.6788651056       -0.0955251967       -0.2065578546
 C         -1.0134985678       -2.9288135002        0.3840236769
 C          2.3103351300       -1.1016318540        0.5476056462
 C          5.1423821703        1.7188655969        0.2236080899
 C          1.1656203214        3.3946239452        0.4497367342
 C         -2.1834377005        1.5654801584        0.9915003389
 C         -5.0114787765       -1.2134650341        0.6332487019
 O         -0.1369456325       -4.0609756416        0.4069736898
 O          3.4951146081       -0.5885119027       -0.0599215270
 O          5.0039905549        2.9744255828       -0.4439348936
 O          0.2878588797        4.5083645653        0.6259235477
 O         -3.3887327106        1.0743177908        0.4031694245
 O         -4.9315267494       -2.4337578003       -0.1039274363
 C         -1.8340369731       -2.8908097876        1.6705399819
 C          2.1292917998       -0.5742471328        1.9557369595
 C          5.9798497139        1.9026421113        1.4880099990
 C          2.1211689139        3.3232104162        1.6344168046
 C         -2.0097850215        1.0441854325        2.4049956434
 C         -5.7192065332       -1.4586382075        1.9647245474
 O         -2.8233543203       -3.8848548273        1.6802997276
 O          2.2497198921       -1.4644209809        2.9818397473
 O          5.3243923997        2.6593266742        2.4768919573
 O          3.0632774864        4.3616472537        1.6130927955
 O         -1.0787740624        0.0628750139        2.5431839479
 O         -4.9541823882       -2.2348254365        2.8547632091
 H          1.3945391929       -4.9642330281       -0.5979599183
 H          4.6930485095       -1.0989391340        1.4845471990
 H          4.0084416200        3.8765549315       -1.9820580213
 H         -1.3481759453        5.4420916796       -0.1495204857
 H         -4.5081949113        1.5299583371        2.0139006462
 H         -4.0842694428       -3.2536118425       -1.7723306913
 H         -0.7048911538       -5.2184126411       -1.9604990182
 H          5.6171098002       -3.1621419137        0.3749869400
 H          5.6397683717        2.2815992153       -2.9954430640
 H          0.4708958042        5.7509301840       -1.8314298567
 H         -5.4766612927        3.6468298169        1.0110368202
 H         -5.7770497586       -1.6126990853       -2.5642322048
 H          1.5769178127       -4.6898517820       -2.9691436700
 H          5.0167822374       -2.0532488151       -1.8514317599
 H          3.0481922817        2.4514948373       -3.6442696329
 H         -1.7762352947        4.2102200682       -2.5474953728
 H         -5.0144605202        2.6351735760       -1.2632636922
 H         -3.2781343178       -1.7672448817       -3.4440294552
 H         -0.5006460645       -2.1817119623       -2.2621220836
 H          3.3840690349       -4.4081574166        0.1663467187
 H          3.8635036472        0.1523491644       -1.7383493616
 H          0.3822123175        2.7034358979       -2.1461527973
 H         -3.2568757498        4.8934163330        0.7780737233
 H         -3.9098079821        0.4608284259       -1.3338310565
 H         -1.3681740576       -3.5497829097       -4.0406550243
 H          3.2698330390       -2.9754608572        2.5479881309
 H          5.0509966544       -0.2406346971       -3.8121112605
 H          0.9999287793        4.1629548503       -3.9676016089
 H         -3.2437919744        3.2158971967        3.0433290968
 H         -5.2639322203        0.9451747736       -3.2886700937
 H         -2.5491587296       -3.8902359189       -0.7578245835
 H          1.4455609808       -2.9583797022        1.1915493909
 H          6.7356608760        0.9472204991       -1.0267360093
 H          2.5283363325        4.4409860224       -0.8296112322
 H         -1.2533213675        3.4202622371        1.5764769050
 H         -6.7101416206       -0.3970792818       -0.4391651276
 H         -0.3828554181       -2.0319337299        0.3137859738
 H          1.5087440106       -0.6521838897       -0.0592828167
 H          4.1246889791        1.4068226400        0.4973105925
 H          0.5398309688        2.4913704554        0.4152711809
 H         -1.3923376775        1.1075312170        0.3783599308
 H         -3.9731642652       -0.9093052512        0.8237670024
 H         -2.3339082955       -1.9238637513        1.7809408302
 H         -1.1982100532       -3.0265023145        2.5551120790
 H          6.2339315995        0.9329669086        1.9324605704
 H          6.9195831041        2.4095761258        1.2403218463
 H          2.6761978031        2.3816875468        1.6229842859
 H          1.5688979217        3.3533967332        2.5817708957
 H         -5.9432782672       -0.5107703522        2.4684852592
 H         -6.6704260431       -1.9750918860        1.7916644591
 H         -2.4219398561       -4.7693752402        1.6571558605
 H          4.6905978117        3.3071112906        2.0925969136
 H          2.6209556739        5.2252113780        1.6605478640
 H         -4.3592968350       -2.8614655116        2.3826579149
 C         -0.8663262743       -0.2050793639        3.9086901494
 H         -1.8295228121       -0.5066643596        4.3355985024
 H         -0.5574179177        0.7285343711        4.3924102372
 O         -2.6745172504        1.5037080629        3.3044267383
 C          1.6213770074       -0.9608773520        4.1398547796
 H          1.7993609710        0.1191489787        4.1935863807
 H          2.0964741979       -1.4346424162        5.0054940958
 O          1.8759746796        0.6012857811        2.0841934260
 C          0.1539074693       -1.2908133278        4.1139758602
 O         -0.1969991255       -2.4329798794        4.1994540102
 O          3.2672848981       -5.2336246482       -2.3171724304
 H          3.7757935501       -4.4467756519       -2.0678648926
 H          3.9017784223       -5.9093586341       -2.5454548733
 O         -5.2899643350       -4.7847216867       -2.5932807676
 H         -5.8202500632       -5.3293078118       -2.0105813938
 H         -5.3600926256       -5.1653178199       -3.4685607667
  136
        -21.27348396
 C          0.7951470531       -4.5183617229       -0.2086056013
 C          4.6756097816       -1.4152124780        0.4354532353
 C          4.1577237805        2.4912556972       -1.8896181742
 C         -0.6076119049        4.4323047600       -0.9330578677
 C         -4.5042843446        1.6639015130        0.4221481085
 C         -3.9894367095       -2.6429855514       -1.1731566900
 O          1.6528492471       -3.4228614927       -0.4602965527
 O          5.8673202418       -0.8859848576       -0.1277178689
 O          2.8564805998        2.1349766901       -1.4318626859
 O         -1.4725592647        3.3183663972       -0.9143152383
 O         -5.6953580737        1.0016717400        0.0214666687
 O         -2.6570998137       -2.2557120137       -0.8540822111
 C         -0.0210570572       -4.8709639606       -1.4830921434
 C          4.6668474634       -2.9519526874        0.2526203958
 C          4.6706350086        1.4094589342       -2.8792067868
 C          0.1092762088        4.5581873765       -2.3067288076
 C         -4.4830511086        3.1149956985       -0.1189919688
 C         -4.5434499944       -1.7430374073       -2.3115178234
 O          0.8248409037       -5.1560655278       -2.5772754571
 O          4.4670928582       -3.2697869831       -1.1136861699
 O          3.7810706307        1.2809948982       -3.9711106247
 O         -0.8186299827        4.6273688194       -3.3687017831
 O         -4.2878555547        3.1115417791       -1.5210324558
 O         -3.6996003741       -1.8055736208       -3.4448580891
 C         -0.9638623904       -3.6977244321       -1.8031825647
 C          3.5461207260       -3.5625135388        1.1281520329
 C          4.7839083132        0.0915586117       -2.0998400874
 C          1.0615278021        3.3619966032       -2.4899081540
 C         -3.3482155066        3.8994593932        0.5861872933
 C         -4.6428796638       -0.3076638766       -1.7739394763
 O         -1.7505210024       -3.9835304589       -2.9404682200
 O          3.8215690721       -3.4375446604        2.5159945668
 O          5.2293064971       -0.9804755351       -2.8995795778
 O          1.7669811860        3.4637200340       -3.7091544672
 O         -3.6393131944        4.1411553074        1.9602947438
 O         -5.1348714453        0.5889912415       -2.7443255381
 C         -1.8294055976       -3.3792506807       -0.5678304390
 C          2.1951553274       -2.8986932797        0.7478986440
 C          5.6859944738        0.3038852956       -0.8676954936
 C          2.0073179206        3.2680890374       -1.2764476891
 C         -2.0101230566        3.1301543543        0.3916110318
 C         -5.4987997262       -0.3029702764       -0.4906815037
 C         -0.9473422392       -3.1595854566        0.6820488873
 C          2.2915788317       -1.3511418374        0.6453078067
 C          5.1548868521        1.4764895702       -0.0117149229
 C          1.1833223149        3.2235141897        0.0324745208
 C         -2.1461741691        1.6159073959        0.7088482012
 C         -4.9000474334       -1.2958038337        0.5369232600
 O         -0.0866511579       -4.2839640659        0.8911448219
 O          3.4515401036       -0.8810739894       -0.0478420213
 O          5.0611972996        2.6662804835       -0.7980039487
 O          0.3485131204        4.3788479029        0.1290237228
 O         -3.2836504388        1.0225617110        0.0828349291
 O         -4.8354168610       -2.6094188928       -0.0242964387
 C         -1.8106285888       -2.9351431248        1.9209188485
 C          2.0950561192       -0.6555970136        1.9729257765
 C          6.0623744181        1.7527643327        1.1815473349
 C          2.0521240039        3.1177142622        1.2844792974
 C         -2.1031169601        1.2966752733        2.1912597243
 C         -5.6678958728       -1.3408576882        1.8559273769
 O         -2.8146299349       -3.9052872874        2.0407177246
 O          0.9461876018        0.0746811669        2.0475688803
 O          7.2571081567        2.3317965884        0.7402802768
 O          1.3098181384        3.4237714109        2.4320884717
 O         -2.2135640319       -0.0216684833        2.4981405984
 O         -4.9713366652       -2.0304783344        2.8665591665
 H          1.4363483252       -5.3683246231        0.0678090440
 H          4.7041727701       -1.1540618419        1.5030331409
 H          4.0921240475        3.4533093657       -2.4175572046
 H         -1.2364988925        5.3198204451       -0.7627115433
 H         -4.5294386591        1.6873175560        1.5217106984
 H         -3.9722005465       -3.6838501080       -1.5281373295
 H         -0.6277068517       -5.7694968063       -1.2912830983
 H          5.6521891295       -3.3557766499        0.5317501458
 H          5.6593924319        1.6918494642       -3.2708922832
 H          0.7004139908        5.4873876660       -2.3209886919
 H         -5.4611154420        3.5857049813        0.0644726704
 H         -5.5438033122       -2.0897219927       -2.6119679419
 H          0.3152771703       -5.1816535448       -3.4041314972
 H          3.4996272644       -3.3343456958       -1.2552009754
 H          4.0020910304        0.4932763814       -4.4918958016
 H         -0.3646797029        4.5410358307       -4.2235522675
 H         -3.3202087712        3.1253630408       -1.6759222194
 H         -3.9440969489       -1.1172820961       -4.0829331431
 H         -0.3440100153       -2.8201068425       -2.0419330514
 H          3.4904234267       -4.6419430769        0.9215160299
 H          3.7607521313       -0.1489488438       -1.7710503016
 H          0.4507901004        2.4475187513       -2.5395386609
 H         -3.2666754532        4.8903569224        0.1140237801
 H         -3.6136525679       -0.0002059286       -1.5293480601
 H         -2.3624100980       -3.2378814424       -3.1376799521
 H          3.5618354360       -2.5329517886        2.7959716506
 H          5.1432047034       -1.8088801550       -2.3803375186
 H          2.3931609209        2.7112956909       -3.8150170619
 H         -3.1118466610        3.5150029389        2.5011999362
 H         -5.0180217876        1.5027947491       -2.4073274363
 H         -2.4827544167       -4.2351566161       -0.3502629687
 H          1.4827845958       -3.1337393918        1.5541530913
 H          6.6933974661        0.5681191370       -1.2214041770
 H          2.6353965246        4.1686462084       -1.2393150374
 H         -1.2763497862        3.5422076889        1.1019609605
 H         -6.5062072213       -0.6536372072       -0.7580635698
 H         -0.3058640038       -2.2853651225        0.5083375137
 H          1.4679545396       -1.0270302169       -0.0100981494
 H          4.1347411948        1.2255753719        0.3110166677
 H          0.5052368860        2.3607093529       -0.0065857781
 H         -1.2957683998        1.0982976255        0.2409447239
 H         -3.8606137719       -0.9955571435        0.7331196071
 H         -2.3189544618       -1.9677448097        1.8647542255
 H         -1.2027667665       -2.9306484932        2.8354562360
 H          5.5888079145        2.4374812814        1.8963301735
 H          6.3159906652        0.8284615233        1.7132445813
 H          2.9014559389        3.8081932312        1.2241630740
 H          2.4557808326        2.1063652196        1.4066686013
 H         -5.8687802022       -0.3290444655        2.2272855920
 H         -6.6335646876       -1.8379030659        1.7080182143
 H         -2.4318508879       -4.7989729554        2.1928380495
 H          7.0561555171        3.0673800827        0.1314244547
 H          0.8412847449        4.2701533576        2.2959754160
 H         -4.3858890373       -2.7322589524        2.5001586919
 C         -1.8382634963       -0.2378714649        3.8440360736
 H         -2.4453852935       -1.0632441247        4.2320585658
 H         -2.0739845111        0.6583026775        4.4305081356
 O         -1.9574818663        2.1822674740        3.0034662469
 C          0.6248871810        0.4003363604        3.3836606153
 H          0.2217257218        1.4202861207        3.3847513187
 H          1.5449288482        0.3864551571        3.9793413378
 O          2.9113787756       -0.7975970001        2.8531902368
 C         -0.3742291807       -0.5841966113        3.9252282804
 O         -0.0216819304       -1.6549852062        4.3344599782
 O         -1.4301772783        7.3768400288       -0.6031184133
 H         -1.0832858135        7.8834443511        0.1308999279
 H         -1.8755581566        7.9938626492       -1.1836296074
 O         -1.7665985709       -6.5563361493        2.5292375512
 H         -1.1058983607       -6.7909586775        3.1792127458
 H         -2.1643719420       -7.3739537209        2.2345264388
  136
        -21.27347046
 C          0.6837142269       -4.3366982634       -0.2382809180
 C          4.7475462185       -1.4644275340        0.4071215790
 C          3.9692789025        2.4945839932       -1.7601329173
 C         -0.6951934761        4.4621205287       -0.6730315060
 C         -4.8110923647        1.6394351530        0.0175552098
 C         -3.9221920486       -2.4878817238       -1.7513331637
 O          1.6933548511       -3.3841332259       -0.4947155237
 O          5.8890815970       -0.8611172169       -0.1826588252
 O          2.6999491500        2.0532502919       -1.2889100138
 O         -1.6916657663        3.4883499817       -0.9044118170
 O         -5.9166799938        0.9984063765       -0.6066543043
 O         -2.6984828112       -2.0115797978       -1.1990269293
 C         -0.0986759662       -4.7260193095       -1.5274592861
 C          4.7344663120       -2.9803207635        0.0872555897
 C          4.5060887031        1.4813830380       -2.8057230521
 C          0.1520336917        4.7444639997       -1.9490156547
 C         -4.7592265377        3.1195987872       -0.4409013775
 C         -4.3501057019       -1.5572942458       -2.9165554649
 O          0.7785396385       -5.1358131596       -2.5553191814
 O          4.4577265799       -3.1829541238       -1.2868543082
 O          3.5974606712        1.3639070898       -3.8837495051
 O         -0.6708790304        5.0739066807       -3.0483356700
 O         -4.3985097663        3.1963276839       -1.8082217682
 O         -3.3553019313       -1.5302538101       -3.9219373588
 C         -0.9652635633       -3.5380184257       -1.9867498259
 C          3.6668360986       -3.6864933456        0.9589399716
 C          4.6999130436        0.1403991305       -2.0809469196
 C          1.0275559787        3.5176540198       -2.2648227513
 C         -3.7384278766        3.8985497666        0.4233408689
 C         -4.5856524581       -0.1615623256       -2.3190144074
 O         -1.7086551473       -3.8653470814       -3.1418051777
 O          4.0232472296       -3.7267528827        2.3332892222
 O          5.1753040173       -0.8701685339       -2.9408947603
 O          1.8346230585        3.7398290824       -3.4020802091
 O         -4.1605413846        4.0339749053        1.7712240739
 O         -4.9616643268        0.7762281028       -3.3018103781
 C         -1.8498811193       -3.0792927645       -0.8071205421
 C          2.2984732590       -2.9878001264        0.7365300741
 C          5.6252328814        0.3482634004       -0.8633566160
 C          1.8480670742        3.1515244171       -1.0100950776
 C         -2.3619775991        3.1918498539        0.3212325004
 C         -5.6297398081       -0.2598276957       -1.1870196793
 C         -0.9225772320       -2.7134695166        0.3714554946
 C          2.3998942613       -1.4424931894        0.8324290605
 C          5.0533497590        1.4614318838        0.0478929534
 C          0.8683531816        2.8927667333        0.1548458394
 C         -2.4691559505        1.6616180084        0.5499947555
 C         -5.2075285307       -1.3280284768       -0.1480653529
 O         -0.2046186762       -3.8778882694        0.7830924254
 O          3.4870288905       -0.8985516363        0.0787632214
 O          4.8961466466        2.6723317674       -0.6911367286
 O          0.1408383779        4.0920498177        0.4272236512
 O         -3.5397177808        1.0331347162       -0.1674139281
 O         -4.9581588927       -2.5873987912       -0.7746027647
 C         -1.6597598450       -2.1073516614        1.5555994530
 C          2.3855338294       -0.9473671068        2.2624840349
 C          5.9261771317        1.7229112367        1.2689131818
 C          1.5505323311        2.3844423367        1.4167201870
 C         -2.4353779418        1.3142906169        2.0230247114
 C         -6.2475594667       -1.5330495221        0.9485970167
 O         -2.4935286058       -3.0476416250        2.1671298506
 O          1.2013312460       -0.4163254151        2.6642953835
 O          7.1567430879        2.2728338712        0.8912639800
 O          2.4544407663        3.3206233266        1.9288424673
 O         -1.2127986033        0.9018612917        2.4532980137
 O         -5.8956600591       -2.6225832046        1.7562967610
 H          1.1914580415       -5.2287684532        0.1588745331
 H          4.8611501214       -1.3000370080        1.4881615789
 H          3.8392850237        3.4777100252       -2.2349790314
 H         -1.2215718834        5.3826696121       -0.3780819020
 H         -5.0040820227        1.5768590200        1.0975585062
 H         -3.7536478294       -3.5043155598       -2.1346074225
 H         -0.7618081478       -5.5768503929       -1.3050431538
 H          5.7361095131       -3.3981308658        0.2722925892
 H          5.4713632041        1.8252790076       -3.2067834537
 H          0.8112089002        5.6070026231       -1.7632359313
 H         -5.7652999132        3.5587334332       -0.3552395239
 H         -5.2838352746       -1.9249051117       -3.3682647782
 H          0.3029384927       -5.2142272880       -3.3989386354
 H          3.4838705289       -3.2448733365       -1.3752738888
 H          3.8288139401        0.6027576834       -4.4379954278
 H         -0.1562429876        5.0779981879       -3.8725012599
 H         -3.4213347951        3.2626613099       -1.8407679686
 H         -3.5287148935       -0.8109847098       -4.5485173643
 H         -0.2834750862       -2.7184409818       -2.2619184788
 H          3.5888506421       -4.7329311924        0.6279716622
 H          3.7010930875       -0.1654668592       -1.7299243526
 H          0.3525018780        2.6819564933       -2.5057418554
 H         -3.6491699799        4.9206255983        0.0243307522
 H         -3.6193581657        0.1620005099       -1.9002088020
 H         -2.2008797204       -3.0773495365       -3.4678890522
 H          3.8788836793       -2.8299501027        2.7037145035
 H          5.1131453782       -1.7276593785       -2.4692703740
 H          2.3580671141        2.9340482193       -3.6179627669
 H         -3.9822645649        3.1860196769        2.2339881486
 H         -4.9427343796        1.6683987034       -2.8959525875
 H         -2.4935053722       -3.9058400273       -0.4770462887
 H          1.6290981142       -3.3211595261        1.5462509172
 H          6.6082968479        0.6773735685       -1.2304137688
 H          2.4869852523        3.9966260163       -0.7180965397
 H         -1.7325424000        3.5945523525        1.1319305292
 H         -6.5796913053       -0.5793879179       -1.6399054126
 H         -0.1809267560       -1.9989743620       -0.0074995020
 H          1.5181757717       -1.0165995850        0.3332577710
 H          4.0421460800        1.1584825188        0.3536800739
 H          0.1367680517        2.1517213666       -0.1910666926
 H         -1.5814669385        1.1993442960        0.0954077528
 H         -4.2525554304       -1.0245910958        0.3019832385
 H         -2.2868560728       -1.2669788834        1.2382839179
 H         -0.9492307868       -1.7291295037        2.3018972915
 H          5.4313821571        2.4153870413        1.9628615796
 H          6.1366536167        0.7934051798        1.8101174291
 H          2.1108017445        1.4663488605        1.2112587824
 H          0.8096443055        2.1485949639        2.1919176871
 H         -6.3465537392       -0.6494149321        1.5904285734
 H         -7.2314424431       -1.7348885473        0.5094892833
 H         -1.9923483717       -3.8488542229        2.3975146510
 H          7.0214853499        3.0778385203        0.3629330265
 H          2.0092695270        4.1677872238        2.1004252083
 H         -5.6105018376       -3.3674555227        1.1916571735
 C         -1.2072579641        0.7104448186        3.8485144643
 H         -1.6135994533       -0.2831825636        4.0642585314
 H         -1.8799361747        1.4590076144        4.2842999422
 O         -3.4112831144        1.4688484690        2.7197708985
 C          1.2693722830       -0.0500038075        4.0227184345
 H          2.2384940761        0.4369148544        4.1832157605
 H          1.2518148485       -0.9666761323        4.6218775301
 O          3.3689237010       -1.0691366575        2.9557147422
 C          0.1659636676        0.8831656001        4.4362628056
 O          0.3798535963        1.7591154147        5.2297575072
 O         -6.0972239577        0.5524253950        3.2983182491
 H         -5.1765503169        0.8461418555        3.1687201541
 H         -6.2328890721        0.4785424163        4.2418540503
 O          4.6179514576       -6.1493521504        3.9134312958
 H          3.7662849753       -6.4616555096        4.2176334226
 H          4.4553860697       -5.3389599224        3.4004909052
  136
        -21.27344673
 C          0.7223537416       -4.3158303019       -0.4499686599
 C          4.9072618777       -1.4966483138        0.0777115834
 C          3.9712318309        2.4860478947       -1.9499734272
 C         -0.4679531163        4.5012472685       -0.2846581006
 C         -4.6281692600        1.7379931957        0.4734665742
 C         -3.8374344582       -2.2217917423       -1.6783910808
 O          1.7622804631       -3.4129221319       -0.7597768251
 O          6.0190819126       -0.8718868509       -0.5498539699
 O          2.7471586029        2.0234370145       -1.3987181370
 O         -1.5393661465        3.6129956444       -0.5133933445
 O         -5.7642162694        1.1581456745       -0.1536573403
 O         -2.5762557008       -1.8065208080       -1.1731062662
 C         -0.1107517463       -4.6096251272       -1.7282079339
 C          4.8982179572       -3.0014094868       -0.2934907881
 C          4.4468279739        1.5043540120       -3.0514029426
 C          0.2403238161        4.8319846153       -1.6301870267
 C         -4.6109272635        3.2551239926        0.1518490481
 C         -4.3310902898       -1.2041279597       -2.7397680057
 O          0.7487192414       -4.9425636631       -2.7981821798
 O          4.6592239849       -3.1844393275       -1.6763371678
 O          3.4542571293        1.3746884857       -4.0560679399
 O         -0.7203729344        5.1933771077       -2.6005382973
 O         -4.4528119833        3.4780367303       -1.2373817793
 O         -3.3834490352       -1.0736026807       -3.7856636766
 C         -0.9663198479       -3.3793922495       -2.0927347136
 C          3.8400176432       -3.7509989098        0.5503758624
 C          4.7433536900        0.1445253062       -2.3943692952
 C          1.0594797480        3.6165119980       -2.1144223759
 C         -3.4941536785        3.9696775299        0.9483620464
 C         -4.5609101802        0.1472757471       -2.0426203099
 O         -1.7928498757       -3.6153121683       -3.2201259404
 O          4.2356033679       -3.8711040192        1.9074022962
 O          5.2296195871       -0.7984338319       -3.3290472532
 O          1.7954526086        3.8895179368       -3.2949123751
 O         -3.8070445379        4.0809366677        2.3264592467
 O         -5.0426354356        1.1278464368       -2.9397183404
 C         -1.7731784199       -2.9309962483       -0.8554443347
 C          2.4632634818       -3.0490695738        0.4251738893
 C          5.7189896092        0.3423104972       -1.2107341852
 C          1.9626929404        3.1203120677       -0.9654386384
 C         -2.1418157823        3.2471236588        0.7255597463
 C         -5.5065993865       -0.0521405923       -0.8367483558
 C         -0.7975750913       -2.6585708135        0.3079163722
 C          2.5688441123       -1.5108183527        0.5764429330
 C          5.1845233249        1.4341652097       -0.2502963037
 C          1.0719629784        2.7949943729        0.2505202435
 C         -2.2640518589        1.7085362791        0.8687653482
 C         -4.9703927767       -1.1752440138        0.0895562952
 O         -0.0964274793       -3.8604610053        0.6314141130
 O          3.6334608414       -0.9233130671       -0.1785034826
 O          4.9709875546        2.6583615717       -0.9503542817
 O          0.4403731461        3.9949029787        0.6955277874
 O         -3.3723989768        1.1552135232        0.1519232942
 O         -4.8029147996       -2.3890899514       -0.6422213183
 C         -1.5019700697       -2.0904578364        1.5332025436
 C          2.5708501918       -1.1009368721        2.0329018390
 C          6.1119603633        1.6832641512        0.9320481337
 C          1.8249730281        2.1354438144        1.3944161686
 C         -2.2142608025        1.2616441607        2.3148071200
 C         -5.8410216813       -1.4185604749        1.3216210029
 O         -2.5057394623       -2.9450011585        2.0037780441
 O          1.3609481230       -0.6722576703        2.4821414230
 O          7.3126211146        2.2646873592        0.5082609690
 O          2.8116900070        2.9769933598        1.9188760258
 O         -1.0300743425        0.7119439503        2.6957577650
 O         -5.4293593633       -2.5443122948        2.0540535471
 H          1.2058448100       -5.2432570953       -0.1068779913
 H          5.0670056345       -1.3672127108        1.1579160969
 H          3.7826911652        3.4748987586       -2.3954450382
 H         -0.9034503183        5.4203473832        0.1356518810
 H         -4.7642528345        1.5610070740        1.5519298837
 H         -3.6979190744       -3.2054363050       -2.1525633805
 H         -0.7737374542       -5.4726145693       -1.5689442855
 H          5.8966316913       -3.4214165395       -0.0896201813
 H          5.3617083833        1.8812528050       -3.5327011326
 H          0.9146304852        5.6930616267       -1.5134261691
 H         -5.5875331355        3.6845277169        0.4266545901
 H         -5.2763941142       -1.5461796901       -3.1873477775
 H          1.5591414249       -4.3994092052       -2.7402972052
 H          4.9409899510       -2.3953281652       -2.1919441288
 H          2.8193547729        2.1196429688       -3.9639645679
 H         -1.5276823639        4.6574730625       -2.4694308832
 H         -4.7410837291        2.6946572507       -1.7582152797
 H         -2.7770767709       -1.8465069732       -3.7526317179
 H         -0.2899403387       -2.5576469198       -2.3704986648
 H          3.7503519469       -4.7749783903        0.1566080495
 H          3.7893053758       -0.2473544819       -2.0097041357
 H          0.3594185483        2.8067450758       -2.3680022435
 H         -3.4087075659        4.9978867509        0.5644195841
 H         -3.5837124979        0.4985476197       -1.6772093837
 H         -1.3197287502       -4.1600439696       -3.8702876611
 H          4.1021783747       -2.9992086780        2.3385198095
 H          4.7778631171       -0.6868087608       -4.1821013215
 H          1.2661994043        4.4383945747       -3.8964080143
 H         -3.6659367675        3.1992840168        2.7338161601
 H         -4.6172786187        1.0242178495       -3.8073624635
 H         -2.4488739283       -3.7367309277       -0.5357601624
 H          1.8508392156       -3.4076048982        1.2695803940
 H          6.6831020074        0.6813891641       -1.6162175333
 H          2.6546686533        3.9182672425       -0.6608029186
 H         -1.4599797150        3.5900751586        1.5217915745
 H         -6.4844816606       -0.3662102382       -1.2298084498
 H         -0.0479496074       -1.9429302145       -0.0501101708
 H          1.6753753632       -1.0682194257        0.1147768526
 H          4.1943760514        1.1124985782        0.1007711189
 H          0.2745539602        2.1281963483       -0.1001626114
 H         -1.3998722461        1.2558079405        0.3641111270
 H         -3.9594976338       -0.8913251367        0.4119827394
 H         -1.9796671031       -1.1355023727        1.2890689270
 H         -0.7839802369       -1.8980408320        2.3408695903
 H          5.6383460972        2.3513205510        1.6637319833
 H          6.3636700420        0.7459603372        1.4411061619
 H          2.3200645710        1.2202207289        1.0548755088
 H          1.1323954352        1.8561214933        2.1984246771
 H         -5.8540847704       -0.5501054232        1.9933155059
 H         -6.8745604054       -1.6104592993        1.0133727091
 H         -2.1192319821       -3.7972240121        2.3100824857
 H          7.1354180475        3.0718418353       -0.0044419271
 H          2.4280651351        3.8346867707        2.1699405291
 H         -4.4505234398       -2.6553207931        2.0338475143
 C         -1.0515816606        0.4194431662        4.0737886329
 H         -2.0237168436       -0.0345695802        4.2972518701
 H         -0.9925930341        1.3666565582        4.6210447227
 O         -3.1681523125        1.4376913860        3.0368381911
 C          1.4040119833       -0.4082024386        3.8649435818
 H          1.8442554800        0.5828528536        4.0172633496
 H          2.0724362937       -1.1489572797        4.3189516411
 O          3.5723093414       -1.2206332829        2.7007985242
 C          0.0459271629       -0.5140185890        4.5030285092
 O         -0.1591167501       -1.3362384675        5.3543837134
 O         -1.4824981977       -5.4634204861        2.9844786587
 H         -0.8998478666       -5.5803041278        3.7329041529
 H         -1.7935567998       -6.3329736794        2.7370452391
 O         -6.6080991322        1.3089333358        2.9734730729
 H         -6.3925497603        1.2591523571        3.9075750219
 H         -7.5086900124        1.6311998639        2.9195037448
  136
        -21.27339072
 C          0.6410794139       -4.5631026818       -0.2764638565
 C          4.6392136545       -1.4783007290        0.1902754176
 C          3.3254604634        2.3402627510       -2.0885117224
 C         -0.9267421257        4.3078274455        0.1222282302
 C         -4.9067629329        1.1831707057        0.5439221609
 C         -3.8011304567       -2.5244279256       -2.0202388933
 O          1.6888626870       -3.6732592039       -0.6009359272
 O          5.6749771761       -0.7484276235       -0.4600484195
 O          2.1239609005        1.9123211439       -1.4844406948
 O         -2.0156300590        3.4751549347       -0.2335726811
 O         -5.9875043313        0.5005863592       -0.0790170639
 O         -2.5533912169       -2.1165502496       -1.4933698652
 C         -0.1144905960       -5.0208706707       -1.5540299890
 C          4.7746851505       -2.9860675356       -0.1590714145
 C          3.8450635690        1.2831499380       -3.0961084355
 C         -0.1902063460        4.8829193997       -1.1200932909
 C         -5.0377063272        2.7107606938        0.3067108266
 C         -4.4209794753       -1.4301789181       -2.9359029002
 O          0.8165201902       -5.4149032045       -2.5407015999
 O          4.5685661828       -3.2320807356       -1.5363889260
 O          2.8760008093        0.9682745372       -4.0718360685
 O         -1.0853833093        5.5161749786       -2.0055327763
 O         -4.7700936417        3.0101577334       -1.0478379377
 O         -3.5598253800       -1.1004425435       -4.0057931115
 C         -1.0342925213       -3.9080338452       -2.1071358770
 C          3.7945547804       -3.8384531283        0.6835172427
 C          4.2817011226        0.0135462813       -2.3440437451
 C          0.6080715591        3.7803194944       -1.8437949262
 C         -4.0374051863        3.4748612561        1.2116603928
 C         -4.7292760883       -0.1928271015       -2.0783728950
 O         -1.8854313593       -4.4274249276       -3.1108149685
 O          4.2206768090       -3.9753040451        2.0282934626
 O          4.8631649088       -0.9195192908       -3.2359845251
 O          1.3799822542        4.3221094685       -2.8975582457
 O         -4.3905343603        3.4098429711        2.5842316303
 O         -5.3159115544        0.8337399800       -2.8466862044
 C         -1.8555218260       -3.2428864193       -0.9764762147
 C          2.3597657008       -3.2576183869        0.5902278710
 C          5.2564959539        0.3827644622       -1.2061768119
 C          1.4916771405        3.0078093009       -0.8365750924
 C         -2.6061166740        2.9300877813        0.9545030721
 C         -5.6179122639       -0.6023678996       -0.8866570852
 C         -0.9102051522       -2.8552010891        0.1805362658
 C          2.3361148101       -1.7179267843        0.7722790744
 C          4.6719063586        1.5144926783       -0.3259526246
 C          0.6187937443        2.5357908271        0.3451203217
 C         -2.5690355526        1.3791082482        0.9645169917
 C         -4.9344763182       -1.7505865234       -0.1090131138
 O         -0.2496106550       -4.0123643675        0.6888245495
 O          3.3084532073       -1.0311023662       -0.0256798568
 O          4.3295348482        2.6507689592       -1.1246450379
 O         -0.0079669209        3.6441951952        0.9904419600
 O         -3.5997940625        0.7621246526        0.1865466414
 O         -4.7067784147       -2.8683182380       -0.9716279287
 C         -1.6150506213       -2.1431139309        1.3225605185
 C          2.3736215941       -1.3151432436        2.2333040891
 C          5.6635680221        1.9776094863        0.7336801936
 C          1.4001800867        1.7191606969        1.3630247906
 C         -2.4824637581        0.8254728978        2.3707453165
 C         -5.7288753297       -2.1935437547        1.1113856600
 O         -2.5865563735       -2.9638407252        1.9085466881
 O          1.1916718188       -0.8574919091        2.7253825128
 O          6.7252587089        2.6486773211        0.1206188252
 O          2.4353645315        2.4674555646        1.9339026740
 O         -1.2300244350        0.4378767459        2.7302263987
 O         -6.9242556918       -2.8150561458        0.7332954739
 H          1.1120902280       -5.4391981833        0.1955356555
 H          4.8152576096       -1.3259697794        1.2642025020
 H          3.0962570366        3.2762249975       -2.6222310480
 H         -1.3567728668        5.1415703210        0.6980987207
 H         -4.9980806357        0.9522351069        1.6149763863
 H         -3.6172129312       -3.4371964262       -2.6095427691
 H         -0.7337820995       -5.9040037120       -1.3373283763
 H          5.8079827095       -3.3017306101        0.0592923513
 H          4.7126354690        1.6830116312       -3.6409460330
 H          0.5175599943        5.6683120738       -0.8107231901
 H         -6.0737793157        3.0243356796        0.5052891972
 H         -5.3607198638       -1.8061701603       -3.3686760795
 H          1.5894287133       -4.8176205189       -2.5104998986
 H          4.7677563229       -2.4357907691       -2.0768591224
 H          2.0173472678        0.8018348315       -3.6462409675
 H         -1.8594533313        4.9481529608       -2.1623803584
 H         -3.7945916854        3.0908626030       -1.1154128867
 H         -3.8782933847       -0.3073234573       -4.4682672974
 H         -0.4180295587       -3.1273662702       -2.5765534530
 H          3.7831407375       -4.8542614589        0.2590928830
 H          3.3883883299       -0.4586353965       -1.9107776942
 H         -0.0969155897        3.0663535423       -2.2930750877
 H         -4.0643488732        4.5409921003        0.9394900304
 H         -3.7625260895        0.1777284814       -1.7026464692
 H         -1.3738607474       -4.8934361770       -3.7917584296
 H          4.0292342924       -3.1301475305        2.4872017447
 H          4.4351299384       -0.8669801426       -4.1070501928
 H          0.8501392117        4.9310643407       -3.4373804650
 H         -4.1537859307        2.5172676499        2.9159469628
 H         -5.3272117548        1.6518476324       -2.3074850751
 H         -2.6071841604       -3.9470402845       -0.5925675629
 H          1.7901760812       -3.6817028436        1.4339733249
 H          6.1817382978        0.7590373040       -1.6671328450
 H          2.2827928993        3.6664667652       -0.4502844966
 H         -1.9806781552        3.2655230582        1.7979199037
 H         -6.5699579145       -0.9827266524       -1.2844994058
 H         -0.1383042298       -2.2082202376       -0.2525529912
 H          1.3860276170       -1.3480184394        0.3682861967
 H          3.7439574799        1.1535047797        0.1361691121
 H         -0.1800894225        1.9276886306       -0.0925201268
 H         -1.6599635462        1.0576459733        0.4443695812
 H         -3.9417192722       -1.3951058567        0.1947880772
 H         -2.1082132701       -1.2325920700        0.9712477540
 H         -0.8913965981       -1.8484443294        2.0935227156
 H          5.1827850848        2.6579040191        1.4480242042
 H          6.0860659801        1.1413504080        1.3027734433
 H          1.8503364219        0.8419836343        0.8891058814
 H          0.7418494664        1.3604169455        2.1658074321
 H         -5.1439052568       -2.8966348960        1.7182665225
 H         -5.9901134360       -1.3374250727        1.7439005567
 H         -2.1892219642       -3.8121146458        2.1722330679
 H          6.3747449506        3.3264460197       -0.4871439251
 H          2.0743651359        3.2678956286        2.3528069552
 H         -6.7460103732       -3.5417034049        0.1121075605
 C         -1.2118478173        0.0162517687        4.0729601164
 H         -1.5792612667       -1.0141071838        4.1194241123
 H         -1.9171847529        0.6502441139        4.6237008944
 O         -3.4605384769        0.7988902477        3.0816060945
 C          1.3256230719       -0.5771381444        4.0992939079
 H          2.2254429572        0.0359562641        4.2185378325
 H          1.4996016540       -1.5253198387        4.6194806816
 O          3.3904657915       -1.4435223434        2.8750213716
 C          0.1500865429        0.1449828624        4.6973576821
 O          0.2960225523        0.8119004286        5.6859880074
 O          5.5768273995        0.4030018222        3.1942515148
 H          4.8225508973       -0.2131754784        3.1382580661
 H          5.9505085232        0.3025360618        4.0685495097
 O          2.2561416724        6.4433300690        0.1086888658
 H          2.1770814913        6.9924378768        0.8891261700
 H          2.9984448853        6.7865762117       -0.3900556575
  136
        -21.27328158
 C          0.7505563604       -3.0223717793       -1.4303879370
 C          4.3259838806       -0.5492518875        1.4509327813
 C          4.3484775719        3.0362504778       -1.4010926188
 C         -0.5726096921        2.5877032360       -2.2108265733
 C         -4.4049156436        1.7781562072        0.8524242895
 C         -4.3624323041       -2.6082929914       -0.1232181781
 O          1.2126741692       -1.7524237194       -1.0258467829
 O          5.5840935492        0.1004501911        1.3242781683
 O          2.9969008523        2.6209434095       -1.2557907675
 O         -1.9001012309        2.6928343924       -1.7269977044
 O         -5.6674328610        1.1639408517        1.0641442415
 O         -3.1424964417       -1.9565485124       -0.4958340843
 C         -0.2097983250       -2.9372428090       -2.6491179340
 C          4.4249820284       -2.0398992242        0.9491358371
 C          5.2223620944        1.8963564988       -1.9935069235
 C          0.1938925014        1.3823740632       -1.6198608208
 C         -4.5262812954        3.1047739880        0.0593203861
 C         -5.4902758840       -1.9989741130       -0.9987526986
 O          0.3942769167       -2.3654580200       -3.7906369690
 O          5.7422815699       -2.3766733256        0.5648612743
 O          4.8155589100        1.5098866508       -3.2880473726
 O          0.5251660155        1.6432751244       -0.2737690995
 O         -4.9985052914        2.8727791713       -1.2552134681
 O         -5.3110033035       -2.2938321437       -2.3678444331
 C         -1.5080986850       -2.2081181372       -2.2535855551
 C          3.4648177350       -2.3079519875       -0.2355802971
 C          5.1720084700        0.7050764261       -1.0242706210
 C          1.4833843765        1.1125237122       -2.4187815180
 C         -3.1578336294        3.8464190569        0.0357707804
 C         -5.4931170064       -0.4826596311       -0.7214277140
 O         -2.4712614421       -2.2569871877       -3.2890814054
 O          3.5183298566       -3.6664116914       -0.6195503142
 O          5.9321844821       -0.3748153010       -1.5163526135
 O          1.2249934773        0.5148972511       -3.6758828550
 O         -2.9086930836        4.5420560774        1.2455419609
 O         -6.4020700650        0.2556977928       -1.5114538448
 C         -2.0953551311       -2.8105377239       -0.9580369578
 C          2.0181105082       -1.8985521679        0.1359063737
 C          5.6318762659        1.1532256391        0.3746188842
 C          2.3065233556        2.4277300277       -2.4945209486
 C         -1.9853364692        2.8845817784       -0.3212479899
 C         -5.6748861092       -0.2263392771        0.7905399901
 C         -1.0153349144       -2.9672949638        0.1361480215
 C          1.9824325300       -0.6156433595        1.0197795180
 C          4.8444749041        2.4071507180        0.8304125568
 C          1.4493840833        3.6885914166       -2.8181157798
 C         -2.1207322863        1.5134056697        0.3947098635
 C         -4.6282261660       -1.0346397487        1.6101614879
 O          0.1025972439       -3.7069055466       -0.3558090667
 O          3.1978523289        0.1361711835        0.8902121489
 O          4.9117746950        3.4455647559       -0.1503672440
 O          0.2301324761        3.7473528340       -2.0593885601
 O         -3.4196744855        0.9626751528        0.2382006773
 O         -4.6659455306       -2.4180382261        1.2615021500
 C         -1.5919999966       -3.6397810628        1.3754641434
 C          1.6432856183       -0.9344252416        2.4628489585
 C          5.3941386099        2.9476677205        2.1456489054
 C          1.1935773155        3.9178668074       -4.3126727414
 C         -1.7204110044        1.4319815521        1.8552809703
 C         -4.8458910452       -0.8904651059        3.1118052000
 O         -2.1002889438       -4.9110949316        1.0816036711
 O          0.8804247534       -2.0482622273        2.6560680523
 O          6.7124809111        3.3892423094        1.9824223900
 O          0.4502158180        2.8787811718       -4.9111669325
 O         -1.2655394748        0.1955427097        2.1849449017
 O         -6.0753133779       -1.4423584789        3.4878312949
 H          1.6455345321       -3.6074609384       -1.6991155431
 H          4.1317930324       -0.5399530637        2.5345787781
 H          4.3559318652        3.9157567697       -2.0604322412
 H         -0.6962756504        2.4636758892       -3.2964913849
 H         -4.0214947781        1.9922285218        1.8617447426
 H         -4.2766795972       -3.6915292473       -0.2933024243
 H         -0.4845928768       -3.9592431171       -2.9515679792
 H          4.1365744517       -2.7286699981        1.7570765318
 H          6.2627834204        2.2477981347       -2.0656845976
 H         -0.4411348577        0.4914767202       -1.6519006264
 H         -5.2756033885        3.7445296214        0.5524682563
 H         -6.4606925743       -2.4239286023       -0.7065464456
 H          0.6975049570       -1.4416237657       -3.6363195109
 H          6.3623477216       -2.2052498974        1.2916720598
 H          5.3081870694        0.7234305012       -3.5737637422
 H          1.3105833407        2.2273947873       -0.2800297009
 H         -5.4998959447        2.0276522438       -1.3116331619
 H         -4.3677409257       -2.2030888799       -2.6356751726
 H         -1.2940785457       -1.1504707931       -2.0697590142
 H          3.7757325500       -1.7164836648       -1.1066050894
 H          4.1242302206        0.3830116419       -0.9624146417
 H          2.0731052036        0.3734144203       -1.8544680408
 H         -3.2122062934        4.6114214040       -0.7552945067
 H         -4.4992866415       -0.1100465464       -1.0108303475
 H         -2.0607612506       -2.0564050509       -4.1458419372
 H          4.4406830013       -3.9632899642       -0.6878429061
 H          5.9646309288       -1.0808300714       -0.8334640348
 H          0.9274053470        1.2284474246       -4.2759126632
 H         -2.5503668382        3.8913867448        1.8862549373
 H         -7.2949523499       -0.1211454612       -1.4620260556
 H         -2.5145433899       -3.7963796299       -1.1955351774
 H          1.5841087581       -2.7253161194        0.7182506735
 H          6.6952455352        1.4269774715        0.3172749473
 H          3.0532960013        2.3031150315       -3.2902407753
 H         -1.0447911113        3.3612752320       -0.0047780171
 H         -6.6743817520       -0.5697401426        1.0909274549
 H         -0.6423729769       -1.9657118669        0.4000535325
 H          1.1871605395        0.0379259227        0.6397051963
 H          3.7828148015        2.1357354186        0.9236180960
 H          2.0165409903        4.5501406106       -2.4259941515
 H         -1.4753532135        0.8018084667       -0.1276197373
 H         -3.6193785322       -0.6945127837        1.3325819881
 H         -2.4227350758       -3.0516823641        1.7850856717
 H         -0.8291379998       -3.7262666994        2.1573231665
 H          4.7828448669        3.7794314390        2.5182927870
 H          5.4077024675        2.1752110980        2.9233635688
 H          2.1438235327        4.0165121041       -4.8507570968
 H          0.6356942383        4.8548257510       -4.4348277374
 H         -4.0537459354       -1.3962046999        3.6818495917
 H         -4.8574679482        0.1644641099        3.4071495567
 H         -1.3802993895       -5.5368430225        0.8363472994
 H          6.7582391283        4.0685520055        1.2879733780
 H          0.1766558025        3.1056683725       -5.8136430994
 H         -6.1210829776       -2.3780505490        3.2266772246
 C         -0.9962766903        0.1131432856        3.5608290384
 H         -1.7797945101        0.6610928229        4.0956563074
 H         -0.0348244277        0.6080093064        3.7401171405
 O         -1.8827520757        2.3561165503        2.6171419591
 C          0.3376412807       -2.0579341770        3.9619989708
 H          1.0651050684       -1.6130608864        4.6504854097
 H          0.1900534670       -3.1026401383        4.2555921393
 O          2.0112780628       -0.1971988824        3.3475193616
 C         -0.9755326779       -1.3226312203        3.9970653634
 O         -1.9980326467       -1.8763593125        4.2925750772
 O          3.8598681627        1.8066777362        4.2888408880
 H          3.2134107133        1.1481163247        3.9741403707
 H          3.6833394325        1.9363545563        5.2200967472
 O         -0.0073736894       -6.8198966583        0.4331403431
 H          0.7755218502       -7.0106952774        0.9472812490
 H         -0.0079355858       -7.4279419682       -0.3042082110
