137
* (null), Energy   -1000.0000000
C     0.561635    5.148774   -0.064522   -0.010265    0.033866   -0.006460
C    -4.362939    3.290020    0.501495    0.018711   -0.007600   -0.004643
C    -5.128075   -1.755084   -0.470060    0.005234   -0.007445   -0.027799
C    -0.922155   -4.952555   -0.434464   -0.010448   -0.047176    0.020987
C     4.075085   -3.223574   -0.061429    0.014470   -0.055598   -0.033914
C     4.722888    1.968238   -0.676338   -0.050239   -0.021022    0.083172
O    -0.294845    4.032848    0.052392    0.035458    0.018335    0.064010
O    -4.290893    2.278820   -0.454663    0.042561   -0.015432    0.013167
O    -3.753180   -1.972454   -0.675491    0.003224   -0.012701    0.005926
O     0.061960   -3.954235   -0.363664    0.023575   -0.079846    0.030747
O     3.750100   -2.023815   -0.690674   -0.026443   -0.033788    0.040178
O     3.347284    2.272825   -0.757422   -0.030634    0.016825    0.093571
C     1.146373    5.186411   -1.488945   -0.015664    0.001930   -0.012162
C    -4.021576    4.621057   -0.198484    0.030135   -0.012101   -0.006856
C    -5.661655   -0.948997   -1.666105    0.034512    0.005802   -0.034351
C    -1.646193   -4.832230   -1.787482   -0.002898   -0.021338    0.016709
C     3.734057   -4.348331   -1.058279    0.006669   -0.018464   -0.073738
C     5.104339    1.191555   -1.951356   -0.059088   -0.016325    0.072975
O     0.170140    5.330596   -2.485958   -0.013153   -0.028441   -0.015772
O    -4.850847    4.854882   -1.299941    0.048457   -0.015447   -0.021834
O    -5.463873   -1.613545   -2.882632    0.052832    0.012343   -0.035302
O    -0.797393   -4.978650   -2.892647   -0.001818   -0.029519    0.017192
O     4.431300   -4.183160   -2.261608   -0.024611    0.056794   -0.080506
O     4.807397    1.917584   -3.112474   -0.047431    0.001216    0.087092
C     1.879951    3.858699   -1.711346   -0.007107   -0.000376    0.013406
C    -2.544756    4.629761   -0.634747    0.037755   -0.012073    0.019307
C    -4.958242    0.415138   -1.668150    0.043400    0.002001   -0.013912
C    -2.319059   -3.453248   -1.832754    0.017103   -0.010152    0.017193
C     2.218176   -4.329460   -1.315002    0.000133   -0.049128   -0.039231
C     4.370726   -0.158025   -1.939091   -0.067317   -0.012492    0.052348
O     2.556514    3.810615   -2.946046    0.015353   -0.009482    0.024712
O    -2.189289    5.906094   -1.118438    0.028479   -0.006222    0.015701
O    -5.466189    1.242188   -2.683804    0.052008    0.015921   -0.010948
O    -3.064100   -3.274945   -3.011173    0.025952    0.001437    0.010733
O     1.820693   -5.444870   -2.079953    0.017707   -0.039972   -0.062606
O     4.776656   -0.978916   -3.008978   -0.056149   -0.008860    0.051017
C     2.925140    3.624906   -0.615230   -0.005498    0.032980    0.021198
C    -1.608557    4.247159    0.525550    0.023946    0.000295    0.039768
C    -5.127272    1.136099   -0.324365    0.032527   -0.009511   -0.009099
C    -3.265750   -3.300606   -0.641063    0.007348   -0.010686    0.009567
C     1.391015   -4.320327   -0.018580    0.022007   -0.116954   -0.022704
C     4.647231   -0.921306   -0.638531   -0.045041   -0.023060    0.037598
C     2.364418    3.877345    0.797998    0.038259    0.132593    0.021641
C    -2.126951    2.918149    1.088461    0.014618    0.000183    0.039154
C    -4.746953    0.206247    0.849267    0.012108   -0.024316   -0.014234
C    -2.525769   -3.591964    0.676325    0.010023   -0.005681    0.008954
C     1.956159   -3.253964    0.927726    0.040408   -0.155092    0.007696
C     4.408459   -0.039292    0.599720   -0.010474   -0.061347    0.072490
O     1.604741    5.084788    0.864153    0.023700    0.119909   -0.019788
O    -3.454457    3.071460    1.562341    0.001308    0.015035    0.017857
O    -5.369495   -1.073660    0.722672   -0.020727   -0.010170   -0.027782
O    -1.846296   -4.843495    0.613144   -0.003175   -0.020562    0.022202
O     3.346265   -3.407893    1.135073    0.049580   -0.122096   -0.017962
O     5.029900    1.243461    0.473880   -0.057867   -0.032665    0.094371
C     3.502574    4.023350    1.816705    0.081235    0.217641   -0.040563
C    -1.358931    2.359663    2.285600   -0.051734    0.001401    0.083418
C    -5.253659    0.708366    2.213386    0.022438   -0.021546   -0.014489
C    -3.503370   -3.707380    1.852189    0.013463    0.025958    0.012004
C     1.272222   -3.189027    2.294169    0.083073   -0.158065    0.019967
C     5.006194   -0.665167    1.870335    0.112442   -0.103188   -0.006864
O     4.357556    5.090127    1.490965    0.083678    0.172486   -0.157948
O    -1.421158    1.038602    2.239834   -0.096674    0.015354    0.124472
O    -6.616300    1.035414    2.173476    0.020025   -0.011717   -0.004638
O    -4.446591   -4.721878    1.641557   -0.001556    0.029675    0.035348
O     1.879039   -2.285648    3.070580   -0.046071    0.054404   -0.148288
O     6.350906   -1.035677    1.698494    0.132380    0.033827   -0.092838
H     0.026934    6.080259    0.154610   -0.027071    0.030461   -0.032293
H    -5.354989    3.340395    0.967190    0.010497   -0.002473   -0.021699
H    -5.667387   -2.705951   -0.373181   -0.007312   -0.002774   -0.046203
H    -0.479977   -5.950519   -0.322175   -0.044005   -0.062938    0.017199
H     5.131050   -3.263672    0.230694    0.024100   -0.056777   -0.067589
H     5.317447    2.887218   -0.605250   -0.020190   -0.040031    0.090914
H     1.862480    6.021391   -1.542759   -0.025229    0.010319   -0.023324
H    -4.190590    5.442460    0.505818    0.017106   -0.010278   -0.011498
H    -6.741743   -0.801454   -1.557697    0.033103    0.010837   -0.052022
H    -2.424745   -5.608049   -1.833733   -0.014253   -0.010139    0.008421
H     4.027478   -5.316416   -0.641977    0.042243   -0.029845   -0.123585
H     6.184876    1.011179   -1.958029   -0.059194   -0.021025    0.078251
H    -0.655128    5.662458   -2.082786   -0.015152   -0.021914   -0.027654
H    -4.881277    4.045259   -1.834022    0.078307   -0.012978   -0.029260
H    -4.576764   -2.019272   -2.887539    0.059923    0.022804   -0.023280
H     0.122600   -5.129937   -2.594327   -0.000824   -0.022536    0.015751
H     4.371271   -3.247285   -2.523568   -0.053506    0.072155   -0.028116
H     3.953829    2.377742   -3.000590   -0.079777   -0.046341    0.068422
H     1.117699    3.068825   -1.667954   -0.006896    0.005712    0.014773
H    -2.414702    3.880737   -1.431794    0.055166   -0.010676    0.023670
H    -3.880691    0.243970   -1.825028    0.040981   -0.000625   -0.007885
H    -1.536953   -2.682599   -1.756272    0.024537   -0.023264    0.025694
H     1.979335   -3.400568   -1.856288   -0.035056   -0.041125   -0.005944
H     3.288058    0.024276   -2.008793   -0.063355   -0.022553    0.050496
H     1.946017    4.113552   -3.632367   -0.012279   -0.131346   -0.004092
H    -2.914726    6.214682   -1.685820    0.034869   -0.030174   -0.005276
H    -5.599312    0.684350   -3.466123    0.109410    0.033759   -0.032623
H    -2.530520   -3.609639   -3.748095    0.052588    0.049667    0.008834
H     2.435879   -5.521536   -2.827199   -0.020856    0.024963   -0.099973
H     4.823996   -0.422042   -3.800223   -0.150157   -0.023345    0.035578
H     3.767735    4.304895   -0.793332    0.005553    0.007826   -0.023930
H    -1.625498    5.017347    1.306679   -0.001694    0.005579    0.035974
H    -6.171758    1.457939   -0.207774    0.032710   -0.005255   -0.017820
H    -4.093854   -4.012900   -0.751638    0.010498   -0.014181    0.008166
H     1.413858   -5.305410    0.461188    0.029390   -0.143455   -0.077517
H     5.684590   -1.280681   -0.645502   -0.038625   -0.009388    0.011223
H     1.717333    3.046628    1.091569    0.075116    0.146868    0.141465
H    -2.102868    2.160735    0.294364    0.019029   -0.009634    0.052580
H    -3.655272    0.084544    0.876028    0.005814   -0.050701   -0.005935
H    -1.803054   -2.787904    0.871424    0.017131   -0.016196   -0.002637
H     1.762084   -2.273052    0.468583    0.014820   -0.136461    0.050535
H     3.329740    0.071543    0.744822   -0.004117   -0.125175    0.206066
H     4.115556    3.120812    1.808715    0.071568    0.208795    0.021459
H     3.059507    4.161037    2.809417    0.125849    0.302705   -0.028845
H    -5.065875   -0.090110    2.941553    0.017143   -0.020351   -0.010946
H    -4.716363    1.604072    2.520903    0.027445   -0.024253   -0.015186
H    -4.059597   -2.774380    1.957167    0.021401    0.032303   -0.002027
H    -2.918388   -3.893789    2.761181    0.007736    0.035349    0.018642
H     4.913270    0.061387    2.684939    0.078453   -0.191767    0.073636
H     4.453144   -1.570175    2.130750    0.199406   -0.166783   -0.045871
H     3.820497    5.893847    1.471409    0.083899    0.171897   -0.269559
H    -7.101969    0.234985    1.928190    0.020381   -0.001385   -0.039263
H    -3.958684   -5.545097    1.494581   -0.006012    0.031319    0.015109
H     6.848539   -0.231766    1.492472    0.035946    0.085623   -0.129097
C     0.958490   -1.506442    3.814737   -0.090195   -0.057080   -0.080671
H     1.546315   -0.864022    4.464047   -0.127058    0.146945   -0.248747
H     0.275512   -2.131778    4.398858    0.148773   -0.156569    0.098817
O     0.382426   -3.912182    2.670435    0.082956   -0.120805    0.058981
C    -0.820130    0.320206    3.321332   -0.073975    0.025032    0.094956
H    -1.607795   -0.209257    3.857113   -0.099353    0.336084    0.374493
H    -0.326841    1.031215    3.986265    0.288250   -0.023564   -0.114469
O    -0.829669    3.008747    3.143292   -0.070124    0.005771    0.103359
C     0.125446   -0.734380    2.778621   -0.424711   -0.252714    0.067428
O    -0.200066   -1.391743    1.748075   -0.378017   -0.060478    0.057571
H     0.356629    0.597708   -0.587397   -0.068596    0.129873    0.086577
O     0.930093    1.199330   -0.062330    0.041017    0.154084   -0.018070
H     1.192913    0.692757    1.113116   -0.045655    0.479442   -0.836726
O     1.477596    0.299086    2.132345    0.060741    0.274495   -0.271086
O     1.789373    1.504714    2.890683    0.109806    0.205387   -0.183668
H     2.687586    1.266436    3.195437    0.241763    0.351245   -0.537367
H     1.780652    1.323383   -0.530961    0.068087   -0.004231   -0.046928
137
* Frequency(8)  -52.5235
C     0.560469    5.152622   -0.065256   -0.010265    0.033866   -0.006460
C    -4.360812    3.289157    0.500967    0.018711   -0.007600   -0.004643
C    -5.127480   -1.755930   -0.473219    0.005234   -0.007445   -0.027799
C    -0.923343   -4.957917   -0.432079   -0.010448   -0.047176    0.020987
C     4.076730   -3.229892   -0.065283    0.014470   -0.055598   -0.033914
C     4.717178    1.965848   -0.666886   -0.050239   -0.021022    0.083172
O    -0.290816    4.034932    0.059666    0.035458    0.018335    0.064010
O    -4.286056    2.277066   -0.453166    0.042561   -0.015432    0.013167
O    -3.752814   -1.973897   -0.674817    0.003224   -0.012701    0.005926
O     0.064640   -3.963310   -0.360170    0.023575   -0.079846    0.030747
O     3.747095   -2.027655   -0.686107   -0.026443   -0.033788    0.040178
O     3.343803    2.274737   -0.746788   -0.030634    0.016825    0.093571
C     1.144593    5.186630   -1.490327   -0.015664    0.001930   -0.012162
C    -4.018151    4.619682   -0.199263    0.030135   -0.012101   -0.006856
C    -5.657733   -0.948338   -1.670008    0.034512    0.005802   -0.034351
C    -1.646523   -4.834655   -1.785583   -0.002898   -0.021338    0.016709
C     3.734815   -4.350429   -1.066659    0.006669   -0.018464   -0.073738
C     5.097623    1.189700   -1.943063   -0.059088   -0.016325    0.072975
O     0.168646    5.327363   -2.487750   -0.013153   -0.028441   -0.015772
O    -4.845340    4.853127   -1.302422    0.048457   -0.015447   -0.021834
O    -5.457869   -1.612142   -2.886643    0.052832    0.012343   -0.035302
O    -0.797600   -4.982005   -2.890693   -0.001818   -0.029519    0.017192
O     4.428503   -4.176706   -2.270758   -0.024611    0.056794   -0.080506
O     4.802006    1.917722   -3.102576   -0.047431    0.001216    0.087092
C     1.879143    3.858656   -1.709823   -0.007107   -0.000376    0.013406
C    -2.540466    4.628389   -0.632553    0.037755   -0.012073    0.019307
C    -4.953309    0.415365   -1.669731    0.043400    0.002001   -0.013912
C    -2.317115   -3.454402   -1.830800    0.017103   -0.010152    0.017193
C     2.218191   -4.335044   -1.319460    0.000133   -0.049128   -0.039231
C     4.363076   -0.159444   -1.933142   -0.067317   -0.012492    0.052348
O     2.558258    3.809537   -2.943237    0.015353   -0.009482    0.024712
O    -2.186052    5.905387   -1.116653    0.028479   -0.006222    0.015701
O    -5.460278    1.243997   -2.685048    0.052008    0.015921   -0.010948
O    -3.061151   -3.274782   -3.009954    0.025952    0.001437    0.010733
O     1.822705   -5.449413   -2.087068    0.017707   -0.039972   -0.062606
O     4.770275   -0.979923   -3.003180   -0.056149   -0.008860    0.051017
C     2.924515    3.628654   -0.612821   -0.005498    0.032980    0.021198
C    -1.605836    4.247192    0.530070    0.023946    0.000295    0.039768
C    -5.123575    1.135018   -0.325399    0.032527   -0.009511   -0.009099
C    -3.264915   -3.301821   -0.639976    0.007348   -0.010686    0.009567
C     1.393516   -4.333618   -0.021160    0.022007   -0.116954   -0.022704
C     4.642112   -0.923927   -0.634259   -0.045041   -0.023060    0.037598
C     2.368766    3.892414    0.800457    0.038259    0.132593    0.021641
C    -2.125289    2.918169    1.092911    0.014618    0.000183    0.039154
C    -4.745577    0.203483    0.847649    0.012108   -0.024316   -0.014234
C    -2.524630   -3.592609    0.677343    0.010023   -0.005681    0.008954
C     1.960751   -3.271590    0.928601    0.040408   -0.155092    0.007696
C     4.407269   -0.046264    0.607958   -0.010474   -0.061347    0.072490
O     1.607434    5.098415    0.861904    0.023700    0.119909   -0.019788
O    -3.454308    3.073169    1.564370    0.001308    0.015035    0.017857
O    -5.371850   -1.074816    0.719515   -0.020727   -0.010170   -0.027782
O    -1.846657   -4.845831    0.615667   -0.003175   -0.020562    0.022202
O     3.351899   -3.421768    1.133032    0.049580   -0.122096   -0.017962
O     5.023324    1.239749    0.484604   -0.057867   -0.032665    0.094371
C     3.511806    4.048084    1.812095    0.081235    0.217641   -0.040563
C    -1.364811    2.359822    2.295080   -0.051734    0.001401    0.083418
C    -5.251109    0.705918    2.211739    0.022438   -0.021546   -0.014489
C    -3.501840   -3.704430    1.853553    0.013463    0.025958    0.012004
C     1.281663   -3.206990    2.296438    0.083073   -0.158065    0.019967
C     5.018973   -0.676893    1.869555    0.112442   -0.103188   -0.006864
O     4.367066    5.109729    1.473015    0.083678    0.172486   -0.157948
O    -1.432144    1.040347    2.253980   -0.096674    0.015354    0.124472
O    -6.614024    1.034083    2.172949    0.020025   -0.011717   -0.004638
O    -4.446768   -4.718506    1.645574   -0.001556    0.029675    0.035348
O     1.873803   -2.279465    3.053728   -0.046071    0.054404   -0.148288
O     6.365950   -1.031833    1.687943    0.132380    0.033827   -0.092838
H     0.023857    6.083721    0.150940   -0.027071    0.030461   -0.032293
H    -5.353796    3.340114    0.964724    0.010497   -0.002473   -0.021699
H    -5.668218   -2.706266   -0.378432   -0.007312   -0.002774   -0.046203
H    -0.484978   -5.957672   -0.320220   -0.044005   -0.062938    0.017199
H     5.133789   -3.270124    0.223013    0.024100   -0.056777   -0.067589
H     5.315152    2.882669   -0.594918   -0.020190   -0.040031    0.090914
H     1.859613    6.022563   -1.545410   -0.025229    0.010319   -0.023324
H    -4.188646    5.441292    0.504511    0.017106   -0.010278   -0.011498
H    -6.737981   -0.800222   -1.563609    0.033103    0.010837   -0.052022
H    -2.426365   -5.609201   -1.832776   -0.014253   -0.010139    0.008421
H     4.032278   -5.319808   -0.656022    0.042243   -0.029845   -0.123585
H     6.178149    1.008790   -1.949136   -0.059194   -0.021025    0.078251
H    -0.656850    5.659967   -2.085929   -0.015152   -0.021914   -0.027654
H    -4.872377    4.043784   -1.837347    0.078307   -0.012978   -0.029260
H    -4.569954   -2.016681   -2.890185    0.059923    0.022804   -0.023280
H     0.122506   -5.132498   -2.592537   -0.000824   -0.022536    0.015751
H     4.365191   -3.239085   -2.526763   -0.053506    0.072155   -0.028116
H     3.944763    2.372476   -2.992815   -0.079777   -0.046341    0.068422
H     1.116915    3.069474   -1.666275   -0.006896    0.005712    0.014773
H    -2.408432    3.879524   -1.429104    0.055166   -0.010676    0.023670
H    -3.876034    0.243899   -1.825924    0.040981   -0.000625   -0.007885
H    -1.534164   -2.685243   -1.753352    0.024537   -0.023264    0.025694
H     1.975351   -3.405242   -1.856964   -0.035056   -0.041125   -0.005944
H     3.280858    0.021713   -2.003055   -0.063355   -0.022553    0.050496
H     1.944622    4.098625   -3.632832   -0.012279   -0.131346   -0.004092
H    -2.910763    6.211253   -1.686420    0.034869   -0.030174   -0.005276
H    -5.586878    0.688186   -3.469831    0.109410    0.033759   -0.032623
H    -2.524544   -3.603995   -3.747091    0.052588    0.049667    0.008834
H     2.433509   -5.518700   -2.838561   -0.020856    0.024963   -0.099973
H     4.806932   -0.424695   -3.796180   -0.150157   -0.023345    0.035578
H     3.768366    4.305784   -0.796052    0.005553    0.007826   -0.023930
H    -1.625690    5.017981    1.310767   -0.001694    0.005579    0.035974
H    -6.168040    1.457342   -0.209800    0.032710   -0.005255   -0.017820
H    -4.092661   -4.014511   -0.750710    0.010498   -0.014181    0.008166
H     1.417198   -5.321713    0.452379    0.029390   -0.143455   -0.077517
H     5.680201   -1.281748   -0.644226   -0.038625   -0.009388    0.011223
H     1.725869    3.063319    1.107646    0.075116    0.146868    0.141465
H    -2.100706    2.159640    0.300339    0.019029   -0.009634    0.052580
H    -3.654611    0.078782    0.875354    0.005814   -0.050701   -0.005935
H    -1.801107   -2.789744    0.871125    0.017131   -0.016196   -0.002637
H     1.763769   -2.288560    0.474326    0.014820   -0.136461    0.050535
H     3.329272    0.057317    0.768240   -0.004117   -0.125175    0.206066
H     4.123690    3.144541    1.811153    0.071568    0.208795    0.021459
H     3.073809    4.195437    2.806139    0.125849    0.302705   -0.028845
H    -5.063927   -0.092422    2.940309    0.017143   -0.020351   -0.010946
H    -4.713244    1.601316    2.519177    0.027445   -0.024253   -0.015186
H    -4.057164   -2.770709    1.956937    0.021401    0.032303   -0.002027
H    -2.917509   -3.889772    2.763300    0.007736    0.035349    0.018642
H     4.922186    0.039594    2.693307    0.078453   -0.191767    0.073636
H     4.475805   -1.589129    2.125537    0.199406   -0.166783   -0.045871
H     3.830032    5.913382    1.440775    0.083899    0.171897   -0.269559
H    -7.099653    0.234828    1.923728    0.020381   -0.001385   -0.039263
H    -3.959367   -5.541538    1.496298   -0.006012    0.031319    0.015109
H     6.852624   -0.222035    1.477801    0.035946    0.085623   -0.129097
C     0.948239   -1.512929    3.805569   -0.090195   -0.057080   -0.080671
H     1.531876   -0.847323    4.435778   -0.127058    0.146945   -0.248747
H     0.292419   -2.149571    4.410088    0.148773   -0.156569    0.098817
O     0.391854   -3.925911    2.677138    0.082956   -0.120805    0.058981
C    -0.828537    0.323051    3.332124   -0.073975    0.025032    0.094956
H    -1.619086   -0.171063    3.899672   -0.099353    0.336084    0.374493
H    -0.294083    1.028537    3.973256    0.288250   -0.023564   -0.114469
O    -0.837639    3.009402    3.155038   -0.070124    0.005771    0.103359
C     0.077180   -0.763100    2.786283   -0.424711   -0.252714    0.067428
O    -0.243026   -1.398616    1.754618   -0.378017   -0.060478    0.057571
H     0.348833    0.612467   -0.577558   -0.068596    0.129873    0.086577
O     0.934755    1.216841   -0.064383    0.041017    0.154084   -0.018070
H     1.187724    0.747243    1.018026   -0.045655    0.479442   -0.836726
O     1.484498    0.330281    2.101537    0.060741    0.274495   -0.271086
O     1.801852    1.528055    2.869810    0.109806    0.205387   -0.183668
H     2.715061    1.306353    3.134368    0.241763    0.351245   -0.537367
H     1.788390    1.322902   -0.536294    0.068087   -0.004231   -0.046928
137
* Frequency(8)  -52.5235
C     0.559428    5.156054   -0.065911   -0.010265    0.033866   -0.006460
C    -4.358916    3.288387    0.500497    0.018711   -0.007600   -0.004643
C    -5.126950   -1.756684   -0.476036    0.005234   -0.007445   -0.027799
C    -0.924401   -4.962697   -0.429952   -0.010448   -0.047176    0.020987
C     4.078196   -3.235526   -0.068719    0.014470   -0.055598   -0.033914
C     4.712088    1.963718   -0.658458   -0.050239   -0.021022    0.083172
O    -0.287223    4.036790    0.066152    0.035458    0.018335    0.064010
O    -4.281743    2.275502   -0.451832    0.042561   -0.015432    0.013167
O    -3.752487   -1.975184   -0.674217    0.003224   -0.012701    0.005926
O     0.067028   -3.971400   -0.357055    0.023575   -0.079846    0.030747
O     3.744416   -2.031079   -0.682036   -0.026443   -0.033788    0.040178
O     3.340698    2.276441   -0.737307   -0.030634    0.016825    0.093571
C     1.143006    5.186826   -1.491560   -0.015664    0.001930   -0.012162
C    -4.015097    4.618456   -0.199957    0.030135   -0.012101   -0.006856
C    -5.654236   -0.947750   -1.673489    0.034512    0.005802   -0.034351
C    -1.646816   -4.836817   -1.783890   -0.002898   -0.021338    0.016709
C     3.735490   -4.352300   -1.074131    0.006669   -0.018464   -0.073738
C     5.091636    1.188046   -1.935669   -0.059088   -0.016325    0.072975
O     0.167313    5.324482   -2.489348   -0.013153   -0.028441   -0.015772
O    -4.840429    4.851562   -1.304635    0.048457   -0.015447   -0.021834
O    -5.452515   -1.610891   -2.890221    0.052832    0.012343   -0.035302
O    -0.797784   -4.984996   -2.888951   -0.001818   -0.029519    0.017192
O     4.426009   -4.170951   -2.278915   -0.024611    0.056794   -0.080506
O     4.797200    1.917845   -3.093751   -0.047431    0.001216    0.087092
C     1.878423    3.858618   -1.708464   -0.007107   -0.000376    0.013406
C    -2.536640    4.627166   -0.630597    0.037755   -0.012073    0.019307
C    -4.948912    0.415568   -1.671140    0.043400    0.002001   -0.013912
C    -2.315382   -3.455430   -1.829058    0.017103   -0.010152    0.017193
C     2.218205   -4.340022   -1.323436    0.000133   -0.049128   -0.039231
C     4.356254   -0.160710   -1.927837   -0.067317   -0.012492    0.052348
O     2.559814    3.808576   -2.940733    0.015353   -0.009482    0.024712
O    -2.183166    5.904757   -1.115062    0.028479   -0.006222    0.015701
O    -5.455008    1.245611   -2.686157    0.052008    0.015921   -0.010948
O    -3.058521   -3.274636   -3.008866    0.025952    0.001437    0.010733
O     1.824499   -5.453463   -2.093411    0.017707   -0.039972   -0.062606
O     4.764585   -0.980821   -2.998011   -0.056149   -0.008860    0.051017
C     2.923958    3.631996   -0.610673   -0.005498    0.032980    0.021198
C    -1.603410    4.247222    0.534099    0.023946    0.000295    0.039768
C    -5.120280    1.134055   -0.326321    0.032527   -0.009511   -0.009099
C    -3.264170   -3.302903   -0.639006    0.007348   -0.010686    0.009567
C     1.395746   -4.345469   -0.023461    0.022007   -0.116954   -0.022704
C     4.637548   -0.926264   -0.630449   -0.045041   -0.023060    0.037598
C     2.372643    3.905850    0.802650    0.038259    0.132593    0.021641
C    -2.123808    2.918188    1.096878    0.014618    0.000183    0.039154
C    -4.744350    0.201019    0.846207    0.012108   -0.024316   -0.014234
C    -2.523614   -3.593185    0.678250    0.010023   -0.005681    0.008954
C     1.964845   -3.287305    0.929380    0.040408   -0.155092    0.007696
C     4.406208   -0.052480    0.615303   -0.010474   -0.061347    0.072490
O     1.609835    5.110565    0.859899    0.023700    0.119909   -0.019788
O    -3.454176    3.074692    1.566180    0.001308    0.015035    0.017857
O    -5.373951   -1.075846    0.716700   -0.020727   -0.010170   -0.027782
O    -1.846979   -4.847915    0.617917   -0.003175   -0.020562    0.022202
O     3.356923   -3.434140    1.131212    0.049580   -0.122096   -0.017962
O     5.017460    1.236439    0.494167   -0.057867   -0.032665    0.094371
C     3.520038    4.070137    1.807985    0.081235    0.217641   -0.040563
C    -1.370053    2.359964    2.303533   -0.051734    0.001401    0.083418
C    -5.248836    0.703734    2.210271    0.022438   -0.021546   -0.014489
C    -3.500476   -3.701800    1.854770    0.013463    0.025958    0.012004
C     1.290081   -3.223007    2.298462    0.083073   -0.158065    0.019967
C     5.030367   -0.687349    1.868860    0.112442   -0.103188   -0.006864
O     4.375545    5.127207    1.457010    0.083678    0.172486   -0.157948
O    -1.441940    1.041903    2.266592   -0.096674    0.015354    0.124472
O    -6.611995    1.032896    2.172479    0.020025   -0.011717   -0.004638
O    -4.446926   -4.715499    1.649156   -0.001556    0.029675    0.035348
O     1.869135   -2.273953    3.038702   -0.046071    0.054404   -0.148288
O     6.379364   -1.028405    1.678536    0.132380    0.033827   -0.092838
H     0.021114    6.086807    0.147668   -0.027071    0.030461   -0.032293
H    -5.352732    3.339863    0.962525    0.010497   -0.002473   -0.021699
H    -5.668959   -2.706547   -0.383113   -0.007312   -0.002774   -0.046203
H    -0.489437   -5.964049   -0.318477   -0.044005   -0.062938    0.017199
H     5.136231   -3.275877    0.216164    0.024100   -0.056777   -0.067589
H     5.313106    2.878613   -0.585706   -0.020190   -0.040031    0.090914
H     1.857057    6.023609   -1.547773   -0.025229    0.010319   -0.023324
H    -4.186913    5.440251    0.503346    0.017106   -0.010278   -0.011498
H    -6.734627   -0.799124   -1.568881    0.033103    0.010837   -0.052022
H    -2.427810   -5.610228   -1.831923   -0.014253   -0.010139    0.008421
H     4.036559   -5.322832   -0.668545    0.042243   -0.029845   -0.123585
H     6.172151    1.006659   -1.941207   -0.059194   -0.021025    0.078251
H    -0.658385    5.657747   -2.088731   -0.015152   -0.021914   -0.027654
H    -4.864442    4.042469   -1.840312    0.078307   -0.012978   -0.029260
H    -4.563882   -2.014370   -2.892544    0.059923    0.022804   -0.023280
H     0.122423   -5.134782   -2.590941   -0.000824   -0.022536    0.015751
H     4.359769   -3.231774   -2.529612   -0.053506    0.072155   -0.028116
H     3.936679    2.367780   -2.985881   -0.079777   -0.046341    0.068422
H     1.116216    3.070053   -1.664778   -0.006896    0.005712    0.014773
H    -2.402842    3.878442   -1.426706    0.055166   -0.010676    0.023670
H    -3.871881    0.243836   -1.826723    0.040981   -0.000625   -0.007885
H    -1.531678   -2.687600   -1.750748    0.024537   -0.023264    0.025694
H     1.971799   -3.409409   -1.857566   -0.035056   -0.041125   -0.005944
H     3.274439    0.019428   -1.997938   -0.063355   -0.022553    0.050496
H     1.943378    4.085316   -3.633247   -0.012279   -0.131346   -0.004092
H    -2.907230    6.208195   -1.686955    0.034869   -0.030174   -0.005276
H    -5.575791    0.691607   -3.473137    0.109410    0.033759   -0.032623
H    -2.519215   -3.598962   -3.746196    0.052588    0.049667    0.008834
H     2.431396   -5.516170   -2.848691   -0.020856    0.024963   -0.099973
H     4.791716   -0.427061   -3.792575   -0.150157   -0.023345    0.035578
H     3.768929    4.306577   -0.798476    0.005553    0.007826   -0.023930
H    -1.625862    5.018547    1.314413   -0.001694    0.005579    0.035974
H    -6.164726    1.456809   -0.211605    0.032710   -0.005255   -0.017820
H    -4.091598   -4.015948   -0.749883    0.010498   -0.014181    0.008166
H     1.420176   -5.336249    0.444524    0.029390   -0.143455   -0.077517
H     5.676287   -1.282699   -0.643089   -0.038625   -0.009388    0.011223
H     1.733481    3.078201    1.121981    0.075116    0.146868    0.141465
H    -2.098778    2.158664    0.305667    0.019029   -0.009634    0.052580
H    -3.654022    0.073645    0.874752    0.005814   -0.050701   -0.005935
H    -1.799371   -2.791385    0.870858    0.017131   -0.016196   -0.002637
H     1.765270   -2.302388    0.479447    0.014820   -0.136461    0.050535
H     3.328855    0.044633    0.789121   -0.004117   -0.125175    0.206066
H     4.130942    3.165698    1.813328    0.071568    0.208795    0.021459
H     3.086561    4.226110    2.803216    0.125849    0.302705   -0.028845
H    -5.062190   -0.094484    2.939200    0.017143   -0.020351   -0.010946
H    -4.710463    1.598858    2.517639    0.027445   -0.024253   -0.015186
H    -4.054996   -2.767436    1.956732    0.021401    0.032303   -0.002027
H    -2.916725   -3.886190    2.765189    0.007736    0.035349    0.018642
H     4.930136    0.020162    2.700769    0.078453   -0.191767    0.073636
H     4.496011   -1.606029    2.120889    0.199406   -0.166783   -0.045871
H     3.838534    5.930801    1.413461    0.083899    0.171897   -0.269559
H    -7.097587    0.234688    1.919749    0.020381   -0.001385   -0.039263
H    -3.959976   -5.538364    1.497829   -0.006012    0.031319    0.015109
H     6.856267   -0.213359    1.464720    0.035946    0.085623   -0.129097
C     0.939100   -1.518712    3.797395   -0.090195   -0.057080   -0.080671
H     1.519001   -0.832433    4.410572   -0.127058    0.146945   -0.248747
H     0.307494   -2.165437    4.420101    0.148773   -0.156569    0.098817
O     0.400260   -3.938153    2.683115    0.082956   -0.120805    0.058981
C    -0.836033    0.325587    3.341745   -0.073975    0.025032    0.094956
H    -1.629154   -0.137007    3.937619   -0.099353    0.336084    0.374493
H    -0.264874    1.026149    3.961657    0.288250   -0.023564   -0.114469
O    -0.844744    3.009987    3.165511   -0.070124    0.005771    0.103359
C     0.034144   -0.788707    2.793116   -0.424711   -0.252714    0.067428
O    -0.281330   -1.404744    1.760451   -0.378017   -0.060478    0.057571
H     0.341883    0.625627   -0.568785   -0.068596    0.129873    0.086577
O     0.938911    1.232454   -0.066214    0.041017    0.154084   -0.018070
H     1.183098    0.795825    0.933241   -0.045655    0.479442   -0.836726
O     1.490653    0.358095    2.074068    0.060741    0.274495   -0.271086
O     1.812978    1.548867    2.851199    0.109806    0.205387   -0.183668
H     2.739558    1.341945    3.079917    0.241763    0.351245   -0.537367
H     1.795289    1.322474   -0.541049    0.068087   -0.004231   -0.046928
137
* Frequency(8)  -52.5235
C     0.558627    5.158696   -0.066415   -0.010265    0.033866   -0.006460
C    -4.357456    3.287794    0.500134    0.018711   -0.007600   -0.004643
C    -5.126541   -1.757265   -0.478205    0.005234   -0.007445   -0.027799
C    -0.925217   -4.966378   -0.428315   -0.010448   -0.047176    0.020987
C     4.079325   -3.239865   -0.071366    0.014470   -0.055598   -0.033914
C     4.708167    1.962078   -0.651968   -0.050239   -0.021022    0.083172
O    -0.284456    4.038221    0.071147    0.035458    0.018335    0.064010
O    -4.278422    2.274298   -0.450805    0.042561   -0.015432    0.013167
O    -3.752235   -1.976175   -0.673755    0.003224   -0.012701    0.005926
O     0.068868   -3.977631   -0.354655    0.023575   -0.079846    0.030747
O     3.742352   -2.033715   -0.678901   -0.026443   -0.033788    0.040178
O     3.338308    2.277754   -0.730005   -0.030634    0.016825    0.093571
C     1.141784    5.186977   -1.492509   -0.015664    0.001930   -0.012162
C    -4.012746    4.617511   -0.200493    0.030135   -0.012101   -0.006856
C    -5.651542   -0.947297   -1.676170    0.034512    0.005802   -0.034351
C    -1.647043   -4.838482   -1.782586   -0.002898   -0.021338    0.016709
C     3.736011   -4.353741   -1.079885    0.006669   -0.018464   -0.073738
C     5.087025    1.186772   -1.929974   -0.059088   -0.016325    0.072975
O     0.166286    5.322262   -2.490579   -0.013153   -0.028441   -0.015772
O    -4.836648    4.850356   -1.306338    0.048457   -0.015447   -0.021834
O    -5.448393   -1.609928   -2.892975    0.052832    0.012343   -0.035302
O    -0.797926   -4.987299   -2.887610   -0.001818   -0.029519    0.017192
O     4.424089   -4.166519   -2.285197   -0.024611    0.056794   -0.080506
O     4.793499    1.917940   -3.086955   -0.047431    0.001216    0.087092
C     1.877868    3.858588   -1.707418   -0.007107   -0.000376    0.013406
C    -2.533694    4.626224   -0.629090    0.037755   -0.012073    0.019307
C    -4.945525    0.415724   -1.672226    0.043400    0.002001   -0.013912
C    -2.314047   -3.456223   -1.827717    0.017103   -0.010152    0.017193
C     2.218215   -4.343856   -1.326497    0.000133   -0.049128   -0.039231
C     4.351001   -0.161685   -1.923752   -0.067317   -0.012492    0.052348
O     2.561012    3.807836   -2.938805    0.015353   -0.009482    0.024712
O    -2.180944    5.904271   -1.113837    0.028479   -0.006222    0.015701
O    -5.450950    1.246853   -2.687011    0.052008    0.015921   -0.010948
O    -3.056496   -3.274524   -3.008028    0.025952    0.001437    0.010733
O     1.825881   -5.456582   -2.098297    0.017707   -0.039972   -0.062606
O     4.760204   -0.981512   -2.994030   -0.056149   -0.008860    0.051017
C     2.923529    3.634569   -0.609019   -0.005498    0.032980    0.021198
C    -1.601541    4.247245    0.537202    0.023946    0.000295    0.039768
C    -5.117741    1.133312   -0.327031    0.032527   -0.009511   -0.009099
C    -3.263597   -3.303737   -0.638260    0.007348   -0.010686    0.009567
C     1.397464   -4.354596   -0.025233    0.022007   -0.116954   -0.022704
C     4.634033   -0.928063   -0.627515   -0.045041   -0.023060    0.037598
C     2.375628    3.916196    0.804339    0.038259    0.132593    0.021641
C    -2.122668    2.918202    1.099934    0.014618    0.000183    0.039154
C    -4.743406    0.199122    0.845096    0.012108   -0.024316   -0.014234
C    -2.522832   -3.593628    0.678949    0.010023   -0.005681    0.008954
C     1.967999   -3.299407    0.929981    0.040408   -0.155092    0.007696
C     4.405390   -0.057267    0.620960   -0.010474   -0.061347    0.072490
O     1.611685    5.119922    0.858355    0.023700    0.119909   -0.019788
O    -3.454074    3.075866    1.567573    0.001308    0.015035    0.017857
O    -5.375568   -1.076640    0.714532   -0.020727   -0.010170   -0.027782
O    -1.847227   -4.849520    0.619649   -0.003175   -0.020562    0.022202
O     3.360792   -3.443668    1.129810    0.049580   -0.122096   -0.017962
O     5.012945    1.233890    0.501531   -0.057867   -0.032665    0.094371
C     3.526377    4.087121    1.804820    0.081235    0.217641   -0.040563
C    -1.374090    2.360073    2.310042   -0.051734    0.001401    0.083418
C    -5.247085    0.702053    2.209140    0.022438   -0.021546   -0.014489
C    -3.499425   -3.699774    1.855706    0.013463    0.025958    0.012004
C     1.296563   -3.235341    2.300020    0.083073   -0.158065    0.019967
C     5.039141   -0.695402    1.868324    0.112442   -0.103188   -0.006864
O     4.382075    5.140667    1.444685    0.083678    0.172486   -0.157948
O    -1.449484    1.043101    2.276305   -0.096674    0.015354    0.124472
O    -6.610432    1.031981    2.172117    0.020025   -0.011717   -0.004638
O    -4.447047   -4.713183    1.651914   -0.001556    0.029675    0.035348
O     1.865540   -2.269707    3.027130   -0.046071    0.054404   -0.148288
O     6.389695   -1.025766    1.671292    0.132380    0.033827   -0.092838
H     0.019002    6.089184    0.145148   -0.027071    0.030461   -0.032293
H    -5.351913    3.339670    0.960832    0.010497   -0.002473   -0.021699
H    -5.669530   -2.706764   -0.386719   -0.007312   -0.002774   -0.046203
H    -0.492871   -5.968961   -0.317135   -0.044005   -0.062938    0.017199
H     5.138112   -3.280308    0.210890    0.024100   -0.056777   -0.067589
H     5.311531    2.875489   -0.578612   -0.020190   -0.040031    0.090914
H     1.855088    6.024414   -1.549593   -0.025229    0.010319   -0.023324
H    -4.185578    5.439449    0.502448    0.017106   -0.010278   -0.011498
H    -6.732044   -0.798278   -1.572940    0.033103    0.010837   -0.052022
H    -2.428922   -5.611019   -1.831266   -0.014253   -0.010139    0.008421
H     4.039855   -5.325161   -0.678188    0.042243   -0.029845   -0.123585
H     6.167532    1.005019   -1.935100   -0.059194   -0.021025    0.078251
H    -0.659568    5.656037   -2.090889   -0.015152   -0.021914   -0.027654
H    -4.858332    4.041456   -1.842595    0.078307   -0.012978   -0.029260
H    -4.559206   -2.012591   -2.894360    0.059923    0.022804   -0.023280
H     0.122358   -5.136540   -2.589711   -0.000824   -0.022536    0.015751
H     4.355594   -3.226143   -2.531806   -0.053506    0.072155   -0.028116
H     3.930454    2.364164   -2.980542   -0.079777   -0.046341    0.068422
H     1.115678    3.070499   -1.663626   -0.006896    0.005712    0.014773
H    -2.398538    3.877609   -1.424859    0.055166   -0.010676    0.023670
H    -3.868683    0.243787   -1.827338    0.040981   -0.000625   -0.007885
H    -1.529763   -2.689416   -1.748743    0.024537   -0.023264    0.025694
H     1.969063   -3.412618   -1.858030   -0.035056   -0.041125   -0.005944
H     3.269495    0.017668   -1.993997   -0.063355   -0.022553    0.050496
H     1.942419    4.075067   -3.633566   -0.012279   -0.131346   -0.004092
H    -2.904509    6.205841   -1.687366    0.034869   -0.030174   -0.005276
H    -5.567254    0.694241   -3.475682    0.109410    0.033759   -0.032623
H    -2.515111   -3.595087   -3.745506    0.052588    0.049667    0.008834
H     2.429768   -5.514222   -2.856492   -0.020856    0.024963   -0.099973
H     4.779999   -0.428883   -3.789799   -0.150157   -0.023345    0.035578
H     3.769362    4.307188   -0.800344    0.005553    0.007826   -0.023930
H    -1.625994    5.018982    1.317220   -0.001694    0.005579    0.035974
H    -6.162173    1.456399   -0.212996    0.032710   -0.005255   -0.017820
H    -4.090779   -4.017055   -0.749246    0.010498   -0.014181    0.008166
H     1.422469   -5.347443    0.438475    0.029390   -0.143455   -0.077517
H     5.673273   -1.283432   -0.642213   -0.038625   -0.009388    0.011223
H     1.739342    3.089662    1.133020    0.075116    0.146868    0.141465
H    -2.097293    2.157912    0.309770    0.019029   -0.009634    0.052580
H    -3.653568    0.069688    0.874289    0.005814   -0.050701   -0.005935
H    -1.798034   -2.792649    0.870652    0.017131   -0.016196   -0.002637
H     1.766427   -2.313036    0.483390    0.014820   -0.136461    0.050535
H     3.328534    0.034865    0.805201   -0.004117   -0.125175    0.206066
H     4.136526    3.181991    1.815002    0.071568    0.208795    0.021459
H     3.096381    4.249732    2.800966    0.125849    0.302705   -0.028845
H    -5.060852   -0.096072    2.938346    0.017143   -0.020351   -0.010946
H    -4.708322    1.596966    2.516454    0.027445   -0.024253   -0.015186
H    -4.053326   -2.764915    1.956573    0.021401    0.032303   -0.002027
H    -2.916122   -3.883432    2.766644    0.007736    0.035349    0.018642
H     4.936258    0.005198    2.706515    0.078453   -0.191767    0.073636
H     4.511571   -1.619043    2.117309    0.199406   -0.166783   -0.045871
H     3.845081    5.944214    1.392426    0.083899    0.171897   -0.269559
H    -7.095997    0.234580    1.916685    0.020381   -0.001385   -0.039263
H    -3.960445   -5.535921    1.499008   -0.006012    0.031319    0.015109
H     6.859072   -0.206677    1.454646    0.035946    0.085623   -0.129097
C     0.932062   -1.523167    3.791100   -0.090195   -0.057080   -0.080671
H     1.509086   -0.820966    4.391162   -0.127058    0.146945   -0.248747
H     0.319103   -2.177654    4.427812    0.148773   -0.156569    0.098817
O     0.406733   -3.947579    2.687717    0.082956   -0.120805    0.058981
C    -0.841805    0.327541    3.349155   -0.073975    0.025032    0.094956
H    -1.636907   -0.110781    3.966842   -0.099353    0.336084    0.374493
H    -0.242381    1.024310    3.952724    0.288250   -0.023564   -0.114469
O    -0.850216    3.010437    3.173577   -0.070124    0.005771    0.103359
C     0.001002   -0.808428    2.798378   -0.424711   -0.252714    0.067428
O    -0.310828   -1.409464    1.764944   -0.378017   -0.060478    0.057571
H     0.336530    0.635761   -0.562029   -0.068596    0.129873    0.086577
O     0.942112    1.244478   -0.067624    0.041017    0.154084   -0.018070
H     1.179536    0.833237    0.867948   -0.045655    0.479442   -0.836726
O     1.495393    0.379515    2.052914    0.060741    0.274495   -0.271086
O     1.821547    1.564894    2.836867    0.109806    0.205387   -0.183668
H     2.758424    1.369354    3.037984    0.241763    0.351245   -0.537367
H     1.800602    1.322143   -0.544711    0.068087   -0.004231   -0.046928
137
* Frequency(8)  -52.5235
C     0.558152    5.160264   -0.066714   -0.010265    0.033866   -0.006460
C    -4.356590    3.287442    0.499919    0.018711   -0.007600   -0.004643
C    -5.126299   -1.757610   -0.479492    0.005234   -0.007445   -0.027799
C    -0.925700   -4.968562   -0.427343   -0.010448   -0.047176    0.020987
C     4.079995   -3.242438   -0.072936    0.014470   -0.055598   -0.033914
C     4.705842    1.961105   -0.648118   -0.050239   -0.021022    0.083172
O    -0.282815    4.039069    0.074110    0.035458    0.018335    0.064010
O    -4.276452    2.273584   -0.450195    0.042561   -0.015432    0.013167
O    -3.752086   -1.976763   -0.673480    0.003224   -0.012701    0.005926
O     0.069959   -3.981326   -0.353232    0.023575   -0.079846    0.030747
O     3.741129   -2.035279   -0.677041   -0.026443   -0.033788    0.040178
O     3.336890    2.278533   -0.725674   -0.030634    0.016825    0.093571
C     1.141059    5.187066   -1.493072   -0.015664    0.001930   -0.012162
C    -4.011351    4.616951   -0.200810    0.030135   -0.012101   -0.006856
C    -5.649945   -0.947029   -1.677759    0.034512    0.005802   -0.034351
C    -1.647177   -4.839470   -1.781813   -0.002898   -0.021338    0.016709
C     3.736319   -4.354596   -1.083297    0.006669   -0.018464   -0.073738
C     5.084291    1.186016   -1.926597   -0.059088   -0.016325    0.072975
O     0.165678    5.320946   -2.491309   -0.013153   -0.028441   -0.015772
O    -4.834405    4.849641   -1.307349    0.048457   -0.015447   -0.021834
O    -5.445947   -1.609357   -2.894609    0.052832    0.012343   -0.035302
O    -0.798010   -4.988666   -2.886814   -0.001818   -0.029519    0.017192
O     4.422950   -4.163890   -2.288923   -0.024611    0.056794   -0.080506
O     4.791304    1.917997   -3.082924   -0.047431    0.001216    0.087092
C     1.877540    3.858571   -1.706798   -0.007107   -0.000376    0.013406
C    -2.531947    4.625665   -0.628197    0.037755   -0.012073    0.019307
C    -4.943516    0.415817   -1.672870    0.043400    0.002001   -0.013912
C    -2.313256   -3.456692   -1.826921    0.017103   -0.010152    0.017193
C     2.218221   -4.346129   -1.328313    0.000133   -0.049128   -0.039231
C     4.347886   -0.162263   -1.921330   -0.067317   -0.012492    0.052348
O     2.561723    3.807398   -2.937661    0.015353   -0.009482    0.024712
O    -2.179626    5.903983   -1.113111    0.028479   -0.006222    0.015701
O    -5.448543    1.247590   -2.687518    0.052008    0.015921   -0.010948
O    -3.055295   -3.274458   -3.007532    0.025952    0.001437    0.010733
O     1.826701   -5.458432   -2.101194    0.017707   -0.039972   -0.062606
O     4.757605   -0.981923   -2.991669   -0.056149   -0.008860    0.051017
C     2.923274    3.636096   -0.608037   -0.005498    0.032980    0.021198
C    -1.600433    4.247259    0.539043    0.023946    0.000295    0.039768
C    -5.116236    1.132872   -0.327452    0.032527   -0.009511   -0.009099
C    -3.263257   -3.304232   -0.637817    0.007348   -0.010686    0.009567
C     1.398482   -4.360008   -0.026284    0.022007   -0.116954   -0.022704
C     4.631949   -0.929131   -0.625775   -0.045041   -0.023060    0.037598
C     2.377399    3.922333    0.805341    0.038259    0.132593    0.021641
C    -2.121991    2.918211    1.101746    0.014618    0.000183    0.039154
C    -4.742845    0.197997    0.844437    0.012108   -0.024316   -0.014234
C    -2.522368   -3.593891    0.679363    0.010023   -0.005681    0.008954
C     1.969869   -3.306585    0.930337    0.040408   -0.155092    0.007696
C     4.404905   -0.060106    0.624315   -0.010474   -0.061347    0.072490
O     1.612782    5.125472    0.857439    0.023700    0.119909   -0.019788
O    -3.454013    3.076561    1.568400    0.001308    0.015035    0.017857
O    -5.376527   -1.077111    0.713246   -0.020727   -0.010170   -0.027782
O    -1.847374   -4.850471    0.620677   -0.003175   -0.020562    0.022202
O     3.363087   -3.449319    1.128979    0.049580   -0.122096   -0.017962
O     5.010266    1.232378    0.505899   -0.057867   -0.032665    0.094371
C     3.530137    4.097193    1.802942    0.081235    0.217641   -0.040563
C    -1.376484    2.360138    2.313903   -0.051734    0.001401    0.083418
C    -5.246046    0.701056    2.208470    0.022438   -0.021546   -0.014489
C    -3.498802   -3.698573    1.856262    0.013463    0.025958    0.012004
C     1.300408   -3.242657    2.300944    0.083073   -0.158065    0.019967
C     5.044345   -0.700177    1.868006    0.112442   -0.103188   -0.006864
O     4.385947    5.148650    1.437375    0.083678    0.172486   -0.157948
O    -1.453958    1.043811    2.282066   -0.096674    0.015354    0.124472
O    -6.609506    1.031439    2.171903    0.020025   -0.011717   -0.004638
O    -4.447119   -4.711810    1.653550   -0.001556    0.029675    0.035348
O     1.863408   -2.267189    3.020267   -0.046071    0.054404   -0.148288
O     6.395821   -1.024200    1.666995    0.132380    0.033827   -0.092838
H     0.017749    6.090594    0.143653   -0.027071    0.030461   -0.032293
H    -5.351427    3.339556    0.959828    0.010497   -0.002473   -0.021699
H    -5.669868   -2.706892   -0.388857   -0.007312   -0.002774   -0.046203
H    -0.494907   -5.971873   -0.316339   -0.044005   -0.062938    0.017199
H     5.139227   -3.282936    0.207762    0.024100   -0.056777   -0.067589
H     5.310596    2.873636   -0.574404   -0.020190   -0.040031    0.090914
H     1.853920    6.024892   -1.550673   -0.025229    0.010319   -0.023324
H    -4.184786    5.438973    0.501916    0.017106   -0.010278   -0.011498
H    -6.730512   -0.797777   -1.575348    0.033103    0.010837   -0.052022
H    -2.429581   -5.611489   -1.830876   -0.014253   -0.010139    0.008421
H     4.041810   -5.326543   -0.683908    0.042243   -0.029845   -0.123585
H     6.164792    1.004046   -1.931479   -0.059194   -0.021025    0.078251
H    -0.660269    5.655022   -2.092169   -0.015152   -0.021914   -0.027654
H    -4.854708    4.040856   -1.843950    0.078307   -0.012978   -0.029260
H    -4.556432   -2.011535   -2.895438    0.059923    0.022804   -0.023280
H     0.122320   -5.137583   -2.588982   -0.000824   -0.022536    0.015751
H     4.353117   -3.222804   -2.533107   -0.053506    0.072155   -0.028116
H     3.926762    2.362019   -2.977375   -0.079777   -0.046341    0.068422
H     1.115359    3.070763   -1.662942   -0.006896    0.005712    0.014773
H    -2.395984    3.877115   -1.423763    0.055166   -0.010676    0.023670
H    -3.866786    0.243758   -1.827703    0.040981   -0.000625   -0.007885
H    -1.528628   -2.690493   -1.747554    0.024537   -0.023264    0.025694
H     1.967441   -3.414521   -1.858305   -0.035056   -0.041125   -0.005944
H     3.266563    0.016624   -1.991660   -0.063355   -0.022553    0.050496
H     1.941851    4.068988   -3.633756   -0.012279   -0.131346   -0.004092
H    -2.902895    6.204444   -1.687610    0.034869   -0.030174   -0.005276
H    -5.562190    0.695804   -3.477192    0.109410    0.033759   -0.032623
H    -2.512677   -3.592788   -3.745098    0.052588    0.049667    0.008834
H     2.428803   -5.513067   -2.861119   -0.020856    0.024963   -0.099973
H     4.773049   -0.429963   -3.788152   -0.150157   -0.023345    0.035578
H     3.769619    4.307550   -0.801451    0.005553    0.007826   -0.023930
H    -1.626072    5.019240    1.318885   -0.001694    0.005579    0.035974
H    -6.160660    1.456156   -0.213820    0.032710   -0.005255   -0.017820
H    -4.090293   -4.017711   -0.748868    0.010498   -0.014181    0.008166
H     1.423829   -5.354082    0.434888    0.029390   -0.143455   -0.077517
H     5.671485   -1.283866   -0.641694   -0.038625   -0.009388    0.011223
H     1.742819    3.096459    1.139567    0.075116    0.146868    0.141465
H    -2.096412    2.157466    0.312204    0.019029   -0.009634    0.052580
H    -3.653299    0.067342    0.874015    0.005814   -0.050701   -0.005935
H    -1.797241   -2.793399    0.870530    0.017131   -0.016196   -0.002637
H     1.767113   -2.319352    0.485729    0.014820   -0.136461    0.050535
H     3.328343    0.029072    0.814738   -0.004117   -0.125175    0.206066
H     4.139839    3.191654    1.815995    0.071568    0.208795    0.021459
H     3.102206    4.263741    2.799631    0.125849    0.302705   -0.028845
H    -5.060059   -0.097014    2.937839    0.017143   -0.020351   -0.010946
H    -4.707052    1.595843    2.515751    0.027445   -0.024253   -0.015186
H    -4.052335   -2.763420    1.956480    0.021401    0.032303   -0.002027
H    -2.915764   -3.881796    2.767506    0.007736    0.035349    0.018642
H     4.939889   -0.003677    2.709923    0.078453   -0.191767    0.073636
H     4.520800   -1.626762    2.115186    0.199406   -0.166783   -0.045871
H     3.848964    5.952170    1.379951    0.083899    0.171897   -0.269559
H    -7.095054    0.234515    1.914868    0.020381   -0.001385   -0.039263
H    -3.960724   -5.534471    1.499707   -0.006012    0.031319    0.015109
H     6.860735   -0.202714    1.448671    0.035946    0.085623   -0.129097
C     0.927887   -1.525808    3.787366   -0.090195   -0.057080   -0.080671
H     1.503206   -0.814165    4.379649   -0.127058    0.146945   -0.248747
H     0.325989   -2.184901    4.432386    0.148773   -0.156569    0.098817
O     0.410572   -3.953171    2.690447    0.082956   -0.120805    0.058981
C    -0.845229    0.328699    3.353550   -0.073975    0.025032    0.094956
H    -1.641505   -0.095227    3.984175   -0.099353    0.336084    0.374493
H    -0.229040    1.023220    3.947426    0.288250   -0.023564   -0.114469
O    -0.853462    3.010705    3.178360   -0.070124    0.005771    0.103359
C    -0.018654   -0.820124    2.801498   -0.424711   -0.252714    0.067428
O    -0.328324   -1.412263    1.767608   -0.378017   -0.060478    0.057571
H     0.333355    0.641772   -0.558022   -0.068596    0.129873    0.086577
O     0.944010    1.251609   -0.068461    0.041017    0.154084   -0.018070
H     1.177423    0.855427    0.829223   -0.045655    0.479442   -0.836726
O     1.498204    0.392219    2.040368    0.060741    0.274495   -0.271086
O     1.826629    1.574400    2.828366    0.109806    0.205387   -0.183668
H     2.769613    1.385610    3.013113    0.241763    0.351245   -0.537367
H     1.803753    1.321948   -0.546883    0.068087   -0.004231   -0.046928
137
* Frequency(8)  -52.5235
C     0.558055    5.160586   -0.066775   -0.010265    0.033866   -0.006460
C    -4.356412    3.287369    0.499875    0.018711   -0.007600   -0.004643
C    -5.126249   -1.757681   -0.479756    0.005234   -0.007445   -0.027799
C    -0.925800   -4.969011   -0.427144   -0.010448   -0.047176    0.020987
C     4.080133   -3.242967   -0.073258    0.014470   -0.055598   -0.033914
C     4.705364    1.960905   -0.647327   -0.050239   -0.021022    0.083172
O    -0.282477    4.039244    0.074719    0.035458    0.018335    0.064010
O    -4.276047    2.273437   -0.450070    0.042561   -0.015432    0.013167
O    -3.752055   -1.976884   -0.673424    0.003224   -0.012701    0.005926
O     0.070183   -3.982086   -0.352940    0.023575   -0.079846    0.030747
O     3.740877   -2.035600   -0.676659   -0.026443   -0.033788    0.040178
O     3.336599    2.278693   -0.724784   -0.030634    0.016825    0.093571
C     1.140910    5.187084   -1.493187   -0.015664    0.001930   -0.012162
C    -4.011064    4.616836   -0.200875    0.030135   -0.012101   -0.006856
C    -5.649617   -0.946974   -1.678086    0.034512    0.005802   -0.034351
C    -1.647204   -4.839673   -1.781654   -0.002898   -0.021338    0.016709
C     3.736383   -4.354771   -1.083999    0.006669   -0.018464   -0.073738
C     5.083728    1.185861   -1.925902   -0.059088   -0.016325    0.072975
O     0.165552    5.320675   -2.491459   -0.013153   -0.028441   -0.015772
O    -4.833944    4.849495   -1.307557    0.048457   -0.015447   -0.021834
O    -5.445445   -1.609240   -2.894945    0.052832    0.012343   -0.035302
O    -0.798027   -4.988946   -2.886650   -0.001818   -0.029519    0.017192
O     4.422716   -4.163350   -2.289689   -0.024611    0.056794   -0.080506
O     4.790852    1.918008   -3.082096   -0.047431    0.001216    0.087092
C     1.877472    3.858567   -1.706670   -0.007107   -0.000376    0.013406
C    -2.531587    4.625550   -0.628013    0.037755   -0.012073    0.019307
C    -4.943103    0.415836   -1.673002    0.043400    0.002001   -0.013912
C    -2.313093   -3.456789   -1.826757    0.017103   -0.010152    0.017193
C     2.218223   -4.346597   -1.328686    0.000133   -0.049128   -0.039231
C     4.347245   -0.162382   -1.920832   -0.067317   -0.012492    0.052348
O     2.561869    3.807307   -2.937426    0.015353   -0.009482    0.024712
O    -2.179355    5.903924   -1.112961    0.028479   -0.006222    0.015701
O    -5.448048    1.247741   -2.687622    0.052008    0.015921   -0.010948
O    -3.055048   -3.274444   -3.007429    0.025952    0.001437    0.010733
O     1.826869   -5.458813   -2.101790    0.017707   -0.039972   -0.062606
O     4.757071   -0.982007   -2.991183   -0.056149   -0.008860    0.051017
C     2.923222    3.636409   -0.607836   -0.005498    0.032980    0.021198
C    -1.600205    4.247262    0.539421    0.023946    0.000295    0.039768
C    -5.115927    1.132782   -0.327538    0.032527   -0.009511   -0.009099
C    -3.263187   -3.304333   -0.637726    0.007348   -0.010686    0.009567
C     1.398692   -4.361121   -0.026500    0.022007   -0.116954   -0.022704
C     4.631520   -0.929350   -0.625417   -0.045041   -0.023060    0.037598
C     2.377763    3.923595    0.805546    0.038259    0.132593    0.021641
C    -2.121852    2.918212    1.102118    0.014618    0.000183    0.039154
C    -4.742730    0.197765    0.844302    0.012108   -0.024316   -0.014234
C    -2.522273   -3.593945    0.679449    0.010023   -0.005681    0.008954
C     1.970253   -3.308061    0.930410    0.040408   -0.155092    0.007696
C     4.404806   -0.060690    0.625004   -0.010474   -0.061347    0.072490
O     1.613007    5.126613    0.857251    0.023700    0.119909   -0.019788
O    -3.454001    3.076704    1.568569    0.001308    0.015035    0.017857
O    -5.376724   -1.077207    0.712982   -0.020727   -0.010170   -0.027782
O    -1.847404   -4.850667    0.620888   -0.003175   -0.020562    0.022202
O     3.363558   -3.450480    1.128808    0.049580   -0.122096   -0.017962
O     5.009716    1.232067    0.506797   -0.057867   -0.032665    0.094371
C     3.530909    4.099264    1.802557    0.081235    0.217641   -0.040563
C    -1.376976    2.360152    2.314697   -0.051734    0.001401    0.083418
C    -5.245833    0.700851    2.208332    0.022438   -0.021546   -0.014489
C    -3.498674   -3.698326    1.856376    0.013463    0.025958    0.012004
C     1.301199   -3.244160    2.301134    0.083073   -0.158065    0.019967
C     5.045415   -0.701159    1.867941    0.112442   -0.103188   -0.006864
O     4.386744    5.150291    1.435872    0.083678    0.172486   -0.157948
O    -1.454878    1.043957    2.283250   -0.096674    0.015354    0.124472
O    -6.609315    1.031327    2.171859    0.020025   -0.011717   -0.004638
O    -4.447134   -4.711528    1.653887   -0.001556    0.029675    0.035348
O     1.862969   -2.266672    3.018857   -0.046071    0.054404   -0.148288
O     6.397081   -1.023878    1.666112    0.132380    0.033827   -0.092838
H     0.017491    6.090884    0.143346   -0.027071    0.030461   -0.032293
H    -5.351327    3.339532    0.959621    0.010497   -0.002473   -0.021699
H    -5.669938   -2.706919   -0.389297   -0.007312   -0.002774   -0.046203
H    -0.495326   -5.972472   -0.316176   -0.044005   -0.062938    0.017199
H     5.139456   -3.283476    0.207119    0.024100   -0.056777   -0.067589
H     5.310404    2.873255   -0.573539   -0.020190   -0.040031    0.090914
H     1.853680    6.024990   -1.550895   -0.025229    0.010319   -0.023324
H    -4.184623    5.438875    0.501807    0.017106   -0.010278   -0.011498
H    -6.730197   -0.797674   -1.575843    0.033103    0.010837   -0.052022
H    -2.429717   -5.611585   -1.830796   -0.014253   -0.010139    0.008421
H     4.042212   -5.326827   -0.685084    0.042243   -0.029845   -0.123585
H     6.164229    1.003846   -1.930734   -0.059194   -0.021025    0.078251
H    -0.660413    5.654814   -2.092432   -0.015152   -0.021914   -0.027654
H    -4.853963    4.040732   -1.844228    0.078307   -0.012978   -0.029260
H    -4.555862   -2.011318   -2.895659    0.059923    0.022804   -0.023280
H     0.122312   -5.137798   -2.588833   -0.000824   -0.022536    0.015751
H     4.352608   -3.222117   -2.533375   -0.053506    0.072155   -0.028116
H     3.926002    2.361578   -2.976724   -0.079777   -0.046341    0.068422
H     1.115293    3.070818   -1.662801   -0.006896    0.005712    0.014773
H    -2.395460    3.877013   -1.423538    0.055166   -0.010676    0.023670
H    -3.866396    0.243752   -1.827778    0.040981   -0.000625   -0.007885
H    -1.528394   -2.690714   -1.747309    0.024537   -0.023264    0.025694
H     1.967107   -3.414913   -1.858361   -0.035056   -0.041125   -0.005944
H     3.265960    0.016410   -1.991180   -0.063355   -0.022553    0.050496
H     1.941734    4.067738   -3.633794   -0.012279   -0.131346   -0.004092
H    -2.902563    6.204157   -1.687661    0.034869   -0.030174   -0.005276
H    -5.561149    0.696125   -3.477503    0.109410    0.033759   -0.032623
H    -2.512177   -3.592316   -3.745014    0.052588    0.049667    0.008834
H     2.428604   -5.512829   -2.862070   -0.020856    0.024963   -0.099973
H     4.771621   -0.430185   -3.787814   -0.150157   -0.023345    0.035578
H     3.769672    4.307625   -0.801679    0.005553    0.007826   -0.023930
H    -1.626088    5.019293    1.319227   -0.001694    0.005579    0.035974
H    -6.160348    1.456106   -0.213990    0.032710   -0.005255   -0.017820
H    -4.090193   -4.017846   -0.748790    0.010498   -0.014181    0.008166
H     1.424109   -5.355447    0.434150    0.029390   -0.143455   -0.077517
H     5.671118   -1.283956   -0.641587   -0.038625   -0.009388    0.011223
H     1.743533    3.097856    1.140913    0.075116    0.146868    0.141465
H    -2.096231    2.157375    0.312704    0.019029   -0.009634    0.052580
H    -3.653244    0.066860    0.873958    0.005814   -0.050701   -0.005935
H    -1.797078   -2.793553    0.870505    0.017131   -0.016196   -0.002637
H     1.767254   -2.320650    0.486210    0.014820   -0.136461    0.050535
H     3.328304    0.027881    0.816699   -0.004117   -0.125175    0.206066
H     4.140520    3.193641    1.816199    0.071568    0.208795    0.021459
H     3.103403    4.266621    2.799356    0.125849    0.302705   -0.028845
H    -5.059896   -0.097208    2.937735    0.017143   -0.020351   -0.010946
H    -4.706790    1.595612    2.515606    0.027445   -0.024253   -0.015186
H    -4.052132   -2.763113    1.956460    0.021401    0.032303   -0.002027
H    -2.915690   -3.881459    2.767684    0.007736    0.035349    0.018642
H     4.940635   -0.005502    2.710623    0.078453   -0.191767    0.073636
H     4.522698   -1.628349    2.114750    0.199406   -0.166783   -0.045871
H     3.849762    5.953806    1.377386    0.083899    0.171897   -0.269559
H    -7.094860    0.234502    1.914494    0.020381   -0.001385   -0.039263
H    -3.960781   -5.534173    1.499851   -0.006012    0.031319    0.015109
H     6.861077   -0.201900    1.447443    0.035946    0.085623   -0.129097
C     0.927029   -1.526352    3.786599   -0.090195   -0.057080   -0.080671
H     1.501997   -0.812767    4.377283   -0.127058    0.146945   -0.248747
H     0.327404   -2.186390    4.433326    0.148773   -0.156569    0.098817
O     0.411362   -3.954320    2.691008    0.082956   -0.120805    0.058981
C    -0.845933    0.328937    3.354453   -0.073975    0.025032    0.094956
H    -1.642450   -0.092029    3.987738   -0.099353    0.336084    0.374493
H    -0.226298    1.022996    3.946337    0.288250   -0.023564   -0.114469
O    -0.854129    3.010759    3.179344   -0.070124    0.005771    0.103359
C    -0.022695   -0.822528    2.802140   -0.424711   -0.252714    0.067428
O    -0.331920   -1.412838    1.768156   -0.378017   -0.060478    0.057571
H     0.332702    0.643008   -0.557198   -0.068596    0.129873    0.086577
O     0.944400    1.253075   -0.068633    0.041017    0.154084   -0.018070
H     1.176988    0.859988    0.821262   -0.045655    0.479442   -0.836726
O     1.498782    0.394831    2.037789    0.060741    0.274495   -0.271086
O     1.827674    1.576354    2.826619    0.109806    0.205387   -0.183668
H     2.771914    1.388952    3.008001    0.241763    0.351245   -0.537367
H     1.804401    1.321907   -0.547330    0.068087   -0.004231   -0.046928
137
* Frequency(8)  -52.5235
C     0.558345    5.159628   -0.066592   -0.010265    0.033866   -0.006460
C    -4.356942    3.287584    0.500007    0.018711   -0.007600   -0.004643
C    -5.126397   -1.757470   -0.478970    0.005234   -0.007445   -0.027799
C    -0.925504   -4.967676   -0.427737   -0.010448   -0.047176    0.020987
C     4.079723   -3.241394   -0.072299    0.014470   -0.055598   -0.033914
C     4.706785    1.961500   -0.649679   -0.050239   -0.021022    0.083172
O    -0.283480    4.038725    0.072908    0.035458    0.018335    0.064010
O    -4.277251    2.273873   -0.450442    0.042561   -0.015432    0.013167
O    -3.752147   -1.976524   -0.673592    0.003224   -0.012701    0.005926
O     0.069517   -3.979828   -0.353809    0.023575   -0.079846    0.030747
O     3.741625   -2.034645   -0.677796   -0.026443   -0.033788    0.040178
O     3.337465    2.278217   -0.727430   -0.030634    0.016825    0.093571
C     1.141353    5.187030   -1.492843   -0.015664    0.001930   -0.012162
C    -4.011917    4.617178   -0.200681    0.030135   -0.012101   -0.006856
C    -5.650593   -0.947138   -1.677115    0.034512    0.005802   -0.034351
C    -1.647122   -4.839069   -1.782126   -0.002898   -0.021338    0.016709
C     3.736194   -4.354249   -1.081913    0.006669   -0.018464   -0.073738
C     5.085400    1.186323   -1.927967   -0.059088   -0.016325    0.072975
O     0.165924    5.321480   -2.491013   -0.013153   -0.028441   -0.015772
O    -4.835315    4.849931   -1.306939    0.048457   -0.015447   -0.021834
O    -5.446939   -1.609589   -2.893947    0.052832    0.012343   -0.035302
O    -0.797976   -4.988112   -2.887137   -0.001818   -0.029519    0.017192
O     4.423412   -4.164956   -2.287412   -0.024611    0.056794   -0.080506
O     4.792194    1.917974   -3.084559   -0.047431    0.001216    0.087092
C     1.877673    3.858578   -1.707049   -0.007107   -0.000376    0.013406
C    -2.532655    4.625892   -0.628559    0.037755   -0.012073    0.019307
C    -4.944331    0.415779   -1.672609    0.043400    0.002001   -0.013912
C    -2.313577   -3.456502   -1.827243    0.017103   -0.010152    0.017193
C     2.218219   -4.345207   -1.327576    0.000133   -0.049128   -0.039231
C     4.349149   -0.162029   -1.922312   -0.067317   -0.012492    0.052348
O     2.561435    3.807576   -2.938125    0.015353   -0.009482    0.024712
O    -2.180160    5.904100   -1.113405    0.028479   -0.006222    0.015701
O    -5.449519    1.247291   -2.687313    0.052008    0.015921   -0.010948
O    -3.055782   -3.274485   -3.007733    0.025952    0.001437    0.010733
O     1.826368   -5.457682   -2.100019    0.017707   -0.039972   -0.062606
O     4.758659   -0.981756   -2.992626   -0.056149   -0.008860    0.051017
C     2.923377    3.635477   -0.608435   -0.005498    0.032980    0.021198
C    -1.600882    4.247253    0.538297    0.023946    0.000295    0.039768
C    -5.116847    1.133051   -0.327281    0.032527   -0.009511   -0.009099
C    -3.263395   -3.304031   -0.637996    0.007348   -0.010686    0.009567
C     1.398069   -4.357813   -0.025857    0.022007   -0.116954   -0.022704
C     4.632794   -0.928698   -0.626481   -0.045041   -0.023060    0.037598
C     2.376681    3.919844    0.804934    0.038259    0.132593    0.021641
C    -2.122265    2.918207    1.101011    0.014618    0.000183    0.039154
C    -4.743072    0.198453    0.844704    0.012108   -0.024316   -0.014234
C    -2.522556   -3.593784    0.679195    0.010023   -0.005681    0.008954
C     1.969110   -3.303674    0.930193    0.040408   -0.155092    0.007696
C     4.405102   -0.058955    0.622954   -0.010474   -0.061347    0.072490
O     1.612337    5.123221    0.857811    0.023700    0.119909   -0.019788
O    -3.454038    3.076279    1.568064    0.001308    0.015035    0.017857
O    -5.376138   -1.076920    0.713768   -0.020727   -0.010170   -0.027782
O    -1.847314   -4.850085    0.620260   -0.003175   -0.020562    0.022202
O     3.362156   -3.447027    1.129316    0.049580   -0.122096   -0.017962
O     5.011353    1.232991    0.504127   -0.057867   -0.032665    0.094371
C     3.528612    4.093108    1.803704    0.081235    0.217641   -0.040563
C    -1.375513    2.360112    2.312337   -0.051734    0.001401    0.083418
C    -5.246467    0.701460    2.208742    0.022438   -0.021546   -0.014489
C    -3.499055   -3.699060    1.856037    0.013463    0.025958    0.012004
C     1.298849   -3.239690    2.300569    0.083073   -0.158065    0.019967
C     5.042234   -0.698241    1.868135    0.112442   -0.103188   -0.006864
O     4.384377    5.145412    1.440339    0.083678    0.172486   -0.157948
O    -1.452144    1.043523    2.279730   -0.096674    0.015354    0.124472
O    -6.609881    1.031659    2.171990    0.020025   -0.011717   -0.004638
O    -4.447090   -4.712367    1.652887   -0.001556    0.029675    0.035348
O     1.864272   -2.268210    3.023051   -0.046071    0.054404   -0.148288
O     6.393337   -1.024835    1.668737    0.132380    0.033827   -0.092838
H     0.018257    6.090022    0.144259   -0.027071    0.030461   -0.032293
H    -5.351624    3.339602    0.960235    0.010497   -0.002473   -0.021699
H    -5.669731   -2.706840   -0.387990   -0.007312   -0.002774   -0.046203
H    -0.494081   -5.970692   -0.316662   -0.044005   -0.062938    0.017199
H     5.138775   -3.281870    0.209030    0.024100   -0.056777   -0.067589
H     5.310975    2.874388   -0.576111   -0.020190   -0.040031    0.090914
H     1.854394    6.024698   -1.550235   -0.025229    0.010319   -0.023324
H    -4.185107    5.439166    0.502132    0.017106   -0.010278   -0.011498
H    -6.731133   -0.797980   -1.574372    0.033103    0.010837   -0.052022
H    -2.429314   -5.611298   -1.831034   -0.014253   -0.010139    0.008421
H     4.041017   -5.325982   -0.681589    0.042243   -0.029845   -0.123585
H     6.165903    1.004440   -1.932948   -0.059194   -0.021025    0.078251
H    -0.659984    5.655434   -2.091650   -0.015152   -0.021914   -0.027654
H    -4.856177    4.041099   -1.843401    0.078307   -0.012978   -0.029260
H    -4.557557   -2.011963   -2.895001    0.059923    0.022804   -0.023280
H     0.122336   -5.137160   -2.589278   -0.000824   -0.022536    0.015751
H     4.354121   -3.224158   -2.532580   -0.053506    0.072155   -0.028116
H     3.928259    2.362889   -2.978660   -0.079777   -0.046341    0.068422
H     1.115488    3.070656   -1.663219   -0.006896    0.005712    0.014773
H    -2.397020    3.877315   -1.424208    0.055166   -0.010676    0.023670
H    -3.867556    0.243770   -1.827555    0.040981   -0.000625   -0.007885
H    -1.529088   -2.690056   -1.748036    0.024537   -0.023264    0.025694
H     1.968099   -3.413749   -1.858193   -0.035056   -0.041125   -0.005944
H     3.267752    0.017048   -1.992608   -0.063355   -0.022553    0.050496
H     1.942082    4.071453   -3.633679   -0.012279   -0.131346   -0.004092
H    -2.903550    6.205011   -1.687511    0.034869   -0.030174   -0.005276
H    -5.564243    0.695170   -3.476580    0.109410    0.033759   -0.032623
H    -2.513665   -3.593720   -3.745263    0.052588    0.049667    0.008834
H     2.429194   -5.513535   -2.859243   -0.020856    0.024963   -0.099973
H     4.775868   -0.429525   -3.788820   -0.150157   -0.023345    0.035578
H     3.769515    4.307403   -0.801002    0.005553    0.007826   -0.023930
H    -1.626041    5.019135    1.318210   -0.001694    0.005579    0.035974
H    -6.161273    1.456255   -0.213486    0.032710   -0.005255   -0.017820
H    -4.090490   -4.017445   -0.749021    0.010498   -0.014181    0.008166
H     1.423278   -5.351390    0.436343    0.029390   -0.143455   -0.077517
H     5.672210   -1.283690   -0.641904   -0.038625   -0.009388    0.011223
H     1.741409    3.093702    1.136912    0.075116    0.146868    0.141465
H    -2.096769    2.157647    0.311217    0.019029   -0.009634    0.052580
H    -3.653408    0.068294    0.874126    0.005814   -0.050701   -0.005935
H    -1.797563   -2.793095    0.870579    0.017131   -0.016196   -0.002637
H     1.766834   -2.316791    0.484781    0.014820   -0.136461    0.050535
H     3.328420    0.031421    0.810870   -0.004117   -0.125175    0.206066
H     4.138495    3.187736    1.815593    0.071568    0.208795    0.021459
H     3.099844    4.258060    2.800172    0.125849    0.302705   -0.028845
H    -5.060381   -0.096632    2.938045    0.017143   -0.020351   -0.010946
H    -4.707567    1.596298    2.516036    0.027445   -0.024253   -0.015186
H    -4.052737   -2.764027    1.956518    0.021401    0.032303   -0.002027
H    -2.915909   -3.882459    2.767156    0.007736    0.035349    0.018642
H     4.938416   -0.000078    2.708541    0.078453   -0.191767    0.073636
H     4.517058   -1.623632    2.116047    0.199406   -0.166783   -0.045871
H     3.847389    5.948944    1.385010    0.083899    0.171897   -0.269559
H    -7.095436    0.234541    1.915605    0.020381   -0.001385   -0.039263
H    -3.960611   -5.535059    1.499424   -0.006012    0.031319    0.015109
H     6.860061   -0.204321    1.451094    0.035946    0.085623   -0.129097
C     0.929580   -1.524737    3.788880   -0.090195   -0.057080   -0.080671
H     1.505591   -0.816923    4.384318   -0.127058    0.146945   -0.248747
H     0.323197   -2.181962    4.430531    0.148773   -0.156569    0.098817
O     0.409015   -3.950903    2.689340    0.082956   -0.120805    0.058981
C    -0.843841    0.328229    3.351768   -0.073975    0.025032    0.094956
H    -1.639640   -0.101535    3.977146   -0.099353    0.336084    0.374493
H    -0.234451    1.023662    3.949575    0.288250   -0.023564   -0.114469
O    -0.852145    3.010596    3.176420   -0.070124    0.005771    0.103359
C    -0.010683   -0.815380    2.800233   -0.424711   -0.252714    0.067428
O    -0.321228   -1.411128    1.766528   -0.378017   -0.060478    0.057571
H     0.334642    0.639335   -0.559647   -0.068596    0.129873    0.086577
O     0.943240    1.248717   -0.068122    0.041017    0.154084   -0.018070
H     1.178279    0.846428    0.844928   -0.045655    0.479442   -0.836726
O     1.497064    0.387067    2.045456    0.060741    0.274495   -0.271086
O     1.824568    1.570545    2.831814    0.109806    0.205387   -0.183668
H     2.765076    1.379018    3.023199    0.241763    0.351245   -0.537367
H     1.802475    1.322027   -0.546003    0.068087   -0.004231   -0.046928
137
* Frequency(8)  -52.5235
C     0.558992    5.157494   -0.066185   -0.010265    0.033866   -0.006460
C    -4.358121    3.288063    0.500299    0.018711   -0.007600   -0.004643
C    -5.126727   -1.757001   -0.477218    0.005234   -0.007445   -0.027799
C    -0.924846   -4.964703   -0.429060   -0.010448   -0.047176    0.020987
C     4.078811   -3.237891   -0.070162    0.014470   -0.055598   -0.033914
C     4.709951    1.962824   -0.654921   -0.050239   -0.021022    0.083172
O    -0.285715    4.037570    0.068875    0.035458    0.018335    0.064010
O    -4.279933    2.274846   -0.451272    0.042561   -0.015432    0.013167
O    -3.752350   -1.975724   -0.673965    0.003224   -0.012701    0.005926
O     0.068031   -3.974796   -0.355747    0.023575   -0.079846    0.030747
O     3.743291   -2.032516   -0.680327   -0.026443   -0.033788    0.040178
O     3.339396    2.277157   -0.733327   -0.030634    0.016825    0.093571
C     1.142340    5.186908   -1.492077   -0.015664    0.001930   -0.012162
C    -4.013816    4.617941   -0.200249    0.030135   -0.012101   -0.006856
C    -5.652768   -0.947503   -1.674950    0.034512    0.005802   -0.034351
C    -1.646940   -4.837725   -1.783179   -0.002898   -0.021338    0.016709
C     3.735774   -4.353086   -1.077267    0.006669   -0.018464   -0.073738
C     5.089123    1.187352   -1.932565   -0.059088   -0.016325    0.072975
O     0.166753    5.323272   -2.490019   -0.013153   -0.028441   -0.015772
O    -4.838369    4.850905   -1.305563    0.048457   -0.015447   -0.021834
O    -5.450268   -1.610367   -2.891722    0.052832    0.012343   -0.035302
O    -0.797861   -4.986251   -2.888220   -0.001818   -0.029519    0.017192
O     4.424963   -4.168535   -2.282339   -0.024611    0.056794   -0.080506
O     4.795183    1.917897   -3.090047   -0.047431    0.001216    0.087092
C     1.878121    3.858602   -1.707894   -0.007107   -0.000376    0.013406
C    -2.535034    4.626652   -0.629776    0.037755   -0.012073    0.019307
C    -4.947066    0.415653   -1.671732    0.043400    0.002001   -0.013912
C    -2.314654   -3.455862   -1.828327    0.017103   -0.010152    0.017193
C     2.218211   -4.342111   -1.325104    0.000133   -0.049128   -0.039231
C     4.353392   -0.161241   -1.925611   -0.067317   -0.012492    0.052348
O     2.560467    3.808173   -2.939682    0.015353   -0.009482    0.024712
O    -2.181955    5.904492   -1.114395    0.028479   -0.006222    0.015701
O    -5.452796    1.246288   -2.686623    0.052008    0.015921   -0.010948
O    -3.057417   -3.274575   -3.008409    0.025952    0.001437    0.010733
O     1.825252   -5.455163   -2.096074    0.017707   -0.039972   -0.062606
O     4.762197   -0.981198   -2.995841   -0.056149   -0.008860    0.051017
C     2.923724    3.633398   -0.609771   -0.005498    0.032980    0.021198
C    -1.602391    4.247235    0.535791    0.023946    0.000295    0.039768
C    -5.118896    1.133650   -0.326708    0.032527   -0.009511   -0.009099
C    -3.263858   -3.303358   -0.638599    0.007348   -0.010686    0.009567
C     1.396682   -4.350443   -0.024427    0.022007   -0.116954   -0.022704
C     4.635632   -0.927245   -0.628850   -0.045041   -0.023060    0.037598
C     2.374270    3.911489    0.803571    0.038259    0.132593    0.021641
C    -2.123187    2.918196    1.098544    0.014618    0.000183    0.039154
C    -4.743835    0.199985    0.845601    0.012108   -0.024316   -0.014234
C    -2.523188   -3.593426    0.678631    0.010023   -0.005681    0.008954
C     1.966564   -3.293901    0.929708    0.040408   -0.155092    0.007696
C     4.405762   -0.055089    0.618386   -0.010474   -0.061347    0.072490
O     1.610843    5.115665    0.859058    0.023700    0.119909   -0.019788
O    -3.454120    3.075332    1.566939    0.001308    0.015035    0.017857
O    -5.374832   -1.076279    0.715519   -0.020727   -0.010170   -0.027782
O    -1.847114   -4.848789    0.618861   -0.003175   -0.020562    0.022202
O     3.359032   -3.439333    1.130448    0.049580   -0.122096   -0.017962
O     5.014999    1.235050    0.498180   -0.057867   -0.032665    0.094371
C     3.523493    4.079393    1.806260    0.081235    0.217641   -0.040563
C    -1.372253    2.360024    2.307081   -0.051734    0.001401    0.083418
C    -5.247881    0.702818    2.209655    0.022438   -0.021546   -0.014489
C    -3.499903   -3.700696    1.855280    0.013463    0.025958    0.012004
C     1.293614   -3.229729    2.299311    0.083073   -0.158065    0.019967
C     5.035149   -0.691738    1.868568    0.112442   -0.103188   -0.006864
O     4.379104    5.134543    1.450293    0.083678    0.172486   -0.157948
O    -1.446051    1.042556    2.271886   -0.096674    0.015354    0.124472
O    -6.611143    1.032397    2.172282    0.020025   -0.011717   -0.004638
O    -4.446992   -4.714237    1.650659   -0.001556    0.029675    0.035348
O     1.867176   -2.271639    3.032395   -0.046071    0.054404   -0.148288
O     6.384994   -1.026967    1.674588    0.132380    0.033827   -0.092838
H     0.019963    6.088103    0.146294   -0.027071    0.030461   -0.032293
H    -5.352286    3.339758    0.961603    0.010497   -0.002473   -0.021699
H    -5.669270   -2.706665   -0.385078   -0.007312   -0.002774   -0.046203
H    -0.491308   -5.966726   -0.317746   -0.044005   -0.062938    0.017199
H     5.137256   -3.278292    0.213290    0.024100   -0.056777   -0.067589
H     5.312248    2.876910   -0.581840   -0.020190   -0.040031    0.090914
H     1.855984    6.024048   -1.548765   -0.025229    0.010319   -0.023324
H    -4.186185    5.439814    0.502857    0.017106   -0.010278   -0.011498
H    -6.733219   -0.798663   -1.571093    0.033103    0.010837   -0.052022
H    -2.428416   -5.610659   -1.831565   -0.014253   -0.010139    0.008421
H     4.038355   -5.324102   -0.673801    0.042243   -0.029845   -0.123585
H     6.169633    1.005765   -1.937879   -0.059194   -0.021025    0.078251
H    -0.659030    5.656815   -2.089907   -0.015152   -0.021914   -0.027654
H    -4.861112    4.041917   -1.841557    0.078307   -0.012978   -0.029260
H    -4.561333   -2.013400   -2.893534    0.059923    0.022804   -0.023280
H     0.122388   -5.135740   -2.590271   -0.000824   -0.022536    0.015751
H     4.357493   -3.228705   -2.530808   -0.053506    0.072155   -0.028116
H     3.933286    2.365809   -2.982971   -0.079777   -0.046341    0.068422
H     1.115923    3.070296   -1.664150   -0.006896    0.005712    0.014773
H    -2.400496    3.877988   -1.425699    0.055166   -0.010676    0.023670
H    -3.870138    0.243809   -1.827058    0.040981   -0.000625   -0.007885
H    -1.530634   -2.688590   -1.749655    0.024537   -0.023264    0.025694
H     1.970308   -3.411158   -1.857819   -0.035056   -0.041125   -0.005944
H     3.271744    0.018469   -1.995790   -0.063355   -0.022553    0.050496
H     1.942855    4.079730   -3.633421   -0.012279   -0.131346   -0.004092
H    -2.905747    6.206912   -1.687179    0.034869   -0.030174   -0.005276
H    -5.571138    0.693043   -3.474524    0.109410    0.033759   -0.032623
H    -2.516978   -3.596850   -3.745820    0.052588    0.049667    0.008834
H     2.430509   -5.515109   -2.852943   -0.020856    0.024963   -0.099973
H     4.785330   -0.428054   -3.791062   -0.150157   -0.023345    0.035578
H     3.769165    4.306910   -0.799494    0.005553    0.007826   -0.023930
H    -1.625934    5.018784    1.315943   -0.001694    0.005579    0.035974
H    -6.163335    1.456586   -0.212363    0.032710   -0.005255   -0.017820
H    -4.091151   -4.016551   -0.749536    0.010498   -0.014181    0.008166
H     1.421425   -5.342350    0.441228    0.029390   -0.143455   -0.077517
H     5.674644   -1.283099   -0.642612   -0.038625   -0.009388    0.011223
H     1.736675    3.084447    1.127997    0.075116    0.146868    0.141465
H    -2.097968    2.158254    0.307903    0.019029   -0.009634    0.052580
H    -3.653775    0.071489    0.874500    0.005814   -0.050701   -0.005935
H    -1.798642   -2.792074    0.870745    0.017131   -0.016196   -0.002637
H     1.765900   -2.308191    0.481596    0.014820   -0.136461    0.050535
H     3.328680    0.039310    0.797885   -0.004117   -0.125175    0.206066
H     4.133985    3.174578    1.814240    0.071568    0.208795    0.021459
H     3.091913    4.238984    2.801990    0.125849    0.302705   -0.028845
H    -5.061461   -0.095350    2.938735    0.017143   -0.020351   -0.010946
H    -4.709296    1.597827    2.516993    0.027445   -0.024253   -0.015186
H    -4.054086   -2.766062    1.956645    0.021401    0.032303   -0.002027
H    -2.916396   -3.884687    2.765982    0.007736    0.035349    0.018642
H     4.933472    0.012007    2.703900    0.078453   -0.191767    0.073636
H     4.504492   -1.613122    2.118938    0.199406   -0.166783   -0.045871
H     3.842102    5.938111    1.401997    0.083899    0.171897   -0.269559
H    -7.096721    0.234629    1.918079    0.020381   -0.001385   -0.039263
H    -3.960232   -5.537033    1.498472   -0.006012    0.031319    0.015109
H     6.857795   -0.209717    1.459229    0.035946    0.085623   -0.129097
C     0.935264   -1.521140    3.793964   -0.090195   -0.057080   -0.080671
H     1.513597   -0.826184    4.399993   -0.127058    0.146945   -0.248747
H     0.313821   -2.172095    4.424304    0.148773   -0.156569    0.098817
O     0.403788   -3.943290    2.685623    0.082956   -0.120805    0.058981
C    -0.839179    0.326652    3.345784   -0.073975    0.025032    0.094956
H    -1.633379   -0.122714    3.953546   -0.099353    0.336084    0.374493
H    -0.252615    1.025147    3.956788    0.288250   -0.023564   -0.114469
O    -0.847726    3.010233    3.169907   -0.070124    0.005771    0.103359
C     0.016081   -0.799455    2.795983   -0.424711   -0.252714    0.067428
O    -0.297407   -1.407316    1.762900   -0.378017   -0.060478    0.057571
H     0.338965    0.631150   -0.565103   -0.068596    0.129873    0.086577
O     0.940655    1.239007   -0.066983    0.041017    0.154084   -0.018070
H     1.181157    0.816215    0.897656   -0.045655    0.479442   -0.836726
O     1.493237    0.369769    2.062539    0.060741    0.274495   -0.271086
O     1.817648    1.557602    2.843388    0.109806    0.205387   -0.183668
H     2.749840    1.356883    3.057063    0.241763    0.351245   -0.537367
H     1.798185    1.322294   -0.543045    0.068087   -0.004231   -0.046928
137
* Frequency(8)  -52.5235
C     0.559925    5.154415   -0.065598   -0.010265    0.033866   -0.006460
C    -4.359822    3.288754    0.500721    0.018711   -0.007600   -0.004643
C    -5.127203   -1.756324   -0.474691    0.005234   -0.007445   -0.027799
C    -0.923896   -4.960414   -0.430968   -0.010448   -0.047176    0.020987
C     4.077496   -3.232836   -0.067078    0.014470   -0.055598   -0.033914
C     4.714519    1.964736   -0.662483   -0.050239   -0.021022    0.083172
O    -0.288939    4.035903    0.063055    0.035458    0.018335    0.064010
O    -4.283803    2.276249   -0.452469    0.042561   -0.015432    0.013167
O    -3.752643   -1.974569   -0.674504    0.003224   -0.012701    0.005926
O     0.065888   -3.967536   -0.358542    0.023575   -0.079846    0.030747
O     3.745696   -2.029443   -0.683981   -0.026443   -0.033788    0.040178
O     3.342181    2.275627   -0.741835   -0.030634    0.016825    0.093571
C     1.143764    5.186733   -1.490971   -0.015664    0.001930   -0.012162
C    -4.016556    4.619041   -0.199626    0.030135   -0.012101   -0.006856
C    -5.655906   -0.948031   -1.671827    0.034512    0.005802   -0.034351
C    -1.646676   -4.835784   -1.784699   -0.002898   -0.021338    0.016709
C     3.735168   -4.351407   -1.070562    0.006669   -0.018464   -0.073738
C     5.094496    1.188836   -1.939200   -0.059088   -0.016325    0.072975
O     0.167949    5.325858   -2.488585   -0.013153   -0.028441   -0.015772
O    -4.842774    4.852309   -1.303578    0.048457   -0.015447   -0.021834
O    -5.455072   -1.611489   -2.888512    0.052832    0.012343   -0.035302
O    -0.797696   -4.983567   -2.889783   -0.001818   -0.029519    0.017192
O     4.427200   -4.173699   -2.275019   -0.024611    0.056794   -0.080506
O     4.799495    1.917787   -3.097966   -0.047431    0.001216    0.087092
C     1.878767    3.858636   -1.709113   -0.007107   -0.000376    0.013406
C    -2.538467    4.627750   -0.631531    0.037755   -0.012073    0.019307
C    -4.951012    0.415471   -1.670467    0.043400    0.002001   -0.013912
C    -2.316209   -3.454939   -1.829890    0.017103   -0.010152    0.017193
C     2.218199   -4.337644   -1.321537    0.000133   -0.049128   -0.039231
C     4.359512   -0.160106   -1.930371   -0.067317   -0.012492    0.052348
O     2.559071    3.809035   -2.941929    0.015353   -0.009482    0.024712
O    -2.184544    5.905058   -1.115822    0.028479   -0.006222    0.015701
O    -5.457525    1.244840   -2.685627    0.052008    0.015921   -0.010948
O    -3.059777   -3.274706   -3.009385    0.025952    0.001437    0.010733
O     1.823642   -5.451529   -2.090382    0.017707   -0.039972   -0.062606
O     4.767303   -0.980392   -3.000480   -0.056149   -0.008860    0.051017
C     2.924224    3.630400   -0.611699   -0.005498    0.032980    0.021198
C    -1.604568    4.247208    0.532175    0.023946    0.000295    0.039768
C    -5.121854    1.134515   -0.325880    0.032527   -0.009511   -0.009099
C    -3.264526   -3.302386   -0.639469    0.007348   -0.010686    0.009567
C     1.394681   -4.339810   -0.022362    0.022007   -0.116954   -0.022704
C     4.639728   -0.925148   -0.632268   -0.045041   -0.023060    0.037598
C     2.370791    3.899433    0.801603    0.038259    0.132593    0.021641
C    -2.124516    2.918179    1.094984    0.014618    0.000183    0.039154
C    -4.744936    0.202196    0.846895    0.012108   -0.024316   -0.014234
C    -2.524099   -3.592910    0.677817    0.010023   -0.005681    0.008954
C     1.962890   -3.279800    0.929008    0.040408   -0.155092    0.007696
C     4.406714   -0.049511    0.611795   -0.010474   -0.061347    0.072490
O     1.608689    5.104763    0.860857    0.023700    0.119909   -0.019788
O    -3.454239    3.073965    1.565316    0.001308    0.015035    0.017857
O    -5.372947   -1.075354    0.718045   -0.020727   -0.010170   -0.027782
O    -1.846825   -4.846920    0.616842   -0.003175   -0.020562    0.022202
O     3.354524   -3.428232    1.132081    0.049580   -0.122096   -0.017962
O     5.020261    1.238020    0.489600   -0.057867   -0.032665    0.094371
C     3.516107    4.059605    1.809948    0.081235    0.217641   -0.040563
C    -1.367549    2.359896    2.299496   -0.051734    0.001401    0.083418
C    -5.249922    0.704777    2.210972    0.022438   -0.021546   -0.014489
C    -3.501128   -3.703056    1.854189    0.013463    0.025958    0.012004
C     1.286061   -3.215357    2.297495    0.083073   -0.158065    0.019967
C     5.024925   -0.682356    1.869192    0.112442   -0.103188   -0.006864
O     4.371495    5.118860    1.464654    0.083678    0.172486   -0.157948
O    -1.437262    1.041160    2.260569   -0.096674    0.015354    0.124472
O    -6.612964    1.033463    2.172704    0.020025   -0.011717   -0.004638
O    -4.446850   -4.716935    1.647445   -0.001556    0.029675    0.035348
O     1.871365   -2.276585    3.045878   -0.046071    0.054404   -0.148288
O     6.372958   -1.030042    1.683029    0.132380    0.033827   -0.092838
H     0.022424    6.085333    0.149231   -0.027071    0.030461   -0.032293
H    -5.353240    3.339983    0.963576    0.010497   -0.002473   -0.021699
H    -5.668605   -2.706413   -0.380877   -0.007312   -0.002774   -0.046203
H    -0.487307   -5.961004   -0.319310   -0.044005   -0.062938    0.017199
H     5.135065   -3.273130    0.219435    0.024100   -0.056777   -0.067589
H     5.314083    2.880550   -0.590106   -0.020190   -0.040031    0.090914
H     1.858277    6.023109   -1.546644   -0.025229    0.010319   -0.023324
H    -4.187740    5.440748    0.503902    0.017106   -0.010278   -0.011498
H    -6.736229   -0.799649   -1.566363    0.033103    0.010837   -0.052022
H    -2.427120   -5.609738   -1.832330   -0.014253   -0.010139    0.008421
H     4.034515   -5.321388   -0.662564    0.042243   -0.029845   -0.123585
H     6.175015    1.007677   -1.944994   -0.059194   -0.021025    0.078251
H    -0.657652    5.658807   -2.087393   -0.015152   -0.021914   -0.027654
H    -4.868232    4.043097   -1.838896    0.078307   -0.012978   -0.029260
H    -4.566781   -2.015474   -2.891417    0.059923    0.022804   -0.023280
H     0.122463   -5.133691   -2.591703   -0.000824   -0.022536    0.015751
H     4.362358   -3.235265   -2.528251   -0.053506    0.072155   -0.028116
H     3.940540    2.370023   -2.989193   -0.079777   -0.046341    0.068422
H     1.116550    3.069777   -1.665493   -0.006896    0.005712    0.014773
H    -2.405512    3.878959   -1.427851    0.055166   -0.010676    0.023670
H    -3.873864    0.243866   -1.826342    0.040981   -0.000625   -0.007885
H    -1.532865   -2.686475   -1.751991    0.024537   -0.023264    0.025694
H     1.973495   -3.407419   -1.857278   -0.035056   -0.041125   -0.005944
H     3.277505    0.020519   -2.000381   -0.063355   -0.022553    0.050496
H     1.943972    4.091672   -3.633049   -0.012279   -0.131346   -0.004092
H    -2.908917    6.209655   -1.686699    0.034869   -0.030174   -0.005276
H    -5.581086    0.689973   -3.471558    0.109410    0.033759   -0.032623
H    -2.521760   -3.601366   -3.746623    0.052588    0.049667    0.008834
H     2.432405   -5.517378   -2.843853   -0.020856    0.024963   -0.099973
H     4.798983   -0.425931   -3.794297   -0.150157   -0.023345    0.035578
H     3.768660    4.306199   -0.797318    0.005553    0.007826   -0.023930
H    -1.625780    5.018277    1.312672   -0.001694    0.005579    0.035974
H    -6.166309    1.457064   -0.210743    0.032710   -0.005255   -0.017820
H    -4.092106   -4.015262   -0.750278    0.010498   -0.014181    0.008166
H     1.418753   -5.329307    0.448276    0.029390   -0.143455   -0.077517
H     5.678156   -1.282245   -0.643632   -0.038625   -0.009388    0.011223
H     1.729846    3.071094    1.115135    0.075116    0.146868    0.141465
H    -2.099699    2.159130    0.303122    0.019029   -0.009634    0.052580
H    -3.654303    0.076098    0.875040    0.005814   -0.050701   -0.005935
H    -1.800200   -2.790602    0.870985    0.017131   -0.016196   -0.002637
H     1.764553   -2.295784    0.477001    0.014820   -0.136461    0.050535
H     3.329054    0.050691    0.779149   -0.004117   -0.125175    0.206066
H     4.127478    3.155594    1.812289    0.071568    0.208795    0.021459
H     3.080471    4.211462    2.804612    0.125849    0.302705   -0.028845
H    -5.063020   -0.093500    2.939730    0.017143   -0.020351   -0.010946
H    -4.711792    1.600032    2.518374    0.027445   -0.024253   -0.015186
H    -4.056032   -2.768999    1.956830    0.021401    0.032303   -0.002027
H    -2.917100   -3.887901    2.764287    0.007736    0.035349    0.018642
H     4.926339    0.029443    2.697205    0.078453   -0.191767    0.073636
H     4.486361   -1.597958    2.123109    0.199406   -0.166783   -0.045871
H     3.834473    5.922482    1.426506    0.083899    0.171897   -0.269559
H    -7.098574    0.234755    1.921649    0.020381   -0.001385   -0.039263
H    -3.959685   -5.539880    1.497098   -0.006012    0.031319    0.015109
H     6.854527   -0.217502    1.470967    0.035946    0.085623   -0.129097
C     0.943465   -1.515950    3.801299   -0.090195   -0.057080   -0.080671
H     1.525150   -0.839544    4.422610   -0.127058    0.146945   -0.248747
H     0.300294   -2.157860    4.415319    0.148773   -0.156569    0.098817
O     0.396245   -3.932306    2.680260    0.082956   -0.120805    0.058981
C    -0.832453    0.324376    3.337150   -0.073975    0.025032    0.094956
H    -1.624346   -0.153271    3.919496   -0.099353    0.336084    0.374493
H    -0.278823    1.027289    3.967196    0.288250   -0.023564   -0.114469
O    -0.841351    3.009708    3.160509   -0.070124    0.005771    0.103359
C     0.054697   -0.776478    2.789853   -0.424711   -0.252714    0.067428
O    -0.263037   -1.401818    1.757665   -0.378017   -0.060478    0.057571
H     0.345202    0.619342   -0.572975   -0.068596    0.129873    0.086577
O     0.936926    1.224998   -0.065340    0.041017    0.154084   -0.018070
H     1.185308    0.772623    0.973733   -0.045655    0.479442   -0.836726
O     1.487714    0.344811    2.087187    0.060741    0.274495   -0.271086
O     1.807664    1.538928    2.860087    0.109806    0.205387   -0.183668
H     2.727859    1.324947    3.105921    0.241763    0.351245   -0.537367
H     1.791994    1.322678   -0.538778    0.068087   -0.004231   -0.046928
137
* Frequency(8)  -52.5235
C     0.561044    5.150724   -0.064894   -0.010265    0.033866   -0.006460
C    -4.361861    3.289583    0.501227    0.018711   -0.007600   -0.004643
C    -5.127773   -1.755513   -0.471661    0.005234   -0.007445   -0.027799
C    -0.922757   -4.955273   -0.433255   -0.010448   -0.047176    0.020987
C     4.075919   -3.226777   -0.063382    0.014470   -0.055598   -0.033914
C     4.719994    1.967026   -0.671546   -0.050239   -0.021022    0.083172
O    -0.292803    4.033905    0.056079    0.035458    0.018335    0.064010
O    -4.288441    2.277931   -0.453904    0.042561   -0.015432    0.013167
O    -3.752994   -1.973185   -0.675150    0.003224   -0.012701    0.005926
O     0.063319   -3.958835   -0.361893    0.023575   -0.079846    0.030747
O     3.748577   -2.025761   -0.688359   -0.026443   -0.033788    0.040178
O     3.345519    2.273794   -0.752031   -0.030634    0.016825    0.093571
C     1.145471    5.186522   -1.489646   -0.015664    0.001930   -0.012162
C    -4.019840    4.620360   -0.198879    0.030135   -0.012101   -0.006856
C    -5.659667   -0.948663   -1.668083    0.034512    0.005802   -0.034351
C    -1.646360   -4.833459   -1.786519   -0.002898   -0.021338    0.016709
C     3.734441   -4.349395   -1.062527    0.006669   -0.018464   -0.073738
C     5.100935    1.190615   -1.947152   -0.059088   -0.016325    0.072975
O     0.169383    5.328957   -2.486866   -0.013153   -0.028441   -0.015772
O    -4.848055    4.853993   -1.301199    0.048457   -0.015447   -0.021834
O    -5.460829   -1.612834   -2.884665    0.052832    0.012343   -0.035302
O    -0.797498   -4.980351   -2.891657   -0.001818   -0.029519    0.017192
O     4.429882   -4.179888   -2.266246   -0.024611    0.056794   -0.080506
O     4.804664    1.917654   -3.107457   -0.047431    0.001216    0.087092
C     1.879541    3.858677   -1.710574   -0.007107   -0.000376    0.013406
C    -2.542581    4.629066   -0.633635    0.037755   -0.012073    0.019307
C    -4.955741    0.415253   -1.668951    0.043400    0.002001   -0.013912
C    -2.318073   -3.453833   -1.831764    0.017103   -0.010152    0.017193
C     2.218184   -4.332291   -1.317262    0.000133   -0.049128   -0.039231
C     4.366848   -0.158744   -1.936075   -0.067317   -0.012492    0.052348
O     2.557398    3.810069   -2.944622    0.015353   -0.009482    0.024712
O    -2.187648    5.905736   -1.117533    0.028479   -0.006222    0.015701
O    -5.463193    1.243105   -2.684434    0.052008    0.015921   -0.010948
O    -3.062605   -3.274862   -3.010555    0.025952    0.001437    0.010733
O     1.821713   -5.447173   -2.083559    0.017707   -0.039972   -0.062606
O     4.773421   -0.979427   -3.006039   -0.056149   -0.008860    0.051017
C     2.924823    3.626806   -0.614009   -0.005498    0.032980    0.021198
C    -1.607178    4.247176    0.527841    0.023946    0.000295    0.039768
C    -5.125398    1.135551   -0.324889    0.032527   -0.009511   -0.009099
C    -3.265327   -3.301222   -0.640512    0.007348   -0.010686    0.009567
C     1.392283   -4.327065   -0.019888    0.022007   -0.116954   -0.022704
C     4.644636   -0.922635   -0.636365   -0.045041   -0.023060    0.037598
C     2.366622    3.884984    0.799245    0.038259    0.132593    0.021641
C    -2.126109    2.918159    1.090717    0.014618    0.000183    0.039154
C    -4.746256    0.204846    0.848447    0.012108   -0.024316   -0.014234
C    -2.525191   -3.592291    0.676841    0.010023   -0.005681    0.008954
C     1.958487   -3.262899    0.928169    0.040408   -0.155092    0.007696
C     4.407856   -0.042826    0.603896   -0.010474   -0.061347    0.072490
O     1.606106    5.091696    0.863013    0.023700    0.119909   -0.019788
O    -3.454382    3.072326    1.563370    0.001308    0.015035    0.017857
O    -5.370689   -1.074246    0.721072   -0.020727   -0.010170   -0.027782
O    -1.846479   -4.844679    0.614423   -0.003175   -0.020562    0.022202
O     3.349121   -3.414927    1.134039    0.049580   -0.122096   -0.017962
O     5.026567    1.241579    0.479316   -0.057867   -0.032665    0.094371
C     3.507254    4.035888    1.814368    0.081235    0.217641   -0.040563
C    -1.361912    2.359743    2.290406   -0.051734    0.001401    0.083418
C    -5.252367    0.707125    2.212551    0.022438   -0.021546   -0.014489
C    -3.502595   -3.705885    1.852881    0.013463    0.025958    0.012004
C     1.277008   -3.198132    2.295320    0.083073   -0.158065    0.019967
C     5.012672   -0.671111    1.869940    0.112442   -0.103188   -0.006864
O     4.362377    5.100063    1.481866    0.083678    0.172486   -0.157948
O    -1.426727    1.039486    2.247005   -0.096674    0.015354    0.124472
O    -6.615146    1.034739    2.173209    0.020025   -0.011717   -0.004638
O    -4.446681   -4.720169    1.643593   -0.001556    0.029675    0.035348
O     1.876385   -2.282514    3.062037   -0.046071    0.054404   -0.148288
O     6.358532   -1.033729    1.693146    0.132380    0.033827   -0.092838
H     0.025374    6.082014    0.152750   -0.027071    0.030461   -0.032293
H    -5.354384    3.340252    0.965940    0.010497   -0.002473   -0.021699
H    -5.667809   -2.706111   -0.375843   -0.007312   -0.002774   -0.046203
H    -0.482512   -5.954145   -0.321184   -0.044005   -0.062938    0.017199
H     5.132439   -3.266943    0.226800    0.024100   -0.056777   -0.067589
H     5.316283    2.884912   -0.600013   -0.020190   -0.040031    0.090914
H     1.861027    6.021985   -1.544103   -0.025229    0.010319   -0.023324
H    -4.189605    5.441868    0.505155    0.017106   -0.010278   -0.011498
H    -6.739836   -0.800829   -1.560694    0.033103    0.010837   -0.052022
H    -2.425567   -5.608633   -1.833248   -0.014253   -0.010139    0.008421
H     4.029911   -5.318136   -0.649097    0.042243   -0.029845   -0.123585
H     6.181466    1.009968   -1.953521   -0.059194   -0.021025    0.078251
H    -0.656001    5.661195   -2.084379   -0.015152   -0.021914   -0.027654
H    -4.876765    4.044511   -1.835708    0.078307   -0.012978   -0.029260
H    -4.573312   -2.017959   -2.888880    0.059923    0.022804   -0.023280
H     0.122552   -5.131235   -2.593419   -0.000824   -0.022536    0.015751
H     4.368189   -3.243128   -2.525188   -0.053506    0.072155   -0.028116
H     3.949233    2.375073   -2.996649   -0.079777   -0.046341    0.068422
H     1.117301    3.069154   -1.667103   -0.006896    0.005712    0.014773
H    -2.411524    3.880122   -1.430431    0.055166   -0.010676    0.023670
H    -3.878330    0.243934   -1.825482    0.040981   -0.000625   -0.007885
H    -1.535539   -2.683940   -1.754791    0.024537   -0.023264    0.025694
H     1.977315   -3.402937   -1.856630   -0.035056   -0.041125   -0.005944
H     3.284409    0.022977   -2.005884   -0.063355   -0.022553    0.050496
H     1.945310    4.105986   -3.632603   -0.012279   -0.131346   -0.004092
H    -2.912717    6.212944   -1.686124    0.034869   -0.030174   -0.005276
H    -5.593009    0.686294   -3.468003    0.109410    0.033759   -0.032623
H    -2.527491   -3.606778   -3.747586    0.052588    0.049667    0.008834
H     2.434678   -5.520098   -2.832959   -0.020856    0.024963   -0.099973
H     4.815346   -0.423387   -3.798174   -0.150157   -0.023345    0.035578
H     3.768055    4.305346   -0.794711    0.005553    0.007826   -0.023930
H    -1.625595    5.017669    1.308751   -0.001694    0.005579    0.035974
H    -6.169873    1.457636   -0.208801    0.032710   -0.005255   -0.017820
H    -4.093250   -4.013717   -0.751168    0.010498   -0.014181    0.008166
H     1.415551   -5.313674    0.456723    0.029390   -0.143455   -0.077517
H     5.682365   -1.281222   -0.644855   -0.038625   -0.009388    0.011223
H     1.721660    3.055089    1.099719    0.075116    0.146868    0.141465
H    -2.101772    2.160180    0.297393    0.019029   -0.009634    0.052580
H    -3.654937    0.081623    0.875686    0.005814   -0.050701   -0.005935
H    -1.802067   -2.788837    0.871273    0.017131   -0.016196   -0.002637
H     1.762938   -2.280914    0.471494    0.014820   -0.136461    0.050535
H     3.329503    0.064332    0.756693   -0.004117   -0.125175    0.206066
H     4.119679    3.132841    1.809951    0.071568    0.208795    0.021459
H     3.066756    4.178475    2.807756    0.125849    0.302705   -0.028845
H    -5.064888   -0.091282    2.940923    0.017143   -0.020351   -0.010946
H    -4.714782    1.602675    2.520028    0.027445   -0.024253   -0.015186
H    -4.058364   -2.772519    1.957051    0.021401    0.032303   -0.002027
H    -2.917943   -3.891753    2.762255    0.007736    0.035349    0.018642
H     4.917790    0.050340    2.689181    0.078453   -0.191767    0.073636
H     4.464631   -1.579783    2.128107    0.199406   -0.166783   -0.045871
H     3.825331    5.903750    1.455880    0.083899    0.171897   -0.269559
H    -7.100795    0.234906    1.925928    0.020381   -0.001385   -0.039263
H    -3.959030   -5.543293    1.495452   -0.006012    0.031319    0.015109
H     6.850610   -0.226833    1.485035    0.035946    0.085623   -0.129097
C     0.953294   -1.509730    3.810090   -0.090195   -0.057080   -0.080671
H     1.538996   -0.855557    4.449717   -0.127058    0.146945   -0.248747
H     0.284082   -2.140798    4.404551    0.148773   -0.156569    0.098817
O     0.387205   -3.919142    2.673833    0.082956   -0.120805    0.058981
C    -0.824392    0.321648    3.326802   -0.073975    0.025032    0.094956
H    -1.613519   -0.189896    3.878687   -0.099353    0.336084    0.374493
H    -0.310235    1.029857    3.979670    0.288250   -0.023564   -0.114469
O    -0.833709    3.009079    3.149246   -0.070124    0.005771    0.103359
C     0.100979   -0.748939    2.782505   -0.424711   -0.252714    0.067428
O    -0.221843   -1.395227    1.751392   -0.378017   -0.060478    0.057571
H     0.352677    0.605189   -0.582409   -0.068596    0.129873    0.086577
O     0.932456    1.208207   -0.063371    0.041017    0.154084   -0.018070
H     1.190283    0.720377    1.064914   -0.045655    0.479442   -0.836726
O     1.481095    0.314899    2.116728    0.060741    0.274495   -0.271086
O     1.795699    1.516546    2.880102    0.109806    0.205387   -0.183668
H     2.701513    1.286671    3.164480    0.241763    0.351245   -0.537367
H     1.784575    1.323139   -0.533665    0.068087   -0.004231   -0.046928
137
* Frequency(8)  -52.5235
C     0.562227    5.146823   -0.064150   -0.010265    0.033866   -0.006460
C    -4.364017    3.290458    0.501762    0.018711   -0.007600   -0.004643
C    -5.128376   -1.754655   -0.468458    0.005234   -0.007445   -0.027799
C    -0.921554   -4.949838   -0.435673   -0.010448   -0.047176    0.020987
C     4.074252   -3.220371   -0.059475    0.014470   -0.055598   -0.033914
C     4.725782    1.969449   -0.681129   -0.050239   -0.021022    0.083172
O    -0.296888    4.031792    0.048705    0.035458    0.018335    0.064010
O    -4.293345    2.279709   -0.455421    0.042561   -0.015432    0.013167
O    -3.753366   -1.971722   -0.675832    0.003224   -0.012701    0.005926
O     0.060602   -3.949636   -0.365436    0.023575   -0.079846    0.030747
O     3.751624   -2.021869   -0.692988   -0.026443   -0.033788    0.040178
O     3.349049    2.271855   -0.762812   -0.030634    0.016825    0.093571
C     1.147276    5.186300   -1.488244   -0.015664    0.001930   -0.012162
C    -4.023312    4.621754   -0.198089    0.030135   -0.012101   -0.006856
C    -5.663643   -0.949332   -1.664126    0.034512    0.005802   -0.034351
C    -1.646027   -4.831001   -1.788445   -0.002898   -0.021338    0.016709
C     3.733673   -4.347267   -1.054031    0.006669   -0.018464   -0.073738
C     5.107742    1.192496   -1.955560   -0.059088   -0.016325    0.072975
O     0.170898    5.332234   -2.485049   -0.013153   -0.028441   -0.015772
O    -4.853638    4.855772   -1.298683    0.048457   -0.015447   -0.021834
O    -5.466916   -1.614256   -2.880598    0.052832    0.012343   -0.035302
O    -0.797288   -4.976949   -2.893638   -0.001818   -0.029519    0.017192
O     4.432718   -4.186432   -2.256971   -0.024611    0.056794   -0.080506
O     4.810129    1.917514   -3.117491   -0.047431    0.001216    0.087092
C     1.880360    3.858720   -1.712118   -0.007107   -0.000376    0.013406
C    -2.546931    4.630457   -0.635859    0.037755   -0.012073    0.019307
C    -4.960742    0.415023   -1.667348    0.043400    0.002001   -0.013912
C    -2.320044   -3.452663   -1.833745    0.017103   -0.010152    0.017193
C     2.218169   -4.326630   -1.312742    0.000133   -0.049128   -0.039231
C     4.374604   -0.157305   -1.942106   -0.067317   -0.012492    0.052348
O     2.555629    3.811161   -2.947469    0.015353   -0.009482    0.024712
O    -2.190929    5.906453   -1.119342    0.028479   -0.006222    0.015701
O    -5.469185    1.241271   -2.683173    0.052008    0.015921   -0.010948
O    -3.065595   -3.275028   -3.011792    0.025952    0.001437    0.010733
O     1.819673   -5.442568   -2.076346    0.017707   -0.039972   -0.062606
O     4.779891   -0.978406   -3.011917   -0.056149   -0.008860    0.051017
C     2.925456    3.623006   -0.616451   -0.005498    0.032980    0.021198
C    -1.609937    4.247142    0.523259    0.023946    0.000295    0.039768
C    -5.129146    1.136647   -0.323840    0.032527   -0.009511   -0.009099
C    -3.266173   -3.299991   -0.641614    0.007348   -0.010686    0.009567
C     1.389747   -4.313590   -0.017272    0.022007   -0.116954   -0.022704
C     4.649825   -0.919978   -0.640697   -0.045041   -0.023060    0.037598
C     2.362214    3.869707    0.796751    0.038259    0.132593    0.021641
C    -2.127793    2.918138    1.086206    0.014618    0.000183    0.039154
C    -4.747651    0.207647    0.850087    0.012108   -0.024316   -0.014234
C    -2.526346   -3.591636    0.675809    0.010023   -0.005681    0.008954
C     1.953831   -3.245029    0.927283    0.040408   -0.155092    0.007696
C     4.409063   -0.035758    0.595544   -0.010474   -0.061347    0.072490
O     1.603375    5.077880    0.865293    0.023700    0.119909   -0.019788
O    -3.454532    3.070594    1.561312    0.001308    0.015035    0.017857
O    -5.368301   -1.073074    0.724273   -0.020727   -0.010170   -0.027782
O    -1.846114   -4.842310    0.611865   -0.003175   -0.020562    0.022202
O     3.343408   -3.400859    1.136108    0.049580   -0.122096   -0.017962
O     5.033234    1.245343    0.468443   -0.057867   -0.032665    0.094371
C     3.497895    4.010812    1.819042    0.081235    0.217641   -0.040563
C    -1.355951    2.359582    2.280795   -0.051734    0.001401    0.083418
C    -5.254952    0.709608    2.214220    0.022438   -0.021546   -0.014489
C    -3.504146   -3.708876    1.851498    0.013463    0.025958    0.012004
C     1.267437   -3.179921    2.293019    0.083073   -0.158065    0.019967
C     4.999717   -0.659222    1.870731    0.112442   -0.103188   -0.006864
O     4.352736    5.080190    1.500064    0.083678    0.172486   -0.157948
O    -1.415589    1.037717    2.232663   -0.096674    0.015354    0.124472
O    -6.617453    1.036089    2.173744    0.020025   -0.011717   -0.004638
O    -4.446501   -4.723588    1.639521   -0.001556    0.029675    0.035348
O     1.881693   -2.288782    3.079123   -0.046071    0.054404   -0.148288
O     6.343280   -1.037626    1.703842    0.132380    0.033827   -0.092838
H     0.028494    6.078504    0.156470   -0.027071    0.030461   -0.032293
H    -5.355593    3.340537    0.968440    0.010497   -0.002473   -0.021699
H    -5.666966   -2.705791   -0.370519   -0.007312   -0.002774   -0.046203
H    -0.477442   -5.946894   -0.323165   -0.044005   -0.062938    0.017199
H     5.129662   -3.260401    0.234588    0.024100   -0.056777   -0.067589
H     5.318610    2.889524   -0.610488   -0.020190   -0.040031    0.090914
H     1.863934    6.020796   -1.541415   -0.025229    0.010319   -0.023324
H    -4.191575    5.443052    0.506480    0.017106   -0.010278   -0.011498
H    -6.743650   -0.802078   -1.554700    0.033103    0.010837   -0.052022
H    -2.423924   -5.607464   -1.834218   -0.014253   -0.010139    0.008421
H     4.025044   -5.314697   -0.634858    0.042243   -0.029845   -0.123585
H     6.188286    1.012390   -1.962537   -0.059194   -0.021025    0.078251
H    -0.654255    5.663720   -2.081193   -0.015152   -0.021914   -0.027654
H    -4.885788    4.046006   -1.832336    0.078307   -0.012978   -0.029260
H    -4.580216   -2.020586   -2.886198    0.059923    0.022804   -0.023280
H     0.122647   -5.128639   -2.595234   -0.000824   -0.022536    0.015751
H     4.374354   -3.251442   -2.521948   -0.053506    0.072155   -0.028116
H     3.958425    2.380412   -3.004532   -0.079777   -0.046341    0.068422
H     1.118096    3.068496   -1.668805   -0.006896    0.005712    0.014773
H    -2.417880    3.881352   -1.433158    0.055166   -0.010676    0.023670
H    -3.883052    0.244006   -1.824574    0.040981   -0.000625   -0.007885
H    -1.538366   -2.681259   -1.757752    0.024537   -0.023264    0.025694
H     1.981354   -3.398199   -1.855946   -0.035056   -0.041125   -0.005944
H     3.291708    0.025575   -2.011702   -0.063355   -0.022553    0.050496
H     1.946725    4.121119   -3.632131   -0.012279   -0.131346   -0.004092
H    -2.916734    6.216420   -1.685517    0.034869   -0.030174   -0.005276
H    -5.605614    0.682405   -3.464244    0.109410    0.033759   -0.032623
H    -2.533550   -3.612501   -3.748604    0.052588    0.049667    0.008834
H     2.437081   -5.522975   -2.821440   -0.020856    0.024963   -0.099973
H     4.832646   -0.420697   -3.802273   -0.150157   -0.023345    0.035578
H     3.767415    4.304444   -0.791954    0.005553    0.007826   -0.023930
H    -1.625400    5.017026    1.304607   -0.001694    0.005579    0.035974
H    -6.173642    1.458242   -0.206748    0.032710   -0.005255   -0.017820
H    -4.094459   -4.012083   -0.752109    0.010498   -0.014181    0.008166
H     1.412164   -5.297146    0.465654    0.029390   -0.143455   -0.077517
H     5.686815   -1.280140   -0.646148   -0.038625   -0.009388    0.011223
H     1.713005    3.038167    1.083420    0.075116    0.146868    0.141465
H    -2.103965    2.161290    0.291335    0.019029   -0.009634    0.052580
H    -3.655607    0.087465    0.876370    0.005814   -0.050701   -0.005935
H    -1.804041   -2.786971    0.871576    0.017131   -0.016196   -0.002637
H     1.761231   -2.265191    0.465672    0.014820   -0.136461    0.050535
H     3.329977    0.078754    0.732951   -0.004117   -0.125175    0.206066
H     4.111434    3.108784    1.807478    0.071568    0.208795    0.021459
H     3.052257    4.143598    2.811079    0.125849    0.302705   -0.028845
H    -5.066863   -0.088937    2.942184    0.017143   -0.020351   -0.010946
H    -4.717944    1.605469    2.521778    0.027445   -0.024253   -0.015186
H    -4.060830   -2.776241    1.957284    0.021401    0.032303   -0.002027
H    -2.918834   -3.895826    2.760107    0.007736    0.035349    0.018642
H     4.908751    0.072435    2.680697    0.078453   -0.191767    0.073636
H     4.441657   -1.560567    2.133392    0.199406   -0.166783   -0.045871
H     3.815664    5.883944    1.486938    0.083899    0.171897   -0.269559
H    -7.103143    0.235065    1.930451    0.020381   -0.001385   -0.039263
H    -3.958337   -5.546902    1.493711   -0.006012    0.031319    0.015109
H     6.846468   -0.236698    1.499909    0.035946    0.085623   -0.129097
C     0.963686   -1.503153    3.819384   -0.090195   -0.057080   -0.080671
H     1.553635   -0.872488    4.478377   -0.127058    0.146945   -0.248747
H     0.266941   -2.122759    4.393165    0.148773   -0.156569    0.098817
O     0.377647   -3.905223    2.667038    0.082956   -0.120805    0.058981
C    -0.815869    0.318764    3.315862   -0.073975    0.025032    0.094956
H    -1.602072   -0.228618    3.835539   -0.099353    0.336084    0.374493
H    -0.343446    1.032572    3.992859    0.288250   -0.023564   -0.114469
O    -0.825630    3.008414    3.137337   -0.070124    0.005771    0.103359
C     0.149913   -0.719822    2.774736   -0.424711   -0.252714    0.067428
O    -0.178289   -1.388259    1.744758   -0.378017   -0.060478    0.057571
H     0.360581    0.590226   -0.592385   -0.068596    0.129873    0.086577
O     0.927730    1.190454   -0.061289    0.041017    0.154084   -0.018070
H     1.195543    0.665137    1.161318   -0.045655    0.479442   -0.836726
O     1.474096    0.283272    2.147961    0.060741    0.274495   -0.271086
O     1.783047    1.492882    2.901264    0.109806    0.205387   -0.183668
H     2.673658    1.246202    3.226393    0.241763    0.351245   -0.537367
H     1.776730    1.323627   -0.528258    0.068087   -0.004231   -0.046928
137
* Frequency(8)  -52.5235
C     0.563345    5.143132   -0.063446   -0.010265    0.033866   -0.006460
C    -4.366056    3.291286    0.502268    0.018711   -0.007600   -0.004643
C    -5.128947   -1.753844   -0.465429    0.005234   -0.007445   -0.027799
C    -0.920415   -4.944697   -0.437960   -0.010448   -0.047176    0.020987
C     4.072675   -3.214312   -0.055779    0.014470   -0.055598   -0.033914
C     4.731257    1.971739   -0.690193   -0.050239   -0.021022    0.083172
O    -0.300752    4.029794    0.041729    0.035458    0.018335    0.064010
O    -4.297983    2.281390   -0.456856    0.042561   -0.015432    0.013167
O    -3.753717   -1.970338   -0.676478    0.003224   -0.012701    0.005926
O     0.058033   -3.940935   -0.368786    0.023575   -0.079846    0.030747
O     3.754505   -2.018187   -0.697366   -0.026443   -0.033788    0.040178
O     3.352387    2.270022   -0.773009   -0.030634    0.016825    0.093571
C     1.148983    5.186089   -1.486919   -0.015664    0.001930   -0.012162
C    -4.026596    4.623073   -0.197341    0.030135   -0.012101   -0.006856
C    -5.667404   -0.949964   -1.660382    0.034512    0.005802   -0.034351
C    -1.645711   -4.828675   -1.790266   -0.002898   -0.021338    0.016709
C     3.732946   -4.345255   -1.045996    0.006669   -0.018464   -0.073738
C     5.114182    1.194275   -1.963513   -0.059088   -0.016325    0.072975
O     0.172332    5.335333   -2.483330   -0.013153   -0.028441   -0.015772
O    -4.858919    4.857456   -1.296304    0.048457   -0.015447   -0.021834
O    -5.472674   -1.615601   -2.876751    0.052832    0.012343   -0.035302
O    -0.797090   -4.973733   -2.895511   -0.001818   -0.029519    0.017192
O     4.435400   -4.192621   -2.248198   -0.024611    0.056794   -0.080506
O     4.815298    1.917382   -3.126982   -0.047431    0.001216    0.087092
C     1.881135    3.858761   -1.713579   -0.007107   -0.000376    0.013406
C    -2.551046    4.631772   -0.637963    0.037755   -0.012073    0.019307
C    -4.965471    0.414805   -1.665832    0.043400    0.002001   -0.013912
C    -2.321908   -3.451557   -1.835618    0.017103   -0.010152    0.017193
C     2.218154   -4.321277   -1.308467    0.000133   -0.049128   -0.039231
C     4.381940   -0.155944   -1.947811   -0.067317   -0.012492    0.052348
O     2.553956    3.812194   -2.950162    0.015353   -0.009482    0.024712
O    -2.194033    5.907131   -1.121053    0.028479   -0.006222    0.015701
O    -5.474852    1.239536   -2.681980    0.052008    0.015921   -0.010948
O    -3.068423   -3.275185   -3.012961    0.025952    0.001437    0.010733
O     1.817743   -5.438212   -2.069524    0.017707   -0.039972   -0.062606
O     4.786009   -0.977441   -3.017476   -0.056149   -0.008860    0.051017
C     2.926055    3.619412   -0.618761   -0.005498    0.032980    0.021198
C    -1.612546    4.247110    0.518926    0.023946    0.000295    0.039768
C    -5.132690    1.137684   -0.322849    0.032527   -0.009511   -0.009099
C    -3.266974   -3.298826   -0.642656    0.007348   -0.010686    0.009567
C     1.387349   -4.300845   -0.014798    0.022007   -0.116954   -0.022704
C     4.654734   -0.917465   -0.644794   -0.045041   -0.023060    0.037598
C     2.358045    3.855258    0.794393    0.038259    0.132593    0.021641
C    -2.129386    2.918118    1.081939    0.014618    0.000183    0.039154
C    -4.748970    0.210297    0.851638    0.012108   -0.024316   -0.014234
C    -2.527438   -3.591017    0.674834    0.010023   -0.005681    0.008954
C     1.949428   -3.228129    0.926444    0.040408   -0.155092    0.007696
C     4.410204   -0.029073    0.587644   -0.010474   -0.061347    0.072490
O     1.600793    5.064813    0.867450    0.023700    0.119909   -0.019788
O    -3.454675    3.068956    1.559366    0.001308    0.015035    0.017857
O    -5.366042   -1.071966    0.727300   -0.020727   -0.010170   -0.027782
O    -1.845768   -4.840069    0.609445   -0.003175   -0.020562    0.022202
O     3.338005   -3.387554    1.138066    0.049580   -0.122096   -0.017962
O     5.039540    1.248902    0.458159   -0.057867   -0.032665    0.094371
C     3.489042    3.987095    1.823462    0.081235    0.217641   -0.040563
C    -1.350313    2.359429    2.271704   -0.051734    0.001401    0.083418
C    -5.257397    0.711955    2.215799    0.022438   -0.021546   -0.014489
C    -3.505613   -3.711704    1.850190    0.013463    0.025958    0.012004
C     1.258384   -3.162696    2.290843    0.083073   -0.158065    0.019967
C     4.987464   -0.647977    1.871479    0.112442   -0.103188   -0.006864
O     4.343617    5.061394    1.517276    0.083678    0.172486   -0.157948
O    -1.405054    1.036044    2.219099   -0.096674    0.015354    0.124472
O    -6.619636    1.037366    2.174249    0.020025   -0.011717   -0.004638
O    -4.446332   -4.726822    1.635669   -0.001556    0.029675    0.035348
O     1.886714   -2.294711    3.095282   -0.046071    0.054404   -0.148288
O     6.328854   -1.041312    1.713959    0.132380    0.033827   -0.092838
H     0.031444    6.075185    0.159990   -0.027071    0.030461   -0.032293
H    -5.356737    3.340807    0.970805    0.010497   -0.002473   -0.021699
H    -5.666169   -2.705489   -0.365484   -0.007312   -0.002774   -0.046203
H    -0.472646   -5.940035   -0.325040   -0.044005   -0.062938    0.017199
H     5.127035   -3.254214    0.241953    0.024100   -0.056777   -0.067589
H     5.320810    2.893887   -0.620395   -0.020190   -0.040031    0.090914
H     1.866683    6.019672   -1.538874   -0.025229    0.010319   -0.023324
H    -4.193439    5.444172    0.507733    0.017106   -0.010278   -0.011498
H    -6.747258   -0.803259   -1.549031    0.033103    0.010837   -0.052022
H    -2.422371   -5.606359   -1.835136   -0.014253   -0.010139    0.008421
H     4.020441   -5.311445   -0.621390    0.042243   -0.029845   -0.123585
H     6.194736    1.014681   -1.971064   -0.059194   -0.021025    0.078251
H    -0.652604    5.666108   -2.078180   -0.015152   -0.021914   -0.027654
H    -4.894321    4.047421   -1.829148    0.078307   -0.012978   -0.029260
H    -4.586746   -2.023071   -2.883661    0.059923    0.022804   -0.023280
H     0.122737   -5.126183   -2.596950   -0.000824   -0.022536    0.015751
H     4.380184   -3.259305   -2.518884   -0.053506    0.072155   -0.028116
H     3.967118    2.385462   -3.011988   -0.079777   -0.046341    0.068422
H     1.118847    3.067874   -1.670415   -0.006896    0.005712    0.014773
H    -2.423891    3.882516   -1.435737    0.055166   -0.010676    0.023670
H    -3.887518    0.244074   -1.823715    0.040981   -0.000625   -0.007885
H    -1.541040   -2.678724   -1.760552    0.024537   -0.023264    0.025694
H     1.985174   -3.393717   -1.855298   -0.035056   -0.041125   -0.005944
H     3.298612    0.028033   -2.017205   -0.063355   -0.022553    0.050496
H     1.948063    4.135432   -3.631685   -0.012279   -0.131346   -0.004092
H    -2.920534    6.219708   -1.684942    0.034869   -0.030174   -0.005276
H    -5.617537    0.678726   -3.460689    0.109410    0.033759   -0.032623
H    -2.539280   -3.617913   -3.749566    0.052588    0.049667    0.008834
H     2.439353   -5.525695   -2.810546   -0.020856    0.024963   -0.099973
H     4.849010   -0.418153   -3.806150   -0.150157   -0.023345    0.035578
H     3.766810    4.303591   -0.789346    0.005553    0.007826   -0.023930
H    -1.625215    5.016418    1.300686   -0.001694    0.005579    0.035974
H    -6.177207    1.458814   -0.204806    0.032710   -0.005255   -0.017820
H    -4.095603   -4.010537   -0.752999    0.010498   -0.014181    0.008166
H     1.408962   -5.281513    0.474101    0.029390   -0.143455   -0.077517
H     5.691024   -1.279117   -0.647371   -0.038625   -0.009388    0.011223
H     1.704820    3.022163    1.068004    0.075116    0.146868    0.141465
H    -2.106038    2.162340    0.285605    0.019029   -0.009634    0.052580
H    -3.656240    0.092990    0.877017    0.005814   -0.050701   -0.005935
H    -1.805907   -2.785206    0.871864    0.017131   -0.016196   -0.002637
H     1.759616   -2.250320    0.460165    0.014820   -0.136461    0.050535
H     3.330426    0.092395    0.710495   -0.004117   -0.125175    0.206066
H     4.103635    3.086031    1.805140    0.071568    0.208795    0.021459
H     3.038542    4.110611    2.814223    0.125849    0.302705   -0.028845
H    -5.068731   -0.086720    2.943377    0.017143   -0.020351   -0.010946
H    -4.720935    1.608112    2.523433    0.027445   -0.024253   -0.015186
H    -4.063162   -2.779761    1.957505    0.021401    0.032303   -0.002027
H    -2.919677   -3.899678    2.758076    0.007736    0.035349    0.018642
H     4.900201    0.093332    2.672673    0.078453   -0.191767    0.073636
H     4.419927   -1.542392    2.138391    0.199406   -0.166783   -0.045871
H     3.806521    5.865212    1.516313    0.083899    0.171897   -0.269559
H    -7.105364    0.235216    1.934730    0.020381   -0.001385   -0.039263
H    -3.957682   -5.550315    1.492064   -0.006012    0.031319    0.015109
H     6.842551   -0.246029    1.513978    0.035946    0.085623   -0.129097
C     0.973515   -1.496933    3.828175   -0.090195   -0.057080   -0.080671
H     1.567481   -0.888501    4.505483   -0.127058    0.146945   -0.248747
H     0.250729   -2.105697    4.382397    0.148773   -0.156569    0.098817
O     0.368607   -3.892059    2.660610    0.082956   -0.120805    0.058981
C    -0.807807    0.316036    3.305514   -0.073975    0.025032    0.094956
H    -1.591245   -0.265242    3.794729   -0.099353    0.336084    0.374493
H    -0.374858    1.035140    4.005333    0.288250   -0.023564   -0.114469
O    -0.817988    3.007785    3.126074   -0.070124    0.005771    0.103359
C     0.196195   -0.692283    2.767388   -0.424711   -0.252714    0.067428
O    -0.137095   -1.381669    1.738485   -0.378017   -0.060478    0.057571
H     0.368056    0.576073   -0.601819   -0.068596    0.129873    0.086577
O     0.923260    1.173662   -0.059320    0.041017    0.154084   -0.018070
H     1.200518    0.612891    1.252499   -0.045655    0.479442   -0.836726
O     1.467477    0.253360    2.177503    0.060741    0.274495   -0.271086
O     1.771081    1.470500    2.921279    0.109806    0.205387   -0.183668
H     2.647312    1.207925    3.284952    0.241763    0.351245   -0.537367
H     1.769310    1.324088   -0.523144    0.068087   -0.004231   -0.046928
137
* Frequency(8)  -52.5235
C     0.564278    5.140053   -0.062858   -0.010265    0.033866   -0.006460
C    -4.367757    3.291977    0.502690    0.018711   -0.007600   -0.004643
C    -5.129423   -1.753167   -0.462901    0.005234   -0.007445   -0.027799
C    -0.919465   -4.940407   -0.439868   -0.010448   -0.047176    0.020987
C     4.071359   -3.209257   -0.052696    0.014470   -0.055598   -0.033914
C     4.735824    1.973651   -0.697755   -0.050239   -0.021022    0.083172
O    -0.303976    4.028127    0.035909    0.035458    0.018335    0.064010
O    -4.301852    2.282793   -0.458053    0.042561   -0.015432    0.013167
O    -3.754010   -1.969183   -0.677017    0.003224   -0.012701    0.005926
O     0.055890   -3.933675   -0.371582    0.023575   -0.079846    0.030747
O     3.756909   -2.015114   -0.701020   -0.026443   -0.033788    0.040178
O     3.355172    2.268492   -0.781517   -0.030634    0.016825    0.093571
C     1.150407    5.185914   -1.485813   -0.015664    0.001930   -0.012162
C    -4.029336    4.624173   -0.196718    0.030135   -0.012101   -0.006856
C    -5.670542   -0.950492   -1.657259    0.034512    0.005802   -0.034351
C    -1.645447   -4.826735   -1.791785   -0.002898   -0.021338    0.016709
C     3.732340   -4.343576   -1.039291    0.006669   -0.018464   -0.073738
C     5.119554    1.195759   -1.970148   -0.059088   -0.016325    0.072975
O     0.173527    5.337919   -2.481896   -0.013153   -0.028441   -0.015772
O    -4.863324    4.858860   -1.294319    0.048457   -0.015447   -0.021834
O    -5.477477   -1.616724   -2.873541    0.052832    0.012343   -0.035302
O    -0.796925   -4.971049   -2.897074   -0.001818   -0.029519    0.017192
O     4.437637   -4.197785   -2.240878   -0.024611    0.056794   -0.080506
O     4.819610    1.917271   -3.134900   -0.047431    0.001216    0.087092
C     1.881781    3.858796   -1.714798   -0.007107   -0.000376    0.013406
C    -2.554478    4.632870   -0.639719    0.037755   -0.012073    0.019307
C    -4.969417    0.414623   -1.664567    0.043400    0.002001   -0.013912
C    -2.323463   -3.450634   -1.837181    0.017103   -0.010152    0.017193
C     2.218142   -4.316810   -1.304900    0.000133   -0.049128   -0.039231
C     4.388060   -0.154808   -1.952570   -0.067317   -0.012492    0.052348
O     2.552560    3.813056   -2.952409    0.015353   -0.009482    0.024712
O    -2.196622    5.907696   -1.122481    0.028479   -0.006222    0.015701
O    -5.479581    1.238088   -2.680984    0.052008    0.015921   -0.010948
O    -3.070783   -3.275315   -3.013937    0.025952    0.001437    0.010733
O     1.816133   -5.434577   -2.063832    0.017707   -0.039972   -0.062606
O     4.791115   -0.976635   -3.022115   -0.056149   -0.008860    0.051017
C     2.926555    3.616413   -0.620688   -0.005498    0.032980    0.021198
C    -1.614724    4.247083    0.515310    0.023946    0.000295    0.039768
C    -5.135648    1.138548   -0.322021    0.032527   -0.009511   -0.009099
C    -3.267642   -3.297855   -0.643526    0.007348   -0.010686    0.009567
C     1.385348   -4.290211   -0.012734    0.022007   -0.116954   -0.022704
C     4.658829   -0.915368   -0.648213   -0.045041   -0.023060    0.037598
C     2.354566    3.843202    0.792425    0.038259    0.132593    0.021641
C    -2.130715    2.918101    1.078379    0.014618    0.000183    0.039154
C    -4.750071    0.212508    0.852932    0.012108   -0.024316   -0.014234
C    -2.528350   -3.590501    0.674020    0.010023   -0.005681    0.008954
C     1.945754   -3.214027    0.925744    0.040408   -0.155092    0.007696
C     4.411156   -0.023495    0.581053   -0.010474   -0.061347    0.072490
O     1.598638    5.053911    0.869249    0.023700    0.119909   -0.019788
O    -3.454794    3.067589    1.557743    0.001308    0.015035    0.017857
O    -5.364158   -1.071041    0.729826   -0.020727   -0.010170   -0.027782
O    -1.845479   -4.838200    0.607426   -0.003175   -0.020562    0.022202
O     3.333497   -3.376453    1.139699    0.049580   -0.122096   -0.017962
O     5.044801    1.251872    0.449579   -0.057867   -0.032665    0.094371
C     3.481656    3.967306    1.827150    0.081235    0.217641   -0.040563
C    -1.345610    2.359302    2.264120   -0.051734    0.001401    0.083418
C    -5.259437    0.713914    2.217117    0.022438   -0.021546   -0.014489
C    -3.506837   -3.714065    1.849098    0.013463    0.025958    0.012004
C     1.250831   -3.148324    2.289028    0.083073   -0.158065    0.019967
C     4.977240   -0.638595    1.872103    0.112442   -0.103188   -0.006864
O     4.336009    5.045711    1.531637    0.083678    0.172486   -0.157948
O    -1.396264    1.034648    2.207782   -0.096674    0.015354    0.124472
O    -6.621456    1.038432    2.174671    0.020025   -0.011717   -0.004638
O    -4.446190   -4.729520    1.632455   -0.001556    0.029675    0.035348
O     1.890903   -2.299657    3.108765   -0.046071    0.054404   -0.148288
O     6.316818   -1.044388    1.722400    0.132380    0.033827   -0.092838
H     0.033905    6.072415    0.162926   -0.027071    0.030461   -0.032293
H    -5.357692    3.341032    0.972778    0.010497   -0.002473   -0.021699
H    -5.665504   -2.705237   -0.361284   -0.007312   -0.002774   -0.046203
H    -0.468645   -5.934313   -0.326603   -0.044005   -0.062938    0.017199
H     5.124844   -3.249052    0.248098    0.024100   -0.056777   -0.067589
H     5.322646    2.897527   -0.628661   -0.020190   -0.040031    0.090914
H     1.868977    6.018733   -1.536753   -0.025229    0.010319   -0.023324
H    -4.194995    5.445107    0.508778    0.017106   -0.010278   -0.011498
H    -6.750267   -0.804244   -1.544301    0.033103    0.010837   -0.052022
H    -2.421075   -5.605438   -1.835901   -0.014253   -0.010139    0.008421
H     4.016600   -5.308731   -0.610154    0.042243   -0.029845   -0.123585
H     6.200118    1.016593   -1.978179   -0.059194   -0.021025    0.078251
H    -0.651226    5.668100   -2.075665   -0.015152   -0.021914   -0.027654
H    -4.901441    4.048601   -1.826487    0.078307   -0.012978   -0.029260
H    -4.592194   -2.025145   -2.881544    0.059923    0.022804   -0.023280
H     0.122812   -5.124134   -2.598383   -0.000824   -0.022536    0.015751
H     4.385049   -3.265865   -2.516328   -0.053506    0.072155   -0.028116
H     3.974372    2.389675   -3.018209   -0.079777   -0.046341    0.068422
H     1.119474    3.067354   -1.671758   -0.006896    0.005712    0.014773
H    -2.428907    3.883486   -1.437889    0.055166   -0.010676    0.023670
H    -3.891244    0.244131   -1.822998    0.040981   -0.000625   -0.007885
H    -1.543271   -2.676609   -1.762888    0.024537   -0.023264    0.025694
H     1.988362   -3.389978   -1.854757   -0.035056   -0.041125   -0.005944
H     3.304373    0.030084   -2.021796   -0.063355   -0.022553    0.050496
H     1.949179    4.147374   -3.631313   -0.012279   -0.131346   -0.004092
H    -2.923705    6.222452   -1.684462    0.034869   -0.030174   -0.005276
H    -5.627485    0.675657   -3.457723    0.109410    0.033759   -0.032623
H    -2.544062   -3.622429   -3.750369    0.052588    0.049667    0.008834
H     2.441250   -5.527964   -2.801456   -0.020856    0.024963   -0.099973
H     4.862662   -0.416031   -3.809385   -0.150157   -0.023345    0.035578
H     3.766305    4.302880   -0.787170    0.005553    0.007826   -0.023930
H    -1.625061    5.015911    1.297415   -0.001694    0.005579    0.035974
H    -6.180181    1.459292   -0.203186    0.032710   -0.005255   -0.017820
H    -4.096558   -4.009248   -0.753741    0.010498   -0.014181    0.008166
H     1.406290   -5.268470    0.481149    0.029390   -0.143455   -0.077517
H     5.694536   -1.278264   -0.648392   -0.038625   -0.009388    0.011223
H     1.697990    3.008809    1.055141    0.075116    0.146868    0.141465
H    -2.107769    2.163216    0.280824    0.019029   -0.009634    0.052580
H    -3.656769    0.097600    0.877557    0.005814   -0.050701   -0.005935
H    -1.807465   -2.783733    0.872103    0.017131   -0.016196   -0.002637
H     1.758268   -2.237913    0.455570    0.014820   -0.136461    0.050535
H     3.330800    0.103776    0.691759   -0.004117   -0.125175    0.206066
H     4.097127    3.067047    1.803189    0.071568    0.208795    0.021459
H     3.027100    4.083089    2.816845    0.125849    0.302705   -0.028845
H    -5.070290   -0.084869    2.944372    0.017143   -0.020351   -0.010946
H    -4.723431    1.610317    2.524814    0.027445   -0.024253   -0.015186
H    -4.065108   -2.782698    1.957689    0.021401    0.032303   -0.002027
H    -2.920380   -3.902892    2.756381    0.007736    0.035349    0.018642
H     4.893068    0.110768    2.665977    0.078453   -0.191767    0.073636
H     4.401796   -1.527228    2.142562    0.199406   -0.166783   -0.045871
H     3.798893    5.849583    1.540822    0.083899    0.171897   -0.269559
H    -7.107217    0.235342    1.938300    0.020381   -0.001385   -0.039263
H    -3.957136   -5.553162    1.490691   -0.006012    0.031319    0.015109
H     6.839283   -0.253814    1.525715    0.035946    0.085623   -0.129097
C     0.981715   -1.491743    3.835510   -0.090195   -0.057080   -0.080671
H     1.579033   -0.901861    4.528100   -0.127058    0.146945   -0.248747
H     0.237202   -2.091461    4.373412    0.148773   -0.156569    0.098817
O     0.361065   -3.881075    2.655248    0.082956   -0.120805    0.058981
C    -0.801081    0.313760    3.296881   -0.073975    0.025032    0.094956
H    -1.582211   -0.295800    3.760679   -0.099353    0.336084    0.374493
H    -0.401066    1.037282    4.015741    0.288250   -0.023564   -0.114469
O    -0.811612    3.007261    3.116677   -0.070124    0.005771    0.103359
C     0.234810   -0.669305    2.761258   -0.424711   -0.252714    0.067428
O    -0.102725   -1.376170    1.733250   -0.378017   -0.060478    0.057571
H     0.374293    0.564265   -0.609691   -0.068596    0.129873    0.086577
O     0.919531    1.159653   -0.057677    0.041017    0.154084   -0.018070
H     1.204669    0.569299    1.328576   -0.045655    0.479442   -0.836726
O     1.461954    0.228402    2.202150    0.060741    0.274495   -0.271086
O     1.761098    1.451826    2.937979    0.109806    0.205387   -0.183668
H     2.625331    1.175990    3.333811    0.241763    0.351245   -0.537367
H     1.763120    1.324473   -0.518877    0.068087   -0.004231   -0.046928
137
* Frequency(8)  -52.5235
C     0.564925    5.137919   -0.062451   -0.010265    0.033866   -0.006460
C    -4.368936    3.292456    0.502983    0.018711   -0.007600   -0.004643
C    -5.129753   -1.752698   -0.461150    0.005234   -0.007445   -0.027799
C    -0.918807   -4.937435   -0.441191   -0.010448   -0.047176    0.020987
C     4.070447   -3.205754   -0.050558    0.014470   -0.055598   -0.033914
C     4.738990    1.974976   -0.702996   -0.050239   -0.021022    0.083172
O    -0.306210    4.026972    0.031876    0.035458    0.018335    0.064010
O    -4.304534    2.283766   -0.458883    0.042561   -0.015432    0.013167
O    -3.754213   -1.968383   -0.677390    0.003224   -0.012701    0.005926
O     0.054404   -3.928643   -0.373519    0.023575   -0.079846    0.030747
O     3.758576   -2.012985   -0.703552   -0.026443   -0.033788    0.040178
O     3.357103    2.267432   -0.787413   -0.030634    0.016825    0.093571
C     1.151394    5.185792   -1.485047   -0.015664    0.001930   -0.012162
C    -4.031235    4.624936   -0.196286    0.030135   -0.012101   -0.006856
C    -5.672716   -0.950857   -1.655094    0.034512    0.005802   -0.034351
C    -1.645265   -4.825391   -1.792838   -0.002898   -0.021338    0.016709
C     3.731919   -4.342413   -1.034645    0.006669   -0.018464   -0.073738
C     5.123277    1.196788   -1.974746   -0.059088   -0.016325    0.072975
O     0.174356    5.339711   -2.480902   -0.013153   -0.028441   -0.015772
O    -4.866378    4.859833   -1.292943    0.048457   -0.015447   -0.021834
O    -5.480807   -1.617501   -2.871317    0.052832    0.012343   -0.035302
O    -0.796810   -4.969189   -2.898158   -0.001818   -0.029519    0.017192
O     4.439188   -4.201364   -2.235805   -0.024611    0.056794   -0.080506
O     4.822599    1.917194   -3.140389   -0.047431    0.001216    0.087092
C     1.882229    3.858819   -1.715643   -0.007107   -0.000376    0.013406
C    -2.556858    4.633631   -0.640935    0.037755   -0.012073    0.019307
C    -4.972152    0.414497   -1.663691    0.043400    0.002001   -0.013912
C    -2.324540   -3.449994   -1.838265    0.017103   -0.010152    0.017193
C     2.218134   -4.313714   -1.302428    0.000133   -0.049128   -0.039231
C     4.392303   -0.154021   -1.955869   -0.067317   -0.012492    0.052348
O     2.551593    3.813654   -2.953967    0.015353   -0.009482    0.024712
O    -2.198417    5.908089   -1.123470    0.028479   -0.006222    0.015701
O    -5.482859    1.237085   -2.680294    0.052008    0.015921   -0.010948
O    -3.072418   -3.275406   -3.014614    0.025952    0.001437    0.010733
O     1.815018   -5.432058   -2.059886    0.017707   -0.039972   -0.062606
O     4.794653   -0.976077   -3.025330   -0.056149   -0.008860    0.051017
C     2.926902    3.614335   -0.622024   -0.005498    0.032980    0.021198
C    -1.616233    4.247065    0.512804    0.023946    0.000295    0.039768
C    -5.137697    1.139148   -0.321448    0.032527   -0.009511   -0.009099
C    -3.268105   -3.297181   -0.644129    0.007348   -0.010686    0.009567
C     1.383961   -4.282841   -0.011303    0.022007   -0.116954   -0.022704
C     4.661667   -0.913915   -0.650582   -0.045041   -0.023060    0.037598
C     2.352155    3.834847    0.791061    0.038259    0.132593    0.021641
C    -2.131636    2.918090    1.075911    0.014618    0.000183    0.039154
C    -4.750834    0.214040    0.853829    0.012108   -0.024316   -0.014234
C    -2.528981   -3.590143    0.673455    0.010023   -0.005681    0.008954
C     1.943207   -3.204254    0.925259    0.040408   -0.155092    0.007696
C     4.411817   -0.019629    0.576485   -0.010474   -0.061347    0.072490
O     1.597144    5.046355    0.870496    0.023700    0.119909   -0.019788
O    -3.454876    3.066641    1.556617    0.001308    0.015035    0.017857
O    -5.362851   -1.070400    0.731577   -0.020727   -0.010170   -0.027782
O    -1.845279   -4.836904    0.606027   -0.003175   -0.020562    0.022202
O     3.330373   -3.368759    1.140831    0.049580   -0.122096   -0.017962
O     5.048448    1.253931    0.443632   -0.057867   -0.032665    0.094371
C     3.476537    3.953591    1.829707    0.081235    0.217641   -0.040563
C    -1.342350    2.359214    2.258863   -0.051734    0.001401    0.083418
C    -5.260851    0.715272    2.218030    0.022438   -0.021546   -0.014489
C    -3.507686   -3.715700    1.848342    0.013463    0.025958    0.012004
C     1.245596   -3.138363    2.287770    0.083073   -0.158065    0.019967
C     4.970155   -0.632093    1.872535    0.112442   -0.103188   -0.006864
O     4.330736    5.034841    1.541590    0.083678    0.172486   -0.157948
O    -1.390172    1.033681    2.199938   -0.096674    0.015354    0.124472
O    -6.622718    1.039170    2.174963    0.020025   -0.011717   -0.004638
O    -4.446092   -4.731390    1.630227   -0.001556    0.029675    0.035348
O     1.893806   -2.303085    3.118109   -0.046071    0.054404   -0.148288
O     6.308476   -1.046520    1.728250    0.132380    0.033827   -0.092838
H     0.035611    6.070496    0.164961   -0.027071    0.030461   -0.032293
H    -5.358353    3.341187    0.974145    0.010497   -0.002473   -0.021699
H    -5.665044   -2.705062   -0.358372   -0.007312   -0.002774   -0.046203
H    -0.465872   -5.930347   -0.327687   -0.044005   -0.062938    0.017199
H     5.123325   -3.245474    0.252357    0.024100   -0.056777   -0.067589
H     5.323918    2.900049   -0.634390   -0.020190   -0.040031    0.090914
H     1.870567    6.018083   -1.535283   -0.025229    0.010319   -0.023324
H    -4.196073    5.445754    0.509503    0.017106   -0.010278   -0.011498
H    -6.752354   -0.804927   -1.541023    0.033103    0.010837   -0.052022
H    -2.420177   -5.604799   -1.836432   -0.014253   -0.010139    0.008421
H     4.013938   -5.306850   -0.602366    0.042243   -0.029845   -0.123585
H     6.203849    1.017918   -1.983110   -0.059194   -0.021025    0.078251
H    -0.650271    5.669481   -2.073923   -0.015152   -0.021914   -0.027654
H    -4.906376    4.049418   -1.824644    0.078307   -0.012978   -0.029260
H    -4.595970   -2.026582   -2.880077    0.059923    0.022804   -0.023280
H     0.122864   -5.122714   -2.599375   -0.000824   -0.022536    0.015751
H     4.388421   -3.270412   -2.514556   -0.053506    0.072155   -0.028116
H     3.979399    2.392596   -3.022521   -0.079777   -0.046341    0.068422
H     1.119909    3.066994   -1.672689   -0.006896    0.005712    0.014773
H    -2.432383    3.884159   -1.439381    0.055166   -0.010676    0.023670
H    -3.893826    0.244170   -1.822501    0.040981   -0.000625   -0.007885
H    -1.544817   -2.675143   -1.764507    0.024537   -0.023264    0.025694
H     1.990571   -3.387387   -1.854383   -0.035056   -0.041125   -0.005944
H     3.308365    0.031505   -2.024978   -0.063355   -0.022553    0.050496
H     1.949953    4.155651   -3.631055   -0.012279   -0.131346   -0.004092
H    -2.925902    6.224353   -1.684130    0.034869   -0.030174   -0.005276
H    -5.634380    0.673529   -3.455667    0.109410    0.033759   -0.032623
H    -2.547376   -3.625559   -3.750926    0.052588    0.049667    0.008834
H     2.442564   -5.529537   -2.795156   -0.020856    0.024963   -0.099973
H     4.872125   -0.414560   -3.811627   -0.150157   -0.023345    0.035578
H     3.765955    4.302387   -0.785662    0.005553    0.007826   -0.023930
H    -1.624955    5.015559    1.295148   -0.001694    0.005579    0.035974
H    -6.182242    1.459623   -0.202063    0.032710   -0.005255   -0.017820
H    -4.097219   -4.008354   -0.754256    0.010498   -0.014181    0.008166
H     1.404438   -5.259430    0.486034    0.029390   -0.143455   -0.077517
H     5.696970   -1.277672   -0.649099   -0.038625   -0.009388    0.011223
H     1.693257    2.999554    1.046226    0.075116    0.146868    0.141465
H    -2.108968    2.163823    0.277510    0.019029   -0.009634    0.052580
H    -3.657135    0.100795    0.877931    0.005814   -0.050701   -0.005935
H    -1.808545   -2.782712    0.872270    0.017131   -0.016196   -0.002637
H     1.757334   -2.229314    0.452386    0.014820   -0.136461    0.050535
H     3.331059    0.111664    0.678774   -0.004117   -0.125175    0.206066
H     4.092617    3.053889    1.801837    0.071568    0.208795    0.021459
H     3.019169    4.064013    2.818663    0.125849    0.302705   -0.028845
H    -5.071370   -0.083587    2.945062    0.017143   -0.020351   -0.010946
H    -4.725160    1.611846    2.525771    0.027445   -0.024253   -0.015186
H    -4.066456   -2.784734    1.957817    0.021401    0.032303   -0.002027
H    -2.920868   -3.905119    2.755206    0.007736    0.035349    0.018642
H     4.888124    0.122853    2.661337    0.078453   -0.191767    0.073636
H     4.389230   -1.516717    2.145453    0.199406   -0.166783   -0.045871
H     3.793606    5.838751    1.557808    0.083899    0.171897   -0.269559
H    -7.108502    0.235429    1.940774    0.020381   -0.001385   -0.039263
H    -3.956757   -5.555136    1.489739   -0.006012    0.031319    0.015109
H     6.837018   -0.259210    1.533851    0.035946    0.085623   -0.129097
C     0.987399   -1.488146    3.840594   -0.090195   -0.057080   -0.080671
H     1.587040   -0.911121    4.543775   -0.127058    0.146945   -0.248747
H     0.227827   -2.081595    4.367185    0.148773   -0.156569    0.098817
O     0.355837   -3.873462    2.651531    0.082956   -0.120805    0.058981
C    -0.796420    0.312183    3.290897   -0.073975    0.025032    0.094956
H    -1.575951   -0.316979    3.737080   -0.099353    0.336084    0.374493
H    -0.419231    1.038767    4.022954    0.288250   -0.023564   -0.114469
O    -0.807193    3.006897    3.110163   -0.070124    0.005771    0.103359
C     0.261574   -0.653380    2.757009   -0.424711   -0.252714    0.067428
O    -0.078904   -1.372359    1.729622   -0.378017   -0.060478    0.057571
H     0.378615    0.556081   -0.615147   -0.068596    0.129873    0.086577
O     0.916946    1.149943   -0.056538    0.041017    0.154084   -0.018070
H     1.207546    0.539086    1.381304   -0.045655    0.479442   -0.836726
O     1.458127    0.211104    2.219233    0.060741    0.274495   -0.271086
O     1.754178    1.438883    2.949553    0.109806    0.205387   -0.183668
H     2.610095    1.153855    3.367674    0.241763    0.351245   -0.537367
H     1.758829    1.324739   -0.515920    0.068087   -0.004231   -0.046928
137
* Frequency(8)  -52.5235
C     0.565216    5.136961   -0.062268   -0.010265    0.033866   -0.006460
C    -4.369465    3.292671    0.503114    0.018711   -0.007600   -0.004643
C    -5.129901   -1.752487   -0.460363    0.005234   -0.007445   -0.027799
C    -0.918511   -4.936100   -0.441785   -0.010448   -0.047176    0.020987
C     4.070038   -3.204181   -0.049599    0.014470   -0.055598   -0.033914
C     4.740411    1.975570   -0.705349   -0.050239   -0.021022    0.083172
O    -0.307213    4.026453    0.030065    0.035458    0.018335    0.064010
O    -4.305738    2.284202   -0.459255    0.042561   -0.015432    0.013167
O    -3.754305   -1.968024   -0.677558    0.003224   -0.012701    0.005926
O     0.053737   -3.926385   -0.374389    0.023575   -0.079846    0.030747
O     3.759324   -2.012030   -0.704688   -0.026443   -0.033788    0.040178
O     3.357969    2.266956   -0.790060   -0.030634    0.016825    0.093571
C     1.151837    5.185738   -1.484703   -0.015664    0.001930   -0.012162
C    -4.032087    4.625278   -0.196092    0.030135   -0.012101   -0.006856
C    -5.673693   -0.951021   -1.654123    0.034512    0.005802   -0.034351
C    -1.645183   -4.824787   -1.793310   -0.002898   -0.021338    0.016709
C     3.731731   -4.341891   -1.032559    0.006669   -0.018464   -0.073738
C     5.124949    1.197249   -1.976810   -0.059088   -0.016325    0.072975
O     0.174728    5.340516   -2.480456   -0.013153   -0.028441   -0.015772
O    -4.867749    4.860270   -1.292325    0.048457   -0.015447   -0.021834
O    -5.482301   -1.617850   -2.870318    0.052832    0.012343   -0.035302
O    -0.796759   -4.968354   -2.898644   -0.001818   -0.029519    0.017192
O     4.439884   -4.202970   -2.233528   -0.024611    0.056794   -0.080506
O     4.823941    1.917160   -3.142852   -0.047431    0.001216    0.087092
C     1.882430    3.858830   -1.716022   -0.007107   -0.000376    0.013406
C    -2.557925    4.633972   -0.641482    0.037755   -0.012073    0.019307
C    -4.973380    0.414440   -1.663297    0.043400    0.002001   -0.013912
C    -2.325024   -3.449707   -1.838751    0.017103   -0.010152    0.017193
C     2.218130   -4.312324   -1.301318    0.000133   -0.049128   -0.039231
C     4.394207   -0.153668   -1.957350   -0.067317   -0.012492    0.052348
O     2.551159    3.813922   -2.954666    0.015353   -0.009482    0.024712
O    -2.199222    5.908264   -1.123914    0.028479   -0.006222    0.015701
O    -5.484330    1.236635   -2.679985    0.052008    0.015921   -0.010948
O    -3.073152   -3.275446   -3.014917    0.025952    0.001437    0.010733
O     1.814517   -5.430928   -2.058116    0.017707   -0.039972   -0.062606
O     4.796241   -0.975826   -3.026773   -0.056149   -0.008860    0.051017
C     2.927057    3.613402   -0.622624   -0.005498    0.032980    0.021198
C    -1.616910    4.247056    0.511679    0.023946    0.000295    0.039768
C    -5.138617    1.139417   -0.321191    0.032527   -0.009511   -0.009099
C    -3.268313   -3.296879   -0.644400    0.007348   -0.010686    0.009567
C     1.383339   -4.279533   -0.010661    0.022007   -0.116954   -0.022704
C     4.662941   -0.913263   -0.651646   -0.045041   -0.023060    0.037598
C     2.351073    3.831096    0.790449    0.038259    0.132593    0.021641
C    -2.132050    2.918085    1.074804    0.014618    0.000183    0.039154
C    -4.751177    0.214728    0.854231    0.012108   -0.024316   -0.014234
C    -2.529265   -3.589982    0.673202    0.010023   -0.005681    0.008954
C     1.942064   -3.199867    0.925042    0.040408   -0.155092    0.007696
C     4.412113   -0.017894    0.574435   -0.010474   -0.061347    0.072490
O     1.596474    5.042963    0.871055    0.023700    0.119909   -0.019788
O    -3.454913    3.066216    1.556112    0.001308    0.015035    0.017857
O    -5.362265   -1.070113    0.732363   -0.020727   -0.010170   -0.027782
O    -1.845189   -4.836323    0.605399   -0.003175   -0.020562    0.022202
O     3.328971   -3.365305    1.141339    0.049580   -0.122096   -0.017962
O     5.050084    1.254855    0.440963   -0.057867   -0.032665    0.094371
C     3.474239    3.947436    1.830854    0.081235    0.217641   -0.040563
C    -1.340886    2.359174    2.256504   -0.051734    0.001401    0.083418
C    -5.261486    0.715882    2.218440    0.022438   -0.021546   -0.014489
C    -3.508066   -3.716435    1.848002    0.013463    0.025958    0.012004
C     1.243246   -3.133893    2.287205    0.083073   -0.158065    0.019967
C     4.966974   -0.629174    1.872730    0.112442   -0.103188   -0.006864
O     4.328369    5.029963    1.546058    0.083678    0.172486   -0.157948
O    -1.387438    1.033246    2.196417   -0.096674    0.015354    0.124472
O    -6.623285    1.039502    2.175094    0.020025   -0.011717   -0.004638
O    -4.446048   -4.732229    1.629227   -0.001556    0.029675    0.035348
O     1.895109   -2.304624    3.122303   -0.046071    0.054404   -0.148288
O     6.304731   -1.047476    1.730876    0.132380    0.033827   -0.092838
H     0.036377    6.069634    0.165874   -0.027071    0.030461   -0.032293
H    -5.358650    3.341257    0.974759    0.010497   -0.002473   -0.021699
H    -5.664837   -2.704984   -0.357065   -0.007312   -0.002774   -0.046203
H    -0.464627   -5.928566   -0.328174   -0.044005   -0.062938    0.017199
H     5.122644   -3.243868    0.254269    0.024100   -0.056777   -0.067589
H     5.324489    2.901181   -0.636962   -0.020190   -0.040031    0.090914
H     1.871280    6.017791   -1.534623   -0.025229    0.010319   -0.023324
H    -4.196556    5.446045    0.509828    0.017106   -0.010278   -0.011498
H    -6.753290   -0.805234   -1.539552    0.033103    0.010837   -0.052022
H    -2.419774   -5.604512   -1.836670   -0.014253   -0.010139    0.008421
H     4.012743   -5.306006   -0.598870    0.042243   -0.029845   -0.123585
H     6.205523    1.018513   -1.985323   -0.059194   -0.021025    0.078251
H    -0.649843    5.670101   -2.073141   -0.015152   -0.021914   -0.027654
H    -4.908591    4.049785   -1.823816    0.078307   -0.012978   -0.029260
H    -4.597665   -2.027227   -2.879418    0.059923    0.022804   -0.023280
H     0.122887   -5.122076   -2.599821   -0.000824   -0.022536    0.015751
H     4.389935   -3.272453   -2.513761   -0.053506    0.072155   -0.028116
H     3.981655    2.393906   -3.024456   -0.079777   -0.046341    0.068422
H     1.120104    3.066833   -1.673107   -0.006896    0.005712    0.014773
H    -2.433944    3.884461   -1.440050    0.055166   -0.010676    0.023670
H    -3.894985    0.244188   -1.822278    0.040981   -0.000625   -0.007885
H    -1.545511   -2.674485   -1.765234    0.024537   -0.023264    0.025694
H     1.991562   -3.386223   -1.854215   -0.035056   -0.041125   -0.005944
H     3.310157    0.032143   -2.026406   -0.063355   -0.022553    0.050496
H     1.950300    4.159366   -3.630940   -0.012279   -0.131346   -0.004092
H    -2.926888    6.225206   -1.683980    0.034869   -0.030174   -0.005276
H    -5.637474    0.672574   -3.454744    0.109410    0.033759   -0.032623
H    -2.548863   -3.626963   -3.751176    0.052588    0.049667    0.008834
H     2.443154   -5.530244   -2.792328   -0.020856    0.024963   -0.099973
H     4.876372   -0.413899   -3.812633   -0.150157   -0.023345    0.035578
H     3.765798    4.302165   -0.784985    0.005553    0.007826   -0.023930
H    -1.624907    5.015401    1.294131   -0.001694    0.005579    0.035974
H    -6.183167    1.459772   -0.201559    0.032710   -0.005255   -0.017820
H    -4.097516   -4.007953   -0.754487    0.010498   -0.014181    0.008166
H     1.403606   -5.255372    0.488227    0.029390   -0.143455   -0.077517
H     5.698063   -1.277406   -0.649416   -0.038625   -0.009388    0.011223
H     1.691132    2.995400    1.042225    0.075116    0.146868    0.141465
H    -2.109506    2.164096    0.276023    0.019029   -0.009634    0.052580
H    -3.657300    0.102229    0.878098    0.005814   -0.050701   -0.005935
H    -1.809029   -2.782254    0.872344    0.017131   -0.016196   -0.002637
H     1.756915   -2.225454    0.450956    0.014820   -0.136461    0.050535
H     3.331176    0.115204    0.672945   -0.004117   -0.125175    0.206066
H     4.090593    3.047984    1.801230    0.071568    0.208795    0.021459
H     3.015610    4.055452    2.819479    0.125849    0.302705   -0.028845
H    -5.071855   -0.083011    2.945371    0.017143   -0.020351   -0.010946
H    -4.725936    1.612532    2.526200    0.027445   -0.024253   -0.015186
H    -4.067061   -2.785648    1.957874    0.021401    0.032303   -0.002027
H    -2.921087   -3.906119    2.754679    0.007736    0.035349    0.018642
H     4.885905    0.128277    2.659254    0.078453   -0.191767    0.073636
H     4.383590   -1.512000    2.146750    0.199406   -0.166783   -0.045871
H     3.791233    5.833889    1.565433    0.083899    0.171897   -0.269559
H    -7.109078    0.235469    1.941885    0.020381   -0.001385   -0.039263
H    -3.956587   -5.556022    1.489311   -0.006012    0.031319    0.015109
H     6.836001   -0.261631    1.537502    0.035946    0.085623   -0.129097
C     0.989950   -1.486532    3.842876   -0.090195   -0.057080   -0.080671
H     1.590634   -0.915277    4.550811   -0.127058    0.146945   -0.248747
H     0.223619   -2.077166    4.364390    0.148773   -0.156569    0.098817
O     0.353491   -3.870045    2.649862    0.082956   -0.120805    0.058981
C    -0.794327    0.311475    3.288211   -0.073975    0.025032    0.094956
H    -1.573140   -0.326484    3.726488   -0.099353    0.336084    0.374493
H    -0.427383    1.039434    4.026192    0.288250   -0.023564   -0.114469
O    -0.805210    3.006734    3.107240   -0.070124    0.005771    0.103359
C     0.273587   -0.646232    2.755101   -0.424711   -0.252714    0.067428
O    -0.068212   -1.370648    1.727994   -0.378017   -0.060478    0.057571
H     0.380556    0.552407   -0.617596   -0.068596    0.129873    0.086577
O     0.915786    1.145585   -0.056027    0.041017    0.154084   -0.018070
H     1.208838    0.525525    1.404970   -0.045655    0.479442   -0.836726
O     1.456409    0.203341    2.226901    0.060741    0.274495   -0.271086
O     1.751072    1.433074    2.954748    0.109806    0.205387   -0.183668
H     2.603257    1.143920    3.382873    0.241763    0.351245   -0.537367
H     1.756903    1.324859   -0.514592    0.068087   -0.004231   -0.046928
137
* Frequency(8)  -52.5235
C     0.565118    5.137283   -0.062330   -0.010265    0.033866   -0.006460
C    -4.369287    3.292599    0.503070    0.018711   -0.007600   -0.004643
C    -5.129851   -1.752558   -0.460628    0.005234   -0.007445   -0.027799
C    -0.918611   -4.936549   -0.441585   -0.010448   -0.047176    0.020987
C     4.070176   -3.204710   -0.049922    0.014470   -0.055598   -0.033914
C     4.739933    1.975370   -0.704557   -0.050239   -0.021022    0.083172
O    -0.306876    4.026627    0.030674    0.035458    0.018335    0.064010
O    -4.305333    2.284055   -0.459130    0.042561   -0.015432    0.013167
O    -3.754274   -1.968144   -0.677502    0.003224   -0.012701    0.005926
O     0.053962   -3.927145   -0.374096    0.023575   -0.079846    0.030747
O     3.759072   -2.012351   -0.704306   -0.026443   -0.033788    0.040178
O     3.357678    2.267116   -0.789170   -0.030634    0.016825    0.093571
C     1.151688    5.185756   -1.484819   -0.015664    0.001930   -0.012162
C    -4.031800    4.625163   -0.196157    0.030135   -0.012101   -0.006856
C    -5.673364   -0.950966   -1.654450    0.034512    0.005802   -0.034351
C    -1.645210   -4.824990   -1.793151   -0.002898   -0.021338    0.016709
C     3.731794   -4.342066   -1.033261    0.006669   -0.018464   -0.073738
C     5.124387    1.197094   -1.976116   -0.059088   -0.016325    0.072975
O     0.174603    5.340245   -2.480606   -0.013153   -0.028441   -0.015772
O    -4.867288    4.860123   -1.292533    0.048457   -0.015447   -0.021834
O    -5.481798   -1.617733   -2.870654    0.052832    0.012343   -0.035302
O    -0.796776   -4.968634   -2.898480   -0.001818   -0.029519    0.017192
O     4.439650   -4.202430   -2.234293   -0.024611    0.056794   -0.080506
O     4.823489    1.917172   -3.142023   -0.047431    0.001216    0.087092
C     1.882362    3.858826   -1.715895   -0.007107   -0.000376    0.013406
C    -2.557566    4.633858   -0.641298    0.037755   -0.012073    0.019307
C    -4.972967    0.414459   -1.663429    0.043400    0.002001   -0.013912
C    -2.324861   -3.449804   -1.838588    0.017103   -0.010152    0.017193
C     2.218131   -4.312792   -1.301691    0.000133   -0.049128   -0.039231
C     4.393566   -0.153787   -1.956852   -0.067317   -0.012492    0.052348
O     2.551305    3.813832   -2.954430    0.015353   -0.009482    0.024712
O    -2.198951    5.908205   -1.123765    0.028479   -0.006222    0.015701
O    -5.483835    1.236786   -2.680089    0.052008    0.015921   -0.010948
O    -3.072905   -3.275433   -3.014815    0.025952    0.001437    0.010733
O     1.814685   -5.431308   -2.058711    0.017707   -0.039972   -0.062606
O     4.795707   -0.975910   -3.026287   -0.056149   -0.008860    0.051017
C     2.927005    3.613716   -0.622422   -0.005498    0.032980    0.021198
C    -1.616682    4.247059    0.512057    0.023946    0.000295    0.039768
C    -5.138308    1.139326   -0.321277    0.032527   -0.009511   -0.009099
C    -3.268243   -3.296981   -0.644309    0.007348   -0.010686    0.009567
C     1.383548   -4.280646   -0.010877    0.022007   -0.116954   -0.022704
C     4.662513   -0.913482   -0.651288   -0.045041   -0.023060    0.037598
C     2.351437    3.832358    0.790655    0.038259    0.132593    0.021641
C    -2.131911    2.918087    1.075176    0.014618    0.000183    0.039154
C    -4.751062    0.214497    0.854096    0.012108   -0.024316   -0.014234
C    -2.529169   -3.590036    0.673287    0.010023   -0.005681    0.008954
C     1.942449   -3.201343    0.925115    0.040408   -0.155092    0.007696
C     4.412013   -0.018478    0.575124   -0.010474   -0.061347    0.072490
O     1.596699    5.044104    0.870867    0.023700    0.119909   -0.019788
O    -3.454901    3.066359    1.556282    0.001308    0.015035    0.017857
O    -5.362462   -1.070209    0.732098   -0.020727   -0.010170   -0.027782
O    -1.845219   -4.836518    0.605611   -0.003175   -0.020562    0.022202
O     3.329442   -3.366467    1.141168    0.049580   -0.122096   -0.017962
O     5.049534    1.254544    0.441860   -0.057867   -0.032665    0.094371
C     3.475012    3.949506    1.830468    0.081235    0.217641   -0.040563
C    -1.341378    2.359187    2.257297   -0.051734    0.001401    0.083418
C    -5.261272    0.715677    2.218302    0.022438   -0.021546   -0.014489
C    -3.507938   -3.716188    1.848117    0.013463    0.025958    0.012004
C     1.244036   -3.135396    2.287395    0.083073   -0.158065    0.019967
C     4.968044   -0.630156    1.872664    0.112442   -0.103188   -0.006864
O     4.329165    5.031604    1.544555    0.083678    0.172486   -0.157948
O    -1.388357    1.033393    2.197602   -0.096674    0.015354    0.124472
O    -6.623094    1.039390    2.175050    0.020025   -0.011717   -0.004638
O    -4.446063   -4.731947    1.629564   -0.001556    0.029675    0.035348
O     1.894671   -2.304106    3.120892   -0.046071    0.054404   -0.148288
O     6.305991   -1.047154    1.729993    0.132380    0.033827   -0.092838
H     0.036119    6.069924    0.165567   -0.027071    0.030461   -0.032293
H    -5.358550    3.341234    0.974553    0.010497   -0.002473   -0.021699
H    -5.664906   -2.705010   -0.357505   -0.007312   -0.002774   -0.046203
H    -0.465046   -5.929165   -0.328010   -0.044005   -0.062938    0.017199
H     5.122873   -3.244408    0.253626    0.024100   -0.056777   -0.067589
H     5.324297    2.900801   -0.636097   -0.020190   -0.040031    0.090914
H     1.871040    6.017889   -1.534845   -0.025229    0.010319   -0.023324
H    -4.196394    5.445947    0.509719    0.017106   -0.010278   -0.011498
H    -6.752975   -0.805130   -1.540047    0.033103    0.010837   -0.052022
H    -2.419910   -5.604608   -1.836590   -0.014253   -0.010139    0.008421
H     4.013145   -5.306290   -0.600046    0.042243   -0.029845   -0.123585
H     6.204960    1.018313   -1.984578   -0.059194   -0.021025    0.078251
H    -0.649987    5.669893   -2.073404   -0.015152   -0.021914   -0.027654
H    -4.907845    4.049662   -1.824094    0.078307   -0.012978   -0.029260
H    -4.597095   -2.027010   -2.879640    0.059923    0.022804   -0.023280
H     0.122879   -5.122291   -2.599671   -0.000824   -0.022536    0.015751
H     4.389425   -3.271767   -2.514028   -0.053506    0.072155   -0.028116
H     3.980896    2.393466   -3.023805   -0.079777   -0.046341    0.068422
H     1.120038    3.066887   -1.672966   -0.006896    0.005712    0.014773
H    -2.433419    3.884359   -1.439825    0.055166   -0.010676    0.023670
H    -3.894595    0.244182   -1.822353    0.040981   -0.000625   -0.007885
H    -1.545278   -2.674706   -1.764989    0.024537   -0.023264    0.025694
H     1.991229   -3.386615   -1.854271   -0.035056   -0.041125   -0.005944
H     3.309554    0.031928   -2.025926   -0.063355   -0.022553    0.050496
H     1.950184    4.158117   -3.630979   -0.012279   -0.131346   -0.004092
H    -2.926556    6.224919   -1.684031    0.034869   -0.030174   -0.005276
H    -5.636433    0.672896   -3.455055    0.109410    0.033759   -0.032623
H    -2.548363   -3.626491   -3.751092    0.052588    0.049667    0.008834
H     2.442956   -5.530006   -2.793280   -0.020856    0.024963   -0.099973
H     4.874943   -0.414121   -3.812295   -0.150157   -0.023345    0.035578
H     3.765851    4.302240   -0.785213    0.005553    0.007826   -0.023930
H    -1.624923    5.015454    1.294473   -0.001694    0.005579    0.035974
H    -6.182856    1.459722   -0.201728    0.032710   -0.005255   -0.017820
H    -4.097416   -4.008088   -0.754409    0.010498   -0.014181    0.008166
H     1.403886   -5.256737    0.487489    0.029390   -0.143455   -0.077517
H     5.697695   -1.277496   -0.649309   -0.038625   -0.009388    0.011223
H     1.691847    2.996797    1.043571    0.075116    0.146868    0.141465
H    -2.109325    2.164004    0.276524    0.019029   -0.009634    0.052580
H    -3.657245    0.101747    0.878042    0.005814   -0.050701   -0.005935
H    -1.808866   -2.782408    0.872319    0.017131   -0.016196   -0.002637
H     1.757056   -2.226753    0.451437    0.014820   -0.136461    0.050535
H     3.331137    0.114014    0.674906   -0.004117   -0.125175    0.206066
H     4.091274    3.049970    1.801434    0.071568    0.208795    0.021459
H     3.016807    4.058332    2.819204    0.125849    0.302705   -0.028845
H    -5.071692   -0.083205    2.945267    0.017143   -0.020351   -0.010946
H    -4.725675    1.612301    2.526056    0.027445   -0.024253   -0.015186
H    -4.066858   -2.785340    1.957855    0.021401    0.032303   -0.002027
H    -2.921013   -3.905783    2.754856    0.007736    0.035349    0.018642
H     4.886652    0.126452    2.659955    0.078453   -0.191767    0.073636
H     4.385488   -1.513587    2.146314    0.199406   -0.166783   -0.045871
H     3.792031    5.835524    1.562868    0.083899    0.171897   -0.269559
H    -7.108884    0.235455    1.941511    0.020381   -0.001385   -0.039263
H    -3.956644   -5.555724    1.489455   -0.006012    0.031319    0.015109
H     6.836343   -0.260817    1.536274    0.035946    0.085623   -0.129097
C     0.989092   -1.487075    3.842108   -0.090195   -0.057080   -0.080671
H     1.589425   -0.913879    4.548444   -0.127058    0.146945   -0.248747
H     0.225034   -2.078656    4.365330    0.148773   -0.156569    0.098817
O     0.354280   -3.871194    2.650424    0.082956   -0.120805    0.058981
C    -0.795031    0.311713    3.289115   -0.073975    0.025032    0.094956
H    -1.574086   -0.323287    3.730051   -0.099353    0.336084    0.374493
H    -0.424641    1.039210    4.025103    0.288250   -0.023564   -0.114469
O    -0.805877    3.006789    3.108223   -0.070124    0.005771    0.103359
C     0.269546   -0.648637    2.755743   -0.424711   -0.252714    0.067428
O    -0.071809   -1.371224    1.728542   -0.378017   -0.060478    0.057571
H     0.379903    0.553643   -0.616772   -0.068596    0.129873    0.086577
O     0.916176    1.147051   -0.056199    0.041017    0.154084   -0.018070
H     1.208403    0.530087    1.397009   -0.045655    0.479442   -0.836726
O     1.456987    0.205952    2.224321    0.060741    0.274495   -0.271086
O     1.752117    1.435028    2.953000    0.109806    0.205387   -0.183668
H     2.605558    1.147262    3.377760    0.241763    0.351245   -0.537367
H     1.757551    1.324819   -0.515039    0.068087   -0.004231   -0.046928
137
* Frequency(8)  -52.5235
C     0.564643    5.138851   -0.062629   -0.010265    0.033866   -0.006460
C    -4.368421    3.292247    0.502855    0.018711   -0.007600   -0.004643
C    -5.129609   -1.752902   -0.461914    0.005234   -0.007445   -0.027799
C    -0.919094   -4.938732   -0.440614   -0.010448   -0.047176    0.020987
C     4.070845   -3.207283   -0.051492    0.014470   -0.055598   -0.033914
C     4.737608    1.974397   -0.700708   -0.050239   -0.021022    0.083172
O    -0.305235    4.027476    0.033637    0.035458    0.018335    0.064010
O    -4.303363    2.283341   -0.458521    0.042561   -0.015432    0.013167
O    -3.754125   -1.968732   -0.677227    0.003224   -0.012701    0.005926
O     0.055053   -3.930840   -0.372673    0.023575   -0.079846    0.030747
O     3.757848   -2.013915   -0.702446   -0.026443   -0.033788    0.040178
O     3.356260    2.267895   -0.784839   -0.030634    0.016825    0.093571
C     1.150963    5.185845   -1.485381   -0.015664    0.001930   -0.012162
C    -4.030405    4.624603   -0.196475    0.030135   -0.012101   -0.006856
C    -5.671767   -0.950698   -1.656040    0.034512    0.005802   -0.034351
C    -1.645344   -4.825978   -1.792378   -0.002898   -0.021338    0.016709
C     3.732103   -4.342921   -1.036673    0.006669   -0.018464   -0.073738
C     5.121652    1.196339   -1.972739   -0.059088   -0.016325    0.072975
O     0.173994    5.338929   -2.481336   -0.013153   -0.028441   -0.015772
O    -4.865045    4.859408   -1.293543    0.048457   -0.015447   -0.021834
O    -5.479353   -1.617162   -2.872288    0.052832    0.012343   -0.035302
O    -0.796860   -4.970001   -2.897685   -0.001818   -0.029519    0.017192
O     4.438511   -4.199801   -2.238019   -0.024611    0.056794   -0.080506
O     4.821294    1.917228   -3.137992   -0.047431    0.001216    0.087092
C     1.882033    3.858809   -1.715274   -0.007107   -0.000376    0.013406
C    -2.555819    4.633299   -0.640404    0.037755   -0.012073    0.019307
C    -4.970958    0.414552   -1.664073    0.043400    0.002001   -0.013912
C    -2.324070   -3.450273   -1.837792    0.017103   -0.010152    0.017193
C     2.218137   -4.315065   -1.303507    0.000133   -0.049128   -0.039231
C     4.390450   -0.154365   -1.954429   -0.067317   -0.012492    0.052348
O     2.552015    3.813393   -2.953287    0.015353   -0.009482    0.024712
O    -2.197633    5.907917   -1.123038    0.028479   -0.006222    0.015701
O    -5.481428    1.237523   -2.680596    0.052008    0.015921   -0.010948
O    -3.071704   -3.275366   -3.014318    0.025952    0.001437    0.010733
O     1.815505   -5.433158   -2.061609    0.017707   -0.039972   -0.062606
O     4.793108   -0.976320   -3.023926   -0.056149   -0.008860    0.051017
C     2.926751    3.615242   -0.621441   -0.005498    0.032980    0.021198
C    -1.615574    4.247073    0.513898    0.023946    0.000295    0.039768
C    -5.136802    1.138886   -0.321698    0.032527   -0.009511   -0.009099
C    -3.267903   -3.297475   -0.643866    0.007348   -0.010686    0.009567
C     1.384567   -4.286059   -0.011928    0.022007   -0.116954   -0.022704
C     4.660428   -0.914550   -0.649548   -0.045041   -0.023060    0.037598
C     2.353208    3.838494    0.791657    0.038259    0.132593    0.021641
C    -2.131234    2.918095    1.076989    0.014618    0.000183    0.039154
C    -4.750501    0.213371    0.853437    0.012108   -0.024316   -0.014234
C    -2.528705   -3.590299    0.673702    0.010023   -0.005681    0.008954
C     1.944319   -3.208521    0.925471    0.040408   -0.155092    0.007696
C     4.411528   -0.021317    0.578479   -0.010474   -0.061347    0.072490
O     1.597796    5.049654    0.869951    0.023700    0.119909   -0.019788
O    -3.454840    3.067055    1.557109    0.001308    0.015035    0.017857
O    -5.363422   -1.070680    0.730813   -0.020727   -0.010170   -0.027782
O    -1.845366   -4.837470    0.606638   -0.003175   -0.020562    0.022202
O     3.331737   -3.372118    1.140337    0.049580   -0.122096   -0.017962
O     5.046856    1.253032    0.446228   -0.057867   -0.032665    0.094371
C     3.478772    3.959579    1.828591    0.081235    0.217641   -0.040563
C    -1.343773    2.359252    2.261158   -0.051734    0.001401    0.083418
C    -5.260234    0.714679    2.217631    0.022438   -0.021546   -0.014489
C    -3.507315   -3.714986    1.848672    0.013463    0.025958    0.012004
C     1.247881   -3.142712    2.288319    0.083073   -0.158065    0.019967
C     4.973248   -0.634931    1.872347    0.112442   -0.103188   -0.006864
O     4.333038    5.039587    1.537245    0.083678    0.172486   -0.157948
O    -1.392832    1.034103    2.203363   -0.096674    0.015354    0.124472
O    -6.622167    1.038848    2.174835    0.020025   -0.011717   -0.004638
O    -4.446135   -4.730573    1.631200   -0.001556    0.029675    0.035348
O     1.892539   -2.301589    3.114029   -0.046071    0.054404   -0.148288
O     6.312118   -1.045589    1.725696    0.132380    0.033827   -0.092838
H     0.034866    6.071334    0.164072   -0.027071    0.030461   -0.032293
H    -5.358064    3.341119    0.973548    0.010497   -0.002473   -0.021699
H    -5.665245   -2.705138   -0.359643   -0.007312   -0.002774   -0.046203
H    -0.467083   -5.932078   -0.327214   -0.044005   -0.062938    0.017199
H     5.123989   -3.247036    0.250498    0.024100   -0.056777   -0.067589
H     5.323363    2.898948   -0.631889   -0.020190   -0.040031    0.090914
H     1.869873    6.018367   -1.535925   -0.025229    0.010319   -0.023324
H    -4.195602    5.445472    0.509187    0.017106   -0.010278   -0.011498
H    -6.751443   -0.804629   -1.542454    0.033103    0.010837   -0.052022
H    -2.420569   -5.605078   -1.836200   -0.014253   -0.010139    0.008421
H     4.015100   -5.307671   -0.605766    0.042243   -0.029845   -0.123585
H     6.202220    1.017340   -1.980957   -0.059194   -0.021025    0.078251
H    -0.650688    5.668878   -2.074684   -0.015152   -0.021914   -0.027654
H    -4.904221    4.049061   -1.825449    0.078307   -0.012978   -0.029260
H    -4.594322   -2.025954   -2.880717    0.059923    0.022804   -0.023280
H     0.122841   -5.123334   -2.598942   -0.000824   -0.022536    0.015751
H     4.386949   -3.268427   -2.515330   -0.053506    0.072155   -0.028116
H     3.977204    2.391321   -3.020638   -0.079777   -0.046341    0.068422
H     1.119719    3.067152   -1.672283   -0.006896    0.005712    0.014773
H    -2.430866    3.883865   -1.438730    0.055166   -0.010676    0.023670
H    -3.892699    0.244153   -1.822718    0.040981   -0.000625   -0.007885
H    -1.544142   -2.675783   -1.763800    0.024537   -0.023264    0.025694
H     1.989606   -3.388518   -1.854546   -0.035056   -0.041125   -0.005944
H     3.306622    0.030884   -2.023589   -0.063355   -0.022553    0.050496
H     1.949615    4.152038   -3.631168   -0.012279   -0.131346   -0.004092
H    -2.924943    6.223523   -1.684275    0.034869   -0.030174   -0.005276
H    -5.631369    0.674458   -3.456564    0.109410    0.033759   -0.032623
H    -2.545929   -3.624192   -3.750683    0.052588    0.049667    0.008834
H     2.441990   -5.528851   -2.797907   -0.020856    0.024963   -0.099973
H     4.867993   -0.415202   -3.810648   -0.150157   -0.023345    0.035578
H     3.766108    4.302602   -0.786321    0.005553    0.007826   -0.023930
H    -1.625001    5.015713    1.296138   -0.001694    0.005579    0.035974
H    -6.181342    1.459479   -0.202553    0.032710   -0.005255   -0.017820
H    -4.096930   -4.008745   -0.754031    0.010498   -0.014181    0.008166
H     1.405246   -5.263376    0.483902    0.029390   -0.143455   -0.077517
H     5.695908   -1.277930   -0.648790   -0.038625   -0.009388    0.011223
H     1.695323    3.003595    1.050119    0.075116    0.146868    0.141465
H    -2.108444    2.163558    0.278957    0.019029   -0.009634    0.052580
H    -3.656975    0.099400    0.877767    0.005814   -0.050701   -0.005935
H    -1.808073   -2.783158    0.872197    0.017131   -0.016196   -0.002637
H     1.757742   -2.233068    0.453776    0.014820   -0.136461    0.050535
H     3.330946    0.108220    0.684443   -0.004117   -0.125175    0.206066
H     4.094586    3.059634    1.802427    0.071568    0.208795    0.021459
H     3.022632    4.072341    2.817869    0.125849    0.302705   -0.028845
H    -5.070898   -0.084147    2.944761    0.017143   -0.020351   -0.010946
H    -4.724405    1.611179    2.525353    0.027445   -0.024253   -0.015186
H    -4.065867   -2.783845    1.957761    0.021401    0.032303   -0.002027
H    -2.920655   -3.904147    2.755719    0.007736    0.035349    0.018642
H     4.890283    0.117577    2.663363    0.078453   -0.191767    0.073636
H     4.394716   -1.521306    2.144191    0.199406   -0.166783   -0.045871
H     3.795914    5.843480    1.550392    0.083899    0.171897   -0.269559
H    -7.107941    0.235391    1.939694    0.020381   -0.001385   -0.039263
H    -3.956922   -5.554274    1.490154   -0.006012    0.031319    0.015109
H     6.838006   -0.256854    1.530299    0.035946    0.085623   -0.129097
C     0.984918   -1.489717    3.838374   -0.090195   -0.057080   -0.080671
H     1.583544   -0.907078    4.536932   -0.127058    0.146945   -0.248747
H     0.231920   -2.085902    4.369904    0.148773   -0.156569    0.098817
O     0.358120   -3.876786    2.653153    0.082956   -0.120805    0.058981
C    -0.798455    0.312871    3.293509   -0.073975    0.025032    0.094956
H    -1.578684   -0.307732    3.747383   -0.099353    0.336084    0.374493
H    -0.411300    1.038119    4.019805    0.288250   -0.023564   -0.114469
O    -0.809123    3.007056    3.113007   -0.070124    0.005771    0.103359
C     0.249889   -0.660333    2.758864   -0.424711   -0.252714    0.067428
O    -0.089304   -1.374023    1.731206   -0.378017   -0.060478    0.057571
H     0.376728    0.559654   -0.612765   -0.068596    0.129873    0.086577
O     0.918075    1.154182   -0.057035    0.041017    0.154084   -0.018070
H     1.206290    0.552276    1.358284   -0.045655    0.479442   -0.836726
O     1.459798    0.218656    2.211775    0.060741    0.274495   -0.271086
O     1.757199    1.444534    2.944500    0.109806    0.205387   -0.183668
H     2.616747    1.163519    3.352890    0.241763    0.351245   -0.537367
H     1.760702    1.324623   -0.517211    0.068087   -0.004231   -0.046928
137
* Frequency(8)  -52.5235
C     0.563842    5.141493   -0.063133   -0.010265    0.033866   -0.006460
C    -4.366961    3.291654    0.502493    0.018711   -0.007600   -0.004643
C    -5.129200   -1.753483   -0.464084    0.005234   -0.007445   -0.027799
C    -0.919909   -4.942414   -0.438976   -0.010448   -0.047176    0.020987
C     4.071975   -3.211622   -0.054138    0.014470   -0.055598   -0.033914
C     4.733688    1.972757   -0.694218   -0.050239   -0.021022    0.083172
O    -0.302468    4.028907    0.038632    0.035458    0.018335    0.064010
O    -4.300042    2.282137   -0.457493    0.042561   -0.015432    0.013167
O    -3.753873   -1.969723   -0.676765    0.003224   -0.012701    0.005926
O     0.056892   -3.937071   -0.370274    0.023575   -0.079846    0.030747
O     3.755785   -2.016551   -0.699311   -0.026443   -0.033788    0.040178
O     3.353869    2.269208   -0.777537   -0.030634    0.016825    0.093571
C     1.149741    5.185996   -1.486330   -0.015664    0.001930   -0.012162
C    -4.028054    4.623659   -0.197010    0.030135   -0.012101   -0.006856
C    -5.669074   -0.950245   -1.658720    0.034512    0.005802   -0.034351
C    -1.645571   -4.827643   -1.791074   -0.002898   -0.021338    0.016709
C     3.732623   -4.344362   -1.042427    0.006669   -0.018464   -0.073738
C     5.117041    1.195065   -1.967044   -0.059088   -0.016325    0.072975
O     0.172968    5.336710   -2.482567   -0.013153   -0.028441   -0.015772
O    -4.861264    4.858203   -1.295247    0.048457   -0.015447   -0.021834
O    -5.475230   -1.616199   -2.875043    0.052832    0.012343   -0.035302
O    -0.797002   -4.972304   -2.896343   -0.001818   -0.029519    0.017192
O     4.436591   -4.195369   -2.244302   -0.024611    0.056794   -0.080506
O     4.817593    1.917323   -3.131196   -0.047431    0.001216    0.087092
C     1.881479    3.858780   -1.714228   -0.007107   -0.000376    0.013406
C    -2.552873    4.632357   -0.638898    0.037755   -0.012073    0.019307
C    -4.967572    0.414708   -1.665159    0.043400    0.002001   -0.013912
C    -2.322735   -3.451066   -1.836450    0.017103   -0.010152    0.017193
C     2.218148   -4.318899   -1.306568    0.000133   -0.049128   -0.039231
C     4.385197   -0.155340   -1.950344   -0.067317   -0.012492    0.052348
O     2.553213    3.812653   -2.951358    0.015353   -0.009482    0.024712
O    -2.195411    5.907432   -1.121813    0.028479   -0.006222    0.015701
O    -5.477369    1.238765   -2.681450    0.052008    0.015921   -0.010948
O    -3.069679   -3.275254   -3.013481    0.025952    0.001437    0.010733
O     1.816886   -5.436277   -2.066494    0.017707   -0.039972   -0.062606
O     4.788727   -0.977012   -3.019945   -0.056149   -0.008860    0.051017
C     2.926322    3.617816   -0.619787   -0.005498    0.032980    0.021198
C    -1.613705    4.247096    0.517001    0.023946    0.000295    0.039768
C    -5.134264    1.138144   -0.322408    0.032527   -0.009511   -0.009099
C    -3.267330   -3.298309   -0.643119    0.007348   -0.010686    0.009567
C     1.386284   -4.295185   -0.013699    0.022007   -0.116954   -0.022704
C     4.656913   -0.916349   -0.646614   -0.045041   -0.023060    0.037598
C     2.356193    3.848841    0.793346    0.038259    0.132593    0.021641
C    -2.130093    2.918109    1.080044    0.014618    0.000183    0.039154
C    -4.749556    0.211474    0.852327    0.012108   -0.024316   -0.014234
C    -2.527923   -3.590742    0.674400    0.010023   -0.005681    0.008954
C     1.947472   -3.220623    0.926071    0.040408   -0.155092    0.007696
C     4.410711   -0.026104    0.584136   -0.010474   -0.061347    0.072490
O     1.599646    5.059011    0.868407    0.023700    0.119909   -0.019788
O    -3.454738    3.068228    1.558502    0.001308    0.015035    0.017857
O    -5.365039   -1.071474    0.728645   -0.020727   -0.010170   -0.027782
O    -1.845614   -4.839074    0.608371   -0.003175   -0.020562    0.022202
O     3.335606   -3.381645    1.138935    0.049580   -0.122096   -0.017962
O     5.042340    1.250483    0.453592   -0.057867   -0.032665    0.094371
C     3.485111    3.976563    1.825425    0.081235    0.217641   -0.040563
C    -1.347810    2.359361    2.267667   -0.051734    0.001401    0.083418
C    -5.258483    0.712998    2.216501    0.022438   -0.021546   -0.014489
C    -3.506265   -3.712961    1.849609    0.013463    0.025958    0.012004
C     1.254364   -3.155046    2.289877    0.083073   -0.158065    0.019967
C     4.982022   -0.642984    1.871811    0.112442   -0.103188   -0.006864
O     4.339568    5.053047    1.524920    0.083678    0.172486   -0.157948
O    -1.400375    1.035301    2.213076   -0.096674    0.015354    0.124472
O    -6.620605    1.037933    2.174474    0.020025   -0.011717   -0.004638
O    -4.446256   -4.728258    1.633958   -0.001556    0.029675    0.035348
O     1.888943   -2.297343    3.102458   -0.046071    0.054404   -0.148288
O     6.322448   -1.042949    1.718452    0.132380    0.033827   -0.092838
H     0.032754    6.073711    0.161552   -0.027071    0.030461   -0.032293
H    -5.357245    3.340926    0.971855    0.010497   -0.002473   -0.021699
H    -5.665815   -2.705355   -0.363249   -0.007312   -0.002774   -0.046203
H    -0.470517   -5.936989   -0.325872   -0.044005   -0.062938    0.017199
H     5.125869   -3.251466    0.245224    0.024100   -0.056777   -0.067589
H     5.321787    2.895824   -0.624795   -0.020190   -0.040031    0.090914
H     1.867904    6.019172   -1.537745   -0.025229    0.010319   -0.023324
H    -4.194267    5.444670    0.508289    0.017106   -0.010278   -0.011498
H    -6.748860   -0.803783   -1.546514    0.033103    0.010837   -0.052022
H    -2.421681   -5.605869   -1.835543   -0.014253   -0.010139    0.008421
H     4.018397   -5.310000   -0.615409    0.042243   -0.029845   -0.123585
H     6.197601    1.015699   -1.974851   -0.059194   -0.021025    0.078251
H    -0.651870    5.667168   -2.076841   -0.015152   -0.021914   -0.027654
H    -4.898111    4.048049   -1.827732    0.078307   -0.012978   -0.029260
H    -4.589646   -2.024175   -2.882534    0.059923    0.022804   -0.023280
H     0.122777   -5.125092   -2.597713   -0.000824   -0.022536    0.015751
H     4.382774   -3.262797   -2.517524   -0.053506    0.072155   -0.028116
H     3.970979    2.387705   -3.015299   -0.079777   -0.046341    0.068422
H     1.119181    3.067597   -1.671130   -0.006896    0.005712    0.014773
H    -2.426561    3.883032   -1.436883    0.055166   -0.010676    0.023670
H    -3.889501    0.244104   -1.823333    0.040981   -0.000625   -0.007885
H    -1.542228   -2.677598   -1.761795    0.024537   -0.023264    0.025694
H     1.986871   -3.391727   -1.855010   -0.035056   -0.041125   -0.005944
H     3.301678    0.029125   -2.019649   -0.063355   -0.022553    0.050496
H     1.948657    4.141788   -3.631487   -0.012279   -0.131346   -0.004092
H    -2.922222    6.221168   -1.684686    0.034869   -0.030174   -0.005276
H    -5.622832    0.677092   -3.459110    0.109410    0.033759   -0.032623
H    -2.541825   -3.620317   -3.749994    0.052588    0.049667    0.008834
H     2.440363   -5.526903   -2.805708   -0.020856    0.024963   -0.099973
H     4.856276   -0.417024   -3.807872   -0.150157   -0.023345    0.035578
H     3.766541    4.303213   -0.788188    0.005553    0.007826   -0.023930
H    -1.625133    5.016148    1.298945   -0.001694    0.005579    0.035974
H    -6.178789    1.459069   -0.203944    0.032710   -0.005255   -0.017820
H    -4.096111   -4.009851   -0.753394    0.010498   -0.014181    0.008166
H     1.407540   -5.274571    0.477853    0.029390   -0.143455   -0.077517
H     5.692894   -1.278663   -0.647914   -0.038625   -0.009388    0.011223
H     1.701185    3.015055    1.061158    0.075116    0.146868    0.141465
H    -2.106959    2.162806    0.283060    0.019029   -0.009634    0.052580
H    -3.656522    0.095444    0.877304    0.005814   -0.050701   -0.005935
H    -1.806736   -2.784422    0.871991    0.017131   -0.016196   -0.002637
H     1.758899   -2.243717    0.457719    0.014820   -0.136461    0.050535
H     3.330625    0.098452    0.700523   -0.004117   -0.125175    0.206066
H     4.100171    3.075927    1.804102    0.071568    0.208795    0.021459
H     3.032452    4.095963    2.815618    0.125849    0.302705   -0.028845
H    -5.069561   -0.085735    2.943906    0.017143   -0.020351   -0.010946
H    -4.722263    1.609286    2.524168    0.027445   -0.024253   -0.015186
H    -4.064197   -2.781325    1.957603    0.021401    0.032303   -0.002027
H    -2.920051   -3.901388    2.757174    0.007736    0.035349    0.018642
H     4.896405    0.102612    2.669109    0.078453   -0.191767    0.073636
H     4.410277   -1.534321    2.140611    0.199406   -0.166783   -0.045871
H     3.802461    5.856894    1.529358    0.083899    0.171897   -0.269559
H    -7.106350    0.235283    1.936630    0.020381   -0.001385   -0.039263
H    -3.957391   -5.551830    1.491333   -0.006012    0.031319    0.015109
H     6.840812   -0.250172    1.520225    0.035946    0.085623   -0.129097
C     0.977879   -1.494171    3.832079   -0.090195   -0.057080   -0.080671
H     1.573630   -0.895612    4.517521   -0.127058    0.146945   -0.248747
H     0.243529   -2.098120    4.377615    0.148773   -0.156569    0.098817
O     0.364593   -3.886212    2.657756    0.082956   -0.120805    0.058981
C    -0.804227    0.314825    3.300919   -0.073975    0.025032    0.094956
H    -1.586437   -0.281506    3.776606   -0.099353    0.336084    0.374493
H    -0.388807    1.036280    4.010873    0.288250   -0.023564   -0.114469
O    -0.814595    3.007506    3.121072   -0.070124    0.005771    0.103359
C     0.216748   -0.680053    2.764125   -0.424711   -0.252714    0.067428
O    -0.118802   -1.378742    1.735699   -0.378017   -0.060478    0.057571
H     0.371375    0.569788   -0.606009   -0.068596    0.129873    0.086577
O     0.921276    1.166206   -0.058445    0.041017    0.154084   -0.018070
H     1.202728    0.589689    1.292991   -0.045655    0.479442   -0.836726
O     1.464538    0.240076    2.190621    0.060741    0.274495   -0.271086
O     1.765768    1.460561    2.930167    0.109806    0.205387   -0.183668
H     2.635613    1.190928    3.310957    0.241763    0.351245   -0.537367
H     1.766015    1.324293   -0.520873    0.068087   -0.004231   -0.046928
137
* Frequency(8)  -52.5235
C     0.562802    5.144925   -0.063788   -0.010265    0.033866   -0.006460
C    -4.365065    3.290884    0.502022    0.018711   -0.007600   -0.004643
C    -5.128670   -1.754238   -0.466901    0.005234   -0.007445   -0.027799
C    -0.920968   -4.947194   -0.436849   -0.010448   -0.047176    0.020987
C     4.073441   -3.217256   -0.057575    0.014470   -0.055598   -0.033914
C     4.728597    1.970627   -0.685790   -0.050239   -0.021022    0.083172
O    -0.298875    4.030765    0.045118    0.035458    0.018335    0.064010
O    -4.295730    2.280573   -0.456159    0.042561   -0.015432    0.013167
O    -3.753546   -1.971010   -0.676164    0.003224   -0.012701    0.005926
O     0.059281   -3.945161   -0.367159    0.023575   -0.079846    0.030747
O     3.753105   -2.019975   -0.695240   -0.026443   -0.033788    0.040178
O     3.350765    2.270912   -0.768056   -0.030634    0.016825    0.093571
C     1.148154    5.186192   -1.487563   -0.015664    0.001930   -0.012162
C    -4.025000    4.622432   -0.197704    0.030135   -0.012101   -0.006856
C    -5.665577   -0.949657   -1.662201    0.034512    0.005802   -0.034351
C    -1.645864   -4.829805   -1.789381   -0.002898   -0.021338    0.016709
C     3.733299   -4.346233   -1.049899    0.006669   -0.018464   -0.073738
C     5.111054    1.193410   -1.959650   -0.059088   -0.016325    0.072975
O     0.171635    5.333828   -2.484165   -0.013153   -0.028441   -0.015772
O    -4.856353    4.856638   -1.297460    0.048457   -0.015447   -0.021834
O    -5.469877   -1.614948   -2.878620    0.052832    0.012343   -0.035302
O    -0.797186   -4.975295   -2.894601   -0.001818   -0.029519    0.017192
O     4.434097   -4.189614   -2.252459   -0.024611    0.056794   -0.080506
O     4.812787    1.917446   -3.122371   -0.047431    0.001216    0.087092
C     1.880758    3.858741   -1.712870   -0.007107   -0.000376    0.013406
C    -2.549047    4.631133   -0.636941    0.037755   -0.012073    0.019307
C    -4.963174    0.414911   -1.666569    0.043400    0.002001   -0.013912
C    -2.321002   -3.452094   -1.834708    0.017103   -0.010152    0.017193
C     2.218161   -4.323877   -1.310544    0.000133   -0.049128   -0.039231
C     4.378376   -0.156605   -1.945040   -0.067317   -0.012492    0.052348
O     2.554769    3.811692   -2.948854    0.015353   -0.009482    0.024712
O    -2.192525    5.906801   -1.120222    0.028479   -0.006222    0.015701
O    -5.472099    1.240379   -2.682559    0.052008    0.015921   -0.010948
O    -3.067049   -3.275108   -3.012393    0.025952    0.001437    0.010733
O     1.818681   -5.440328   -2.072838    0.017707   -0.039972   -0.062606
O     4.783037   -0.977910   -3.014776   -0.056149   -0.008860    0.051017
C     2.925764    3.621158   -0.617639   -0.005498    0.032980    0.021198
C    -1.611279    4.247126    0.521031    0.023946    0.000295    0.039768
C    -5.130968    1.137180   -0.323330    0.032527   -0.009511   -0.009099
C    -3.266585   -3.299392   -0.642150    0.007348   -0.010686    0.009567
C     1.388514   -4.307036   -0.016000    0.022007   -0.116954   -0.022704
C     4.652349   -0.918686   -0.642804   -0.045041   -0.023060    0.037598
C     2.360070    3.862277    0.795539    0.038259    0.132593    0.021641
C    -2.128612    2.918128    1.084011    0.014618    0.000183    0.039154
C    -4.748329    0.209010    0.850884    0.012108   -0.024316   -0.014234
C    -2.526908   -3.591318    0.675308    0.010023   -0.005681    0.008954
C     1.951567   -3.236339    0.926851    0.040408   -0.155092    0.007696
C     4.409650   -0.032320    0.591481   -0.010474   -0.061347    0.072490
O     1.602047    5.071161    0.866402    0.023700    0.119909   -0.019788
O    -3.454606    3.069752    1.560312    0.001308    0.015035    0.017857
O    -5.367139   -1.072504    0.725830   -0.020727   -0.010170   -0.027782
O    -1.845936   -4.841158    0.610620   -0.003175   -0.020562    0.022202
O     3.340630   -3.394017    1.137115    0.049580   -0.122096   -0.017962
O     5.036476    1.247173    0.463155   -0.057867   -0.032665    0.094371
C     3.493343    3.998616    1.821315    0.081235    0.217641   -0.040563
C    -1.353052    2.359503    2.276120   -0.051734    0.001401    0.083418
C    -5.256209    0.710815    2.215032    0.022438   -0.021546   -0.014489
C    -3.504900   -3.710330    1.850825    0.013463    0.025958    0.012004
C     1.262781   -3.171063    2.291900    0.083073   -0.158065    0.019967
C     4.993416   -0.653440    1.871115    0.112442   -0.103188   -0.006864
O     4.348047    5.070525    1.508915    0.083678    0.172486   -0.157948
O    -1.410171    1.036857    2.225688   -0.096674    0.015354    0.124472
O    -6.618576    1.036746    2.174004    0.020025   -0.011717   -0.004638
O    -4.446414   -4.725251    1.637540   -0.001556    0.029675    0.035348
O     1.884275   -2.291831    3.087432   -0.046071    0.054404   -0.148288
O     6.335862   -1.039522    1.709044    0.132380    0.033827   -0.092838
H     0.030010    6.076797    0.158280   -0.027071    0.030461   -0.032293
H    -5.356182    3.340676    0.969656    0.010497   -0.002473   -0.021699
H    -5.666556   -2.705636   -0.367930   -0.007312   -0.002774   -0.046203
H    -0.474976   -5.943367   -0.324129   -0.044005   -0.062938    0.017199
H     5.128311   -3.257220    0.238375    0.024100   -0.056777   -0.067589
H     5.319741    2.891768   -0.615582   -0.020190   -0.040031    0.090914
H     1.865347    6.020218   -1.540108   -0.025229    0.010319   -0.023324
H    -4.192534    5.443628    0.507124    0.017106   -0.010278   -0.011498
H    -6.745505   -0.802685   -1.551785    0.033103    0.010837   -0.052022
H    -2.423126   -5.606896   -1.834690   -0.014253   -0.010139    0.008421
H     4.022677   -5.313025   -0.627932    0.042243   -0.029845   -0.123585
H     6.191603    1.013568   -1.966922   -0.059194   -0.021025    0.078251
H    -0.653406    5.664948   -2.079644   -0.015152   -0.021914   -0.027654
H    -4.890176    4.046734   -1.830697    0.078307   -0.012978   -0.029260
H    -4.583574   -2.021864   -2.884893    0.059923    0.022804   -0.023280
H     0.122694   -5.127376   -2.596117   -0.000824   -0.022536    0.015751
H     4.377352   -3.255485   -2.520373   -0.053506    0.072155   -0.028116
H     3.962895    2.383009   -3.008366   -0.079777   -0.046341    0.068422
H     1.118482    3.068176   -1.669633   -0.006896    0.005712    0.014773
H    -2.420971    3.881950   -1.434484    0.055166   -0.010676    0.023670
H    -3.885348    0.244041   -1.824132    0.040981   -0.000625   -0.007885
H    -1.539741   -2.679956   -1.759192    0.024537   -0.023264    0.025694
H     1.983319   -3.395894   -1.855612   -0.035056   -0.041125   -0.005944
H     3.295258    0.026839   -2.014532   -0.063355   -0.022553    0.050496
H     1.947413    4.128479   -3.631902   -0.012279   -0.131346   -0.004092
H    -2.918688    6.218111   -1.685221    0.034869   -0.030174   -0.005276
H    -5.611745    0.680513   -3.462416    0.109410    0.033759   -0.032623
H    -2.536496   -3.615284   -3.749099    0.052588    0.049667    0.008834
H     2.438249   -5.524373   -2.815838   -0.020856    0.024963   -0.099973
H     4.841061   -0.419389   -3.804267   -0.150157   -0.023345    0.035578
H     3.767104    4.304006   -0.790613    0.005553    0.007826   -0.023930
H    -1.625305    5.016713    1.302591   -0.001694    0.005579    0.035974
H    -6.175475    1.458536   -0.205749    0.032710   -0.005255   -0.017820
H    -4.095047   -4.011288   -0.752566    0.010498   -0.014181    0.008166
H     1.410518   -5.289107    0.469998    0.029390   -0.143455   -0.077517
H     5.688980   -1.279614   -0.646777   -0.038625   -0.009388    0.011223
H     1.708796    3.029937    1.075492    0.075116    0.146868    0.141465
H    -2.105031    2.161830    0.288388    0.019029   -0.009634    0.052580
H    -3.655933    0.090306    0.876703    0.005814   -0.050701   -0.005935
H    -1.805001   -2.786063    0.871724    0.017131   -0.016196   -0.002637
H     1.760400   -2.257544    0.462840    0.014820   -0.136461    0.050535
H     3.330208    0.085768    0.721404   -0.004117   -0.125175    0.206066
H     4.107423    3.097084    1.806276    0.071568    0.208795    0.021459
H     3.045205    4.126636    2.812696    0.125849    0.302705   -0.028845
H    -5.067824   -0.087797    2.942797    0.017143   -0.020351   -0.010946
H    -4.719482    1.606828    2.522629    0.027445   -0.024253   -0.015186
H    -4.062029   -2.778051    1.957398    0.021401    0.032303   -0.002027
H    -2.919268   -3.897807    2.759063    0.007736    0.035349    0.018642
H     4.904355    0.083181    2.676571    0.078453   -0.191767    0.073636
H     4.430483   -1.551221    2.135963    0.199406   -0.166783   -0.045871
H     3.810963    5.874312    1.502043    0.083899    0.171897   -0.269559
H    -7.104285    0.235143    1.932652    0.020381   -0.001385   -0.039263
H    -3.958000   -5.548657    1.492864   -0.006012    0.031319    0.015109
H     6.844454   -0.241496    1.507144    0.035946    0.085623   -0.129097
C     0.968740   -1.499955    3.823905   -0.090195   -0.057080   -0.080671
H     1.560755   -0.880722    4.492315   -0.127058    0.146945   -0.248747
H     0.258604   -2.113985    4.387628    0.148773   -0.156569    0.098817
O     0.372999   -3.898454    2.663732    0.082956   -0.120805    0.058981
C    -0.811723    0.317361    3.310541   -0.073975    0.025032    0.094956
H    -1.596504   -0.247451    3.814553   -0.099353    0.336084    0.374493
H    -0.359599    1.033893    3.999274    0.288250   -0.023564   -0.114469
O    -0.821700    3.008091    3.131546   -0.070124    0.005771    0.103359
C     0.173712   -0.705661    2.770958   -0.424711   -0.252714    0.067428
O    -0.157106   -1.384870    1.741532   -0.378017   -0.060478    0.057571
H     0.364425    0.582948   -0.597236   -0.068596    0.129873    0.086577
O     0.925432    1.181819   -0.060276    0.041017    0.154084   -0.018070
H     1.198101    0.638271    1.208205   -0.045655    0.479442   -0.836726
O     1.470693    0.267891    2.163152    0.060741    0.274495   -0.271086
O     1.776894    1.481373    2.911556    0.109806    0.205387   -0.183668
H     2.660110    1.226519    3.256506    0.241763    0.351245   -0.537367
H     1.772915    1.323864   -0.525628    0.068087   -0.004231   -0.046928
137
* Frequency(8)  -52.5235
C     0.561635    5.148774   -0.064522   -0.010265    0.033866   -0.006460
C    -4.362939    3.290020    0.501495    0.018711   -0.007600   -0.004643
C    -5.128075   -1.755084   -0.470060    0.005234   -0.007445   -0.027799
C    -0.922155   -4.952555   -0.434464   -0.010448   -0.047176    0.020987
C     4.075085   -3.223574   -0.061429    0.014470   -0.055598   -0.033914
C     4.722888    1.968238   -0.676338   -0.050239   -0.021022    0.083172
O    -0.294845    4.032848    0.052392    0.035458    0.018335    0.064010
O    -4.290893    2.278820   -0.454663    0.042561   -0.015432    0.013167
O    -3.753180   -1.972454   -0.675491    0.003224   -0.012701    0.005926
O     0.061960   -3.954235   -0.363664    0.023575   -0.079846    0.030747
O     3.750100   -2.023815   -0.690674   -0.026443   -0.033788    0.040178
O     3.347284    2.272825   -0.757422   -0.030634    0.016825    0.093571
C     1.146373    5.186411   -1.488945   -0.015664    0.001930   -0.012162
C    -4.021576    4.621057   -0.198484    0.030135   -0.012101   -0.006856
C    -5.661655   -0.948997   -1.666105    0.034512    0.005802   -0.034351
C    -1.646193   -4.832230   -1.787482   -0.002898   -0.021338    0.016709
C     3.734057   -4.348331   -1.058279    0.006669   -0.018464   -0.073738
C     5.104339    1.191555   -1.951356   -0.059088   -0.016325    0.072975
O     0.170140    5.330596   -2.485958   -0.013153   -0.028441   -0.015772
O    -4.850847    4.854882   -1.299941    0.048457   -0.015447   -0.021834
O    -5.463873   -1.613545   -2.882632    0.052832    0.012343   -0.035302
O    -0.797393   -4.978650   -2.892647   -0.001818   -0.029519    0.017192
O     4.431300   -4.183160   -2.261608   -0.024611    0.056794   -0.080506
O     4.807397    1.917584   -3.112474   -0.047431    0.001216    0.087092
C     1.879951    3.858699   -1.711346   -0.007107   -0.000376    0.013406
C    -2.544756    4.629761   -0.634747    0.037755   -0.012073    0.019307
C    -4.958242    0.415138   -1.668150    0.043400    0.002001   -0.013912
C    -2.319059   -3.453248   -1.832754    0.017103   -0.010152    0.017193
C     2.218176   -4.329460   -1.315002    0.000133   -0.049128   -0.039231
C     4.370726   -0.158025   -1.939091   -0.067317   -0.012492    0.052348
O     2.556514    3.810615   -2.946046    0.015353   -0.009482    0.024712
O    -2.189289    5.906094   -1.118438    0.028479   -0.006222    0.015701
O    -5.466189    1.242188   -2.683804    0.052008    0.015921   -0.010948
O    -3.064100   -3.274945   -3.011173    0.025952    0.001437    0.010733
O     1.820693   -5.444870   -2.079953    0.017707   -0.039972   -0.062606
O     4.776656   -0.978916   -3.008978   -0.056149   -0.008860    0.051017
C     2.925140    3.624906   -0.615230   -0.005498    0.032980    0.021198
C    -1.608557    4.247159    0.525550    0.023946    0.000295    0.039768
C    -5.127272    1.136099   -0.324365    0.032527   -0.009511   -0.009099
C    -3.265750   -3.300606   -0.641063    0.007348   -0.010686    0.009567
C     1.391015   -4.320327   -0.018580    0.022007   -0.116954   -0.022704
C     4.647231   -0.921306   -0.638531   -0.045041   -0.023060    0.037598
C     2.364418    3.877345    0.797998    0.038259    0.132593    0.021641
C    -2.126951    2.918149    1.088461    0.014618    0.000183    0.039154
C    -4.746953    0.206247    0.849267    0.012108   -0.024316   -0.014234
C    -2.525769   -3.591964    0.676325    0.010023   -0.005681    0.008954
C     1.956159   -3.253964    0.927726    0.040408   -0.155092    0.007696
C     4.408459   -0.039292    0.599720   -0.010474   -0.061347    0.072490
O     1.604741    5.084788    0.864153    0.023700    0.119909   -0.019788
O    -3.454457    3.071460    1.562341    0.001308    0.015035    0.017857
O    -5.369495   -1.073660    0.722672   -0.020727   -0.010170   -0.027782
O    -1.846296   -4.843495    0.613144   -0.003175   -0.020562    0.022202
O     3.346265   -3.407893    1.135073    0.049580   -0.122096   -0.017962
O     5.029900    1.243461    0.473880   -0.057867   -0.032665    0.094371
C     3.502574    4.023350    1.816705    0.081235    0.217641   -0.040563
C    -1.358931    2.359663    2.285600   -0.051734    0.001401    0.083418
C    -5.253659    0.708366    2.213386    0.022438   -0.021546   -0.014489
C    -3.503370   -3.707380    1.852189    0.013463    0.025958    0.012004
C     1.272222   -3.189027    2.294169    0.083073   -0.158065    0.019967
C     5.006194   -0.665167    1.870335    0.112442   -0.103188   -0.006864
O     4.357556    5.090127    1.490965    0.083678    0.172486   -0.157948
O    -1.421158    1.038602    2.239834   -0.096674    0.015354    0.124472
O    -6.616300    1.035414    2.173476    0.020025   -0.011717   -0.004638
O    -4.446591   -4.721878    1.641557   -0.001556    0.029675    0.035348
O     1.879039   -2.285648    3.070580   -0.046071    0.054404   -0.148288
O     6.350906   -1.035677    1.698494    0.132380    0.033827   -0.092838
H     0.026934    6.080259    0.154610   -0.027071    0.030461   -0.032293
H    -5.354989    3.340395    0.967190    0.010497   -0.002473   -0.021699
H    -5.667387   -2.705951   -0.373181   -0.007312   -0.002774   -0.046203
H    -0.479977   -5.950519   -0.322175   -0.044005   -0.062938    0.017199
H     5.131050   -3.263672    0.230694    0.024100   -0.056777   -0.067589
H     5.317447    2.887218   -0.605250   -0.020190   -0.040031    0.090914
H     1.862480    6.021391   -1.542759   -0.025229    0.010319   -0.023324
H    -4.190590    5.442460    0.505818    0.017106   -0.010278   -0.011498
H    -6.741743   -0.801454   -1.557697    0.033103    0.010837   -0.052022
H    -2.424745   -5.608049   -1.833733   -0.014253   -0.010139    0.008421
H     4.027478   -5.316416   -0.641977    0.042243   -0.029845   -0.123585
H     6.184876    1.011179   -1.958029   -0.059194   -0.021025    0.078251
H    -0.655128    5.662458   -2.082786   -0.015152   -0.021914   -0.027654
H    -4.881277    4.045259   -1.834022    0.078307   -0.012978   -0.029260
H    -4.576764   -2.019272   -2.887539    0.059923    0.022804   -0.023280
H     0.122600   -5.129937   -2.594327   -0.000824   -0.022536    0.015751
H     4.371271   -3.247285   -2.523568   -0.053506    0.072155   -0.028116
H     3.953829    2.377742   -3.000590   -0.079777   -0.046341    0.068422
H     1.117699    3.068825   -1.667954   -0.006896    0.005712    0.014773
H    -2.414702    3.880737   -1.431794    0.055166   -0.010676    0.023670
H    -3.880691    0.243970   -1.825028    0.040981   -0.000625   -0.007885
H    -1.536953   -2.682599   -1.756272    0.024537   -0.023264    0.025694
H     1.979335   -3.400568   -1.856288   -0.035056   -0.041125   -0.005944
H     3.288058    0.024276   -2.008793   -0.063355   -0.022553    0.050496
H     1.946017    4.113552   -3.632367   -0.012279   -0.131346   -0.004092
H    -2.914726    6.214682   -1.685820    0.034869   -0.030174   -0.005276
H    -5.599312    0.684350   -3.466123    0.109410    0.033759   -0.032623
H    -2.530520   -3.609639   -3.748095    0.052588    0.049667    0.008834
H     2.435879   -5.521536   -2.827199   -0.020856    0.024963   -0.099973
H     4.823996   -0.422042   -3.800223   -0.150157   -0.023345    0.035578
H     3.767735    4.304895   -0.793332    0.005553    0.007826   -0.023930
H    -1.625498    5.017347    1.306679   -0.001694    0.005579    0.035974
H    -6.171758    1.457939   -0.207774    0.032710   -0.005255   -0.017820
H    -4.093854   -4.012900   -0.751638    0.010498   -0.014181    0.008166
H     1.413858   -5.305410    0.461188    0.029390   -0.143455   -0.077517
H     5.684590   -1.280681   -0.645502   -0.038625   -0.009388    0.011223
H     1.717333    3.046628    1.091569    0.075116    0.146868    0.141465
H    -2.102868    2.160735    0.294364    0.019029   -0.009634    0.052580
H    -3.655272    0.084544    0.876028    0.005814   -0.050701   -0.005935
H    -1.803054   -2.787904    0.871424    0.017131   -0.016196   -0.002637
H     1.762084   -2.273052    0.468583    0.014820   -0.136461    0.050535
H     3.329740    0.071543    0.744822   -0.004117   -0.125175    0.206066
H     4.115556    3.120812    1.808715    0.071568    0.208795    0.021459
H     3.059507    4.161037    2.809417    0.125849    0.302705   -0.028845
H    -5.065875   -0.090110    2.941553    0.017143   -0.020351   -0.010946
H    -4.716363    1.604072    2.520903    0.027445   -0.024253   -0.015186
H    -4.059597   -2.774380    1.957167    0.021401    0.032303   -0.002027
H    -2.918388   -3.893789    2.761181    0.007736    0.035349    0.018642
H     4.913270    0.061387    2.684939    0.078453   -0.191767    0.073636
H     4.453144   -1.570175    2.130750    0.199406   -0.166783   -0.045871
H     3.820497    5.893847    1.471409    0.083899    0.171897   -0.269559
H    -7.101969    0.234985    1.928190    0.020381   -0.001385   -0.039263
H    -3.958684   -5.545097    1.494581   -0.006012    0.031319    0.015109
H     6.848539   -0.231766    1.492472    0.035946    0.085623   -0.129097
C     0.958490   -1.506442    3.814737   -0.090195   -0.057080   -0.080671
H     1.546315   -0.864022    4.464047   -0.127058    0.146945   -0.248747
H     0.275512   -2.131778    4.398858    0.148773   -0.156569    0.098817
O     0.382426   -3.912182    2.670435    0.082956   -0.120805    0.058981
C    -0.820130    0.320206    3.321332   -0.073975    0.025032    0.094956
H    -1.607795   -0.209257    3.857113   -0.099353    0.336084    0.374493
H    -0.326841    1.031215    3.986265    0.288250   -0.023564   -0.114469
O    -0.829669    3.008747    3.143292   -0.070124    0.005771    0.103359
C     0.125446   -0.734380    2.778621   -0.424711   -0.252714    0.067428
O    -0.200066   -1.391743    1.748075   -0.378017   -0.060478    0.057571
H     0.356629    0.597708   -0.587397   -0.068596    0.129873    0.086577
O     0.930093    1.199330   -0.062330    0.041017    0.154084   -0.018070
H     1.192913    0.692757    1.113116   -0.045655    0.479442   -0.836726
O     1.477596    0.299086    2.132345    0.060741    0.274495   -0.271086
O     1.789373    1.504714    2.890683    0.109806    0.205387   -0.183668
H     2.687586    1.266436    3.195437    0.241763    0.351245   -0.537367
H     1.780652    1.323383   -0.530961    0.068087   -0.004231   -0.046928
