140
Coordinates from ORCA-job job
  C           0.58745025918299      4.70717797959721     -0.33504177808534
  C          -4.38376256180660      3.19660847390252      0.46370278858974
  C          -5.09023246842746     -1.83743688249536     -0.52241056011999
  C          -0.77625905624687     -4.81000730626335     -0.83849767060319
  C           4.19428765816820     -3.33650696253531      0.02285153104625
  C           4.90225739172000      1.73073853870431     -0.53213423570148
  O          -0.33195192105770      3.65523660207672     -0.14116185674528
  O          -4.34295038557389      2.17073351881458     -0.47592565948764
  O          -3.70201181876192     -1.97506596830151     -0.75539212405043
  O           0.08693625992269     -3.73146016383439     -0.54788282968491
  O           4.24900745798457     -2.27156875598242     -0.87298745140514
  O           3.51023002305439      1.86116057441384     -0.75677201771547
  C           1.16891590815501      4.57891344669918     -1.75207352633490
  C          -4.00266742507224      4.48950926696920     -0.28487699146888
  C          -5.70662431233627     -1.04654642330182     -1.68749623027678
  C          -1.41672870665628     -4.53602817278030     -2.20877513834002
  C           3.75936728610302     -4.57072604431183     -0.79455054913821
  C           5.53953709897723      1.07571333450554     -1.76812071474807
  O           0.17398234528451      4.60178047325825     -2.73914467521668
  O          -4.87616462686232      4.74899927931483     -1.34395460466150
  O          -5.52781535970041     -1.68629073041681     -2.92018760927815
  O          -0.45686636798293     -4.40964124857520     -3.22281320279586
  O           4.61118969941028     -4.80522050143756     -1.87725273036230
  O           5.28793018604363      1.81308559229675     -2.93314025130923
  C           1.90658378061938      3.23740321606840     -1.82401805197250
  C          -2.55749779315090      4.35599897828205     -0.79726814618550
  C          -5.07612365829945      0.35080094152674     -1.69530105910887
  C          -2.19097888726501     -3.21696951956185     -2.09084477974656
  C           2.31395263293422     -4.36808030315523     -1.28633370194199
  C           5.01726783404496     -0.36007906588768     -1.90468620993654
  O           2.57065992551615      3.05450271525905     -3.04874678385313
  O          -2.12815785077113      5.55086467336392     -1.40770821449501
  O          -5.68197356756097      1.17287481560684     -2.66089378576183
  O          -2.93165677999154     -2.92332765720314     -3.25034298120810
  O           1.85878035977335     -5.51460343314673     -1.96767928688170
  O           5.75491923120641     -1.06544297132136     -2.87393066325269
  C           2.96471376171209      3.17016776412524     -0.72066287713750
  C          -1.60953515023706      4.00715907947103      0.35736528019486
  C          -5.20153965573856      1.04517884771409     -0.33252126689003
  C          -3.18560888228420     -3.28729995183000     -0.92803462224143
  C           1.38371923012453     -4.05441233254202     -0.10087863527779
  C           5.09270630293525     -1.15989522990669     -0.59557653809053
  C           2.37361803541403      3.49033851056582      0.66259985588392
  C          -2.16086454942403      2.77341432105092      1.07801995860031
  C          -4.79907607282897      0.11844288927446      0.83397695751226
  C          -2.52358489395600     -3.77645020406495      0.37028942279295
  C           1.98232627809165     -2.81411006999028      0.58690553280721
  C           4.64439390285804     -0.34044307874311      0.63361470815611
  O           1.60111811380607      4.68519424523828      0.62800425832147
  O          -3.48331083631705      2.97670848541453      1.53280451266463
  O          -5.33407303275907     -1.19953752214457      0.68915214282493
  O          -1.76020846442425     -4.95898359863467      0.14351731619649
  O           3.27432092109435     -3.10599199920288      1.06955109514772
  O           5.16737261245061      0.98831975226089      0.61226145128310
  C           3.48665239465170      3.73618495023600      1.69508216533168
  C          -1.30955874532477      2.38654009734407      2.27832490344095
  C          -5.35359573193165      0.59249734125548      2.18941345910511
  C          -3.56943185641515     -4.13133944181429      1.43331848370728
  C           1.16122408942808     -2.19913290264311      1.69362094817930
  C           5.17574735047270     -0.90672802366714      1.96404840469867
  O           4.39976919476068      4.70782847742351      1.25706444764828
  O          -1.68360799001486      1.21994487369170      2.74914566468624
  O          -6.72753783146132      0.86414973014313      2.13283754834572
  O          -4.51152506747033     -5.04778598517784      0.95131087121608
  O           1.90651410073207     -1.76844174523340      2.68791119357164
  O           6.55751835509622     -1.14104421124505      1.92086961618731
  H           0.09671215020914      5.67992058466446     -0.21082057892294
  H          -5.37245942821981      3.28912592243899      0.93049542957004
  H          -5.56721916932890     -2.82149515664557     -0.43420021090617
  H          -0.23087899632150     -5.76032013525426     -0.85245606848590
  H           5.16067340745601     -3.50806792586535      0.51330751102933
  H           5.35483254584008      2.71364721707356     -0.35200946544432
  H           1.88658205995287      5.39881126261981     -1.91402910297724
  H          -4.07094936293407      5.34077003937726      0.39946775740571
  H          -6.78775378357162     -0.95915451191830     -1.53466960173917
  H          -2.11739522408372     -5.35200005391639     -2.44471362820125
  H           3.80396624029227     -5.46082491348944     -0.15807952645281
  H           6.62726669947857      1.05243732263759     -1.64003450485244
  H          -0.60539100662539      5.08241495535508     -2.39637081812508
  H          -4.98615654835686      3.93183702462490     -1.85535287854343
  H          -4.59925886060015     -1.97526432636149     -3.01021041703656
  H           0.33590804447492     -4.91941877857059     -2.97353351016500
  H           4.76186159625429     -3.96150982548729     -2.33222391257647
  H           4.34340551334741      2.04913584483523     -2.96572557118955
  H           1.16105687986215      2.44337600523609     -1.66791707124651
  H          -2.51892985889674      3.52928844108174     -1.52403647890297
  H          -4.00038423252666      0.24642666506966     -1.91554717662070
  H          -1.45789753365108     -2.42020537697865     -1.89420817992885
  H           2.29194591805709     -3.49960998939380     -1.96485895496115
  H           3.95597459086796     -0.32142848096889     -2.19840322586887
  H           1.93645458771530      3.22070140066683     -3.76072374576886
  H          -2.85464116626576      5.86474677464252     -1.97038340080642
  H          -5.81359978228366      0.63491271191737     -3.45700976045646
  H          -2.33105065810344     -2.96712390358340     -4.00835940134691
  H           2.59208597606119     -5.82353608744274     -2.52569483234995
  H           5.81592347324535     -0.50069814931368     -3.65955392295346
  H           3.74545943389143      3.90643765390802     -0.95256137158322
  H          -1.53148066678652      4.84793300973799      1.05795605026842
  H          -6.23690711008369      1.38663212335402     -0.19011410681280
  H          -3.99226260254011     -3.97631119152836     -1.20874823942461
  H           1.35517218373698     -4.90122994516243      0.59745619855183
  H           6.12395270005187     -1.50986959494578     -0.44136921687967
  H           1.74568785221210      2.64745277376614      0.98672342370262
  H          -2.12206714737740      1.91904157044650      0.38334988528777
  H          -3.70423692959049      0.07298041031207      0.88759676779151
  H          -1.85353340429252     -2.99854175351068      0.74950617190567
  H           2.02044642151956     -2.01983582148239     -0.18594662063104
  H           3.54760404917343     -0.30173787945625      0.65916304683674
  H           4.04676562574743      2.81285936688402      1.84965654295706
  H           3.01907196957353      4.03834377025453      2.63719623126048
  H          -5.14269659191822     -0.19624295046346      2.92077156276021
  H          -4.85593415337651      1.51025711957519      2.50017453801100
  H          -4.11922116905949     -3.23403058706562      1.71622017077855
  H          -3.04691339588545     -4.52902210360998      2.30985528576402
  H           4.92631958363496     -0.17459821803154      2.74122940825879
  H           4.69272842408046     -1.85381236780318      2.19803670908315
  H           3.91421061231990      5.54014601178455      1.15940514185955
  H          -7.18101417605527      0.04197579636419      1.89977040878415
  H          -4.03412234837087     -5.84575075182579      0.68548313419301
  H           6.99436329971397     -0.29921358345953      1.72572653731324
  C           1.23131479236902     -1.01337064980156      3.68534139484448
  H           2.01320069919543     -0.54252353391104      4.29424695366990
  H           0.60540254702628     -1.66143409490944      4.30870829344188
  O          -0.04272480692444     -2.03313088359313      1.64993364165759
  C          -0.86957334735530      0.57048104417227      3.71205701360310
  H          -1.46436981695453     -0.26173291847357      4.10131297485971
  H          -0.58500879811915      1.24171689285967      4.53881856212723
  O          -0.42577208033980      3.07349803535302      2.73545777267017
  C           0.39851189306844      0.07295873906573      3.02588064753364
  O           0.73328011994194      0.54689381513826      1.95349965569846
  H          -0.98448001237014     -0.96363312846481      0.50476203681557
  O          -1.39143762029079     -0.32100887925008     -0.10075915301011
  H           0.72954206001314     -0.03457234606887     -0.99952822658202
  O           1.61904387970994     -0.28530446849762     -1.28228485739846
  H           0.89369237835464      3.05878693661423      3.86180925941719
  O           1.63949051472188      3.14057097841369      4.49198671295414
  O           2.42849559236182      1.95153663201014      4.12570670283077
  H           2.89315263514955      1.85136278984227      4.97938015777382
  H          -2.15521115266204     -0.81832033756370     -0.44406437723898
  H           2.16735331782175      0.49168358345381     -1.08066208350937
