32
Coordinates from ORCA-job job
  C           5.05184817886526     12.12071572329108     18.82588483268238
  O           3.45766047187299     14.32603299204835     19.61368243640897
  C           5.85707950764844     11.08124804023618     18.40128240785113
  C           6.96574576498595     12.56025836396135     16.86082650547114
  C           5.20623117476359     13.38593503365675     18.26329017485533
  H           5.73917080325474     10.10097318527248     18.83539725616195
  H           6.27048779367336     14.59442016158470     16.85417417098451
  H           4.29988630692334     11.97964816141690     19.58760491581447
  C           6.81252352685808     11.30042411266191     17.42026223241661
  C           6.16578298965843     13.60745064908667     17.27792111620142
  O           4.55873343201358     15.63418933796135     18.13498657111184
  H           7.70985221378126     12.72723419996722     16.09804674995910
  C           4.32099152952761     14.47830246139351     18.74416702952593
  O           3.48792437836711     16.82241199128880     18.76184973781735
  H           7.43972287931171     10.48690857593331     17.09050514006615
  H           3.04183436048716     16.18911058418671     19.37993812149302
  H           2.61988625971278     17.95632087664047     19.16548461471847
  C           1.97401994889054     18.88805647126976     19.45742666241096
  O           0.61443071186187     18.60740639335276     19.33433298513754
  H           2.33338565619837     19.63364891074808     18.73041835383346
  H           4.35012408663065     19.82677308960196     20.27356334955552
  C           2.37189207406449     19.25027544181583     20.85413378689025
  C           1.48297528670441     19.10820982215272     21.91309914528700
  C           1.86787437407607     19.46147579160371     23.19427438173438
  C           3.14312284820336     19.94764602400691     23.42880505539960
  C           4.03664584662118     20.08163903604127     22.37631634095987
  C           3.65545124730167     19.73419483553337     21.09485094283325
  H           0.49140981055341     18.73039464898422     21.71911219757975
  H           1.17082583694525     19.35449006133739     24.01124190804055
  H           3.44326299304548     20.21973554995175     24.42912599079947
  H           5.03209497821696     20.45719888281256     22.55762819926576
  H           0.37660266541971     18.58823443501806     18.39697497691660
