29
Coordinates from ORCA-job job
  H          -3.55159396697688      1.34157424375888      0.44932957492339
  C          -2.62870229488408      0.84087474070724      0.20326675136018
  C          -2.58940008490329     -0.54028958956597      0.08817788622269
  C          -1.40102162441865     -1.18204645174880     -0.22707543962500
  C          -0.24723431336216     -0.44825229956417     -0.43257346595441
  C          -0.28613731377143      0.93964811384466     -0.31890808767350
  C          -1.47987790563387      1.58268093238190      0.00271829343852
  H          -3.48635847857378     -1.11835943263972      0.24558860844461
  H          -1.37007567069234     -2.25654831815517     -0.31368116036246
  H           0.69066957805094     -0.92257930180789     -0.67699594297442
  H          -1.47285170657318      2.65931374376813      0.08604443887894
  O           3.31979585274977      1.89011490852701     -1.21994225375675
  C           0.92543233896096      1.77467611732615     -0.52640963006287
  O           0.95412834300896      2.98539215953461     -0.30494961900290
  O           1.94941455090503      1.03415744068158     -0.96587351970903
  C           4.06418534257723      2.18161700294124      0.00326835926837
  O           5.05037946643459      2.72177804074439     -0.69655345642850
  H           3.44854647344689      2.90166564021598      0.60567233093527
  H           2.58707599119151      1.18882307597180      2.03079426494244
  C           4.29878596945784      0.90788635794187      0.78729117140905
  C           5.36390834465533      0.08216246394248      0.46282958501851
  C           5.55166852142862     -1.10785934323116      1.14302400614041
  C           4.66828209906362     -1.47986573662331      2.14285730165099
  C           3.60065955601427     -0.65867786204198      2.46541990518303
  C           3.41799930558173      0.53644807641240      1.79151493841579
  H           6.02754848012639      0.40684705364600     -0.32619784761837
  H           6.38529976234351     -1.74345390378234      0.88667080545674
  H           4.81085836480542     -2.41004667383513      2.67065845388994
  H           2.90749001898697     -0.94428219935077      3.24183274758932
