29
Coordinates from ORCA-job job
  H          -3.51278655746162      1.16196062800811      1.18577367021799
  C          -2.80688628546333      0.71110650423850      0.50497089740258
  C          -3.21775184044373     -0.27733973175447     -0.37505200372980
  C          -2.30795969403530     -0.85266210018676     -1.24780921499278
  C          -0.98801418247371     -0.44071556109695     -1.24138276447960
  C          -0.57153257521868      0.55047484233389     -0.36143561260039
  C          -1.48740936123596      1.12401298419304      0.51210783768896
  H          -4.24777303760144     -0.59928305513859     -0.38134947803521
  H          -2.62455632454712     -1.62236766681071     -1.93520858451801
  H          -0.25274261314971     -0.86737222994954     -1.90948868883295
  H          -1.13346652448759      1.89392246463918      1.18348978798841
  O           3.70612377676203      1.63194353534311     -1.39181176615324
  C           0.86199919033953      1.01172274855933     -0.35402847832120
  O           1.18374560721151      1.94395082578719      0.44258123518838
  O           1.65751135135356      0.42221334068452     -1.16480252017403
  C           4.16862372629410      2.04416849924956     -0.12493010520008
  O           5.10373853039500      2.45116411250735     -1.08825209287044
  H           3.56084262265054      2.84882434801403      0.30866536236780
  H           3.00577943426118      1.50037573741141      2.20763796862846
  C           4.55999477428256      0.97808497331739      0.84616336906789
  C           5.61228280206297      0.11677687424041      0.56353940296325
  C           5.95103198512030     -0.87503227705417      1.46641961163804
  C           5.23518934886934     -1.01345401134688      2.64413006902170
  C           4.17818730555693     -0.16107352170324      2.92006734051499
  C           3.84094830133647      0.83968304079845      2.02564432165904
  H           6.15169486341529      0.24324360123791     -0.36341211555412
  H           6.77108306382996     -1.54018905471823      1.24598176158696
  H           5.49760818443906     -1.78879243436193      3.34689420123762
  H           3.61336912793770     -0.27194841644204      3.83269558828971
