29
Coordinates from ORCA-job job
  H          -2.73103462145752     -0.93969660666691      1.43545289351302
  C          -2.10505378051996     -0.65241232577149      0.60555676768731
  C          -2.41209444586981     -1.06929066361841     -0.68050385543750
  C          -1.60483769013836     -0.69983367935353     -1.74548271987853
  C          -0.48885261262325      0.08856084674176     -1.53115823347722
  C          -0.18082021865651      0.50919120664655     -0.24052723801205
  C          -0.99118667030509      0.13496090579687      0.82848659983698
  H          -3.28138515578950     -1.68399452657742     -0.85417986709151
  H          -1.84161815762007     -1.02497835032696     -2.74640722304926
  H           0.15781711989278      0.38825930505810     -2.34229834668881
  H          -0.71950166173923      0.47694545487932      1.81609734160235
  O           3.09821636572888      2.60071111907905     -0.77435616346958
  C           1.00890603576645      1.35933383342416      0.04558819339849
  O           1.28869565239684      1.73755446959894      1.18560222195034
  O           1.68928608933408      1.63186858524248     -1.06269816624833
  C           4.25207756326716      1.76452915209135     -0.70536435680070
  O           4.62877396084967      1.14751140749962     -1.76623729040949
  H           4.73654865299051      2.80501054657659     -0.47828298689340
  H           4.68571426513411      2.77664169018104      1.81079273292089
  C           4.30044046685634      1.03298593960337      0.63174222767420
  C           4.06754205949751     -0.33422661563783      0.65033298182187
  C           4.04294149373321     -1.02256482731566      1.85006402789626
  C           4.25614564058409     -0.34563354776786      3.03844773214075
  C           4.49340984192970      1.01849228443519      3.02338709319415
  C           4.51533817546160      1.70832660425164      1.82441584100776
  H           3.90267728688769     -0.83183572942496     -0.29600988277171
  H           3.85095563706896     -2.08484013988733      1.85197346343993
  H           4.23312358523274     -0.87976215452564      3.97575881177904
  H           4.65665012210662      1.55158481576774      3.94760640036480
