29
Coordinates from ORCA-job job
  H          -3.40988049762081      1.03521579519203      1.28053683823109
  C          -2.69140931112162      0.63326712697293      0.58297790426325
  C          -3.04729488778747     -0.39739016336450     -0.27244971984651
  C          -2.12134311913436     -0.91047569158526     -1.16694536176019
  C          -0.83868920619833     -0.39505560512913     -1.20810683444127
  C          -0.47963845313322      0.63958376704951     -0.35242302989350
  C          -1.41030490742034      1.15170632847652      0.54406296142243
  H          -4.04752761344056     -0.80093206608672     -0.24259345029872
  H          -2.39582715901710     -1.71232996847944     -1.83490417780533
  H          -0.09409898660743     -0.77238767129545     -1.89431407230321
  H          -1.09958178423943      1.95687833655794      1.19440200403279
  O           3.59458729103666      1.65329357309475     -1.38935676942680
  C           0.90600171839007      1.22133632333275     -0.38851352759414
  O           1.17342021627888      2.20375161768045      0.35204716186638
  O           1.72489469118571      0.64476380701606     -1.19823637487938
  C           4.17442954862086      2.06125231801470     -0.16744504195815
  O           5.11349716163524      2.40249879646016     -1.12465276459182
  H           3.63511397927803      2.90849662757779      0.28572879697012
  H           2.94348939072642      1.55850700913020      2.14771744805525
  C           4.49659478718976      0.97118816506970      0.81042825013856
  C           5.51071649053978      0.06202012615648      0.54310075159929
  C           5.77944334097851     -0.95536804542492      1.44129964274383
  C           5.03048858490959     -1.07142523319742      2.60050817367430
  C           4.01164440010547     -0.16981700795901      2.86249745352863
  C           3.74568405768206      0.85560822411151      1.97177194962971
  H           6.07481286433572      0.17452942499538     -0.37116875511147
  H           6.57088320158497     -1.65769450896552      1.23109753316740
  H           5.23753075970081     -1.86666602578997      3.29957617757727
  H           3.42123844154196     -0.26095637961166      3.76115583301014
