9
Coordinates from ORCA-job job.QMRegion
  O           3.31979585274977      1.89011490852701     -1.21994225375675
  C           0.92543233896096      1.77467611732615     -0.52640963006287
  O           0.95412834300896      2.98539215953461     -0.30494961900290
  O           1.94941455090503      1.03415744068158     -0.96587351970903
  C           4.06418534257723      2.18161700294124      0.00326835926837
  O           5.05037946643459      2.72177804074439     -0.69655345642850
  H           3.44854647344689      2.90166564021598      0.60567233093527
  H           0.01869022502102      1.14973882596343     -0.37111489585786
  H           4.23871408175415      1.23403810480013      0.58653411907595
