29
Coordinates from ORCA-job job
  H          -3.57290041509431      1.33333139839542      0.30411057946391
  C          -2.62875715472617      0.84300933103220      0.12799796997409
  C          -2.54762979955499     -0.54121076226367      0.12369763918016
  C          -1.33197987987871     -1.17005660676230     -0.10150694914676
  C          -0.19202660992781     -0.42091729477975     -0.32727960632029
  C          -0.27266773283551      0.97043170469385     -0.32483323612506
  C          -1.49435816531367      1.60083915619934     -0.09296587811756
  H          -3.43331037802558     -1.13181175589328      0.29750034615908
  H          -1.26900774044108     -2.24659068997780     -0.10144816232798
  H           0.76588963704196     -0.88560976775988     -0.50213062667538
  H          -1.51964271785236      2.68032773651855     -0.09431063244553
  O           3.28698550837060      1.90866408166713     -1.18825437453772
  C           0.91847392450154      1.82236796951466     -0.55680808673113
  O           0.92105243079853      3.04308981445033     -0.42718556048530
  O           1.97718662250417      1.06917840370243     -0.91667601013170
  C           4.04861926263050      2.19525253853286      0.04684661688054
  O           5.03975476191330      2.76871336154664     -0.60052867618236
  H           3.40116014291228      2.88467056974340      0.65895305529740
  H           2.57660124336389      1.15005666211946      2.06043601856916
  C           4.27899391146780      0.89911925705156      0.79760900167046
  C           5.33971533369948      0.07960986558121      0.44427391788592
  C           5.52794792396509     -1.12968288615141      1.08920438321484
  C           4.64958547416194     -1.52703978254696      2.08382713531406
  C           3.58721395290028     -0.71156543023626      2.43641798329443
  C           3.40387016928202      0.50227859564577      1.79681586748727
  H           5.99959015553451      0.42597603617980     -0.33882213136190
  H           6.35790680627725     -1.76034225760037      0.80953507853749
  H           4.79240822073773     -2.47231589585432      2.58408251931266
  H           2.89820011158724     -1.01637435274867      3.20924081834717
