29
Coordinates from ORCA-job job
  H          -3.50260690661099      1.31699522738119      0.74393455836693
  C          -2.63548656990294      0.81132881512142      0.34928163006862
  C          -2.70540070561352     -0.52681468896754     -0.00590547680101
  C          -1.58858078666237     -1.17387913623762     -0.51216722229079
  C          -0.39854243652498     -0.48689212110701     -0.66833855930555
  C          -0.32813103809452      0.85676432166491     -0.31305473420351
  C          -1.44896937617896      1.50448286697167      0.19854890794909
  H          -3.63170729646277     -1.06679560513845      0.11246795961183
  H          -1.64149387970741     -2.21554566980923     -0.78692634372774
  H           0.48670505967543     -0.96496142827215     -1.05965402366629
  H          -1.35767533520406      2.54685569136211      0.46635643619010
  O           3.41246019330692      1.84948077795799     -1.28739636867582
  C           0.93685445147451      1.63782034642511     -0.46218394201524
  O           1.03500572568150      2.79766990381945     -0.03380099727192
  O           1.87984029059943      0.95111601134714     -1.06890205646195
  C           4.10760898636789      2.15672079932059     -0.07230989435806
  O           5.08711205129705      2.62532162190991     -0.86922235560526
  H           3.54536086514638      2.93394449770342      0.49407617677456
  H           2.65616236950514      1.29930498826260      2.01606440569052
  C           4.35404704187539      0.93348465177044      0.77692138996961
  C           5.41192590588334      0.08398214930483      0.49109978253478
  C           5.60209524616873     -1.06217575266827      1.24256651909595
  C           4.72889873741084     -1.36665582036094      2.27348884416804
  C           3.66761920217952     -0.52240754551659      2.55591392002156
  C           3.48240814966248      0.62996978381713      1.81211495235641
  H           6.06849873090319      0.35064389172952     -0.32472318976542
  H           6.42963868961547     -1.71693810009406      1.01718820994283
  H           4.87343652013906     -2.26274130837484      2.85674231458798
  H           2.98179111407013     -0.75668016932282      3.35561815681973
