9
Coordinates from ORCA-job job.QMRegion
  O           3.27012363645277      1.92213192313679     -1.17920699598775
  C           0.92012949322748      1.84910693080522     -0.57065045883386
  O           0.90883962894502      3.07138785948239     -0.48698768385334
  O           1.99693146404164      1.09344275730082     -0.89305529627451
  C           4.04548146399892      2.20897207828710      0.07093347761145
  O           5.04859675578078      2.80123671643607     -0.52876637624499
  H           3.37346806031517      2.87938683297100      0.68135340101989
  H           0.03861943011580      1.20314287902828     -0.38650595894544
  H           4.20774865866168      1.23338237623513      0.61332529623532
