9
Coordinates from ORCA-job job.QMRegion
  O           3.62004129216277      1.63627348535681     -1.39799627387339
  C           0.89591873162533      1.17802555130878     -0.38538899768471
  O           1.17856611733357      2.14672638403870      0.37103188811799
  O           1.70623003210132      0.60345907494826     -1.20179312495418
  C           4.17821616081029      2.05078457877997     -0.16918005889464
  O           5.11560718424220      2.39347199742955     -1.13357078066396
  H           3.62877998247151      2.89512942962638      0.27473964168955
  H          -0.14943711944402      0.76136843621565     -0.36259655333792
  H           4.42718839548918      1.24706173260060      0.56200900293179
