9
Coordinates from ORCA-job job.QMRegion
  O           3.50253163961821      1.72578306372721     -1.35880300633276
  C           0.92939248059103      1.41126799987703     -0.40451810959303
  O           1.12500931708884      2.47208559538703      0.22728831626325
  O           1.79415897536118      0.79502010491217     -1.15164517530466
  C           4.15303102488838      2.09888017287770     -0.15358155019893
  O           5.10712596206258      2.47129969410747     -1.05786702285792
  H           3.62380363921594      2.93328133483340      0.34478479991371
  H          -0.06943680661294      0.90181291787925     -0.34950931190271
  H           4.36183999719237      1.25115966698101      0.54643225795534
