9
Coordinates from ORCA-job job.QMRegion
  O           3.26246840765271      1.95894966354442     -1.17933020257169
  C           0.93085797089147      1.89056901674530     -0.60564626487920
  O           0.89464704440315      3.11199088903588     -0.58757796723782
  O           2.03054974242772      1.13967722049458     -0.88613047162730
  C           4.05349051558015      2.24420491005511      0.12317546474738
  O           5.08295973172598      2.86477669226698     -0.37834077280579
  H           3.33135889887013      2.88128373765883      0.71372677482511
  H           0.06745699682431      1.23050894932067     -0.39569572622825
  H           4.18868597300271      1.24568716532829      0.62921135839905
