29
Coordinates from ORCA-job job
  H          -3.42047502712652      1.14134375549223      1.13363631386080
  C          -2.64700213641288      0.69583002191731      0.52776024543441
  C          -2.89243644246296     -0.47526102878279     -0.17183576682131
  C          -1.89592811309831     -1.04446766738465     -0.94921438785226
  C          -0.65216225671762     -0.44526398660833     -1.03093629569508
  C          -0.40522210720876      0.73054488435216     -0.33101651648262
  C          -1.40557925830129      1.29930015594117      0.45008771995173
  H          -3.86176639148870     -0.94499726144484     -0.11157314059811
  H          -2.08476135538489     -1.95603228597714     -1.49445494583297
  H           0.14359775339191     -0.86419722446319     -1.62900745519382
  H          -1.17977916655590      2.21306105036301      0.98036714237960
  O           3.50253163961821      1.72578306372721     -1.35880300633276
  C           0.92939248059103      1.41126799987703     -0.40451810959303
  O           1.12500931708884      2.47208559538703      0.22728831626325
  O           1.79415897536118      0.79502010491217     -1.15164517530466
  C           4.15303102488838      2.09888017287770     -0.15358155019893
  O           5.10712596206258      2.47129969410747     -1.05786702285792
  H           3.62380363921594      2.93328133483340      0.34478479991371
  H           2.83852916701921      1.49517070329755      2.09718792125592
  C           4.43371096351531      0.95937866131682      0.78737338359912
  C           5.45030679027115      0.05576487615537      0.51415624343896
  C           5.67517531113606     -1.01015612729933      1.36713554900475
  C           4.87925721334053     -1.18001454036061      2.48772633796012
  C           3.85848412092373     -0.28287275457756      2.75658941773800
  C           3.63726287618513      0.78996942626566      1.91055939653958
  H           6.04940669057790      0.21375748448247     -0.37089613704197
  H           6.46931871170604     -1.70797307396049      1.15159521330028
  H           5.05168344457781     -2.01310922322223      3.15124384679075
  H           3.23220117328677     -0.41399481122470      3.62565666237441
