29
Coordinates from ORCA-job job
  H          -3.47792345259020      1.28515798369175      0.86995443139503
  C          -2.63899646615940      0.78711153134378      0.40984263550571
  C          -2.76208489413851     -0.51536667751381     -0.04816528147864
  C          -1.68145438567721     -1.15214070807877     -0.63858192360726
  C          -0.47513941090322     -0.48981507402687     -0.77577746127765
  C          -0.35130812233058      0.81769542460822     -0.31753986376006
  C          -1.43555554773925      1.45461832568471      0.27787582210814
  H          -3.70157839029485     -1.03531786739572      0.05543696738335
  H          -1.77528097495621     -2.16621567841998     -0.99416183409285
  H           0.38355333585828     -0.95986813652828     -1.23135949930971
  H          -1.30340517631834      2.46920322897836      0.62432292651810
  O           3.46326974906547      1.83089059866060     -1.31582789486090
  C           0.93752679422318      1.56868852822832     -0.44704002532473
  O           1.06837478824342      2.69820479280406      0.06030818762639
  O           1.84823817938096      0.91174985362004     -1.11414442837095
  C           4.12658577773648      2.14527468622820     -0.09570070999541
  O           5.10184199747566      2.58317409989934     -0.93120595412436
  H           3.57894219265002      2.94272070007766      0.44958205506119
  H           2.69701219634376      1.34997962966048      2.02559924058996
  C           4.37985887427707      0.94450475985418      0.77883439514164
  C           5.43151466601120      0.08351093150914      0.50332523793576
  C           5.62657336757237     -1.04216571212477      1.28398424709434
  C           4.76490595367337     -1.31467814871239      2.33333513522383
  C           3.70967207279571     -0.45922808590900      2.60491594991193
  C           3.51923271929124      0.67316625838558      1.83233311137489
  H           6.07978307026588      0.32290580649858     -0.32727874645853
  H           6.44883963825021     -1.70621718618771      1.06693693137943
  H           4.91330136341231     -2.19486556648813      2.93936101796616
  H           3.03257508458107     -0.66927929834768      3.41863433044517
