29
Coordinates from ORCA-job job
  H          -3.56609703927099      1.25948526033307      0.10113588240003
  C          -2.59029973398592      0.80575403439395      0.03299576650553
  C          -2.43876854580615     -0.56105981533634      0.21134016009882
  C          -1.18240771606306     -1.14303116638183      0.12625644834671
  C          -0.07132249473795     -0.36540801683669     -0.14256974400429
  C          -0.22280016656287      1.00861070205170     -0.32511479149364
  C          -1.48578036579095      1.59300191918094     -0.23155205070315
  H          -3.30119021808069     -1.17447249648306      0.41956791695181
  H          -1.06480886121469     -2.20521299756698      0.27014348243460
  H           0.91639027467088     -0.79468814930552     -0.20725010484753
  H          -1.56609205991043      2.66041627590818     -0.37270031609478
  O           3.26246840765271      1.95894966354442     -1.17933020257169
  C           0.93085797089147      1.89056901674530     -0.60564626487920
  O           0.89464704440315      3.11199088903588     -0.58757796723782
  O           2.03054974242772      1.13967722049458     -0.88613047162730
  C           4.05349051558015      2.24420491005511      0.12317546474738
  O           5.08295973172598      2.86477669226698     -0.37834077280579
  H           3.33135889887013      2.88128373765883      0.71372677482511
  H           2.53332736179646      1.12673818572423      2.07276496518836
  C           4.23521954893203      0.90200253141496      0.80338629096799
  C           5.27780253754869      0.07516142323442      0.41323226265079
  C           5.43066009748290     -1.17188844821487      0.99174888054849
  C           4.53633786871509     -1.60005083425511      1.95925127131610
  C           3.49428849365233     -0.77678124887077      2.35143922987071
  C           3.34546698732475      0.47381708305634      1.77670353755593
  H           5.95235481879945      0.44677174404461     -0.34544320615930
  H           6.24562141172955     -1.80794954420210      0.68156674551011
  H           4.65138578626524     -2.57496137812130      2.40706431108901
  H           2.79325470295498     -1.10430819356898      3.10395550141700
