29
Coordinates from ORCA-job job
  H          -3.57590775585733      1.31371425364971      0.22589371691522
  C          -2.61981813860504      0.83420082549876      0.08908435628633
  C          -2.51371703013663     -0.54720925751228      0.14643840784002
  C          -1.28266687207179     -1.16236454796823     -0.02767677778671
  C          -0.15196326157127     -0.40274474125812     -0.26434650372113
  C          -0.25772562635405      0.98598341436421     -0.32460046914829
  C          -1.49511732562937      1.60291763474457     -0.14322213156477
  H          -3.39187960125846     -1.14629320365498      0.32908136897722
  H          -1.20041179895111     -2.23645653171564      0.02110855368474
  H           0.81716272193532     -0.85725661627162     -0.39919863424700
  H          -1.53990733033882      2.68061952506713     -0.19207857973713
  O           3.27012363645277      1.92213192313679     -1.17920699598775
  C           0.92012949322748      1.84910693080522     -0.57065045883386
  O           0.90883962894502      3.07138785948239     -0.48698768385334
  O           1.99693146404164      1.09344275730082     -0.89305529627451
  C           4.04548146399892      2.20897207828710      0.07093347761145
  O           5.04859675578078      2.80123671643607     -0.52876637624499
  H           3.37346806031517      2.87938683297100      0.68135340101989
  H           2.57066713456682      1.14228173763384      2.07692462525410
  C           4.26360018627681      0.89758945580879      0.80001374980139
  C           5.31564355759651      0.07477179157458      0.42856706787213
  C           5.49671096812860     -1.14645127430509      1.05255688404249
  C           4.62027691063013     -1.55238895773018      2.04551638411969
  C           3.56733802642363     -0.73332556977867      2.41724214968627
  C           3.39083445178604      0.49196365084074      1.79771797959025
  H           5.97494201184768      0.42902214531795     -0.35154432462463
  H           6.31965546069013     -1.77961692310384      0.75805278142441
  H           4.75753870194069     -2.50693771888642      2.52947566354359
  H           2.88004910618966     -1.04428519073466      3.18917266435489
