9
Coordinates from ORCA-job job.QMRegion
  O           3.27417631209339      1.98573767428353     -1.24900092278647
  C           0.96551969370077      1.90877296975524     -0.66927115766724
  O           0.90562242990361      3.12870029060612     -0.68097096884236
  O           2.07838476085260      1.17355198228293     -0.96342842501083
  C           4.10291671122213      2.30178023481633      0.17711361553083
  O           5.15604851386034      2.91444165965879     -0.23200037127652
  H           3.31664010788734      2.92626228908585      0.68704434172322
  H           0.12584940520489      1.23373377582859     -0.41894904518058
  H           4.17546977535597      1.28297233658026      0.64423725299928
