29
Coordinates from ORCA-job job
  H          -3.55240860561439      1.23865972839358      0.08685652547400
  C          -2.57153322901782      0.79430420204817      0.03088714265378
  C          -2.40473636103516     -0.56553913561563      0.24520999766182
  C          -1.14185151044756     -1.13538349511854      0.17592745566255
  C          -0.03936377779437     -0.35278013711406     -0.11303328291111
  C          -0.20615491285548      1.01423096991045     -0.33185380405494
  C          -1.47576185432175      1.58659909495419     -0.25407758709369
  H          -3.26028295936709     -1.18289687213154      0.46948990596107
  H          -1.01241534343580     -2.19198692935867      0.34795654505566
  H           0.95305757636886     -0.77282970445543     -0.16523143035386
  H          -1.56798959583987      2.64896870434780     -0.42324477474179
  O           3.26406743718907      1.96935378290641     -1.18980913402677
  C           0.93733620619172      1.90163376053307     -0.63347097283501
  O           0.89060667756708      3.12195305086211     -0.64547381808450
  O           2.04574096284459      1.15362711481333     -0.89682822080641
  C           4.05799476138100      2.25928426795220      0.14760894765720
  O           5.09810471100510      2.89047093740224     -0.30662319571575
  H           3.30857289953498      2.88216360108517      0.71855903933837
  H           2.51072417983246      1.12183925549403      2.06539254781678
  C           4.22176876083670      0.90540273030034      0.80652790704699
  C           5.26254445006919      0.07728986528227      0.41334913284307
  C           5.40232484476932     -1.17908552139546      0.97458020421191
  C           4.49733311595245     -1.61557710406652      1.92839652483103
  C           3.45756734616883     -0.79116935652330      2.32416210226331
  C           3.32140541160325      0.46852800686061      1.76640755508115
  H           5.94603741416809      0.45497040845923     -0.33419405909746
  H           6.21565592408283     -1.81591739633269      0.66168362835889
  H           4.60231504127185     -2.59775514216876      2.36258549257850
  H           2.74821542889189     -1.12495968732465      3.06605862522523
