29
Coordinates from ORCA-job job
  H          -3.53635320900281      1.34307836280829      0.57992294391530
  C          -2.63784526451271      0.83477849575533      0.26772443109252
  C          -2.64821593683140     -0.53323988352902      0.04303820807652
  C          -1.49123207584448     -1.18416851727166     -0.35761746870647
  C          -0.31988102266676     -0.47196463176081     -0.53908128015815
  C          -0.30903996244536      0.90214666907607     -0.31477521934577
  C          -1.47066905588692      1.55410144710931      0.09181828588250
  H          -3.55943421948168     -1.09373427340720      0.18112913792992
  H          -1.49839195794897     -2.24876056293707     -0.53016410007165
  H           0.59498622903625     -0.95313573099614     -0.84942271374970
  H          -1.42521147855389      2.62002872835425      0.25944996649614
  O           3.36217447149272      1.87137045918102     -1.24899757454453
  C           0.92841893120225      1.71293251141174     -0.49345690129093
  O           0.98783608909993      2.90521371482738     -0.17439934145075
  O           1.91400919589873      0.99317782364761     -1.01152688315788
  C           4.08463225198987      2.16891769244068     -0.03264222340064
  O           5.06603647068021      2.67647639904372     -0.78299176599231
  H           3.49775613600732      2.91709756056833      0.55576624212049
  H           2.61690893591755      1.23244000107905      2.01865165072315
  C           4.32756388894355      0.91885600026870      0.78206908358766
  C           5.39311493273572      0.08567185639550      0.47822330755424
  C           5.58361477008629     -1.08432063614421      1.19178527894791
  C           4.70275901173850     -1.42891893112587      2.20347080886827
  C           3.63413206690677     -0.60070479722748      2.50452219926693
  C           3.44868826281387      0.57491455324769      1.79799927177738
  H           6.05501402460701      0.38629675179223     -0.32152157688913
  H           6.41742756090483     -1.72599812572297      0.95200714686847
  H           4.84751282116636     -2.34353108743352      2.75719923837717
  H           2.94256313194716     -0.86562284945108      3.28961884727331
