29
Coordinates from ORCA-job job
  H          -3.42666103032288      1.05015605231585      1.27800037543257
  C          -2.71402765060069      0.64298630095254      0.57736979561412
  C          -3.08623542172395     -0.37287563180792     -0.28863986245887
  C          -2.16781133696325     -0.89262380685186     -1.18702804563485
  C          -0.87669951704966     -0.39838495635132     -1.22110338091697
  C          -0.50086366768183      0.62129711829447     -0.35493421516427
  C          -1.42418514108048      1.13985156599169      0.54518810284707
  H          -4.09324856253803     -0.75966888081601     -0.26398172113156
  H          -2.45486346378910     -1.68309633555286     -1.86333058772528
  H          -0.13709323318473     -0.78112802152780     -1.90993694198508
  H          -1.10071552741235      1.93318976028622      1.20396686807874
  O           3.62004129216277      1.63627348535681     -1.39799627387339
  C           0.89591873162533      1.17802555130878     -0.38538899768471
  O           1.17856611733357      2.14672638403870      0.37103188811799
  O           1.70623003210132      0.60345907494826     -1.20179312495418
  C           4.17821616081029      2.05078457877997     -0.16918005889464
  O           5.11560718424220      2.39347199742955     -1.13357078066396
  H           3.62877998247151      2.89512942962638      0.27473964168955
  H           2.93688940479272      1.53332403840155      2.13315961277727
  C           4.51288334861553      0.97042449343716      0.81368048935489
  C           5.54664467040758      0.07993765099819      0.55831809179233
  C           5.82830338678657     -0.92705101395849      1.46432070360483
  C           5.07319994380050     -1.05134787235030      2.61864044985850
  C           4.03447428934844     -0.16894283287746      2.86806831420581
  C           3.75523084259740      0.84637089187762      1.97003837555852
  H           6.11575803186716      0.19780168189402     -0.35206516177012
  H           6.63474213017946     -1.61500222156180      1.26399788107219
  H           5.29082220423292     -1.83847013194968      3.32365336276571
  H           3.43897179897152     -0.26721935033237      3.76257420008776
