29
Coordinates from ORCA-job job
  H          -3.42256635244031      1.11578142782207      1.18588617338530
  C          -2.67079034977765      0.67974701664074      0.54648968989523
  C          -2.96169920206489     -0.44395542655011     -0.21083419443269
  C          -1.99296223850973     -1.00103364172762     -1.03071156955736
  C          -0.73223703975471     -0.43638008522785     -1.09665780508564
  C          -0.43904349126544      0.69170544603042     -0.33921820137898
  C          -1.41178299723627      1.24762774387192      0.48398696393277
  H          -3.94470144836095     -0.88604163402248     -0.16247601039352
  H          -2.21680737159789     -1.87584322811873     -1.62131458291663
  H           0.04382415525279     -0.84630804582750     -1.72660592313137
  H          -1.15080171238712      2.12438150838974      1.05907816602501
  O           3.56049098722934      1.70988651905518     -1.37632722542827
  C           0.91950171713710      1.32967215105584     -0.39929216759443
  O           1.15041797155556      2.35193107910581      0.29164695246630
  O           1.75892766629753      0.74051352492394     -1.18511587325224
  C           4.16777446584050      2.08812442484197     -0.15599868295699
  O           5.11707366868823      2.44549578723760     -1.08636530866574
  H           3.63643574462073      2.92893012212541      0.32265450444661
  H           2.87226913023330      1.51139636979102      2.10814495580718
  C           4.46313944628550      0.96624558649323      0.79719714308801
  C           5.48482092072537      0.06581731321701      0.53079919444165
  C           5.72533189578354     -0.98252370911938      1.40109160940153
  C           4.94037851089761     -1.13807298804631      2.53143378767324
  C           3.91434929127951     -0.24454060912702      2.79281321445560
  C           3.67701745723161      0.81138496021745      1.93008150781461
  H           6.07608534984190      0.21048759058201     -0.36160496543839
  H           6.52300609723870     -1.67799054425212      1.19143570506246
  H           5.12515487000587     -1.95751373145246      3.20846012572265
  H           3.29626785725016     -0.36552592792990      3.66912181661404
