9
Coordinates from ORCA-job job.QMRegion
  O           3.09821636572888      2.60071111907905     -0.77435616346958
  C           1.00890603576645      1.35933383342416      0.04558819339849
  O           1.28869565239684      1.73755446959894      1.18560222195034
  O           1.68928608933408      1.63186858524248     -1.06269816624833
  C           4.25207756326716      1.76452915209135     -0.70536435680070
  O           4.62877396084967      1.14751140749962     -1.76623729040949
  H           4.73654865299051      2.80501054657659     -0.47828298689340
  H           0.09628939434502      0.70720540817118     -0.17388557470741
  H           4.41910505994520      1.51515202961396      0.32970549781443
