29
Coordinates from ORCA-job job
  H          -3.52857564166856      1.21719656498183      0.11369261692941
  C          -2.54480547239796      0.77988922450170      0.05308937539889
  C          -2.36515048773112     -0.57605424044059      0.28121987314173
  C          -1.09851867950823     -1.13669967959911      0.20599355905449
  C          -0.00509331103479     -0.34887108464746     -0.10251606784037
  C          -0.18479117831682      1.01419259071812     -0.33535883405808
  C          -1.45815559364987      1.57731992651367     -0.25171525622167
  H          -3.21351327664750     -1.19746906081351      0.52102942105926
  H          -0.95893550207672     -2.19019348121649      0.38884117837106
  H           0.99005220602532     -0.76188967023696     -0.15890923193807
  H          -1.56053876992055      2.63695159495398     -0.43195841983861
  O           3.26808194866574      1.97631521164174     -1.21310167404154
  C           0.94859201479244      1.90720587660904     -0.65613580578965
  O           0.89432706856822      3.12683611117269     -0.68007010907264
  O           2.06130599604567      1.16369961799348     -0.92278547421331
  C           4.07243827458491      2.27742589868887      0.16516065593700
  O           5.11980364191005      2.90802402929558     -0.25609826910574
  H           3.30028633013863      2.89465900749952      0.70895277680564
  H           2.47735505971229      1.13084644892857      2.03600767590627
  C           4.21014091895448      0.91442482438218      0.80663074147699
  C           5.25090771073530      0.08113853863120      0.42336141999303
  C           5.36801664810071     -1.18332781517751      0.97129701321838
  C           4.44076391219030     -1.62316257209343      1.90197745255972
  C           3.40140778253827     -0.79379709533191      2.28840003662276
  C           3.28771174561437      0.47395306255221      1.74415054197124
  H           5.95188730806421      0.46063428808319     -0.30677790228357
  H           6.18117165501211     -1.82405062768916      0.66597644812478
  H           4.52802752616894     -2.61179652065859      2.32528671062465
  H           2.67467516513013     -1.13000196924286      3.01215854720794
