9
Coordinates from ORCA-job job.QMRegion
  O           3.26406743718907      1.96935378290641     -1.18980913402677
  C           0.93733620619172      1.90163376053307     -0.63347097283501
  O           0.89060667756708      3.12195305086211     -0.64547381808450
  O           2.04574096284459      1.15362711481333     -0.89682822080641
  C           4.05799476138100      2.25928426795220      0.14760894765720
  O           5.09810471100510      2.89047093740224     -0.30662319571575
  H           3.30857289953498      2.88216360108517      0.71855903933837
  H           0.08154425711307      1.23749903210811     -0.40773984082504
  H           4.17983275480423      1.25207793221834      0.63780497454417
