9
Coordinates from ORCA-job job.QMRegion
  O           3.28698550837060      1.90866408166713     -1.18825437453772
  C           0.91847392450154      1.82236796951466     -0.55680808673113
  O           0.92105243079853      3.04308981445033     -0.42718556048530
  O           1.97718662250417      1.06917840370243     -0.91667601013170
  C           4.04861926263050      2.19525253853286      0.04684661688054
  O           5.03975476191330      2.76871336154664     -0.60052867618236
  H           3.40116014291228      2.88467056974340      0.65895305529740
  H           0.02702017940326      1.18477648811401     -0.38319746026399
  H           4.22000412862389      1.23100742789514      0.60536862162148
