9
Coordinates from ORCA-job job.QMRegion
  O           3.46326974906547      1.83089059866060     -1.31582789486090
  C           0.93752679422318      1.56868852822832     -0.44704002532473
  O           1.06837478824342      2.69820479280406      0.06030818762639
  O           1.84823817938096      0.91174985362004     -1.11414442837095
  C           4.12658577773648      2.14527468622820     -0.09570070999541
  O           5.10184199747566      2.58317409989934     -0.93120595412436
  H           3.57894219265002      2.94272070007766      0.44958205506119
  H          -0.02704085908506      1.00664319076458     -0.35012174251046
  H           4.31500570991832      1.25197416918283      0.55490074531612
