9
Coordinates from ORCA-job job.QMRegion
  O           3.26158360883564      1.93922130844294     -1.17039285750774
  C           0.92065382440874      1.87241669860872     -0.59083634761113
  O           0.89505462797683      3.09492197195924     -0.55408385480345
  O           2.01294591905859      1.11672479608486     -0.87579904056702
  C           4.04430602163491      2.22427761922641      0.10224885657126
  O           5.05983108397654      2.83706091547855     -0.44555864921201
  H           3.34490775905812      2.87323739026628      0.70734185727040
  H           0.04797956269806      1.21981962298170     -0.39360437493312
  H           4.19785854765324      1.23655500878567      0.62504269533614
