29
Coordinates from ORCA-job job
  H          -3.49173765105516      1.18771913811051      0.18267825245586
  C          -2.50697163521745      0.75640120616345      0.09938224737393
  C          -2.31522145008596     -0.59997363011901      0.31479342622334
  C          -1.04730868937050     -1.15275259330942      0.21023214305196
  C           0.03533651352392     -0.35663186689086     -0.11475686764098
  C          -0.15643000313448      1.00679986274608     -0.33479604039394
  C          -1.43109910558228      1.56182405798629     -0.22184279375860
  H          -3.15501777314798     -1.22782161320009      0.56764890269804
  H          -0.89807606915832     -2.20657362840034      0.38335330907200
  H           1.03148694481573     -0.76357432496360     -0.19320572875250
  H          -1.54272341027663      2.62212451325856     -0.39265285322564
  O           3.27417631209339      1.98573767428353     -1.24900092278647
  C           0.96551969370077      1.90877296975524     -0.66927115766724
  O           0.90562242990361      3.12870029060612     -0.68097096884236
  O           2.07838476085260      1.17355198228293     -0.96342842501083
  C           4.10291671122213      2.30178023481633      0.17711361553083
  O           5.15604851386034      2.91444165965879     -0.23200037127652
  H           3.31664010788734      2.92626228908585      0.68704434172322
  H           2.44424809376762      1.17095696168841      1.99722724744728
  C           4.20044216409700      0.93230393696251      0.80501878861389
  C           5.23348862708210      0.08166425208224      0.43755018328307
  C           5.31303150556849     -1.18967048134720      0.97596278874408
  C           4.35623084311851     -1.61956454318397      1.88119043843965
  C           3.32483606460194     -0.77331801184287      2.25211476427566
  C           3.24854821097079      0.50135526222637      1.71779004228544
  H           5.95757562764517      0.45239604991312     -0.27417522717073
  H           6.11985857874704     -1.84392514014184      0.68283595241676
  H           4.41407848264912     -2.61375829669904      2.29641528113568
  H           2.57499060092113     -1.10182921152808      2.95554863175512
