9
Coordinates from ORCA-job job.QMRegion
  O           3.41246019330692      1.84948077795799     -1.28739636867582
  C           0.93685445147451      1.63782034642511     -0.46218394201524
  O           1.03500572568150      2.79766990381945     -0.03380099727192
  O           1.87984029059943      0.95111601134714     -1.06890205646195
  C           4.10760898636789      2.15672079932059     -0.07230989435806
  O           5.08711205129705      2.62532162190991     -0.86922235560526
  H           3.54536086514638      2.93394449770342      0.49407617677456
  H          -0.00986422402909      1.05327583476672     -0.35057522613462
  H           4.29094405961484      1.24670676659508      0.55946704202127
