29
Coordinates from ORCA-job job
  H          -3.57991305620995      1.29215988715425      0.13927289612713
  C          -2.61266707365093      0.82475445621336      0.04607027661262
  C          -2.48289323241241     -0.54976879668660      0.17535863179762
  C          -1.23751049861401     -1.14938025034002      0.05762537408382
  C          -0.11584387307469     -0.38142224283223     -0.19447146545440
  C          -0.24539508404568      1.00043027585834     -0.32729915332895
  C          -1.49731423519298      1.60215871266703     -0.20172180610062
  H          -3.35378295685929     -1.15556585218687      0.37025818973983
  H          -1.13693830629820     -2.21784506635375      0.16272363332189
  H           0.86380364140236     -0.82418335386932     -0.28519002146385
  H          -1.56052541805832      2.67502241992051     -0.30539951155729
  O           3.26158360883564      1.93922130844294     -1.17039285750774
  C           0.92065382440874      1.87241669860872     -0.59083634761113
  O           0.89505462797683      3.09492197195924     -0.55408385480345
  O           2.01294591905859      1.11672479608486     -0.87579904056702
  C           4.04430602163491      2.22427761922641      0.10224885657126
  O           5.05983108397654      2.83706091547855     -0.44555864921201
  H           3.34490775905812      2.87323739026628      0.70734185727040
  H           2.56115188889234      1.12582064956797      2.08946012184200
  C           4.25071053147604      0.89658600415860      0.80498562578172
  C           5.29733990226669      0.07447771736454      0.41647168373325
  C           5.47117050982356     -1.16019596762754      1.01541534984739
  C           4.59341446209895     -1.58040600192077      2.00129525760797
  C           3.54656985386760     -0.76193481117293      2.39092705029395
  C           3.37696032021635      0.47642422578948      1.79586173581723
  H           5.95840025582966      0.44020475704164     -0.35683767999559
  H           6.28957612528672     -1.79264253143143      0.70693187427668
  H           4.72497622903309     -2.54547950756456      2.46557144363937
  H           2.85830216927368     -1.08367642381676      3.15756952923790
