9
Coordinates from ORCA-job job.QMRegion
  O           3.26808194866574      1.97631521164174     -1.21310167404154
  C           0.94859201479244      1.90720587660904     -0.65613580578965
  O           0.89432706856822      3.12683611117269     -0.68007010907264
  O           2.06130599604567      1.16369961799348     -0.92278547421331
  C           4.07243827458491      2.27742589868887      0.16516065593700
  O           5.11980364191005      2.90802402929558     -0.25609826910574
  H           3.30028633013863      2.89465900749952      0.70895277680564
  H           0.10036486573321      1.23887223784627     -0.41606542370706
  H           4.17488074979355      1.26343517684570      0.64237577141910
