9
Coordinates from ORCA-job job.QMRegion
  O           3.70612377676203      1.63194353534311     -1.39181176615324
  C           0.86199919033953      1.01172274855933     -0.35402847832120
  O           1.18374560721151      1.94395082578719      0.44258123518838
  O           1.65751135135356      0.42221334068452     -1.16480252017403
  C           4.16862372629410      2.04416849924956     -0.12493010520008
  O           5.10373853039500      2.45116411250735     -1.08825209287044
  H           3.56084262265054      2.84882434801403      0.30866536236780
  H          -0.21085998913135      0.66652352654349     -0.35957199831562
  H           4.45978021834617      1.25106655356331      0.59750496217582
