9
Coordinates from ORCA-job job.QMRegion
  O           3.36217447149272      1.87137045918102     -1.24899757454453
  C           0.92841893120225      1.71293251141174     -0.49345690129093
  O           0.98783608909993      2.90521371482738     -0.17439934145075
  O           1.91400919589873      0.99317782364761     -1.01152688315788
  C           4.08463225198987      2.16891769244068     -0.03264222340064
  O           5.06603647068021      2.67647639904372     -0.78299176599231
  H           3.49775613600732      2.91709756056833      0.55576624212049
  H           0.00230123701167      1.10613812119735     -0.35973103118193
  H           4.26535876098291      1.23894706990193      0.57345392856834
