9
Coordinates from ORCA-job job.QMRegion
  O           3.56049098722934      1.70988651905518     -1.37632722542827
  C           0.91950171713710      1.32967215105584     -0.39929216759443
  O           1.15041797155556      2.35193107910581      0.29164695246630
  O           1.75892766629753      0.74051352492394     -1.18511587325224
  C           4.16777446584050      2.08812442484197     -0.15599868295699
  O           5.11707366868823      2.44549578723760     -1.08636530866574
  H           3.63643574462073      2.92893012212541      0.32265450444661
  H          -0.09723731340213      0.85221608616230     -0.35433264339695
  H           4.38750822495068      1.25351412660984      0.55312161190478
