147
Coordinates from ORCA-job job_IRC_F E -278.497220987480
  C           2.27618258018936      4.56532579942207      0.38776895226463
  C           5.74310252949290      1.06771605449812     -1.59620178833990
  C           5.32005147977346     -4.14106665223246     -0.82256057323855
  C           0.60245019815167     -5.26118270175546      0.99187803196171
  C          -3.36729290446041     -1.83132142100512      1.10618726594332
  C          -2.60557489576335      3.23780752023488      1.91594912077964
  O           2.71599215207474      3.23059723923946      0.23555018245268
  O           5.40963343235977     -0.04036794600325     -0.82176673371534
  O           4.41202331456730     -4.03245023787996      0.23433189862313
  O           0.26288680734298     -3.89081841198760      0.99973433229655
  O          -2.83563061530394     -0.84894529408569      1.93905575484571
  O          -1.22466102535302      3.02658937359750      1.81531334850241
  C           2.01509644572585      4.81145081823075      1.88303976376549
  C           6.21079107378533      2.15955026659182     -0.61699081749238
  C           6.63876402726292     -3.52081393086466     -0.32361964847275
  C           1.60497693171083     -5.53133736881739      2.11934051064049
  C          -3.32422075218468     -3.16200630903971      1.88555331384334
  C          -3.05405461163852      2.60906039356275      3.24697575573463
  O           3.14473583138420      4.64910309925361      2.69317553238641
  O           7.30769247973483      1.74947813484414      0.14418570030475
  O           7.12168889178084     -4.17502093727521      0.81400729648534
  O           1.12183328381552     -5.14735605512405      3.37862772526971
  O          -4.00221086443075     -3.07560302973912      3.10418457201633
  O          -2.41716114382624      3.19674643236173      4.34587330952680
  C           0.88915793503489      3.86187989305723      2.31152205369454
  C           5.01547520136410      2.53058265119702      0.27815574098486
  C           6.37295572908342     -2.03674151507296     -0.03732487364526
  C           2.88407598369599     -4.74679595665306      1.81923689181235
  C          -1.85905159596847     -3.57412501572300      2.10809803387001
  C          -2.75882336792009      1.10508474112445      3.17048795255887
  O           0.52231491974491      4.05551235797393      3.65231036984886
  O           5.33965041147281      3.56943042735673      1.16414837452065
  O           7.54225065746669     -1.34657022339623      0.32681933281229
  O           3.90204574714897     -5.05411153346741      2.73513311747544
  O          -1.78039737326799     -4.83118898685245      2.73571030651002
  O          -3.24828718248250      0.42594093858620      4.29599706353031
  C          -0.35973688072667      4.08507780823310      1.45015983820444
  C           3.83758508680227      2.97931041047882     -0.59822116396914
  C           5.78416132323630     -1.33770840795349     -1.26865004114244
  C           3.42152231769722     -5.03572182304353      0.41019152159598
  C          -1.10259169408676     -3.61146919513725      0.76687287362394
  C          -3.38344806939696      0.46403678713990      1.92379160880464
  C          -0.02135193023045      4.07887440467860     -0.05489062362125
  C           3.52489712598612      1.88152055092110     -1.63116318867698
  C           4.58108291888856     -2.10849883226530     -1.83430694594248
  C           2.30820964338911     -4.97769426902676     -0.65175470845516
  C          -1.26980606387854     -2.22971895519181      0.11968128139204
  C          -3.05112274637043      1.27263928523208      0.65446731413767
  O           1.12311184845235      4.87689641452076     -0.33899337533007
  O           4.67181556018217      1.54362973786585     -2.38791150582912
  O           4.89071554438831     -3.48905231557560     -1.99324804762671
  O           1.13647321410648     -5.67620201788577     -0.22928194352817
  O          -2.64100611116877     -1.96264903215928     -0.10379556981710
  O          -3.31533008087027      2.66237542469725      0.85235583350864
  C          -1.18928772397290      4.63982268625270     -0.88487280168659
  C           2.45179114309118      2.36434859258654     -2.58763574020516
  C           4.19533522820914     -1.60962080307551     -3.23313813802623
  C           2.69023293046363     -5.66406356515487     -1.97312152443252
  C          -0.52217040963487     -2.01658618805936     -1.18539889410146
  C          -3.89486615832225      0.87626055908465     -0.56611519395944
  O          -1.10568665755199      4.39439974222862     -2.26220846996289
  O           2.06745324016580      1.41299192545229     -3.46637591195338
  O           5.25181600720913     -1.72576407914603     -4.14533247428274
  O           3.15241385446063     -6.97418133454899     -1.78208734941468
  O          -0.98891092146676     -0.92349010983634     -1.78928577901335
  O          -5.26926856130253      0.87961755474333     -0.29025059494249
  H           3.03641263237163      5.25961205668280      0.00698848801355
  H           6.52678653194848      0.82783841772668     -2.32676229025367
  H           5.46698255760348     -5.18958001757659     -1.11627702108360
  H          -0.29509782474339     -5.87764319378942      1.13015835372016
  H          -4.39290424067832     -1.59098850918722      0.79977827833134
  H          -2.84924317478617      4.30843145802543      1.88745577178065
  H           1.66698386034202      5.84627263394315      2.00194258298943
  H           6.52132127952771      3.04603799215746     -1.18098900907207
  H           7.40747522665739     -3.61920117637590     -1.09621056564191
  H           1.83376698943994     -6.60963324101722      2.11665276060145
  H          -3.83046541416995     -3.93326696462434      1.29539241216090
  H          -4.12851978712829      2.76796925260824      3.38475510131199
  H           3.83744759272493      4.14559327934372      2.22577127013368
  H           7.25227699221545      0.79358746720694      0.33199457958125
  H           6.38094999663655     -4.33742119192481      1.42149082576077
  H           0.14929080944503     -5.17504016659357      3.37053010327193
  H          -3.75996351091866     -2.24489214575112      3.54750409175182
  H          -1.47144718198943      3.32687036643997      4.15055230213329
  H           1.21780864720855      2.82241842610230      2.15294076822091
  H           4.69924793722064      1.63779704629950      0.84033077697897
  H           5.62856199344741     -1.97854778148800      0.77066346992860
  H           2.63598007062012     -3.67508993594792      1.85904555380252
  H          -1.36909730761436     -2.81579192504139      2.73739061596595
  H          -1.66774342884718      0.97775680308932      3.08105113804229
  H           1.33560753600672      4.16619391890337      4.17462015148081
  H           6.24537282067511      3.41872508956544      1.49106974175989
  H           8.06675715178986     -1.91994041113000      0.91115736168625
  H           3.50428091193841     -5.09029191566685      3.61940024359141
  H          -2.49948119828378     -4.87671196272583      3.39199345752024
  H          -3.01900081235342      0.94391788453457      5.08590672622220
  H          -0.81093611142905      5.05036426179482      1.72137831602338
  H           4.10560774238234      3.89495216239613     -1.14149065854241
  H           6.55665955634743     -1.25457434661779     -2.04476613757046
  H           3.89749822961561     -6.02748795503580      0.39145508719556
  H          -1.53589636997158     -4.36862495404654      0.09991519657279
  H          -4.47504307522036      0.40490365411700      2.03880715116045
  H           0.17951802530849      3.04440877063160     -0.36520618517804
  H           3.12024300035437      0.97876251829201     -1.13768115275988
  H           3.72397796710046     -1.97347177737829     -1.15893967128880
  H           2.06123622278814     -3.92521274928221     -0.83760187479675
  H          -0.84609845526222     -1.46535486495457      0.79507160301594
  H          -1.99046030053053      1.13082682702139      0.41549285716148
  H          -1.18349115361591      5.72860284884364     -0.78461235731812
  H          -2.12270502268225      4.22389652987572     -0.48657239644422
  H           3.31861337530640     -2.17972377482655     -3.56501121903084
  H           3.92580664489036     -0.55337951768570     -3.18449066583242
  H           3.48769784076508     -5.10914552849241     -2.46398920026986
  H           1.79982099612052     -5.64587040215726     -2.61200293701044
  H          -3.63834874503571      1.56546927348066     -1.37956930541187
  H          -3.62470371013817     -0.12952824186815     -0.88683620975012
  H          -1.23772671249763      3.43371763040432     -2.43405173375066
  H           5.47164229143953     -2.66625382968798     -4.23885993309530
  H           2.42374499414684     -7.50787365793962     -1.43173277606685
  H          -5.55136921859148      1.79447877559981     -0.13906936548361
  C          -0.30047397086805     -0.40473553057242     -2.89611392103142
  H          -0.90545349501551     -0.53582342226582     -3.79233826594188
  H           0.70762387867187     -0.82169287144452     -2.95612782051283
  O           0.35831396496474     -2.70865624105444     -1.62603083347853
  C           0.77716110184590      1.57728632551648     -3.92981933838340
  H           0.60031269623466      0.91971107378485     -4.77252176456955
  H           0.52641932762281      2.62364567399290     -4.11657316044359
  O           2.04303166272229      3.49798576276104     -2.62839623906664
  C          -0.20808700558952      1.18825417790348     -2.61392184548802
  C           2.86085353267153     -2.11389845248022      4.30763307938227
  O           0.49201279171125      1.41431236678473     -1.53724709757684
  O           2.04126228744106     -0.48665913678310     -0.25975206790854
  H           3.18812286579478     -2.66908150486298      5.17123408086796
  H           0.09954875042838      0.75796140834877     -0.08438350444868
  H           0.79641125053192     -2.15051291179860      4.87370027829895
  H           4.83299391656586     -1.92736974234625      3.48041034560962
  O           0.24698568256289      0.39745217530509      0.82895281290056
  C           1.61410153313657      0.09070277990770      0.83419228618779
  C           2.01850584497424     -0.67509902706832      2.11835814408397
  H           2.15060581230632      1.07066449506924      1.00069349125500
  C           3.36427344428694     -0.96401581038558      2.26919726595743
  C           1.08728153834661     -1.08001594418526      3.05346627983987
  C           3.78699620683519     -1.69329143313077      3.36665517273696
  H           4.05367750523366     -0.62858337003108      1.50703821664473
  C           1.52021948693389     -1.81608262646263      4.14823942621328
  H           0.04713887090428     -0.82368667133254      2.92174919220306
  O          -1.37235571115827      1.73010921472589     -2.75902031356402
