14
Coordinates from ORCA-job job.QMRegion
  C           0.05336523077299     -0.67378871240989      2.89911228813510
  O          -0.32377657972460     -1.30304944393097      1.87072092402359
  H          -1.16162690275100     -0.56036130149803      0.53231331776282
  O          -1.39700005647303     -0.09851529226400     -0.30703499902161
  H           0.23397473704065      0.57566777318186     -0.44822202138922
  O           0.94901159646118      1.09905346240265      0.00238314392867
  H           1.20790707702093      0.68988154858349      1.05130269056498
  O           1.50285317362772      0.27763687567890      2.21978186722910
  O           1.89828353191088      1.45455260592112      2.98034835975317
  H           2.74752949646768      1.15232197751277      3.34903891403869
  H          -1.97732492784281     -0.71418268029357     -0.77780434946615
  H           1.75773280535904      1.17076146730385     -0.53829865154467
  H           0.65025625080952     -1.28686037763019      3.63401282374944
  H          -0.55655176106465      0.17565820444195      3.32076525022088
