133
Energy -2.506508
C  0.71130776615267965468 5.00482414727958069278 -0.19561568134503989902
C  -4.13784486848083687960 3.17739904325788691253 0.68958586950538958149
C  -5.17444863619361594687 -1.77393841750645009370 -0.21665732364067985527
C  -0.87384297371556018952 -4.77917785703500719308 -0.63719983279390968178
C  4.05339626216557658012 -3.03094590633414950887 0.11871533019796989827
C  5.04884681101444510176 2.09362244562296995198 -0.58404774284701976850
O  -0.12582766454131008582 3.86927617535052936759 -0.25997818896310981307
O  -4.31294268880552600365 2.22131748928795813569 -0.31126934222609969893
O  -3.82279935479500831974 -1.93070136534545921947 -0.57994872475585967919
O  0.05957377906125960187 -3.73642003081359996841 -0.49167570712067970584
O  3.83098722953195691687 -1.80990987403622982654 -0.51821454630126961849
O  3.72723448493223719069 2.39573122461048049203 -0.94081572077923947273
C  1.36673334302333859824 5.17738746353810963541 -1.57023401112807836633
C  -3.83082197195232687648 4.52142930134692022648 -0.00861440099554997007
C  -5.86696795055896558324 -0.98447702978594020529 -1.33884527976942946381
C  -1.61012054292363893104 -4.57805317038506043303 -1.97033050864001890723
C  3.77326160587263625956 -4.12352537948484876296 -0.93397915008777943058
C  5.59790018606635531029 1.22271087148065049632 -1.73017268935670931462
O  0.41249294889497961636 5.31215455814457548911 -2.59060683846512906925
O  -4.80930237402007687564 4.84002336366017882341 -0.95372222083172941698
O  -5.78582568311042511056 -1.64728677729911021643 -2.57023780092665665720
O  -0.73773614924839026052 -4.55082005612955775575 -3.06837569591808811964
O  4.60494108751403530277 -3.96622878976938064710 -2.04751294360803903771
O  5.51089034068398309074 1.89539249938175013988 -2.95590729180038813695
C  2.21877561653414900888 3.93091745157843019953 -1.83150699881148915082
C  -2.43703341709546794647 4.47105818176657887619 -0.66523693747410916899
C  -5.20475957224313479088 0.39731597485467984310 -1.42006973941786962534
C  -2.38127676782546915391 -3.25302065840269838404 -1.88850281771867911651
C  2.29083818924970739062 -4.03265794157949919452 -1.34196827120711925652
C  4.78374355357373559627 -0.07921556826066936119 -1.75652837800578920380
O  2.95978907701573756839 4.02999105522410960845 -3.02082727297879927164
O  -2.05802748860041750945 5.73612709045024526944 -1.15190620092513951178
O  -5.88058054611833469494 1.22747881263100988569 -2.32923887821376673912
O  -3.19127255102765827743 -3.04457554296714016928 -3.01769493583701819972
O  1.91775986910106821526 -5.08492791013237965814 -2.19872422703288883383
O  5.29532575127568527762 -1.00829228528355963057 -2.67980956684520821298
C  3.21669371315159757785 3.69387210059014980956 -0.69186082520354963421
C  -1.38795551033674868791 3.99685863851938982805 0.35420949320828976070
C  -5.16778178528489551269 1.11072336231340940138 -0.06149807731087994500
C  -3.29265555667351561553 -3.24033602237473994379 -0.65776494554374909107
C  1.38149539713368874061 -4.07715922342435987957 -0.10764441609134994815
C  4.77256626082026613744 -0.75675892258768917564 -0.38217592772181979699
C  2.55256396054111922567 3.77383000390614853359 0.69472730196528931224
C  -1.87658184279176842857 2.62959785738603990524 0.86959042675287956392
C  -4.66995162147994768986 0.17586095834351950229 1.06305633345943961743
C  -2.50721461222832919802 -3.60110911172643000100 0.61297497945516965512
C  1.85352377539312773713 -3.02051341305114995350 0.89710406424008892756
C  4.36577196934167766074 0.23022434129321064922 0.72517060885729955899
O  1.66907167957595858887 4.88692368085399930777 0.81124164518227925846
O  -3.08441362729646728624 2.81665904229748020882 1.56150817661108898271
O  -5.30102626309129565385 -1.10211608872167032835 0.99847272905182959946
O  -1.77848159054403920365 -4.80866574069801888669 0.42941785465123982757
O  3.21002454205557707922 -3.18580015958223006223 1.24237706618064924768
O  5.13256533557428618053 1.42782080075291051280 0.64399374126307928901
C  3.59066688938968736622 3.98044807994619054270 1.80950926664780875619
C  -0.89645500604576855430 1.89000615206742916818 1.74680470073063887071
C  -5.01952751177552602968 0.67278465397587872143 2.47922864883734828112
C  -3.43552903897644679176 -3.83876853711820009707 1.81094492657019912052
C  1.02780373685861881050 -3.05255631487953005276 2.17255950121327856550
C  4.63334413526010635564 -0.33982799439168964728 2.12582775292363868047
O  4.36587551677528651339 5.12623218609484077035 1.58164252684446804409
O  -1.34635178925135901018 1.75509148705510997779 2.99556395054215807150
O  -6.36137881605171440214 1.05950386521692951902 2.58358829301366776932
O  -4.39579169127993640842 -4.82015551998131019928 1.53892222940309930657
O  1.15961021883623871531 -1.88140208249342943958 2.80998166284474804044
O  5.97384117287688454212 -0.72056215651174970738 2.28104190831524888949
H  0.13224704601901035583 5.90028006910375868443 0.06179845111059995011
H  -5.02906546666553655456 3.26944512916705898320 1.32195973471651906372
H  -5.66005365569407548065 -2.74597562429162023179 -0.06617953327339991254
H  -0.37596333589037028711 -5.75629752710907105495 -0.61905323145201962554
H  5.07351651543867454563 -3.11302658157459832822 0.51127945807539909584
H  5.64867625842899290234 3.00541745320616016102 -0.46425305226986962603
H  2.01854436715261886803 6.06436711980527043409 -1.54656827692787923745
H  -3.84115196116301671481 5.32232493097132941529 0.73833328706388945406
H  -6.93123890356386596068 -0.87032777596413046783 -1.10908033325346933040
H  -2.33079476852577860413 -5.39901926729751036049 -2.10116728534805874418
H  3.97846078011181525369 -5.11278456573449080480 -0.51320329701895961438
H  6.65544385173537200728 0.99639818803565005645 -1.56359344794164911718
H  -0.44758121555990915130 5.54738430107657976009 -2.19514784185843891962
H  -4.99862717111371512857 4.04655674109809648797 -1.47877335682354948965
H  -4.87862214394077664537 -1.98151913903146037477 -2.69443521680572883881
H  0.17493009918405943992 -4.73959651674300985746 -2.77483024948440881730
H  4.66410798139857529776 -3.01874084232443751219 -2.26865624666724841063
H  4.64836089514038430792 2.34140600586418878848 -3.00041084851171824255
H  1.54098607645986906967 3.06283758725334953610 -1.87427115174566893963
H  -2.46085499425985743116 3.74585258222391859206 -1.49411825115310925582
H  -4.16019338913851743911 0.25205406388909978865 -1.74488235435312777355
H  -1.65150591338989927159 -2.43341514701178018854 -1.78743297510559906449
H  2.13072481812891689756 -3.06478741669444998408 -1.84269875172082908676
H  3.74246695990955480227 0.17505707611953005842 -2.01366769037927806352
H  2.36276715127818626172 4.34815172937626748251 -3.71377294779213817932
H  -2.81157367692486648281 6.10014489877917043259 -1.64421335474422902756
H  -6.09084081771053398313 0.69029656113981896493 -3.10886487380280840398
H  -2.66909052727224915813 -3.26592044166787065507 -3.80334705793696725706
H  2.58698386619235698447 -5.14749436802668913771 -2.89909019680832802379
H  5.49408568008983611008 -0.53311484335033920701 -3.50050276010526850712
H  4.02144260633307659702 4.43873977070721803528 -0.76158004326704964448
H  -1.33879622191689873212 4.69571097986318886086 1.19890805994787918998
H  -6.17413561112708553225 1.47410559342782954140 0.19007305348557004820
H  -4.09868189285289563628 -3.97092024710498758822 -0.80481580480895953400
H  1.40934724253084797674 -5.07071095687050732437 0.35457577458490985300
H  5.76955099277967686788 -1.16139533236291936369 -0.16672775541378001551
H  1.99677609145850842864 2.83976438078294002310 0.85744948004959942178
H  -2.03432580407637875197 1.97912333649938032565 -0.00933991151863993591
H  -3.58181057813990832983 0.04730107681938962305 0.97286818618691950356
H  -1.81875059986388909472 -2.77601408995254050893 0.84523606295103970165
H  1.70767087459974709063 -2.02632998237252959228 0.44167627387429975183
H  3.29684627784058648103 0.46242992506568020294 0.61428010446683900536
H  4.27684283934914866165 3.13377304722748029064 1.84096947029981894417
H  3.05499576615011703140 4.05618852724160117162 2.76325081195894650676
H  -4.79227452249524610295 -0.15173887546790032488 3.16617738075086840865
H  -4.40898511711660745505 1.53315883400238783807 2.74824849325204567663
H  -3.97170422031588721268 -2.91608560685773054999 2.03992773831826879061
H  -2.81226758138124921516 -4.12058300134711963381 2.66817818299924836012
H  4.35574918530906440850 0.42281946590956998033 2.86286040394648688689
H  4.02684838685082624465 -1.23311937246010971947 2.28407916476905814562
H  3.76320851633328734565 5.88246056441070930276 1.54085400740711886414
H  -6.90736717162538571557 0.28345440568049945496 2.39381796429284854355
H  -3.92388988794632753709 -5.64051884971686945391 1.33424427257381927880
H  6.51908788538571037918 0.06399434512467971903 2.12347478294185876280
C  0.26127497010885958328 -1.58912450335454979999 3.90285766255619792631
H  0.88951598116402896821 -1.18363696298226983572 4.68922404710705720277
H  -0.25570570590976021697 -2.48705044817073872565 4.23160082255163860765
O  0.34924840901390941106 -3.98334818409430990727 2.55358777221210875297
C  -0.58617522855173942453 0.84541176598609990567 3.79519962836908808512
H  -0.99939904616609909205 0.95260657278872973297 4.79784223568303769270
H  0.46887642779151966765 1.11663465419944030188 3.80502509435579794328
O  0.16237772092035962501 1.42572362705916000358 1.35186217851816903313
C  -0.72420064229639979914 -0.57561974826865003330 3.33162747555646809872
O  -1.53646263887656897573 -0.91508322368633943089 2.48476685153011844776
O  5.12016518841188084110 -3.80675011383641637153 3.06030596716629732512
H  4.25869305737139836054 -3.72293329273593265327 2.63580323223809243061
H  5.32062354544112547927 -2.90677049522949593197 3.34175791086644746741
136
Energy -2.682272
C  0.71130776615267965468 5.00482414727958069278 -0.19561568134503989902
C  -4.13784486848083687960 3.17739904325788646844 0.68958586950538958149
C  -5.17444863619361594687 -1.77393841750645009370 -0.21665732364067985527
C  -0.87384297371556018952 -4.77917785703500719308 -0.63719983279390968178
C  4.05339626216557658012 -3.03094590633414950887 0.11871533019796989827
C  5.04884681101444510176 2.09362244562296995198 -0.58404774284701976850
O  -0.12582766454131008582 3.86927617535052936759 -0.25997818896310981307
O  -4.31294268880552600365 2.22131748928795813569 -0.31126934222609969893
O  -3.82279935479500831974 -1.93070136534545921947 -0.57994872475585967919
O  0.05957377906125960187 -3.73642003081359996841 -0.49167570712067970584
O  3.83098722953195691687 -1.80990987403622982654 -0.51821454630126961849
O  3.72723448493223719069 2.39573122461048049203 -0.94081572077923947273
C  1.36673334302333859824 5.17738746353810963541 -1.57023401112807836633
C  -3.83082197195232687648 4.52142930134692022648 -0.00861440099554997007
C  -5.86696795055896558324 -0.98447702978594020529 -1.33884527976942946381
C  -1.61012054292363893104 -4.57805317038506043303 -1.97033050864001890723
C  3.77326160587263625956 -4.12352537948484876296 -0.93397915008777943058
C  5.59790018606635531029 1.22271087148065049632 -1.73017268935670931462
O  0.41249294889497961636 5.31215455814457548911 -2.59060683846512906925
O  -4.80930237402007687564 4.84002336366017882341 -0.95372222083172941698
O  -5.78582568311042511056 -1.64728677729911021643 -2.57023780092665665720
O  -0.73773614924839026052 -4.55082005612955775575 -3.06837569591808811964
O  4.60494108751403530277 -3.96622878976938064710 -2.04751294360803903771
O  5.51089034068398309074 1.89539249938175013988 -2.95590729180038813695
C  2.21877561653414900888 3.93091745157843019953 -1.83150699881148915082
C  -2.43703341709546794647 4.47105818176657887619 -0.66523693747410916899
C  -5.20475957224313479088 0.39731597485467984310 -1.42006973941786962534
C  -2.38127676782546915391 -3.25302065840269838404 -1.88850281771867911651
C  2.29083818924970739062 -4.03265794157949919452 -1.34196827120711925652
C  4.78374355357373559627 -0.07921556826066936119 -1.75652837800578920380
O  2.95978907701573756839 4.02999105522410960845 -3.02082727297879927164
O  -2.05802748860041750945 5.73612709045024526944 -1.15190620092513951178
O  -5.88058054611833469494 1.22747881263100988569 -2.32923887821376673912
O  -3.19127255102765827743 -3.04457554296714016928 -3.01769493583701819972
O  1.91775986910106821526 -5.08492791013237965814 -2.19872422703288883383
O  5.29532575127568527762 -1.00829228528355963057 -2.67980956684520821298
C  3.21669371315159757785 3.69387210059014980956 -0.69186082520354963421
C  -1.38795551033674868791 3.99685863851938982805 0.35420949320828976070
C  -5.16778178528489551269 1.11072336231340940138 -0.06149807731087994500
C  -3.29265555667351561553 -3.24033602237473994379 -0.65776494554374898005
C  1.38149539713368874061 -4.07715922342435987957 -0.10764441609134994815
C  4.77256626082026613744 -0.75675892258768917564 -0.38217592772181979699
C  2.55256396054111922567 3.77383000390614853359 0.69472730196528931224
C  -1.87658184279176842857 2.62959785738603990524 0.86959042675287956392
C  -4.66995162147994768986 0.17586095834351950229 1.06305633345943961743
C  -2.50721461222832919802 -3.60110911172643000100 0.61297497945516965512
C  1.85352377539312773713 -3.02051341305114995350 0.89710406424008881654
C  4.36577196934167766074 0.23022434129321070473 0.72517060885729955899
O  1.66907167957595858887 4.88692368085399930777 0.81124164518227925846
O  -3.08441362729646728624 2.81665904229748020882 1.56150817661108898271
O  -5.30102626309129565385 -1.10211608872167032835 0.99847272905182959946
O  -1.77848159054403920365 -4.80866574069801888669 0.42941785465123982757
O  3.21002454205557707922 -3.18580015958223006223 1.24237706618064924768
O  5.13256533557428618053 1.42782080075291051280 0.64399374126307928901
C  3.59066688938968736622 3.98044807994619054270 1.80950926664780875619
C  -0.89645500604576855430 1.89000615206742916818 1.74680470073063887071
C  -5.01952751177552602968 0.67278465397587872143 2.47922864883734828112
C  -3.43552903897644679176 -3.83876853711820009707 1.81094492657019912052
C  1.02780373685861881050 -3.05255631487953005276 2.17255950121327856550
C  4.63334413526010635564 -0.33982799439168964728 2.12582775292363868047
O  4.36587551677528651339 5.12623218609484077035 1.58164252684446804409
O  -1.34635178925135901018 1.75509148705510997779 2.99556395054215807150
O  -6.36137881605171440214 1.05950386521692951902 2.58358829301366776932
O  -4.39579169127993640842 -4.82015551998131019928 1.53892222940309930657
O  1.15961021883623871531 -1.88140208249342943958 2.80998166284474804044
O  5.97384117287688454212 -0.72056215651174970738 2.28104190831524888949
H  0.13224704601901035583 5.90028006910375868443 0.06179845111059995011
H  -5.02906546666553655456 3.26944512916705898320 1.32195973471651906372
H  -5.66005365569407548065 -2.74597562429162023179 -0.06617953327339991254
H  -0.37596333589037028711 -5.75629752710907105495 -0.61905323145201962554
H  5.07351651543867454563 -3.11302658157459832822 0.51127945807539909584
H  5.64867625842899290234 3.00541745320616016102 -0.46425305226986962603
H  2.01854436715261886803 6.06436711980527043409 -1.54656827692787923745
H  -3.84115196116301671481 5.32232493097132941529 0.73833328706388945406
H  -6.93123890356386596068 -0.87032777596413046783 -1.10908033325346933040
H  -2.33079476852577860413 -5.39901926729751036049 -2.10116728534805874418
H  3.97846078011181525369 -5.11278456573449080480 -0.51320329701895961438
H  6.65544385173537111910 0.99639818803564983440 -1.56359344794164911718
H  -0.44758121555990915130 5.54738430107657976009 -2.19514784185843891962
H  -4.99862717111371512857 4.04655674109809648797 -1.47877335682354948965
H  -4.87862214394077664537 -1.98151913903146037477 -2.69443521680572883881
H  0.17493009918405943992 -4.73959651674300985746 -2.77483024948440881730
H  4.66410798139857529776 -3.01874084232443751219 -2.26865624666724841063
H  4.64836089514038430792 2.34140600586418878848 -3.00041084851171824255
H  1.54098607645986906967 3.06283758725334953610 -1.87427115174566893963
H  -2.46085499425985743116 3.74585258222391859206 -1.49411825115310925582
H  -4.16019338913851743911 0.25205406388909978865 -1.74488235435312732946
H  -1.65150591338989927159 -2.43341514701178018854 -1.78743297510559906449
H  2.13072481812891645347 -3.06478741669444998408 -1.84269875172082908676
H  3.74246695990955480227 0.17505707611953005842 -2.01366769037927806352
H  2.36276715127818626172 4.34815172937626659433 -3.71377294779213817932
H  -2.81157367692486648281 6.10014489877917043259 -1.64421335474422902756
H  -6.09084081771053398313 0.69029656113981896493 -3.10886487380280840398
H  -2.66909052727224915813 -3.26592044166787065507 -3.80334705793696725706
H  2.58698386619235698447 -5.14749436802668913771 -2.89909019680832802379
H  5.49408568008983611008 -0.53311484335033920701 -3.50050276010526850712
H  4.02144260633307659702 4.43873977070721803528 -0.76158004326704964448
H  -1.33879622191689873212 4.69571097986318886086 1.19890805994787918998
H  -6.17413561112708553225 1.47410559342782954140 0.19007305348557004820
H  -4.09868189285289563628 -3.97092024710498758822 -0.80481580480895953400
H  1.40934724253084797674 -5.07071095687050732437 0.35457577458490985300
H  5.76955099277967686788 -1.16139533236291936369 -0.16672775541378001551
H  1.99677609145850842864 2.83976438078294002310 0.85744948004959942178
H  -2.03432580407637875197 1.97912333649938032565 -0.00933991151863993591
H  -3.58181057813990832983 0.04730107681938962305 0.97286818618691950356
H  -1.81875059986388909472 -2.77601408995254050893 0.84523606295103970165
H  1.70767087459974709063 -2.02632998237252959228 0.44167627387429975183
H  3.29684627784058648103 0.46242992506568020294 0.61428010446683900536
H  4.27684283934914866165 3.13377304722748029064 1.84096947029981894417
H  3.05499576615011703140 4.05618852724160117162 2.76325081195894650676
H  -4.79227452249524610295 -0.15173887546790032488 3.16617738075086840865
H  -4.40898511711660745505 1.53315883400238783807 2.74824849325204567663
H  -3.97170422031588721268 -2.91608560685773054999 2.03992773831826879061
H  -2.81226758138124921516 -4.12058300134711963381 2.66817818299924836012
H  4.35574918530906440850 0.42281946590956998033 2.86286040394648688689
H  4.02684838685082624465 -1.23311937246010971947 2.28407916476905814562
H  3.76320851633328734565 5.88246056441070930276 1.54085400740711886414
H  -6.90736717162538571557 0.28345440568049945496 2.39381796429284854355
H  -3.92388988794632753709 -5.64051884971686945391 1.33424427257381927880
H  6.51908788538571037918 0.06399434512467971903 2.12347478294185876280
C  0.26127497010885958328 -1.58912450335454979999 3.90285766255619792631
H  0.88951598116402896821 -1.18363696298226983572 4.68922404710705720277
H  -0.25570570590976021697 -2.48705044817073872565 4.23160082255163860765
O  0.34924840901390941106 -3.98334818409430990727 2.55358777221210875297
C  -0.58617522855173942453 0.84541176598609990567 3.79519962836908808512
H  -0.99939904616609909205 0.95260657278872973297 4.79784223568303769270
H  0.46887642779151966765 1.11663465419944030188 3.80502509435579794328
O  0.16237772092035962501 1.42572362705916000358 1.35186217851816903313
C  -0.72420064229639979914 -0.57561974826865003330 3.33162747555646809872
O  -1.53646263887656897573 -0.91508322368633943089 2.48476685153011844776
O  5.12016518841188084110 -3.80675011383641637153 3.06030596716629732512
H  4.25869305737139836054 -3.72293329273593265327 2.63580323223809243061
H  5.32062354544112547927 -2.90677049522949593197 3.34175791086644746741
O  -2.07739336173240873862 4.33352014407194108259 3.97883132084589563604
H  -2.35787845356035274946 3.79904446580360399821 3.22714925599252966393
H  -2.03711298227879344935 3.69888340896133804847 4.70338343691660476509
139
Energy -1.889647
C  0.71130776615267965468 5.00482414727958069278 -0.19561568134503989902
C  -4.13784486848083687960 3.17739904325788646844 0.68958586950538958149
C  -5.17444863619361594687 -1.77393841750645009370 -0.21665732364067985527
C  -0.87384297371556018952 -4.77917785703500719308 -0.63719983279390968178
C  4.05339626216557658012 -3.03094590633414950887 0.11871533019796989827
C  5.04884681101444510176 2.09362244562296995198 -0.58404774284701976850
O  -0.12582766454131008582 3.86927617535052936759 -0.25997818896310981307
O  -4.31294268880552600365 2.22131748928795813569 -0.31126934222609969893
O  -3.82279935479500831974 -1.93070136534545921947 -0.57994872475585967919
O  0.05957377906125960187 -3.73642003081359996841 -0.49167570712067970584
O  3.83098722953195691687 -1.80990987403622982654 -0.51821454630126961849
O  3.72723448493223719069 2.39573122461048049203 -0.94081572077923947273
C  1.36673334302333859824 5.17738746353810963541 -1.57023401112807836633
C  -3.83082197195232687648 4.52142930134692022648 -0.00861440099554997007
C  -5.86696795055896558324 -0.98447702978594020529 -1.33884527976942946381
C  -1.61012054292363893104 -4.57805317038506043303 -1.97033050864001890723
C  3.77326160587263625956 -4.12352537948484876296 -0.93397915008777943058
C  5.59790018606635531029 1.22271087148065049632 -1.73017268935670931462
O  0.41249294889497961636 5.31215455814457548911 -2.59060683846512906925
O  -4.80930237402007687564 4.84002336366017882341 -0.95372222083172941698
O  -5.78582568311042511056 -1.64728677729911021643 -2.57023780092665665720
O  -0.73773614924839026052 -4.55082005612955775575 -3.06837569591808811964
O  4.60494108751403530277 -3.96622878976938064710 -2.04751294360803903771
O  5.51089034068398309074 1.89539249938175013988 -2.95590729180038813695
C  2.21877561653414900888 3.93091745157843019953 -1.83150699881148915082
C  -2.43703341709546794647 4.47105818176657887619 -0.66523693747410916899
C  -5.20475957224313479088 0.39731597485467984310 -1.42006973941786962534
C  -2.38127676782546915391 -3.25302065840269838404 -1.88850281771867911651
C  2.29083818924970739062 -4.03265794157949919452 -1.34196827120711925652
C  4.78374355357373559627 -0.07921556826066936119 -1.75652837800578920380
O  2.95978907701573756839 4.02999105522410960845 -3.02082727297879927164
O  -2.05802748860041750945 5.73612709045024526944 -1.15190620092513951178
O  -5.88058054611833469494 1.22747881263100988569 -2.32923887821376673912
O  -3.19127255102765827743 -3.04457554296714016928 -3.01769493583701819972
O  1.91775986910106821526 -5.08492791013237965814 -2.19872422703288883383
O  5.29532575127568527762 -1.00829228528355963057 -2.67980956684520821298
C  3.21669371315159757785 3.69387210059014980956 -0.69186082520354963421
C  -1.38795551033674868791 3.99685863851938982805 0.35420949320828976070
C  -5.16778178528489551269 1.11072336231340940138 -0.06149807731087994500
C  -3.29265555667351561553 -3.24033602237473994379 -0.65776494554374898005
C  1.38149539713368874061 -4.07715922342435987957 -0.10764441609134994815
C  4.77256626082026613744 -0.75675892258768917564 -0.38217592772181979699
C  2.55256396054111922567 3.77383000390614853359 0.69472730196528931224
C  -1.87658184279176842857 2.62959785738603990524 0.86959042675287956392
C  -4.66995162147994768986 0.17586095834351950229 1.06305633345943961743
C  -2.50721461222832919802 -3.60110911172643000100 0.61297497945516965512
C  1.85352377539312773713 -3.02051341305114995350 0.89710406424008881654
C  4.36577196934167766074 0.23022434129321070473 0.72517060885729955899
O  1.66907167957595858887 4.88692368085399930777 0.81124164518227925846
O  -3.08441362729646728624 2.81665904229748020882 1.56150817661108898271
O  -5.30102626309129565385 -1.10211608872167032835 0.99847272905182959946
O  -1.77848159054403920365 -4.80866574069801888669 0.42941785465123982757
O  3.21002454205557707922 -3.18580015958223006223 1.24237706618064924768
O  5.13256533557428618053 1.42782080075291051280 0.64399374126307928901
C  3.59066688938968736622 3.98044807994619054270 1.80950926664780875619
C  -0.89645500604576855430 1.89000615206742916818 1.74680470073063887071
C  -5.01952751177552602968 0.67278465397587872143 2.47922864883734828112
C  -3.43552903897644679176 -3.83876853711820009707 1.81094492657019912052
C  1.02780373685861881050 -3.05255631487953005276 2.17255950121327856550
C  4.63334413526010635564 -0.33982799439168964728 2.12582775292363868047
O  4.36587551677528651339 5.12623218609484077035 1.58164252684446804409
O  -1.34635178925135901018 1.75509148705510997779 2.99556395054215807150
O  -6.36137881605171440214 1.05950386521692951902 2.58358829301366776932
O  -4.39579169127993640842 -4.82015551998131019928 1.53892222940309930657
O  1.15961021883623871531 -1.88140208249342943958 2.80998166284474804044
O  5.97384117287688454212 -0.72056215651174970738 2.28104190831524888949
H  0.13224704601901035583 5.90028006910375868443 0.06179845111059995011
H  -5.02906546666553655456 3.26944512916705898320 1.32195973471651906372
H  -5.66005365569407548065 -2.74597562429162023179 -0.06617953327339991254
H  -0.37596333589037028711 -5.75629752710907105495 -0.61905323145201962554
H  5.07351651543867454563 -3.11302658157459832822 0.51127945807539909584
H  5.64867625842899290234 3.00541745320616016102 -0.46425305226986962603
H  2.01854436715261886803 6.06436711980527043409 -1.54656827692787923745
H  -3.84115196116301671481 5.32232493097132941529 0.73833328706388945406
H  -6.93123890356386596068 -0.87032777596413046783 -1.10908033325346933040
H  -2.33079476852577860413 -5.39901926729751036049 -2.10116728534805874418
H  3.97846078011181525369 -5.11278456573449080480 -0.51320329701895961438
H  6.65544385173537111910 0.99639818803564983440 -1.56359344794164911718
H  -0.44758121555990915130 5.54738430107657976009 -2.19514784185843891962
H  -4.99862717111371512857 4.04655674109809648797 -1.47877335682354948965
H  -4.87862214394077664537 -1.98151913903146037477 -2.69443521680572883881
H  0.17493009918405943992 -4.73959651674300985746 -2.77483024948440881730
H  4.66410798139857529776 -3.01874084232443751219 -2.26865624666724841063
H  4.64836089514038430792 2.34140600586418878848 -3.00041084851171824255
H  1.54098607645986906967 3.06283758725334953610 -1.87427115174566893963
H  -2.46085499425985743116 3.74585258222391859206 -1.49411825115310925582
H  -4.16019338913851743911 0.25205406388909978865 -1.74488235435312732946
H  -1.65150591338989927159 -2.43341514701178018854 -1.78743297510559906449
H  2.13072481812891645347 -3.06478741669444998408 -1.84269875172082908676
H  3.74246695990955480227 0.17505707611953005842 -2.01366769037927806352
H  2.36276715127818626172 4.34815172937626659433 -3.71377294779213817932
H  -2.81157367692486648281 6.10014489877917043259 -1.64421335474422902756
H  -6.09084081771053398313 0.69029656113981896493 -3.10886487380280840398
H  -2.66909052727224915813 -3.26592044166787065507 -3.80334705793696725706
H  2.58698386619235698447 -5.14749436802668913771 -2.89909019680832802379
H  5.49408568008983611008 -0.53311484335033920701 -3.50050276010526850712
H  4.02144260633307659702 4.43873977070721803528 -0.76158004326704964448
H  -1.33879622191689873212 4.69571097986318886086 1.19890805994787918998
H  -6.17413561112708553225 1.47410559342782954140 0.19007305348557004820
H  -4.09868189285289563628 -3.97092024710498758822 -0.80481580480895953400
H  1.40934724253084797674 -5.07071095687050732437 0.35457577458490985300
H  5.76955099277967686788 -1.16139533236291936369 -0.16672775541378001551
H  1.99677609145850842864 2.83976438078294002310 0.85744948004959942178
H  -2.03432580407637875197 1.97912333649938032565 -0.00933991151863993591
H  -3.58181057813990832983 0.04730107681938962305 0.97286818618691950356
H  -1.81875059986388909472 -2.77601408995254050893 0.84523606295103970165
H  1.70767087459974709063 -2.02632998237252959228 0.44167627387429975183
H  3.29684627784058648103 0.46242992506568020294 0.61428010446683900536
H  4.27684283934914866165 3.13377304722748029064 1.84096947029981894417
H  3.05499576615011703140 4.05618852724160117162 2.76325081195894650676
H  -4.79227452249524610295 -0.15173887546790032488 3.16617738075086840865
H  -4.40898511711660745505 1.53315883400238783807 2.74824849325204567663
H  -3.97170422031588721268 -2.91608560685773054999 2.03992773831826879061
H  -2.81226758138124921516 -4.12058300134711963381 2.66817818299924836012
H  4.35574918530906440850 0.42281946590956998033 2.86286040394648688689
H  4.02684838685082624465 -1.23311937246010971947 2.28407916476905814562
H  3.76320851633328734565 5.88246056441070930276 1.54085400740711886414
H  -6.90736717162538571557 0.28345440568049945496 2.39381796429284854355
H  -3.92388988794632753709 -5.64051884971686945391 1.33424427257381927880
H  6.51908788538571037918 0.06399434512467971903 2.12347478294185876280
C  0.26127497010885958328 -1.58912450335454979999 3.90285766255619792631
H  0.88951598116402896821 -1.18363696298226983572 4.68922404710705720277
H  -0.25570570590976021697 -2.48705044817073872565 4.23160082255163860765
O  0.34924840901390941106 -3.98334818409430990727 2.55358777221210875297
C  -0.58617522855173942453 0.84541176598609990567 3.79519962836908808512
H  -0.99939904616609909205 0.95260657278872973297 4.79784223568303769270
H  0.46887642779151966765 1.11663465419944030188 3.80502509435579794328
O  0.16237772092035962501 1.42572362705916000358 1.35186217851816903313
C  -0.72420064229639979914 -0.57561974826865003330 3.33162747555646809872
O  -1.53646263887656897573 -0.91508322368633943089 2.48476685153011844776
O  5.12016518841188084110 -3.80675011383641637153 3.06030596716629732512
H  4.25869305737139836054 -3.72293329273593265327 2.63580323223809243061
H  5.32062354544112547927 -2.90677049522949593197 3.34175791086644746741
O  -2.07739336173240829453 4.33352014407194108259 3.97883132084589563604
H  -2.35787845356035274946 3.79904446580360399821 3.22714925599252966393
H  -2.03711298227879344935 3.69888340896133804847 4.70338343691660476509
O  1.20861243434111176320 0.84716361011117102819 -2.45015501381522371460
H  1.47563441383520377315 -0.07837486559086279114 -2.48810045468183282935
H  0.38317580702480413812 0.86359757474617560025 -2.94789627442596335882
142
Energy -1.660230
C  0.71130776615267965468 5.00482414727958069278 -0.19561568134503989902
C  -4.13784486848083687960 3.17739904325788646844 0.68958586950538958149
C  -5.17444863619361594687 -1.77393841750645009370 -0.21665732364067985527
C  -0.87384297371556018952 -4.77917785703500719308 -0.63719983279390968178
C  4.05339626216557658012 -3.03094590633414950887 0.11871533019796989827
C  5.04884681101444510176 2.09362244562296995198 -0.58404774284701976850
O  -0.12582766454131008582 3.86927617535052936759 -0.25997818896310981307
O  -4.31294268880552600365 2.22131748928795813569 -0.31126934222609969893
O  -3.82279935479500831974 -1.93070136534545921947 -0.57994872475585967919
O  0.05957377906125960187 -3.73642003081359996841 -0.49167570712067970584
O  3.83098722953195691687 -1.80990987403622982654 -0.51821454630126961849
O  3.72723448493223719069 2.39573122461048049203 -0.94081572077923947273
C  1.36673334302333859824 5.17738746353810963541 -1.57023401112807836633
C  -3.83082197195232687648 4.52142930134692022648 -0.00861440099554997007
C  -5.86696795055896558324 -0.98447702978594020529 -1.33884527976942946381
C  -1.61012054292363893104 -4.57805317038506043303 -1.97033050864001890723
C  3.77326160587263625956 -4.12352537948484876296 -0.93397915008777943058
C  5.59790018606635531029 1.22271087148065049632 -1.73017268935670931462
O  0.41249294889497961636 5.31215455814457548911 -2.59060683846512906925
O  -4.80930237402007687564 4.84002336366017882341 -0.95372222083172941698
O  -5.78582568311042511056 -1.64728677729911021643 -2.57023780092665665720
O  -0.73773614924839026052 -4.55082005612955775575 -3.06837569591808811964
O  4.60494108751403530277 -3.96622878976938064710 -2.04751294360803903771
O  5.51089034068398309074 1.89539249938175013988 -2.95590729180038813695
C  2.21877561653414900888 3.93091745157843019953 -1.83150699881148915082
C  -2.43703341709546794647 4.47105818176657887619 -0.66523693747410916899
C  -5.20475957224313479088 0.39731597485467984310 -1.42006973941786962534
C  -2.38127676782546915391 -3.25302065840269838404 -1.88850281771867911651
C  2.29083818924970739062 -4.03265794157949919452 -1.34196827120711925652
C  4.78374355357373559627 -0.07921556826066936119 -1.75652837800578920380
O  2.95978907701573756839 4.02999105522410960845 -3.02082727297879927164
O  -2.05802748860041750945 5.73612709045024526944 -1.15190620092513951178
O  -5.88058054611833469494 1.22747881263100988569 -2.32923887821376673912
O  -3.19127255102765827743 -3.04457554296714016928 -3.01769493583701819972
O  1.91775986910106821526 -5.08492791013237965814 -2.19872422703288883383
O  5.29532575127568527762 -1.00829228528355963057 -2.67980956684520821298
C  3.21669371315159757785 3.69387210059014980956 -0.69186082520354963421
C  -1.38795551033674868791 3.99685863851938982805 0.35420949320828976070
C  -5.16778178528489551269 1.11072336231340940138 -0.06149807731087994500
C  -3.29265555667351561553 -3.24033602237473994379 -0.65776494554374898005
C  1.38149539713368874061 -4.07715922342435987957 -0.10764441609134994815
C  4.77256626082026613744 -0.75675892258768917564 -0.38217592772181979699
C  2.55256396054111922567 3.77383000390614853359 0.69472730196528931224
C  -1.87658184279176842857 2.62959785738603990524 0.86959042675287956392
C  -4.66995162147994768986 0.17586095834351950229 1.06305633345943961743
C  -2.50721461222832919802 -3.60110911172643000100 0.61297497945516965512
C  1.85352377539312773713 -3.02051341305114995350 0.89710406424008881654
C  4.36577196934167766074 0.23022434129321070473 0.72517060885729955899
O  1.66907167957595858887 4.88692368085399930777 0.81124164518227925846
O  -3.08441362729646728624 2.81665904229748020882 1.56150817661108898271
O  -5.30102626309129565385 -1.10211608872167032835 0.99847272905182959946
O  -1.77848159054403920365 -4.80866574069801888669 0.42941785465123982757
O  3.21002454205557707922 -3.18580015958223006223 1.24237706618064924768
O  5.13256533557428618053 1.42782080075291051280 0.64399374126307928901
C  3.59066688938968736622 3.98044807994619054270 1.80950926664780875619
C  -0.89645500604576855430 1.89000615206742916818 1.74680470073063887071
C  -5.01952751177552602968 0.67278465397587872143 2.47922864883734828112
C  -3.43552903897644679176 -3.83876853711820009707 1.81094492657019912052
C  1.02780373685861881050 -3.05255631487953005276 2.17255950121327856550
C  4.63334413526010635564 -0.33982799439168964728 2.12582775292363868047
O  4.36587551677528651339 5.12623218609484077035 1.58164252684446804409
O  -1.34635178925135901018 1.75509148705510997779 2.99556395054215807150
O  -6.36137881605171440214 1.05950386521692951902 2.58358829301366776932
O  -4.39579169127993640842 -4.82015551998131019928 1.53892222940309930657
O  1.15961021883623871531 -1.88140208249342943958 2.80998166284474804044
O  5.97384117287688454212 -0.72056215651174970738 2.28104190831524888949
H  0.13224704601901035583 5.90028006910375868443 0.06179845111059995011
H  -5.02906546666553655456 3.26944512916705898320 1.32195973471651906372
H  -5.66005365569407548065 -2.74597562429162023179 -0.06617953327339991254
H  -0.37596333589037028711 -5.75629752710907105495 -0.61905323145201962554
H  5.07351651543867454563 -3.11302658157459832822 0.51127945807539909584
H  5.64867625842899290234 3.00541745320616016102 -0.46425305226986962603
H  2.01854436715261886803 6.06436711980527043409 -1.54656827692787923745
H  -3.84115196116301671481 5.32232493097132941529 0.73833328706388945406
H  -6.93123890356386596068 -0.87032777596413046783 -1.10908033325346933040
H  -2.33079476852577860413 -5.39901926729751036049 -2.10116728534805874418
H  3.97846078011181525369 -5.11278456573449080480 -0.51320329701895961438
H  6.65544385173537111910 0.99639818803564983440 -1.56359344794164911718
H  -0.44758121555990915130 5.54738430107657976009 -2.19514784185843891962
H  -4.99862717111371512857 4.04655674109809648797 -1.47877335682354948965
H  -4.87862214394077664537 -1.98151913903146037477 -2.69443521680572883881
H  0.17493009918405943992 -4.73959651674300985746 -2.77483024948440881730
H  4.66410798139857529776 -3.01874084232443751219 -2.26865624666724841063
H  4.64836089514038430792 2.34140600586418878848 -3.00041084851171824255
H  1.54098607645986906967 3.06283758725334953610 -1.87427115174566893963
H  -2.46085499425985743116 3.74585258222391859206 -1.49411825115310925582
H  -4.16019338913851743911 0.25205406388909978865 -1.74488235435312732946
H  -1.65150591338989927159 -2.43341514701178018854 -1.78743297510559906449
H  2.13072481812891645347 -3.06478741669444998408 -1.84269875172082908676
H  3.74246695990955480227 0.17505707611953005842 -2.01366769037927806352
H  2.36276715127818626172 4.34815172937626659433 -3.71377294779213817932
H  -2.81157367692486648281 6.10014489877917043259 -1.64421335474422902756
H  -6.09084081771053398313 0.69029656113981896493 -3.10886487380280840398
H  -2.66909052727224915813 -3.26592044166787065507 -3.80334705793696725706
H  2.58698386619235698447 -5.14749436802668913771 -2.89909019680832802379
H  5.49408568008983611008 -0.53311484335033920701 -3.50050276010526850712
H  4.02144260633307659702 4.43873977070721803528 -0.76158004326704964448
H  -1.33879622191689873212 4.69571097986318886086 1.19890805994787918998
H  -6.17413561112708553225 1.47410559342782954140 0.19007305348557004820
H  -4.09868189285289563628 -3.97092024710498758822 -0.80481580480895953400
H  1.40934724253084797674 -5.07071095687050732437 0.35457577458490985300
H  5.76955099277967686788 -1.16139533236291936369 -0.16672775541378001551
H  1.99677609145850842864 2.83976438078294002310 0.85744948004959942178
H  -2.03432580407637875197 1.97912333649938032565 -0.00933991151863993591
H  -3.58181057813990832983 0.04730107681938962305 0.97286818618691950356
H  -1.81875059986388909472 -2.77601408995254050893 0.84523606295103970165
H  1.70767087459974709063 -2.02632998237252959228 0.44167627387429975183
H  3.29684627784058648103 0.46242992506568020294 0.61428010446683900536
H  4.27684283934914866165 3.13377304722748029064 1.84096947029981894417
H  3.05499576615011703140 4.05618852724160117162 2.76325081195894650676
H  -4.79227452249524610295 -0.15173887546790032488 3.16617738075086840865
H  -4.40898511711660745505 1.53315883400238783807 2.74824849325204567663
H  -3.97170422031588721268 -2.91608560685773054999 2.03992773831826879061
H  -2.81226758138124921516 -4.12058300134711963381 2.66817818299924836012
H  4.35574918530906440850 0.42281946590956998033 2.86286040394648688689
H  4.02684838685082624465 -1.23311937246010971947 2.28407916476905814562
H  3.76320851633328734565 5.88246056441070930276 1.54085400740711886414
H  -6.90736717162538571557 0.28345440568049945496 2.39381796429284854355
H  -3.92388988794632753709 -5.64051884971686945391 1.33424427257381927880
H  6.51908788538571037918 0.06399434512467971903 2.12347478294185876280
C  0.26127497010885958328 -1.58912450335454979999 3.90285766255619792631
H  0.88951598116402896821 -1.18363696298226983572 4.68922404710705720277
H  -0.25570570590976021697 -2.48705044817073872565 4.23160082255163860765
O  0.34924840901390941106 -3.98334818409430990727 2.55358777221210875297
C  -0.58617522855173942453 0.84541176598609990567 3.79519962836908808512
H  -0.99939904616609909205 0.95260657278872973297 4.79784223568303769270
H  0.46887642779151966765 1.11663465419944030188 3.80502509435579794328
O  0.16237772092035962501 1.42572362705916000358 1.35186217851816903313
C  -0.72420064229639979914 -0.57561974826865003330 3.33162747555646809872
O  -1.53646263887656897573 -0.91508322368633943089 2.48476685153011844776
O  5.12016518841188084110 -3.80675011383641637153 3.06030596716629732512
H  4.25869305737139836054 -3.72293329273593265327 2.63580323223809243061
H  5.32062354544112547927 -2.90677049522949593197 3.34175791086644746741
O  -2.07739336173240829453 4.33352014407194108259 3.97883132084589563604
H  -2.35787845356035274946 3.79904446580360399821 3.22714925599252966393
H  -2.03711298227879344935 3.69888340896133804847 4.70338343691660476509
O  1.20861243434111176320 0.84716361011117102819 -2.45015501381522371460
H  1.47563441383520377315 -0.07837486559086279114 -2.48810045468183282935
H  0.38317580702480413812 0.86359757474617560025 -2.94789627442596335882
O  2.57954538705013813882 -5.94619569675729753300 2.93431070549187023033
H  2.65596581105262918854 -6.24703290143068468154 3.84700942856533290026
H  1.73718974537481085640 -5.47753390440847809373 2.92185435155271555629
145
Energy -1.521581
C  0.71130776615267965468 5.00482414727958069278 -0.19561568134503989902
C  -4.13784486848083687960 3.17739904325788646844 0.68958586950538958149
C  -5.17444863619361594687 -1.77393841750645009370 -0.21665732364067985527
C  -0.87384297371556018952 -4.77917785703500719308 -0.63719983279390968178
C  4.05339626216557658012 -3.03094590633414950887 0.11871533019796989827
C  5.04884681101444510176 2.09362244562296995198 -0.58404774284701976850
O  -0.12582766454131008582 3.86927617535052936759 -0.25997818896310981307
O  -4.31294268880552600365 2.22131748928795813569 -0.31126934222609969893
O  -3.82279935479500831974 -1.93070136534545921947 -0.57994872475585967919
O  0.05957377906125960187 -3.73642003081359996841 -0.49167570712067970584
O  3.83098722953195691687 -1.80990987403622982654 -0.51821454630126961849
O  3.72723448493223719069 2.39573122461048049203 -0.94081572077923947273
C  1.36673334302333859824 5.17738746353810963541 -1.57023401112807836633
C  -3.83082197195232687648 4.52142930134692022648 -0.00861440099554997007
C  -5.86696795055896558324 -0.98447702978594020529 -1.33884527976942946381
C  -1.61012054292363893104 -4.57805317038506043303 -1.97033050864001890723
C  3.77326160587263625956 -4.12352537948484876296 -0.93397915008777943058
C  5.59790018606635531029 1.22271087148065049632 -1.73017268935670931462
O  0.41249294889497961636 5.31215455814457548911 -2.59060683846512906925
O  -4.80930237402007687564 4.84002336366017882341 -0.95372222083172941698
O  -5.78582568311042511056 -1.64728677729911021643 -2.57023780092665665720
O  -0.73773614924839026052 -4.55082005612955775575 -3.06837569591808811964
O  4.60494108751403530277 -3.96622878976938064710 -2.04751294360803903771
O  5.51089034068398309074 1.89539249938175013988 -2.95590729180038813695
C  2.21877561653414900888 3.93091745157843019953 -1.83150699881148915082
C  -2.43703341709546794647 4.47105818176657887619 -0.66523693747410916899
C  -5.20475957224313479088 0.39731597485467984310 -1.42006973941786962534
C  -2.38127676782546915391 -3.25302065840269838404 -1.88850281771867911651
C  2.29083818924970739062 -4.03265794157949919452 -1.34196827120711925652
C  4.78374355357373559627 -0.07921556826066936119 -1.75652837800578920380
O  2.95978907701573756839 4.02999105522410960845 -3.02082727297879927164
O  -2.05802748860041750945 5.73612709045024526944 -1.15190620092513951178
O  -5.88058054611833469494 1.22747881263100988569 -2.32923887821376673912
O  -3.19127255102765827743 -3.04457554296714016928 -3.01769493583701819972
O  1.91775986910106821526 -5.08492791013237965814 -2.19872422703288883383
O  5.29532575127568527762 -1.00829228528355963057 -2.67980956684520821298
C  3.21669371315159757785 3.69387210059014980956 -0.69186082520354963421
C  -1.38795551033674868791 3.99685863851938982805 0.35420949320828976070
C  -5.16778178528489551269 1.11072336231340940138 -0.06149807731087994500
C  -3.29265555667351561553 -3.24033602237473994379 -0.65776494554374898005
C  1.38149539713368874061 -4.07715922342435987957 -0.10764441609134994815
C  4.77256626082026613744 -0.75675892258768917564 -0.38217592772181979699
C  2.55256396054111922567 3.77383000390614853359 0.69472730196528931224
C  -1.87658184279176842857 2.62959785738603990524 0.86959042675287956392
C  -4.66995162147994768986 0.17586095834351950229 1.06305633345943961743
C  -2.50721461222832919802 -3.60110911172643000100 0.61297497945516965512
C  1.85352377539312773713 -3.02051341305114995350 0.89710406424008881654
C  4.36577196934167766074 0.23022434129321070473 0.72517060885729955899
O  1.66907167957595858887 4.88692368085399930777 0.81124164518227925846
O  -3.08441362729646728624 2.81665904229748020882 1.56150817661108898271
O  -5.30102626309129565385 -1.10211608872167032835 0.99847272905182959946
O  -1.77848159054403920365 -4.80866574069801888669 0.42941785465123982757
O  3.21002454205557707922 -3.18580015958223006223 1.24237706618064924768
O  5.13256533557428618053 1.42782080075291051280 0.64399374126307928901
C  3.59066688938968736622 3.98044807994619054270 1.80950926664780875619
C  -0.89645500604576855430 1.89000615206742916818 1.74680470073063887071
C  -5.01952751177552602968 0.67278465397587872143 2.47922864883734828112
C  -3.43552903897644679176 -3.83876853711820009707 1.81094492657019912052
C  1.02780373685861881050 -3.05255631487953005276 2.17255950121327856550
C  4.63334413526010635564 -0.33982799439168964728 2.12582775292363868047
O  4.36587551677528651339 5.12623218609484077035 1.58164252684446804409
O  -1.34635178925135901018 1.75509148705510997779 2.99556395054215807150
O  -6.36137881605171440214 1.05950386521692951902 2.58358829301366776932
O  -4.39579169127993640842 -4.82015551998131019928 1.53892222940309930657
O  1.15961021883623871531 -1.88140208249342943958 2.80998166284474804044
O  5.97384117287688454212 -0.72056215651174970738 2.28104190831524888949
H  0.13224704601901035583 5.90028006910375868443 0.06179845111059995011
H  -5.02906546666553655456 3.26944512916705898320 1.32195973471651906372
H  -5.66005365569407548065 -2.74597562429162023179 -0.06617953327339991254
H  -0.37596333589037028711 -5.75629752710907105495 -0.61905323145201962554
H  5.07351651543867454563 -3.11302658157459832822 0.51127945807539909584
H  5.64867625842899290234 3.00541745320616016102 -0.46425305226986962603
H  2.01854436715261886803 6.06436711980527043409 -1.54656827692787923745
H  -3.84115196116301671481 5.32232493097132941529 0.73833328706388945406
H  -6.93123890356386596068 -0.87032777596413046783 -1.10908033325346933040
H  -2.33079476852577860413 -5.39901926729751036049 -2.10116728534805874418
H  3.97846078011181525369 -5.11278456573449080480 -0.51320329701895961438
H  6.65544385173537111910 0.99639818803564983440 -1.56359344794164911718
H  -0.44758121555990915130 5.54738430107657976009 -2.19514784185843891962
H  -4.99862717111371512857 4.04655674109809648797 -1.47877335682354948965
H  -4.87862214394077664537 -1.98151913903146037477 -2.69443521680572883881
H  0.17493009918405943992 -4.73959651674300985746 -2.77483024948440881730
H  4.66410798139857529776 -3.01874084232443751219 -2.26865624666724841063
H  4.64836089514038430792 2.34140600586418878848 -3.00041084851171824255
H  1.54098607645986906967 3.06283758725334953610 -1.87427115174566893963
H  -2.46085499425985743116 3.74585258222391859206 -1.49411825115310925582
H  -4.16019338913851743911 0.25205406388909978865 -1.74488235435312732946
H  -1.65150591338989927159 -2.43341514701178018854 -1.78743297510559906449
H  2.13072481812891645347 -3.06478741669444998408 -1.84269875172082908676
H  3.74246695990955480227 0.17505707611953005842 -2.01366769037927806352
H  2.36276715127818626172 4.34815172937626659433 -3.71377294779213817932
H  -2.81157367692486648281 6.10014489877917043259 -1.64421335474422902756
H  -6.09084081771053398313 0.69029656113981896493 -3.10886487380280840398
H  -2.66909052727224915813 -3.26592044166787065507 -3.80334705793696725706
H  2.58698386619235698447 -5.14749436802668913771 -2.89909019680832802379
H  5.49408568008983611008 -0.53311484335033920701 -3.50050276010526850712
H  4.02144260633307659702 4.43873977070721803528 -0.76158004326704964448
H  -1.33879622191689873212 4.69571097986318886086 1.19890805994787918998
H  -6.17413561112708553225 1.47410559342782954140 0.19007305348557004820
H  -4.09868189285289563628 -3.97092024710498758822 -0.80481580480895953400
H  1.40934724253084797674 -5.07071095687050732437 0.35457577458490985300
H  5.76955099277967686788 -1.16139533236291936369 -0.16672775541378001551
H  1.99677609145850842864 2.83976438078294002310 0.85744948004959942178
H  -2.03432580407637875197 1.97912333649938032565 -0.00933991151863993591
H  -3.58181057813990832983 0.04730107681938962305 0.97286818618691950356
H  -1.81875059986388909472 -2.77601408995254050893 0.84523606295103970165
H  1.70767087459974709063 -2.02632998237252959228 0.44167627387429975183
H  3.29684627784058648103 0.46242992506568020294 0.61428010446683900536
H  4.27684283934914866165 3.13377304722748029064 1.84096947029981894417
H  3.05499576615011703140 4.05618852724160117162 2.76325081195894650676
H  -4.79227452249524610295 -0.15173887546790032488 3.16617738075086840865
H  -4.40898511711660745505 1.53315883400238783807 2.74824849325204567663
H  -3.97170422031588721268 -2.91608560685773054999 2.03992773831826879061
H  -2.81226758138124921516 -4.12058300134711963381 2.66817818299924836012
H  4.35574918530906440850 0.42281946590956998033 2.86286040394648688689
H  4.02684838685082624465 -1.23311937246010971947 2.28407916476905814562
H  3.76320851633328734565 5.88246056441070930276 1.54085400740711886414
H  -6.90736717162538571557 0.28345440568049945496 2.39381796429284854355
H  -3.92388988794632753709 -5.64051884971686945391 1.33424427257381927880
H  6.51908788538571037918 0.06399434512467971903 2.12347478294185876280
C  0.26127497010885958328 -1.58912450335454979999 3.90285766255619792631
H  0.88951598116402896821 -1.18363696298226983572 4.68922404710705720277
H  -0.25570570590976021697 -2.48705044817073872565 4.23160082255163860765
O  0.34924840901390941106 -3.98334818409430990727 2.55358777221210875297
C  -0.58617522855173942453 0.84541176598609990567 3.79519962836908808512
H  -0.99939904616609909205 0.95260657278872973297 4.79784223568303769270
H  0.46887642779151966765 1.11663465419944030188 3.80502509435579794328
O  0.16237772092035962501 1.42572362705916000358 1.35186217851816903313
C  -0.72420064229639979914 -0.57561974826865003330 3.33162747555646809872
O  -1.53646263887656897573 -0.91508322368633943089 2.48476685153011844776
O  5.12016518841188084110 -3.80675011383641637153 3.06030596716629732512
H  4.25869305737139836054 -3.72293329273593265327 2.63580323223809243061
H  5.32062354544112547927 -2.90677049522949593197 3.34175791086644746741
O  -2.07739336173240829453 4.33352014407194108259 3.97883132084589563604
H  -2.35787845356035274946 3.79904446580360399821 3.22714925599252966393
H  -2.03711298227879344935 3.69888340896133804847 4.70338343691660476509
O  1.20861243434111176320 0.84716361011117102819 -2.45015501381522371460
H  1.47563441383520377315 -0.07837486559086279114 -2.48810045468183282935
H  0.38317580702480413812 0.86359757474617560025 -2.94789627442596335882
O  2.57954538705013813882 -5.94619569675729753300 2.93431070549187023033
H  2.65596581105262918854 -6.24703290143068468154 3.84700942856533290026
H  1.73718974537481085640 -5.47753390440847809373 2.92185435155271555629
O  7.29620667321037252862 3.05100343268505413974 1.44429872370218714828
H  7.01503845224758304511 2.20928903027048573193 1.06770429954158507790
H  6.76420353927246242876 3.12816771772275625807 2.24453643964550542123
148
Energy -2.746513
C  0.71130776615267965468 5.00482414727958069278 -0.19561568134503989902
C  -4.13784486848083687960 3.17739904325788646844 0.68958586950538958149
C  -5.17444863619361594687 -1.77393841750645009370 -0.21665732364067985527
C  -0.87384297371556018952 -4.77917785703500719308 -0.63719983279390968178
C  4.05339626216557658012 -3.03094590633414950887 0.11871533019796989827
C  5.04884681101444510176 2.09362244562296995198 -0.58404774284701976850
O  -0.12582766454131008582 3.86927617535052936759 -0.25997818896310981307
O  -4.31294268880552600365 2.22131748928795813569 -0.31126934222609969893
O  -3.82279935479500831974 -1.93070136534545921947 -0.57994872475585967919
O  0.05957377906125960187 -3.73642003081359996841 -0.49167570712067970584
O  3.83098722953195691687 -1.80990987403622982654 -0.51821454630126961849
O  3.72723448493223719069 2.39573122461048049203 -0.94081572077923947273
C  1.36673334302333859824 5.17738746353810963541 -1.57023401112807836633
C  -3.83082197195232687648 4.52142930134692022648 -0.00861440099554997007
C  -5.86696795055896558324 -0.98447702978594020529 -1.33884527976942946381
C  -1.61012054292363893104 -4.57805317038506043303 -1.97033050864001890723
C  3.77326160587263625956 -4.12352537948484876296 -0.93397915008777943058
C  5.59790018606635531029 1.22271087148065049632 -1.73017268935670931462
O  0.41249294889497961636 5.31215455814457548911 -2.59060683846512906925
O  -4.80930237402007687564 4.84002336366017882341 -0.95372222083172941698
O  -5.78582568311042511056 -1.64728677729911021643 -2.57023780092665665720
O  -0.73773614924839026052 -4.55082005612955775575 -3.06837569591808811964
O  4.60494108751403530277 -3.96622878976938064710 -2.04751294360803903771
O  5.51089034068398309074 1.89539249938175013988 -2.95590729180038813695
C  2.21877561653414900888 3.93091745157843019953 -1.83150699881148915082
C  -2.43703341709546794647 4.47105818176657887619 -0.66523693747410916899
C  -5.20475957224313479088 0.39731597485467984310 -1.42006973941786962534
C  -2.38127676782546915391 -3.25302065840269838404 -1.88850281771867911651
C  2.29083818924970739062 -4.03265794157949919452 -1.34196827120711925652
C  4.78374355357373559627 -0.07921556826066936119 -1.75652837800578920380
O  2.95978907701573756839 4.02999105522410960845 -3.02082727297879927164
O  -2.05802748860041750945 5.73612709045024526944 -1.15190620092513951178
O  -5.88058054611833469494 1.22747881263100988569 -2.32923887821376673912
O  -3.19127255102765827743 -3.04457554296714016928 -3.01769493583701819972
O  1.91775986910106821526 -5.08492791013237965814 -2.19872422703288883383
O  5.29532575127568527762 -1.00829228528355963057 -2.67980956684520821298
C  3.21669371315159757785 3.69387210059014980956 -0.69186082520354963421
C  -1.38795551033674868791 3.99685863851938982805 0.35420949320828976070
C  -5.16778178528489551269 1.11072336231340940138 -0.06149807731087994500
C  -3.29265555667351561553 -3.24033602237473994379 -0.65776494554374898005
C  1.38149539713368874061 -4.07715922342435987957 -0.10764441609134994815
C  4.77256626082026613744 -0.75675892258768917564 -0.38217592772181979699
C  2.55256396054111922567 3.77383000390614853359 0.69472730196528931224
C  -1.87658184279176842857 2.62959785738603990524 0.86959042675287956392
C  -4.66995162147994768986 0.17586095834351950229 1.06305633345943961743
C  -2.50721461222832919802 -3.60110911172643000100 0.61297497945516965512
C  1.85352377539312773713 -3.02051341305114995350 0.89710406424008881654
C  4.36577196934167766074 0.23022434129321070473 0.72517060885729955899
O  1.66907167957595858887 4.88692368085399930777 0.81124164518227925846
O  -3.08441362729646728624 2.81665904229748020882 1.56150817661108898271
O  -5.30102626309129565385 -1.10211608872167032835 0.99847272905182959946
O  -1.77848159054403920365 -4.80866574069801888669 0.42941785465123982757
O  3.21002454205557707922 -3.18580015958223006223 1.24237706618064924768
O  5.13256533557428618053 1.42782080075291051280 0.64399374126307928901
C  3.59066688938968736622 3.98044807994619054270 1.80950926664780875619
C  -0.89645500604576855430 1.89000615206742916818 1.74680470073063887071
C  -5.01952751177552602968 0.67278465397587872143 2.47922864883734828112
C  -3.43552903897644679176 -3.83876853711820009707 1.81094492657019912052
C  1.02780373685861881050 -3.05255631487953005276 2.17255950121327856550
C  4.63334413526010635564 -0.33982799439168964728 2.12582775292363868047
O  4.36587551677528651339 5.12623218609484077035 1.58164252684446804409
O  -1.34635178925135901018 1.75509148705510997779 2.99556395054215807150
O  -6.36137881605171440214 1.05950386521692951902 2.58358829301366776932
O  -4.39579169127993640842 -4.82015551998131019928 1.53892222940309930657
O  1.15961021883623871531 -1.88140208249342943958 2.80998166284474804044
O  5.97384117287688454212 -0.72056215651174970738 2.28104190831524888949
H  0.13224704601901035583 5.90028006910375868443 0.06179845111059995011
H  -5.02906546666553655456 3.26944512916705898320 1.32195973471651906372
H  -5.66005365569407548065 -2.74597562429162023179 -0.06617953327339991254
H  -0.37596333589037028711 -5.75629752710907105495 -0.61905323145201962554
H  5.07351651543867454563 -3.11302658157459832822 0.51127945807539909584
H  5.64867625842899290234 3.00541745320616016102 -0.46425305226986962603
H  2.01854436715261886803 6.06436711980527043409 -1.54656827692787923745
H  -3.84115196116301671481 5.32232493097132941529 0.73833328706388945406
H  -6.93123890356386596068 -0.87032777596413046783 -1.10908033325346933040
H  -2.33079476852577860413 -5.39901926729751036049 -2.10116728534805874418
H  3.97846078011181525369 -5.11278456573449080480 -0.51320329701895961438
H  6.65544385173537111910 0.99639818803564983440 -1.56359344794164911718
H  -0.44758121555990915130 5.54738430107657976009 -2.19514784185843891962
H  -4.99862717111371512857 4.04655674109809648797 -1.47877335682354948965
H  -4.87862214394077664537 -1.98151913903146037477 -2.69443521680572883881
H  0.17493009918405943992 -4.73959651674300985746 -2.77483024948440881730
H  4.66410798139857529776 -3.01874084232443751219 -2.26865624666724841063
H  4.64836089514038430792 2.34140600586418878848 -3.00041084851171824255
H  1.54098607645986906967 3.06283758725334953610 -1.87427115174566893963
H  -2.46085499425985743116 3.74585258222391859206 -1.49411825115310925582
H  -4.16019338913851743911 0.25205406388909978865 -1.74488235435312732946
H  -1.65150591338989927159 -2.43341514701178018854 -1.78743297510559906449
H  2.13072481812891645347 -3.06478741669444998408 -1.84269875172082908676
H  3.74246695990955480227 0.17505707611953005842 -2.01366769037927806352
H  2.36276715127818626172 4.34815172937626659433 -3.71377294779213817932
H  -2.81157367692486648281 6.10014489877917043259 -1.64421335474422902756
H  -6.09084081771053398313 0.69029656113981896493 -3.10886487380280840398
H  -2.66909052727224915813 -3.26592044166787065507 -3.80334705793696725706
H  2.58698386619235698447 -5.14749436802668913771 -2.89909019680832802379
H  5.49408568008983611008 -0.53311484335033920701 -3.50050276010526850712
H  4.02144260633307659702 4.43873977070721803528 -0.76158004326704964448
H  -1.33879622191689873212 4.69571097986318886086 1.19890805994787918998
H  -6.17413561112708553225 1.47410559342782954140 0.19007305348557004820
H  -4.09868189285289563628 -3.97092024710498758822 -0.80481580480895953400
H  1.40934724253084797674 -5.07071095687050732437 0.35457577458490985300
H  5.76955099277967686788 -1.16139533236291936369 -0.16672775541378001551
H  1.99677609145850842864 2.83976438078294002310 0.85744948004959942178
H  -2.03432580407637875197 1.97912333649938032565 -0.00933991151863993591
H  -3.58181057813990832983 0.04730107681938962305 0.97286818618691950356
H  -1.81875059986388909472 -2.77601408995254050893 0.84523606295103970165
H  1.70767087459974709063 -2.02632998237252959228 0.44167627387429975183
H  3.29684627784058648103 0.46242992506568020294 0.61428010446683900536
H  4.27684283934914866165 3.13377304722748029064 1.84096947029981894417
H  3.05499576615011703140 4.05618852724160117162 2.76325081195894650676
H  -4.79227452249524610295 -0.15173887546790032488 3.16617738075086840865
H  -4.40898511711660745505 1.53315883400238783807 2.74824849325204567663
H  -3.97170422031588721268 -2.91608560685773054999 2.03992773831826879061
H  -2.81226758138124921516 -4.12058300134711963381 2.66817818299924836012
H  4.35574918530906440850 0.42281946590956998033 2.86286040394648688689
H  4.02684838685082624465 -1.23311937246010971947 2.28407916476905814562
H  3.76320851633328734565 5.88246056441070930276 1.54085400740711886414
H  -6.90736717162538571557 0.28345440568049945496 2.39381796429284854355
H  -3.92388988794632753709 -5.64051884971686945391 1.33424427257381927880
H  6.51908788538571037918 0.06399434512467971903 2.12347478294185876280
C  0.26127497010885958328 -1.58912450335454979999 3.90285766255619792631
H  0.88951598116402896821 -1.18363696298226983572 4.68922404710705720277
H  -0.25570570590976021697 -2.48705044817073872565 4.23160082255163860765
O  0.34924840901390941106 -3.98334818409430990727 2.55358777221210875297
C  -0.58617522855173942453 0.84541176598609990567 3.79519962836908808512
H  -0.99939904616609909205 0.95260657278872973297 4.79784223568303769270
H  0.46887642779151966765 1.11663465419944030188 3.80502509435579794328
O  0.16237772092035962501 1.42572362705916000358 1.35186217851816903313
C  -0.72420064229639979914 -0.57561974826865003330 3.33162747555646809872
O  -1.53646263887656897573 -0.91508322368633943089 2.48476685153011844776
O  5.12016518841188084110 -3.80675011383641637153 3.06030596716629732512
H  4.25869305737139836054 -3.72293329273593265327 2.63580323223809243061
H  5.32062354544112547927 -2.90677049522949593197 3.34175791086644746741
O  -2.07739336173240829453 4.33352014407194108259 3.97883132084589563604
H  -2.35787845356035274946 3.79904446580360399821 3.22714925599252966393
H  -2.03711298227879344935 3.69888340896133804847 4.70338343691660476509
O  1.20861243434111176320 0.84716361011117102819 -2.45015501381522371460
H  1.47563441383520377315 -0.07837486559086279114 -2.48810045468183282935
H  0.38317580702480413812 0.86359757474617560025 -2.94789627442596335882
O  2.57954538705013813882 -5.94619569675729753300 2.93431070549187023033
H  2.65596581105262918854 -6.24703290143068468154 3.84700942856533290026
H  1.73718974537481085640 -5.47753390440847809373 2.92185435155271555629
O  7.29620667321037252862 3.05100343268505413974 1.44429872370218648214
H  7.01503845224758304511 2.20928903027048573193 1.06770429954158507790
H  6.76420353927246242876 3.12816771772275625807 2.24453643964550542123
O  -1.05493549403350583837 -0.20175112183925839049 -1.90578485440609046719
H  -1.23685437313731783071 -0.42092813198437378785 -0.98479135623696145707
H  -1.90977621469210645522 0.09335581160641551191 -2.23973290958756754421
151
Energy -1.674533
C  0.71130776615267965468 5.00482414727958069278 -0.19561568134503989902
C  -4.13784486848083687960 3.17739904325788646844 0.68958586950538958149
C  -5.17444863619361594687 -1.77393841750645009370 -0.21665732364067985527
C  -0.87384297371556018952 -4.77917785703500719308 -0.63719983279390968178
C  4.05339626216557658012 -3.03094590633414950887 0.11871533019796989827
C  5.04884681101444510176 2.09362244562296995198 -0.58404774284701976850
O  -0.12582766454131008582 3.86927617535052936759 -0.25997818896310981307
O  -4.31294268880552600365 2.22131748928795813569 -0.31126934222609969893
O  -3.82279935479500831974 -1.93070136534545921947 -0.57994872475585967919
O  0.05957377906125960187 -3.73642003081359996841 -0.49167570712067970584
O  3.83098722953195691687 -1.80990987403622982654 -0.51821454630126961849
O  3.72723448493223719069 2.39573122461048049203 -0.94081572077923947273
C  1.36673334302333859824 5.17738746353810963541 -1.57023401112807836633
C  -3.83082197195232687648 4.52142930134692022648 -0.00861440099554997007
C  -5.86696795055896558324 -0.98447702978594020529 -1.33884527976942946381
C  -1.61012054292363893104 -4.57805317038506043303 -1.97033050864001890723
C  3.77326160587263625956 -4.12352537948484876296 -0.93397915008777943058
C  5.59790018606635531029 1.22271087148065049632 -1.73017268935670931462
O  0.41249294889497961636 5.31215455814457548911 -2.59060683846512906925
O  -4.80930237402007687564 4.84002336366017882341 -0.95372222083172941698
O  -5.78582568311042511056 -1.64728677729911021643 -2.57023780092665665720
O  -0.73773614924839026052 -4.55082005612955775575 -3.06837569591808811964
O  4.60494108751403530277 -3.96622878976938064710 -2.04751294360803903771
O  5.51089034068398309074 1.89539249938175013988 -2.95590729180038813695
C  2.21877561653414900888 3.93091745157843019953 -1.83150699881148915082
C  -2.43703341709546794647 4.47105818176657887619 -0.66523693747410916899
C  -5.20475957224313479088 0.39731597485467984310 -1.42006973941786962534
C  -2.38127676782546915391 -3.25302065840269838404 -1.88850281771867911651
C  2.29083818924970739062 -4.03265794157949919452 -1.34196827120711925652
C  4.78374355357373559627 -0.07921556826066936119 -1.75652837800578920380
O  2.95978907701573756839 4.02999105522410960845 -3.02082727297879927164
O  -2.05802748860041750945 5.73612709045024526944 -1.15190620092513951178
O  -5.88058054611833469494 1.22747881263100988569 -2.32923887821376673912
O  -3.19127255102765827743 -3.04457554296714016928 -3.01769493583701819972
O  1.91775986910106821526 -5.08492791013237965814 -2.19872422703288883383
O  5.29532575127568527762 -1.00829228528355963057 -2.67980956684520821298
C  3.21669371315159757785 3.69387210059014980956 -0.69186082520354963421
C  -1.38795551033674868791 3.99685863851938982805 0.35420949320828976070
C  -5.16778178528489551269 1.11072336231340940138 -0.06149807731087994500
C  -3.29265555667351561553 -3.24033602237473994379 -0.65776494554374898005
C  1.38149539713368874061 -4.07715922342435987957 -0.10764441609134994815
C  4.77256626082026613744 -0.75675892258768917564 -0.38217592772181979699
C  2.55256396054111922567 3.77383000390614853359 0.69472730196528931224
C  -1.87658184279176842857 2.62959785738603990524 0.86959042675287956392
C  -4.66995162147994768986 0.17586095834351950229 1.06305633345943961743
C  -2.50721461222832919802 -3.60110911172643000100 0.61297497945516965512
C  1.85352377539312773713 -3.02051341305114995350 0.89710406424008881654
C  4.36577196934167766074 0.23022434129321070473 0.72517060885729955899
O  1.66907167957595858887 4.88692368085399930777 0.81124164518227925846
O  -3.08441362729646728624 2.81665904229748020882 1.56150817661108898271
O  -5.30102626309129565385 -1.10211608872167032835 0.99847272905182959946
O  -1.77848159054403920365 -4.80866574069801888669 0.42941785465123982757
O  3.21002454205557707922 -3.18580015958223006223 1.24237706618064924768
O  5.13256533557428618053 1.42782080075291051280 0.64399374126307928901
C  3.59066688938968736622 3.98044807994619054270 1.80950926664780875619
C  -0.89645500604576855430 1.89000615206742916818 1.74680470073063887071
C  -5.01952751177552602968 0.67278465397587872143 2.47922864883734828112
C  -3.43552903897644679176 -3.83876853711820009707 1.81094492657019912052
C  1.02780373685861881050 -3.05255631487953005276 2.17255950121327856550
C  4.63334413526010635564 -0.33982799439168964728 2.12582775292363868047
O  4.36587551677528651339 5.12623218609484077035 1.58164252684446804409
O  -1.34635178925135901018 1.75509148705510997779 2.99556395054215807150
O  -6.36137881605171440214 1.05950386521692951902 2.58358829301366776932
O  -4.39579169127993640842 -4.82015551998131019928 1.53892222940309930657
O  1.15961021883623871531 -1.88140208249342943958 2.80998166284474804044
O  5.97384117287688454212 -0.72056215651174970738 2.28104190831524888949
H  0.13224704601901035583 5.90028006910375868443 0.06179845111059995011
H  -5.02906546666553655456 3.26944512916705898320 1.32195973471651906372
H  -5.66005365569407548065 -2.74597562429162023179 -0.06617953327339991254
H  -0.37596333589037028711 -5.75629752710907105495 -0.61905323145201962554
H  5.07351651543867454563 -3.11302658157459832822 0.51127945807539909584
H  5.64867625842899290234 3.00541745320616016102 -0.46425305226986962603
H  2.01854436715261886803 6.06436711980527043409 -1.54656827692787923745
H  -3.84115196116301671481 5.32232493097132941529 0.73833328706388945406
H  -6.93123890356386596068 -0.87032777596413046783 -1.10908033325346933040
H  -2.33079476852577860413 -5.39901926729751036049 -2.10116728534805874418
H  3.97846078011181525369 -5.11278456573449080480 -0.51320329701895961438
H  6.65544385173537111910 0.99639818803564983440 -1.56359344794164911718
H  -0.44758121555990915130 5.54738430107657976009 -2.19514784185843891962
H  -4.99862717111371512857 4.04655674109809648797 -1.47877335682354948965
H  -4.87862214394077664537 -1.98151913903146037477 -2.69443521680572883881
H  0.17493009918405943992 -4.73959651674300985746 -2.77483024948440881730
H  4.66410798139857529776 -3.01874084232443751219 -2.26865624666724841063
H  4.64836089514038430792 2.34140600586418878848 -3.00041084851171824255
H  1.54098607645986906967 3.06283758725334953610 -1.87427115174566893963
H  -2.46085499425985743116 3.74585258222391859206 -1.49411825115310925582
H  -4.16019338913851743911 0.25205406388909978865 -1.74488235435312732946
H  -1.65150591338989927159 -2.43341514701178018854 -1.78743297510559906449
H  2.13072481812891645347 -3.06478741669444998408 -1.84269875172082908676
H  3.74246695990955480227 0.17505707611953005842 -2.01366769037927806352
H  2.36276715127818626172 4.34815172937626659433 -3.71377294779213817932
H  -2.81157367692486648281 6.10014489877917043259 -1.64421335474422902756
H  -6.09084081771053398313 0.69029656113981896493 -3.10886487380280840398
H  -2.66909052727224915813 -3.26592044166787065507 -3.80334705793696725706
H  2.58698386619235698447 -5.14749436802668913771 -2.89909019680832802379
H  5.49408568008983611008 -0.53311484335033920701 -3.50050276010526850712
H  4.02144260633307659702 4.43873977070721803528 -0.76158004326704964448
H  -1.33879622191689873212 4.69571097986318886086 1.19890805994787918998
H  -6.17413561112708553225 1.47410559342782954140 0.19007305348557004820
H  -4.09868189285289563628 -3.97092024710498758822 -0.80481580480895953400
H  1.40934724253084797674 -5.07071095687050732437 0.35457577458490985300
H  5.76955099277967686788 -1.16139533236291936369 -0.16672775541378001551
H  1.99677609145850842864 2.83976438078294002310 0.85744948004959942178
H  -2.03432580407637875197 1.97912333649938032565 -0.00933991151863993591
H  -3.58181057813990832983 0.04730107681938962305 0.97286818618691950356
H  -1.81875059986388909472 -2.77601408995254050893 0.84523606295103970165
H  1.70767087459974709063 -2.02632998237252959228 0.44167627387429975183
H  3.29684627784058648103 0.46242992506568020294 0.61428010446683900536
H  4.27684283934914866165 3.13377304722748029064 1.84096947029981894417
H  3.05499576615011703140 4.05618852724160117162 2.76325081195894650676
H  -4.79227452249524610295 -0.15173887546790032488 3.16617738075086840865
H  -4.40898511711660745505 1.53315883400238783807 2.74824849325204567663
H  -3.97170422031588721268 -2.91608560685773054999 2.03992773831826879061
H  -2.81226758138124921516 -4.12058300134711963381 2.66817818299924836012
H  4.35574918530906440850 0.42281946590956998033 2.86286040394648688689
H  4.02684838685082624465 -1.23311937246010971947 2.28407916476905814562
H  3.76320851633328734565 5.88246056441070930276 1.54085400740711886414
H  -6.90736717162538571557 0.28345440568049945496 2.39381796429284854355
H  -3.92388988794632753709 -5.64051884971686945391 1.33424427257381927880
H  6.51908788538571037918 0.06399434512467971903 2.12347478294185876280
C  0.26127497010885958328 -1.58912450335454979999 3.90285766255619792631
H  0.88951598116402896821 -1.18363696298226983572 4.68922404710705720277
H  -0.25570570590976021697 -2.48705044817073872565 4.23160082255163860765
O  0.34924840901390941106 -3.98334818409430990727 2.55358777221210875297
C  -0.58617522855173942453 0.84541176598609990567 3.79519962836908808512
H  -0.99939904616609909205 0.95260657278872973297 4.79784223568303769270
H  0.46887642779151966765 1.11663465419944030188 3.80502509435579794328
O  0.16237772092035962501 1.42572362705916000358 1.35186217851816903313
C  -0.72420064229639979914 -0.57561974826865003330 3.33162747555646809872
O  -1.53646263887656897573 -0.91508322368633943089 2.48476685153011844776
O  5.12016518841188084110 -3.80675011383641637153 3.06030596716629732512
H  4.25869305737139836054 -3.72293329273593265327 2.63580323223809243061
H  5.32062354544112547927 -2.90677049522949593197 3.34175791086644746741
O  -2.07739336173240829453 4.33352014407194108259 3.97883132084589563604
H  -2.35787845356035274946 3.79904446580360399821 3.22714925599252966393
H  -2.03711298227879344935 3.69888340896133804847 4.70338343691660476509
O  1.20861243434111176320 0.84716361011117102819 -2.45015501381522371460
H  1.47563441383520377315 -0.07837486559086279114 -2.48810045468183282935
H  0.38317580702480413812 0.86359757474617560025 -2.94789627442596335882
O  2.57954538705013813882 -5.94619569675729753300 2.93431070549187023033
H  2.65596581105262918854 -6.24703290143068468154 3.84700942856533290026
H  1.73718974537481085640 -5.47753390440847809373 2.92185435155271555629
O  7.29620667321037252862 3.05100343268505413974 1.44429872370218603805
H  7.01503845224758304511 2.20928903027048573193 1.06770429954158507790
H  6.76420353927246242876 3.12816771772275625807 2.24453643964550542123
O  -1.05493549403350583837 -0.20175112183925833498 -1.90578485440609046719
H  -1.23685437313731783071 -0.42092813198437378785 -0.98479135623696145707
H  -1.90977621469210645522 0.09335581160641551191 -2.23973290958756754421
O  0.40789638124594512769 4.85382894434815526097 3.72543848859718496058
H  0.01368879175008975990 4.49477322989597638525 2.92229377291796899030
H  0.03071683465176655581 4.30767446854185553917 4.42459007560179706786
154
Energy -0.977273
C  0.71130776615267965468 5.00482414727958069278 -0.19561568134503989902
C  -4.13784486848083687960 3.17739904325788646844 0.68958586950538958149
C  -5.17444863619361594687 -1.77393841750645009370 -0.21665732364067985527
C  -0.87384297371556018952 -4.77917785703500719308 -0.63719983279390968178
C  4.05339626216557658012 -3.03094590633414950887 0.11871533019796989827
C  5.04884681101444510176 2.09362244562296995198 -0.58404774284701976850
O  -0.12582766454131008582 3.86927617535052936759 -0.25997818896310981307
O  -4.31294268880552600365 2.22131748928795813569 -0.31126934222609969893
O  -3.82279935479500831974 -1.93070136534545921947 -0.57994872475585967919
O  0.05957377906125960187 -3.73642003081359996841 -0.49167570712067970584
O  3.83098722953195691687 -1.80990987403622982654 -0.51821454630126961849
O  3.72723448493223719069 2.39573122461048049203 -0.94081572077923947273
C  1.36673334302333859824 5.17738746353810963541 -1.57023401112807836633
C  -3.83082197195232687648 4.52142930134692022648 -0.00861440099554997007
C  -5.86696795055896558324 -0.98447702978594020529 -1.33884527976942946381
C  -1.61012054292363893104 -4.57805317038506043303 -1.97033050864001890723
C  3.77326160587263625956 -4.12352537948484876296 -0.93397915008777943058
C  5.59790018606635531029 1.22271087148065049632 -1.73017268935670931462
O  0.41249294889497961636 5.31215455814457548911 -2.59060683846512906925
O  -4.80930237402007687564 4.84002336366017882341 -0.95372222083172941698
O  -5.78582568311042511056 -1.64728677729911021643 -2.57023780092665665720
O  -0.73773614924839026052 -4.55082005612955775575 -3.06837569591808811964
O  4.60494108751403530277 -3.96622878976938064710 -2.04751294360803903771
O  5.51089034068398309074 1.89539249938175013988 -2.95590729180038813695
C  2.21877561653414900888 3.93091745157843019953 -1.83150699881148915082
C  -2.43703341709546794647 4.47105818176657887619 -0.66523693747410916899
C  -5.20475957224313479088 0.39731597485467984310 -1.42006973941786962534
C  -2.38127676782546915391 -3.25302065840269838404 -1.88850281771867911651
C  2.29083818924970739062 -4.03265794157949919452 -1.34196827120711925652
C  4.78374355357373559627 -0.07921556826066936119 -1.75652837800578920380
O  2.95978907701573756839 4.02999105522410960845 -3.02082727297879927164
O  -2.05802748860041750945 5.73612709045024526944 -1.15190620092513951178
O  -5.88058054611833469494 1.22747881263100988569 -2.32923887821376673912
O  -3.19127255102765827743 -3.04457554296714016928 -3.01769493583701819972
O  1.91775986910106821526 -5.08492791013237965814 -2.19872422703288883383
O  5.29532575127568527762 -1.00829228528355963057 -2.67980956684520821298
C  3.21669371315159757785 3.69387210059014980956 -0.69186082520354963421
C  -1.38795551033674868791 3.99685863851938982805 0.35420949320828976070
C  -5.16778178528489551269 1.11072336231340940138 -0.06149807731087994500
C  -3.29265555667351561553 -3.24033602237473994379 -0.65776494554374898005
C  1.38149539713368874061 -4.07715922342435987957 -0.10764441609134994815
C  4.77256626082026613744 -0.75675892258768917564 -0.38217592772181979699
C  2.55256396054111922567 3.77383000390614853359 0.69472730196528931224
C  -1.87658184279176842857 2.62959785738603990524 0.86959042675287956392
C  -4.66995162147994768986 0.17586095834351950229 1.06305633345943961743
C  -2.50721461222832919802 -3.60110911172643000100 0.61297497945516965512
C  1.85352377539312773713 -3.02051341305114995350 0.89710406424008881654
C  4.36577196934167766074 0.23022434129321070473 0.72517060885729955899
O  1.66907167957595858887 4.88692368085399930777 0.81124164518227925846
O  -3.08441362729646728624 2.81665904229748020882 1.56150817661108898271
O  -5.30102626309129565385 -1.10211608872167032835 0.99847272905182959946
O  -1.77848159054403920365 -4.80866574069801888669 0.42941785465123982757
O  3.21002454205557707922 -3.18580015958223006223 1.24237706618064924768
O  5.13256533557428618053 1.42782080075291051280 0.64399374126307928901
C  3.59066688938968736622 3.98044807994619054270 1.80950926664780875619
C  -0.89645500604576855430 1.89000615206742916818 1.74680470073063887071
C  -5.01952751177552602968 0.67278465397587872143 2.47922864883734828112
C  -3.43552903897644679176 -3.83876853711820009707 1.81094492657019912052
C  1.02780373685861881050 -3.05255631487953005276 2.17255950121327856550
C  4.63334413526010635564 -0.33982799439168964728 2.12582775292363868047
O  4.36587551677528651339 5.12623218609484077035 1.58164252684446804409
O  -1.34635178925135901018 1.75509148705510997779 2.99556395054215807150
O  -6.36137881605171440214 1.05950386521692951902 2.58358829301366776932
O  -4.39579169127993640842 -4.82015551998131019928 1.53892222940309930657
O  1.15961021883623871531 -1.88140208249342943958 2.80998166284474804044
O  5.97384117287688454212 -0.72056215651174970738 2.28104190831524888949
H  0.13224704601901035583 5.90028006910375868443 0.06179845111059995011
H  -5.02906546666553655456 3.26944512916705898320 1.32195973471651906372
H  -5.66005365569407548065 -2.74597562429162023179 -0.06617953327339991254
H  -0.37596333589037028711 -5.75629752710907105495 -0.61905323145201962554
H  5.07351651543867454563 -3.11302658157459832822 0.51127945807539909584
H  5.64867625842899290234 3.00541745320616016102 -0.46425305226986962603
H  2.01854436715261886803 6.06436711980527043409 -1.54656827692787923745
H  -3.84115196116301671481 5.32232493097132941529 0.73833328706388945406
H  -6.93123890356386596068 -0.87032777596413046783 -1.10908033325346933040
H  -2.33079476852577860413 -5.39901926729751036049 -2.10116728534805874418
H  3.97846078011181525369 -5.11278456573449080480 -0.51320329701895961438
H  6.65544385173537111910 0.99639818803564983440 -1.56359344794164911718
H  -0.44758121555990915130 5.54738430107657976009 -2.19514784185843891962
H  -4.99862717111371512857 4.04655674109809648797 -1.47877335682354948965
H  -4.87862214394077664537 -1.98151913903146037477 -2.69443521680572883881
H  0.17493009918405943992 -4.73959651674300985746 -2.77483024948440881730
H  4.66410798139857529776 -3.01874084232443751219 -2.26865624666724841063
H  4.64836089514038430792 2.34140600586418878848 -3.00041084851171824255
H  1.54098607645986906967 3.06283758725334953610 -1.87427115174566893963
H  -2.46085499425985743116 3.74585258222391859206 -1.49411825115310925582
H  -4.16019338913851743911 0.25205406388909978865 -1.74488235435312732946
H  -1.65150591338989927159 -2.43341514701178018854 -1.78743297510559906449
H  2.13072481812891645347 -3.06478741669444998408 -1.84269875172082908676
H  3.74246695990955480227 0.17505707611953005842 -2.01366769037927806352
H  2.36276715127818626172 4.34815172937626659433 -3.71377294779213817932
H  -2.81157367692486648281 6.10014489877917043259 -1.64421335474422902756
H  -6.09084081771053398313 0.69029656113981896493 -3.10886487380280840398
H  -2.66909052727224915813 -3.26592044166787065507 -3.80334705793696725706
H  2.58698386619235698447 -5.14749436802668913771 -2.89909019680832802379
H  5.49408568008983611008 -0.53311484335033920701 -3.50050276010526850712
H  4.02144260633307659702 4.43873977070721803528 -0.76158004326704964448
H  -1.33879622191689873212 4.69571097986318886086 1.19890805994787918998
H  -6.17413561112708553225 1.47410559342782954140 0.19007305348557004820
H  -4.09868189285289563628 -3.97092024710498758822 -0.80481580480895953400
H  1.40934724253084797674 -5.07071095687050732437 0.35457577458490985300
H  5.76955099277967686788 -1.16139533236291936369 -0.16672775541378001551
H  1.99677609145850842864 2.83976438078294002310 0.85744948004959942178
H  -2.03432580407637875197 1.97912333649938032565 -0.00933991151863993591
H  -3.58181057813990832983 0.04730107681938962305 0.97286818618691950356
H  -1.81875059986388909472 -2.77601408995254050893 0.84523606295103970165
H  1.70767087459974709063 -2.02632998237252959228 0.44167627387429975183
H  3.29684627784058648103 0.46242992506568020294 0.61428010446683900536
H  4.27684283934914866165 3.13377304722748029064 1.84096947029981894417
H  3.05499576615011703140 4.05618852724160117162 2.76325081195894650676
H  -4.79227452249524610295 -0.15173887546790032488 3.16617738075086840865
H  -4.40898511711660745505 1.53315883400238783807 2.74824849325204567663
H  -3.97170422031588721268 -2.91608560685773054999 2.03992773831826879061
H  -2.81226758138124921516 -4.12058300134711963381 2.66817818299924836012
H  4.35574918530906440850 0.42281946590956998033 2.86286040394648688689
H  4.02684838685082624465 -1.23311937246010971947 2.28407916476905814562
H  3.76320851633328734565 5.88246056441070930276 1.54085400740711886414
H  -6.90736717162538571557 0.28345440568049945496 2.39381796429284854355
H  -3.92388988794632753709 -5.64051884971686945391 1.33424427257381927880
H  6.51908788538571037918 0.06399434512467971903 2.12347478294185876280
C  0.26127497010885958328 -1.58912450335454979999 3.90285766255619792631
H  0.88951598116402896821 -1.18363696298226983572 4.68922404710705720277
H  -0.25570570590976021697 -2.48705044817073872565 4.23160082255163860765
O  0.34924840901390941106 -3.98334818409430990727 2.55358777221210875297
C  -0.58617522855173942453 0.84541176598609990567 3.79519962836908808512
H  -0.99939904616609909205 0.95260657278872973297 4.79784223568303769270
H  0.46887642779151966765 1.11663465419944030188 3.80502509435579794328
O  0.16237772092035962501 1.42572362705916000358 1.35186217851816903313
C  -0.72420064229639979914 -0.57561974826865003330 3.33162747555646809872
O  -1.53646263887656897573 -0.91508322368633943089 2.48476685153011844776
O  5.12016518841188084110 -3.80675011383641637153 3.06030596716629732512
H  4.25869305737139836054 -3.72293329273593265327 2.63580323223809243061
H  5.32062354544112547927 -2.90677049522949593197 3.34175791086644746741
O  -2.07739336173240829453 4.33352014407194108259 3.97883132084589563604
H  -2.35787845356035274946 3.79904446580360399821 3.22714925599252966393
H  -2.03711298227879344935 3.69888340896133804847 4.70338343691660476509
O  1.20861243434111176320 0.84716361011117102819 -2.45015501381522371460
H  1.47563441383520377315 -0.07837486559086279114 -2.48810045468183282935
H  0.38317580702480413812 0.86359757474617560025 -2.94789627442596335882
O  2.57954538705013813882 -5.94619569675729753300 2.93431070549187023033
H  2.65596581105262918854 -6.24703290143068468154 3.84700942856533290026
H  1.73718974537481085640 -5.47753390440847809373 2.92185435155271555629
O  7.29620667321037252862 3.05100343268505413974 1.44429872370218603805
H  7.01503845224758304511 2.20928903027048573193 1.06770429954158507790
H  6.76420353927246242876 3.12816771772275625807 2.24453643964550542123
O  -1.05493549403350583837 -0.20175112183925833498 -1.90578485440609046719
H  -1.23685437313731783071 -0.42092813198437378785 -0.98479135623696145707
H  -1.90977621469210645522 0.09335581160641551191 -2.23973290958756754421
O  0.40789638124594512769 4.85382894434815526097 3.72543848859718496058
H  0.01368879175008975990 4.49477322989597638525 2.92229377291796899030
H  0.03071683465176650030 4.30767446854185553917 4.42459007560179617968
O  1.21348797977724287556 -3.47827765770486418972 -4.92319011099401926401
H  1.25561636499323192595 -2.59985245536667353150 -4.52827692170230822200
H  0.26721009973673565119 -3.65151120294881659234 -4.98572311005507096127
157
Energy -1.394109
C  0.71130776615267965468 5.00482414727958069278 -0.19561568134503989902
C  -4.13784486848083687960 3.17739904325788646844 0.68958586950538958149
C  -5.17444863619361594687 -1.77393841750645009370 -0.21665732364067985527
C  -0.87384297371556018952 -4.77917785703500719308 -0.63719983279390968178
C  4.05339626216557658012 -3.03094590633414950887 0.11871533019796989827
C  5.04884681101444510176 2.09362244562296995198 -0.58404774284701976850
O  -0.12582766454131008582 3.86927617535052936759 -0.25997818896310981307
O  -4.31294268880552600365 2.22131748928795813569 -0.31126934222609969893
O  -3.82279935479500831974 -1.93070136534545921947 -0.57994872475585967919
O  0.05957377906125960187 -3.73642003081359996841 -0.49167570712067970584
O  3.83098722953195691687 -1.80990987403622982654 -0.51821454630126961849
O  3.72723448493223719069 2.39573122461048049203 -0.94081572077923947273
C  1.36673334302333859824 5.17738746353810963541 -1.57023401112807836633
C  -3.83082197195232687648 4.52142930134692022648 -0.00861440099554997007
C  -5.86696795055896558324 -0.98447702978594020529 -1.33884527976942946381
C  -1.61012054292363893104 -4.57805317038506043303 -1.97033050864001890723
C  3.77326160587263625956 -4.12352537948484876296 -0.93397915008777943058
C  5.59790018606635531029 1.22271087148065049632 -1.73017268935670931462
O  0.41249294889497961636 5.31215455814457548911 -2.59060683846512906925
O  -4.80930237402007687564 4.84002336366017882341 -0.95372222083172941698
O  -5.78582568311042511056 -1.64728677729911021643 -2.57023780092665665720
O  -0.73773614924839026052 -4.55082005612955775575 -3.06837569591808811964
O  4.60494108751403530277 -3.96622878976938064710 -2.04751294360803903771
O  5.51089034068398309074 1.89539249938175013988 -2.95590729180038813695
C  2.21877561653414900888 3.93091745157843019953 -1.83150699881148915082
C  -2.43703341709546794647 4.47105818176657887619 -0.66523693747410916899
C  -5.20475957224313479088 0.39731597485467984310 -1.42006973941786962534
C  -2.38127676782546915391 -3.25302065840269838404 -1.88850281771867911651
C  2.29083818924970739062 -4.03265794157949919452 -1.34196827120711925652
C  4.78374355357373559627 -0.07921556826066936119 -1.75652837800578920380
O  2.95978907701573756839 4.02999105522410960845 -3.02082727297879927164
O  -2.05802748860041750945 5.73612709045024526944 -1.15190620092513951178
O  -5.88058054611833469494 1.22747881263100988569 -2.32923887821376673912
O  -3.19127255102765827743 -3.04457554296714016928 -3.01769493583701819972
O  1.91775986910106821526 -5.08492791013237965814 -2.19872422703288883383
O  5.29532575127568527762 -1.00829228528355963057 -2.67980956684520821298
C  3.21669371315159757785 3.69387210059014980956 -0.69186082520354963421
C  -1.38795551033674868791 3.99685863851938982805 0.35420949320828976070
C  -5.16778178528489551269 1.11072336231340940138 -0.06149807731087994500
C  -3.29265555667351561553 -3.24033602237473994379 -0.65776494554374898005
C  1.38149539713368874061 -4.07715922342435987957 -0.10764441609134994815
C  4.77256626082026613744 -0.75675892258768917564 -0.38217592772181979699
C  2.55256396054111922567 3.77383000390614853359 0.69472730196528931224
C  -1.87658184279176842857 2.62959785738603990524 0.86959042675287956392
C  -4.66995162147994768986 0.17586095834351950229 1.06305633345943961743
C  -2.50721461222832919802 -3.60110911172643000100 0.61297497945516965512
C  1.85352377539312773713 -3.02051341305114995350 0.89710406424008881654
C  4.36577196934167766074 0.23022434129321070473 0.72517060885729955899
O  1.66907167957595858887 4.88692368085399930777 0.81124164518227925846
O  -3.08441362729646728624 2.81665904229748020882 1.56150817661108898271
O  -5.30102626309129565385 -1.10211608872167032835 0.99847272905182959946
O  -1.77848159054403920365 -4.80866574069801888669 0.42941785465123982757
O  3.21002454205557707922 -3.18580015958223006223 1.24237706618064924768
O  5.13256533557428618053 1.42782080075291051280 0.64399374126307928901
C  3.59066688938968736622 3.98044807994619054270 1.80950926664780875619
C  -0.89645500604576855430 1.89000615206742916818 1.74680470073063887071
C  -5.01952751177552602968 0.67278465397587872143 2.47922864883734828112
C  -3.43552903897644679176 -3.83876853711820009707 1.81094492657019912052
C  1.02780373685861881050 -3.05255631487953005276 2.17255950121327856550
C  4.63334413526010635564 -0.33982799439168964728 2.12582775292363868047
O  4.36587551677528651339 5.12623218609484077035 1.58164252684446804409
O  -1.34635178925135901018 1.75509148705510997779 2.99556395054215807150
O  -6.36137881605171440214 1.05950386521692951902 2.58358829301366776932
O  -4.39579169127993640842 -4.82015551998131019928 1.53892222940309930657
O  1.15961021883623871531 -1.88140208249342943958 2.80998166284474804044
O  5.97384117287688454212 -0.72056215651174970738 2.28104190831524888949
H  0.13224704601901035583 5.90028006910375868443 0.06179845111059995011
H  -5.02906546666553655456 3.26944512916705898320 1.32195973471651906372
H  -5.66005365569407548065 -2.74597562429162023179 -0.06617953327339991254
H  -0.37596333589037028711 -5.75629752710907105495 -0.61905323145201962554
H  5.07351651543867454563 -3.11302658157459832822 0.51127945807539909584
H  5.64867625842899290234 3.00541745320616016102 -0.46425305226986962603
H  2.01854436715261886803 6.06436711980527043409 -1.54656827692787923745
H  -3.84115196116301671481 5.32232493097132941529 0.73833328706388945406
H  -6.93123890356386596068 -0.87032777596413046783 -1.10908033325346933040
H  -2.33079476852577860413 -5.39901926729751036049 -2.10116728534805874418
H  3.97846078011181525369 -5.11278456573449080480 -0.51320329701895961438
H  6.65544385173537111910 0.99639818803564983440 -1.56359344794164911718
H  -0.44758121555990915130 5.54738430107657976009 -2.19514784185843891962
H  -4.99862717111371512857 4.04655674109809648797 -1.47877335682354948965
H  -4.87862214394077664537 -1.98151913903146037477 -2.69443521680572883881
H  0.17493009918405943992 -4.73959651674300985746 -2.77483024948440881730
H  4.66410798139857529776 -3.01874084232443751219 -2.26865624666724841063
H  4.64836089514038430792 2.34140600586418878848 -3.00041084851171824255
H  1.54098607645986906967 3.06283758725334953610 -1.87427115174566893963
H  -2.46085499425985743116 3.74585258222391859206 -1.49411825115310925582
H  -4.16019338913851743911 0.25205406388909978865 -1.74488235435312732946
H  -1.65150591338989927159 -2.43341514701178018854 -1.78743297510559906449
H  2.13072481812891645347 -3.06478741669444998408 -1.84269875172082908676
H  3.74246695990955480227 0.17505707611953005842 -2.01366769037927806352
H  2.36276715127818626172 4.34815172937626659433 -3.71377294779213817932
H  -2.81157367692486648281 6.10014489877917043259 -1.64421335474422902756
H  -6.09084081771053398313 0.69029656113981896493 -3.10886487380280840398
H  -2.66909052727224915813 -3.26592044166787065507 -3.80334705793696725706
H  2.58698386619235698447 -5.14749436802668913771 -2.89909019680832802379
H  5.49408568008983611008 -0.53311484335033920701 -3.50050276010526850712
H  4.02144260633307659702 4.43873977070721803528 -0.76158004326704964448
H  -1.33879622191689873212 4.69571097986318886086 1.19890805994787918998
H  -6.17413561112708553225 1.47410559342782954140 0.19007305348557004820
H  -4.09868189285289563628 -3.97092024710498758822 -0.80481580480895953400
H  1.40934724253084797674 -5.07071095687050732437 0.35457577458490985300
H  5.76955099277967686788 -1.16139533236291936369 -0.16672775541378001551
H  1.99677609145850842864 2.83976438078294002310 0.85744948004959942178
H  -2.03432580407637875197 1.97912333649938032565 -0.00933991151863993591
H  -3.58181057813990832983 0.04730107681938962305 0.97286818618691950356
H  -1.81875059986388909472 -2.77601408995254050893 0.84523606295103970165
H  1.70767087459974709063 -2.02632998237252959228 0.44167627387429975183
H  3.29684627784058648103 0.46242992506568020294 0.61428010446683900536
H  4.27684283934914866165 3.13377304722748029064 1.84096947029981894417
H  3.05499576615011703140 4.05618852724160117162 2.76325081195894650676
H  -4.79227452249524610295 -0.15173887546790032488 3.16617738075086840865
H  -4.40898511711660745505 1.53315883400238783807 2.74824849325204567663
H  -3.97170422031588721268 -2.91608560685773054999 2.03992773831826879061
H  -2.81226758138124921516 -4.12058300134711963381 2.66817818299924836012
H  4.35574918530906440850 0.42281946590956998033 2.86286040394648688689
H  4.02684838685082624465 -1.23311937246010971947 2.28407916476905814562
H  3.76320851633328734565 5.88246056441070930276 1.54085400740711886414
H  -6.90736717162538571557 0.28345440568049945496 2.39381796429284854355
H  -3.92388988794632753709 -5.64051884971686945391 1.33424427257381927880
H  6.51908788538571037918 0.06399434512467971903 2.12347478294185876280
C  0.26127497010885958328 -1.58912450335454979999 3.90285766255619792631
H  0.88951598116402896821 -1.18363696298226983572 4.68922404710705720277
H  -0.25570570590976021697 -2.48705044817073872565 4.23160082255163860765
O  0.34924840901390941106 -3.98334818409430990727 2.55358777221210875297
C  -0.58617522855173942453 0.84541176598609990567 3.79519962836908808512
H  -0.99939904616609909205 0.95260657278872973297 4.79784223568303769270
H  0.46887642779151966765 1.11663465419944030188 3.80502509435579794328
O  0.16237772092035962501 1.42572362705916000358 1.35186217851816903313
C  -0.72420064229639979914 -0.57561974826865003330 3.33162747555646809872
O  -1.53646263887656897573 -0.91508322368633943089 2.48476685153011844776
O  5.12016518841188084110 -3.80675011383641637153 3.06030596716629732512
H  4.25869305737139836054 -3.72293329273593265327 2.63580323223809243061
H  5.32062354544112547927 -2.90677049522949593197 3.34175791086644746741
O  -2.07739336173240829453 4.33352014407194108259 3.97883132084589563604
H  -2.35787845356035274946 3.79904446580360399821 3.22714925599252966393
H  -2.03711298227879344935 3.69888340896133804847 4.70338343691660476509
O  1.20861243434111176320 0.84716361011117102819 -2.45015501381522371460
H  1.47563441383520377315 -0.07837486559086279114 -2.48810045468183282935
H  0.38317580702480413812 0.86359757474617560025 -2.94789627442596335882
O  2.57954538705013813882 -5.94619569675729753300 2.93431070549187023033
H  2.65596581105262918854 -6.24703290143068468154 3.84700942856533290026
H  1.73718974537481085640 -5.47753390440847809373 2.92185435155271555629
O  7.29620667321037252862 3.05100343268505413974 1.44429872370218603805
H  7.01503845224758304511 2.20928903027048573193 1.06770429954158507790
H  6.76420353927246242876 3.12816771772275625807 2.24453643964550542123
O  -1.05493549403350583837 -0.20175112183925833498 -1.90578485440609046719
H  -1.23685437313731783071 -0.42092813198437378785 -0.98479135623696145707
H  -1.90977621469210645522 0.09335581160641551191 -2.23973290958756754421
O  0.40789638124594512769 4.85382894434815526097 3.72543848859718496058
H  0.01368879175008975990 4.49477322989597638525 2.92229377291796899030
H  0.03071683465176650030 4.30767446854185553917 4.42459007560179617968
O  1.21348797977724287556 -3.47827765770486418972 -4.92319011099401926401
H  1.25561636499323192595 -2.59985245536667353150 -4.52827692170230822200
H  0.26721009973673559568 -3.65151120294881614825 -4.98572311005507007309
O  -3.37744983416910393714 -0.80244443854341174216 5.02801316157645405980
H  -3.98342569205590901760 -0.66501468563138288470 5.76508058501425590947
H  -2.99943270180925969370 -1.67108239055839913334 5.20671184479757620522
160
Energy -2.248715
C  0.71130776615267965468 5.00482414727958069278 -0.19561568134503989902
C  -4.13784486848083687960 3.17739904325788646844 0.68958586950538958149
C  -5.17444863619361594687 -1.77393841750645009370 -0.21665732364067985527
C  -0.87384297371556018952 -4.77917785703500719308 -0.63719983279390968178
C  4.05339626216557658012 -3.03094590633414950887 0.11871533019796989827
C  5.04884681101444510176 2.09362244562296995198 -0.58404774284701976850
O  -0.12582766454131008582 3.86927617535052936759 -0.25997818896310981307
O  -4.31294268880552600365 2.22131748928795813569 -0.31126934222609969893
O  -3.82279935479500831974 -1.93070136534545921947 -0.57994872475585967919
O  0.05957377906125960187 -3.73642003081359996841 -0.49167570712067970584
O  3.83098722953195691687 -1.80990987403622982654 -0.51821454630126961849
O  3.72723448493223719069 2.39573122461048049203 -0.94081572077923947273
C  1.36673334302333859824 5.17738746353810963541 -1.57023401112807836633
C  -3.83082197195232687648 4.52142930134692022648 -0.00861440099554997007
C  -5.86696795055896558324 -0.98447702978594020529 -1.33884527976942946381
C  -1.61012054292363893104 -4.57805317038506043303 -1.97033050864001890723
C  3.77326160587263625956 -4.12352537948484876296 -0.93397915008777943058
C  5.59790018606635531029 1.22271087148065049632 -1.73017268935670931462
O  0.41249294889497961636 5.31215455814457548911 -2.59060683846512906925
O  -4.80930237402007687564 4.84002336366017882341 -0.95372222083172941698
O  -5.78582568311042511056 -1.64728677729911021643 -2.57023780092665665720
O  -0.73773614924839026052 -4.55082005612955775575 -3.06837569591808811964
O  4.60494108751403530277 -3.96622878976938064710 -2.04751294360803903771
O  5.51089034068398309074 1.89539249938175013988 -2.95590729180038813695
C  2.21877561653414900888 3.93091745157843019953 -1.83150699881148915082
C  -2.43703341709546794647 4.47105818176657887619 -0.66523693747410916899
C  -5.20475957224313479088 0.39731597485467984310 -1.42006973941786962534
C  -2.38127676782546915391 -3.25302065840269838404 -1.88850281771867911651
C  2.29083818924970739062 -4.03265794157949919452 -1.34196827120711925652
C  4.78374355357373559627 -0.07921556826066936119 -1.75652837800578920380
O  2.95978907701573756839 4.02999105522410960845 -3.02082727297879927164
O  -2.05802748860041750945 5.73612709045024526944 -1.15190620092513951178
O  -5.88058054611833469494 1.22747881263100988569 -2.32923887821376673912
O  -3.19127255102765827743 -3.04457554296714016928 -3.01769493583701819972
O  1.91775986910106821526 -5.08492791013237965814 -2.19872422703288883383
O  5.29532575127568527762 -1.00829228528355963057 -2.67980956684520821298
C  3.21669371315159757785 3.69387210059014980956 -0.69186082520354963421
C  -1.38795551033674868791 3.99685863851938982805 0.35420949320828976070
C  -5.16778178528489551269 1.11072336231340940138 -0.06149807731087994500
C  -3.29265555667351561553 -3.24033602237473994379 -0.65776494554374898005
C  1.38149539713368874061 -4.07715922342435987957 -0.10764441609134994815
C  4.77256626082026613744 -0.75675892258768917564 -0.38217592772181979699
C  2.55256396054111922567 3.77383000390614853359 0.69472730196528931224
C  -1.87658184279176842857 2.62959785738603990524 0.86959042675287956392
C  -4.66995162147994768986 0.17586095834351950229 1.06305633345943961743
C  -2.50721461222832919802 -3.60110911172643000100 0.61297497945516965512
C  1.85352377539312773713 -3.02051341305114995350 0.89710406424008881654
C  4.36577196934167766074 0.23022434129321070473 0.72517060885729955899
O  1.66907167957595858887 4.88692368085399930777 0.81124164518227925846
O  -3.08441362729646728624 2.81665904229748020882 1.56150817661108898271
O  -5.30102626309129565385 -1.10211608872167032835 0.99847272905182959946
O  -1.77848159054403920365 -4.80866574069801888669 0.42941785465123982757
O  3.21002454205557707922 -3.18580015958223006223 1.24237706618064924768
O  5.13256533557428618053 1.42782080075291051280 0.64399374126307928901
C  3.59066688938968736622 3.98044807994619054270 1.80950926664780875619
C  -0.89645500604576855430 1.89000615206742916818 1.74680470073063887071
C  -5.01952751177552602968 0.67278465397587872143 2.47922864883734828112
C  -3.43552903897644679176 -3.83876853711820009707 1.81094492657019912052
C  1.02780373685861881050 -3.05255631487953005276 2.17255950121327856550
C  4.63334413526010635564 -0.33982799439168964728 2.12582775292363868047
O  4.36587551677528651339 5.12623218609484077035 1.58164252684446804409
O  -1.34635178925135901018 1.75509148705510997779 2.99556395054215807150
O  -6.36137881605171440214 1.05950386521692951902 2.58358829301366776932
O  -4.39579169127993640842 -4.82015551998131019928 1.53892222940309930657
O  1.15961021883623871531 -1.88140208249342943958 2.80998166284474804044
O  5.97384117287688454212 -0.72056215651174970738 2.28104190831524888949
H  0.13224704601901035583 5.90028006910375868443 0.06179845111059995011
H  -5.02906546666553655456 3.26944512916705898320 1.32195973471651906372
H  -5.66005365569407548065 -2.74597562429162023179 -0.06617953327339991254
H  -0.37596333589037028711 -5.75629752710907105495 -0.61905323145201962554
H  5.07351651543867454563 -3.11302658157459832822 0.51127945807539909584
H  5.64867625842899290234 3.00541745320616016102 -0.46425305226986962603
H  2.01854436715261886803 6.06436711980527043409 -1.54656827692787923745
H  -3.84115196116301671481 5.32232493097132941529 0.73833328706388945406
H  -6.93123890356386596068 -0.87032777596413046783 -1.10908033325346933040
H  -2.33079476852577860413 -5.39901926729751036049 -2.10116728534805874418
H  3.97846078011181525369 -5.11278456573449080480 -0.51320329701895961438
H  6.65544385173537111910 0.99639818803564983440 -1.56359344794164911718
H  -0.44758121555990915130 5.54738430107657976009 -2.19514784185843891962
H  -4.99862717111371512857 4.04655674109809648797 -1.47877335682354948965
H  -4.87862214394077664537 -1.98151913903146037477 -2.69443521680572883881
H  0.17493009918405943992 -4.73959651674300985746 -2.77483024948440881730
H  4.66410798139857529776 -3.01874084232443751219 -2.26865624666724841063
H  4.64836089514038430792 2.34140600586418878848 -3.00041084851171824255
H  1.54098607645986906967 3.06283758725334953610 -1.87427115174566893963
H  -2.46085499425985743116 3.74585258222391859206 -1.49411825115310925582
H  -4.16019338913851743911 0.25205406388909978865 -1.74488235435312732946
H  -1.65150591338989927159 -2.43341514701178018854 -1.78743297510559906449
H  2.13072481812891645347 -3.06478741669444998408 -1.84269875172082908676
H  3.74246695990955480227 0.17505707611953005842 -2.01366769037927806352
H  2.36276715127818626172 4.34815172937626659433 -3.71377294779213817932
H  -2.81157367692486648281 6.10014489877917043259 -1.64421335474422902756
H  -6.09084081771053398313 0.69029656113981896493 -3.10886487380280840398
H  -2.66909052727224915813 -3.26592044166787065507 -3.80334705793696725706
H  2.58698386619235698447 -5.14749436802668913771 -2.89909019680832802379
H  5.49408568008983611008 -0.53311484335033920701 -3.50050276010526850712
H  4.02144260633307659702 4.43873977070721803528 -0.76158004326704964448
H  -1.33879622191689873212 4.69571097986318886086 1.19890805994787918998
H  -6.17413561112708553225 1.47410559342782954140 0.19007305348557004820
H  -4.09868189285289563628 -3.97092024710498758822 -0.80481580480895953400
H  1.40934724253084797674 -5.07071095687050732437 0.35457577458490985300
H  5.76955099277967686788 -1.16139533236291936369 -0.16672775541378001551
H  1.99677609145850842864 2.83976438078294002310 0.85744948004959942178
H  -2.03432580407637875197 1.97912333649938032565 -0.00933991151863993591
H  -3.58181057813990832983 0.04730107681938962305 0.97286818618691950356
H  -1.81875059986388909472 -2.77601408995254050893 0.84523606295103970165
H  1.70767087459974709063 -2.02632998237252959228 0.44167627387429975183
H  3.29684627784058648103 0.46242992506568020294 0.61428010446683900536
H  4.27684283934914866165 3.13377304722748029064 1.84096947029981894417
H  3.05499576615011703140 4.05618852724160117162 2.76325081195894650676
H  -4.79227452249524610295 -0.15173887546790032488 3.16617738075086840865
H  -4.40898511711660745505 1.53315883400238783807 2.74824849325204567663
H  -3.97170422031588721268 -2.91608560685773054999 2.03992773831826879061
H  -2.81226758138124921516 -4.12058300134711963381 2.66817818299924836012
H  4.35574918530906440850 0.42281946590956998033 2.86286040394648688689
H  4.02684838685082624465 -1.23311937246010971947 2.28407916476905814562
H  3.76320851633328734565 5.88246056441070930276 1.54085400740711886414
H  -6.90736717162538571557 0.28345440568049945496 2.39381796429284854355
H  -3.92388988794632753709 -5.64051884971686945391 1.33424427257381927880
H  6.51908788538571037918 0.06399434512467971903 2.12347478294185876280
C  0.26127497010885958328 -1.58912450335454979999 3.90285766255619792631
H  0.88951598116402896821 -1.18363696298226983572 4.68922404710705720277
H  -0.25570570590976021697 -2.48705044817073872565 4.23160082255163860765
O  0.34924840901390941106 -3.98334818409430990727 2.55358777221210875297
C  -0.58617522855173942453 0.84541176598609990567 3.79519962836908808512
H  -0.99939904616609909205 0.95260657278872973297 4.79784223568303769270
H  0.46887642779151966765 1.11663465419944030188 3.80502509435579794328
O  0.16237772092035962501 1.42572362705916000358 1.35186217851816903313
C  -0.72420064229639979914 -0.57561974826865003330 3.33162747555646809872
O  -1.53646263887656897573 -0.91508322368633943089 2.48476685153011844776
O  5.12016518841188084110 -3.80675011383641637153 3.06030596716629732512
H  4.25869305737139836054 -3.72293329273593265327 2.63580323223809243061
H  5.32062354544112547927 -2.90677049522949593197 3.34175791086644746741
O  -2.07739336173240829453 4.33352014407194108259 3.97883132084589563604
H  -2.35787845356035274946 3.79904446580360399821 3.22714925599252966393
H  -2.03711298227879344935 3.69888340896133804847 4.70338343691660476509
O  1.20861243434111176320 0.84716361011117102819 -2.45015501381522371460
H  1.47563441383520377315 -0.07837486559086279114 -2.48810045468183282935
H  0.38317580702480413812 0.86359757474617560025 -2.94789627442596335882
O  2.57954538705013813882 -5.94619569675729753300 2.93431070549187023033
H  2.65596581105262918854 -6.24703290143068468154 3.84700942856533290026
H  1.73718974537481085640 -5.47753390440847809373 2.92185435155271555629
O  7.29620667321037252862 3.05100343268505413974 1.44429872370218603805
H  7.01503845224758304511 2.20928903027048573193 1.06770429954158507790
H  6.76420353927246242876 3.12816771772275625807 2.24453643964550542123
O  -1.05493549403350583837 -0.20175112183925833498 -1.90578485440609046719
H  -1.23685437313731783071 -0.42092813198437378785 -0.98479135623696145707
H  -1.90977621469210645522 0.09335581160641551191 -2.23973290958756754421
O  0.40789638124594512769 4.85382894434815526097 3.72543848859718496058
H  0.01368879175008975990 4.49477322989597638525 2.92229377291796899030
H  0.03071683465176650030 4.30767446854185553917 4.42459007560179617968
O  1.21348797977724287556 -3.47827765770486418972 -4.92319011099401926401
H  1.25561636499323192595 -2.59985245536667353150 -4.52827692170230822200
H  0.26721009973673559568 -3.65151120294881614825 -4.98572311005507007309
O  -3.37744983416910260487 -0.80244443854341152012 5.02801316157645405980
H  -3.98342569205590901760 -0.66501468563138288470 5.76508058501425590947
H  -2.99943270180925969370 -1.67108239055839913334 5.20671184479757620522
O  -0.29409470751137145594 7.08250446257944599182 2.34081583065246645603
H  0.51752120379981159104 6.67959335556119793154 2.01171961923672348860
H  -0.39475462152669765770 6.69967646414601958327 3.21983367390094077365
163
Energy -1.849321
C  0.71130776615267965468 5.00482414727958069278 -0.19561568134503989902
C  -4.13784486848083687960 3.17739904325788646844 0.68958586950538958149
C  -5.17444863619361594687 -1.77393841750645009370 -0.21665732364067985527
C  -0.87384297371556018952 -4.77917785703500719308 -0.63719983279390968178
C  4.05339626216557658012 -3.03094590633414950887 0.11871533019796989827
C  5.04884681101444510176 2.09362244562296995198 -0.58404774284701976850
O  -0.12582766454131008582 3.86927617535052936759 -0.25997818896310981307
O  -4.31294268880552600365 2.22131748928795813569 -0.31126934222609969893
O  -3.82279935479500831974 -1.93070136534545921947 -0.57994872475585967919
O  0.05957377906125960187 -3.73642003081359996841 -0.49167570712067970584
O  3.83098722953195691687 -1.80990987403622982654 -0.51821454630126961849
O  3.72723448493223719069 2.39573122461048049203 -0.94081572077923947273
C  1.36673334302333859824 5.17738746353810963541 -1.57023401112807836633
C  -3.83082197195232687648 4.52142930134692022648 -0.00861440099554997007
C  -5.86696795055896558324 -0.98447702978594020529 -1.33884527976942946381
C  -1.61012054292363893104 -4.57805317038506043303 -1.97033050864001890723
C  3.77326160587263625956 -4.12352537948484876296 -0.93397915008777943058
C  5.59790018606635531029 1.22271087148065049632 -1.73017268935670931462
O  0.41249294889497961636 5.31215455814457548911 -2.59060683846512906925
O  -4.80930237402007687564 4.84002336366017882341 -0.95372222083172941698
O  -5.78582568311042511056 -1.64728677729911021643 -2.57023780092665665720
O  -0.73773614924839026052 -4.55082005612955775575 -3.06837569591808811964
O  4.60494108751403530277 -3.96622878976938064710 -2.04751294360803903771
O  5.51089034068398309074 1.89539249938175013988 -2.95590729180038813695
C  2.21877561653414900888 3.93091745157843019953 -1.83150699881148915082
C  -2.43703341709546794647 4.47105818176657887619 -0.66523693747410916899
C  -5.20475957224313479088 0.39731597485467984310 -1.42006973941786962534
C  -2.38127676782546915391 -3.25302065840269838404 -1.88850281771867911651
C  2.29083818924970739062 -4.03265794157949919452 -1.34196827120711925652
C  4.78374355357373559627 -0.07921556826066936119 -1.75652837800578920380
O  2.95978907701573756839 4.02999105522410960845 -3.02082727297879927164
O  -2.05802748860041750945 5.73612709045024526944 -1.15190620092513951178
O  -5.88058054611833469494 1.22747881263100988569 -2.32923887821376673912
O  -3.19127255102765827743 -3.04457554296714016928 -3.01769493583701819972
O  1.91775986910106821526 -5.08492791013237965814 -2.19872422703288883383
O  5.29532575127568527762 -1.00829228528355963057 -2.67980956684520821298
C  3.21669371315159757785 3.69387210059014980956 -0.69186082520354963421
C  -1.38795551033674868791 3.99685863851938982805 0.35420949320828976070
C  -5.16778178528489551269 1.11072336231340940138 -0.06149807731087994500
C  -3.29265555667351561553 -3.24033602237473994379 -0.65776494554374898005
C  1.38149539713368874061 -4.07715922342435987957 -0.10764441609134994815
C  4.77256626082026613744 -0.75675892258768917564 -0.38217592772181979699
C  2.55256396054111922567 3.77383000390614853359 0.69472730196528931224
C  -1.87658184279176842857 2.62959785738603990524 0.86959042675287956392
C  -4.66995162147994768986 0.17586095834351950229 1.06305633345943961743
C  -2.50721461222832919802 -3.60110911172643000100 0.61297497945516965512
C  1.85352377539312773713 -3.02051341305114995350 0.89710406424008881654
C  4.36577196934167766074 0.23022434129321070473 0.72517060885729955899
O  1.66907167957595858887 4.88692368085399930777 0.81124164518227925846
O  -3.08441362729646728624 2.81665904229748020882 1.56150817661108898271
O  -5.30102626309129565385 -1.10211608872167032835 0.99847272905182959946
O  -1.77848159054403920365 -4.80866574069801888669 0.42941785465123982757
O  3.21002454205557707922 -3.18580015958223006223 1.24237706618064924768
O  5.13256533557428618053 1.42782080075291051280 0.64399374126307928901
C  3.59066688938968736622 3.98044807994619054270 1.80950926664780875619
C  -0.89645500604576855430 1.89000615206742916818 1.74680470073063887071
C  -5.01952751177552602968 0.67278465397587872143 2.47922864883734828112
C  -3.43552903897644679176 -3.83876853711820009707 1.81094492657019912052
C  1.02780373685861881050 -3.05255631487953005276 2.17255950121327856550
C  4.63334413526010635564 -0.33982799439168964728 2.12582775292363868047
O  4.36587551677528651339 5.12623218609484077035 1.58164252684446804409
O  -1.34635178925135901018 1.75509148705510997779 2.99556395054215807150
O  -6.36137881605171440214 1.05950386521692951902 2.58358829301366776932
O  -4.39579169127993640842 -4.82015551998131019928 1.53892222940309930657
O  1.15961021883623871531 -1.88140208249342943958 2.80998166284474804044
O  5.97384117287688454212 -0.72056215651174970738 2.28104190831524888949
H  0.13224704601901035583 5.90028006910375868443 0.06179845111059995011
H  -5.02906546666553655456 3.26944512916705898320 1.32195973471651906372
H  -5.66005365569407548065 -2.74597562429162023179 -0.06617953327339991254
H  -0.37596333589037028711 -5.75629752710907105495 -0.61905323145201962554
H  5.07351651543867454563 -3.11302658157459832822 0.51127945807539909584
H  5.64867625842899290234 3.00541745320616016102 -0.46425305226986962603
H  2.01854436715261886803 6.06436711980527043409 -1.54656827692787923745
H  -3.84115196116301671481 5.32232493097132941529 0.73833328706388945406
H  -6.93123890356386596068 -0.87032777596413046783 -1.10908033325346933040
H  -2.33079476852577860413 -5.39901926729751036049 -2.10116728534805874418
H  3.97846078011181525369 -5.11278456573449080480 -0.51320329701895961438
H  6.65544385173537111910 0.99639818803564983440 -1.56359344794164911718
H  -0.44758121555990915130 5.54738430107657976009 -2.19514784185843891962
H  -4.99862717111371512857 4.04655674109809648797 -1.47877335682354948965
H  -4.87862214394077664537 -1.98151913903146037477 -2.69443521680572883881
H  0.17493009918405943992 -4.73959651674300985746 -2.77483024948440881730
H  4.66410798139857529776 -3.01874084232443751219 -2.26865624666724841063
H  4.64836089514038430792 2.34140600586418878848 -3.00041084851171824255
H  1.54098607645986906967 3.06283758725334953610 -1.87427115174566893963
H  -2.46085499425985743116 3.74585258222391859206 -1.49411825115310925582
H  -4.16019338913851743911 0.25205406388909978865 -1.74488235435312732946
H  -1.65150591338989927159 -2.43341514701178018854 -1.78743297510559906449
H  2.13072481812891645347 -3.06478741669444998408 -1.84269875172082908676
H  3.74246695990955480227 0.17505707611953005842 -2.01366769037927806352
H  2.36276715127818626172 4.34815172937626659433 -3.71377294779213817932
H  -2.81157367692486648281 6.10014489877917043259 -1.64421335474422902756
H  -6.09084081771053398313 0.69029656113981896493 -3.10886487380280840398
H  -2.66909052727224915813 -3.26592044166787065507 -3.80334705793696725706
H  2.58698386619235698447 -5.14749436802668913771 -2.89909019680832802379
H  5.49408568008983611008 -0.53311484335033920701 -3.50050276010526850712
H  4.02144260633307659702 4.43873977070721803528 -0.76158004326704964448
H  -1.33879622191689873212 4.69571097986318886086 1.19890805994787918998
H  -6.17413561112708553225 1.47410559342782954140 0.19007305348557004820
H  -4.09868189285289563628 -3.97092024710498758822 -0.80481580480895953400
H  1.40934724253084797674 -5.07071095687050732437 0.35457577458490985300
H  5.76955099277967686788 -1.16139533236291936369 -0.16672775541378001551
H  1.99677609145850842864 2.83976438078294002310 0.85744948004959942178
H  -2.03432580407637875197 1.97912333649938032565 -0.00933991151863993591
H  -3.58181057813990832983 0.04730107681938962305 0.97286818618691950356
H  -1.81875059986388909472 -2.77601408995254050893 0.84523606295103970165
H  1.70767087459974709063 -2.02632998237252959228 0.44167627387429975183
H  3.29684627784058648103 0.46242992506568020294 0.61428010446683900536
H  4.27684283934914866165 3.13377304722748029064 1.84096947029981894417
H  3.05499576615011703140 4.05618852724160117162 2.76325081195894650676
H  -4.79227452249524610295 -0.15173887546790032488 3.16617738075086840865
H  -4.40898511711660745505 1.53315883400238783807 2.74824849325204567663
H  -3.97170422031588721268 -2.91608560685773054999 2.03992773831826879061
H  -2.81226758138124921516 -4.12058300134711963381 2.66817818299924836012
H  4.35574918530906440850 0.42281946590956998033 2.86286040394648688689
H  4.02684838685082624465 -1.23311937246010971947 2.28407916476905814562
H  3.76320851633328734565 5.88246056441070930276 1.54085400740711886414
H  -6.90736717162538571557 0.28345440568049945496 2.39381796429284854355
H  -3.92388988794632753709 -5.64051884971686945391 1.33424427257381927880
H  6.51908788538571037918 0.06399434512467971903 2.12347478294185876280
C  0.26127497010885958328 -1.58912450335454979999 3.90285766255619792631
H  0.88951598116402896821 -1.18363696298226983572 4.68922404710705720277
H  -0.25570570590976021697 -2.48705044817073872565 4.23160082255163860765
O  0.34924840901390941106 -3.98334818409430990727 2.55358777221210875297
C  -0.58617522855173942453 0.84541176598609990567 3.79519962836908808512
H  -0.99939904616609909205 0.95260657278872973297 4.79784223568303769270
H  0.46887642779151966765 1.11663465419944030188 3.80502509435579794328
O  0.16237772092035962501 1.42572362705916000358 1.35186217851816903313
C  -0.72420064229639979914 -0.57561974826865003330 3.33162747555646809872
O  -1.53646263887656897573 -0.91508322368633943089 2.48476685153011844776
O  5.12016518841188084110 -3.80675011383641637153 3.06030596716629732512
H  4.25869305737139836054 -3.72293329273593265327 2.63580323223809243061
H  5.32062354544112547927 -2.90677049522949593197 3.34175791086644746741
O  -2.07739336173240829453 4.33352014407194108259 3.97883132084589563604
H  -2.35787845356035274946 3.79904446580360399821 3.22714925599252966393
H  -2.03711298227879344935 3.69888340896133804847 4.70338343691660476509
O  1.20861243434111176320 0.84716361011117102819 -2.45015501381522371460
H  1.47563441383520377315 -0.07837486559086279114 -2.48810045468183282935
H  0.38317580702480413812 0.86359757474617560025 -2.94789627442596335882
O  2.57954538705013813882 -5.94619569675729753300 2.93431070549187023033
H  2.65596581105262918854 -6.24703290143068468154 3.84700942856533290026
H  1.73718974537481085640 -5.47753390440847809373 2.92185435155271555629
O  7.29620667321037252862 3.05100343268505413974 1.44429872370218603805
H  7.01503845224758304511 2.20928903027048573193 1.06770429954158507790
H  6.76420353927246242876 3.12816771772275625807 2.24453643964550542123
O  -1.05493549403350583837 -0.20175112183925833498 -1.90578485440609046719
H  -1.23685437313731783071 -0.42092813198437378785 -0.98479135623696145707
H  -1.90977621469210645522 0.09335581160641551191 -2.23973290958756754421
O  0.40789638124594512769 4.85382894434815526097 3.72543848859718496058
H  0.01368879175008975990 4.49477322989597638525 2.92229377291796899030
H  0.03071683465176650030 4.30767446854185553917 4.42459007560179617968
O  1.21348797977724287556 -3.47827765770486418972 -4.92319011099401926401
H  1.25561636499323192595 -2.59985245536667353150 -4.52827692170230822200
H  0.26721009973673559568 -3.65151120294881614825 -4.98572311005507007309
O  -3.37744983416910171670 -0.80244443854341140909 5.02801316157645405980
H  -3.98342569205590901760 -0.66501468563138288470 5.76508058501425590947
H  -2.99943270180925969370 -1.67108239055839913334 5.20671184479757620522
O  -0.29409470751137145594 7.08250446257944599182 2.34081583065246645603
H  0.51752120379981159104 6.67959335556119793154 2.01171961923672348860
H  -0.39475462152669771321 6.69967646414601958327 3.21983367390093944138
O  -3.43295572661918058088 2.81287833768132777834 -3.73637328428638015865
H  -3.86438062166725648794 3.40821766400290737664 -4.35991615409412336390
H  -4.15948600299494675170 2.49865613529479757560 -3.18611859011283016230
166
Energy -1.568302
C  0.71130776615267965468 5.00482414727958069278 -0.19561568134503989902
C  -4.13784486848083687960 3.17739904325788646844 0.68958586950538958149
C  -5.17444863619361594687 -1.77393841750645009370 -0.21665732364067985527
C  -0.87384297371556018952 -4.77917785703500719308 -0.63719983279390968178
C  4.05339626216557658012 -3.03094590633414950887 0.11871533019796989827
C  5.04884681101444510176 2.09362244562296995198 -0.58404774284701976850
O  -0.12582766454131008582 3.86927617535052936759 -0.25997818896310981307
O  -4.31294268880552600365 2.22131748928795813569 -0.31126934222609969893
O  -3.82279935479500831974 -1.93070136534545921947 -0.57994872475585967919
O  0.05957377906125960187 -3.73642003081359996841 -0.49167570712067970584
O  3.83098722953195691687 -1.80990987403622982654 -0.51821454630126961849
O  3.72723448493223719069 2.39573122461048049203 -0.94081572077923947273
C  1.36673334302333859824 5.17738746353810963541 -1.57023401112807836633
C  -3.83082197195232687648 4.52142930134692022648 -0.00861440099554997007
C  -5.86696795055896558324 -0.98447702978594020529 -1.33884527976942946381
C  -1.61012054292363893104 -4.57805317038506043303 -1.97033050864001890723
C  3.77326160587263625956 -4.12352537948484876296 -0.93397915008777943058
C  5.59790018606635531029 1.22271087148065049632 -1.73017268935670931462
O  0.41249294889497961636 5.31215455814457548911 -2.59060683846512906925
O  -4.80930237402007687564 4.84002336366017882341 -0.95372222083172941698
O  -5.78582568311042511056 -1.64728677729911021643 -2.57023780092665665720
O  -0.73773614924839026052 -4.55082005612955775575 -3.06837569591808811964
O  4.60494108751403530277 -3.96622878976938064710 -2.04751294360803903771
O  5.51089034068398309074 1.89539249938175013988 -2.95590729180038813695
C  2.21877561653414900888 3.93091745157843019953 -1.83150699881148915082
C  -2.43703341709546794647 4.47105818176657887619 -0.66523693747410916899
C  -5.20475957224313479088 0.39731597485467984310 -1.42006973941786962534
C  -2.38127676782546915391 -3.25302065840269838404 -1.88850281771867911651
C  2.29083818924970739062 -4.03265794157949919452 -1.34196827120711925652
C  4.78374355357373559627 -0.07921556826066936119 -1.75652837800578920380
O  2.95978907701573756839 4.02999105522410960845 -3.02082727297879927164
O  -2.05802748860041750945 5.73612709045024526944 -1.15190620092513951178
O  -5.88058054611833469494 1.22747881263100988569 -2.32923887821376673912
O  -3.19127255102765827743 -3.04457554296714016928 -3.01769493583701819972
O  1.91775986910106821526 -5.08492791013237965814 -2.19872422703288883383
O  5.29532575127568527762 -1.00829228528355963057 -2.67980956684520821298
C  3.21669371315159757785 3.69387210059014980956 -0.69186082520354963421
C  -1.38795551033674868791 3.99685863851938982805 0.35420949320828976070
C  -5.16778178528489551269 1.11072336231340940138 -0.06149807731087994500
C  -3.29265555667351561553 -3.24033602237473994379 -0.65776494554374898005
C  1.38149539713368874061 -4.07715922342435987957 -0.10764441609134994815
C  4.77256626082026613744 -0.75675892258768917564 -0.38217592772181979699
C  2.55256396054111922567 3.77383000390614853359 0.69472730196528931224
C  -1.87658184279176842857 2.62959785738603990524 0.86959042675287956392
C  -4.66995162147994768986 0.17586095834351950229 1.06305633345943961743
C  -2.50721461222832919802 -3.60110911172643000100 0.61297497945516965512
C  1.85352377539312773713 -3.02051341305114995350 0.89710406424008881654
C  4.36577196934167766074 0.23022434129321070473 0.72517060885729955899
O  1.66907167957595858887 4.88692368085399930777 0.81124164518227925846
O  -3.08441362729646728624 2.81665904229748020882 1.56150817661108898271
O  -5.30102626309129565385 -1.10211608872167032835 0.99847272905182959946
O  -1.77848159054403920365 -4.80866574069801888669 0.42941785465123982757
O  3.21002454205557707922 -3.18580015958223006223 1.24237706618064924768
O  5.13256533557428618053 1.42782080075291051280 0.64399374126307928901
C  3.59066688938968736622 3.98044807994619054270 1.80950926664780875619
C  -0.89645500604576855430 1.89000615206742916818 1.74680470073063887071
C  -5.01952751177552602968 0.67278465397587872143 2.47922864883734828112
C  -3.43552903897644679176 -3.83876853711820009707 1.81094492657019912052
C  1.02780373685861881050 -3.05255631487953005276 2.17255950121327856550
C  4.63334413526010635564 -0.33982799439168964728 2.12582775292363868047
O  4.36587551677528651339 5.12623218609484077035 1.58164252684446804409
O  -1.34635178925135901018 1.75509148705510997779 2.99556395054215807150
O  -6.36137881605171440214 1.05950386521692951902 2.58358829301366776932
O  -4.39579169127993640842 -4.82015551998131019928 1.53892222940309930657
O  1.15961021883623871531 -1.88140208249342943958 2.80998166284474804044
O  5.97384117287688454212 -0.72056215651174970738 2.28104190831524888949
H  0.13224704601901035583 5.90028006910375868443 0.06179845111059995011
H  -5.02906546666553655456 3.26944512916705898320 1.32195973471651906372
H  -5.66005365569407548065 -2.74597562429162023179 -0.06617953327339991254
H  -0.37596333589037028711 -5.75629752710907105495 -0.61905323145201962554
H  5.07351651543867454563 -3.11302658157459832822 0.51127945807539909584
H  5.64867625842899290234 3.00541745320616016102 -0.46425305226986962603
H  2.01854436715261886803 6.06436711980527043409 -1.54656827692787923745
H  -3.84115196116301671481 5.32232493097132941529 0.73833328706388945406
H  -6.93123890356386596068 -0.87032777596413046783 -1.10908033325346933040
H  -2.33079476852577860413 -5.39901926729751036049 -2.10116728534805874418
H  3.97846078011181525369 -5.11278456573449080480 -0.51320329701895961438
H  6.65544385173537111910 0.99639818803564983440 -1.56359344794164911718
H  -0.44758121555990915130 5.54738430107657976009 -2.19514784185843891962
H  -4.99862717111371512857 4.04655674109809648797 -1.47877335682354948965
H  -4.87862214394077664537 -1.98151913903146037477 -2.69443521680572883881
H  0.17493009918405943992 -4.73959651674300985746 -2.77483024948440881730
H  4.66410798139857529776 -3.01874084232443751219 -2.26865624666724841063
H  4.64836089514038430792 2.34140600586418878848 -3.00041084851171824255
H  1.54098607645986906967 3.06283758725334953610 -1.87427115174566893963
H  -2.46085499425985743116 3.74585258222391859206 -1.49411825115310925582
H  -4.16019338913851743911 0.25205406388909978865 -1.74488235435312732946
H  -1.65150591338989927159 -2.43341514701178018854 -1.78743297510559906449
H  2.13072481812891645347 -3.06478741669444998408 -1.84269875172082908676
H  3.74246695990955480227 0.17505707611953005842 -2.01366769037927806352
H  2.36276715127818626172 4.34815172937626659433 -3.71377294779213817932
H  -2.81157367692486648281 6.10014489877917043259 -1.64421335474422902756
H  -6.09084081771053398313 0.69029656113981896493 -3.10886487380280840398
H  -2.66909052727224915813 -3.26592044166787065507 -3.80334705793696725706
H  2.58698386619235698447 -5.14749436802668913771 -2.89909019680832802379
H  5.49408568008983611008 -0.53311484335033920701 -3.50050276010526850712
H  4.02144260633307659702 4.43873977070721803528 -0.76158004326704964448
H  -1.33879622191689873212 4.69571097986318886086 1.19890805994787918998
H  -6.17413561112708553225 1.47410559342782954140 0.19007305348557004820
H  -4.09868189285289563628 -3.97092024710498758822 -0.80481580480895953400
H  1.40934724253084797674 -5.07071095687050732437 0.35457577458490985300
H  5.76955099277967686788 -1.16139533236291936369 -0.16672775541378001551
H  1.99677609145850842864 2.83976438078294002310 0.85744948004959942178
H  -2.03432580407637875197 1.97912333649938032565 -0.00933991151863993591
H  -3.58181057813990832983 0.04730107681938962305 0.97286818618691950356
H  -1.81875059986388909472 -2.77601408995254050893 0.84523606295103970165
H  1.70767087459974709063 -2.02632998237252959228 0.44167627387429975183
H  3.29684627784058648103 0.46242992506568020294 0.61428010446683900536
H  4.27684283934914866165 3.13377304722748029064 1.84096947029981894417
H  3.05499576615011703140 4.05618852724160117162 2.76325081195894650676
H  -4.79227452249524610295 -0.15173887546790032488 3.16617738075086840865
H  -4.40898511711660745505 1.53315883400238783807 2.74824849325204567663
H  -3.97170422031588721268 -2.91608560685773054999 2.03992773831826879061
H  -2.81226758138124921516 -4.12058300134711963381 2.66817818299924836012
H  4.35574918530906440850 0.42281946590956998033 2.86286040394648688689
H  4.02684838685082624465 -1.23311937246010971947 2.28407916476905814562
H  3.76320851633328734565 5.88246056441070930276 1.54085400740711886414
H  -6.90736717162538571557 0.28345440568049945496 2.39381796429284854355
H  -3.92388988794632753709 -5.64051884971686945391 1.33424427257381927880
H  6.51908788538571037918 0.06399434512467971903 2.12347478294185876280
C  0.26127497010885958328 -1.58912450335454979999 3.90285766255619792631
H  0.88951598116402896821 -1.18363696298226983572 4.68922404710705720277
H  -0.25570570590976021697 -2.48705044817073872565 4.23160082255163860765
O  0.34924840901390941106 -3.98334818409430990727 2.55358777221210875297
C  -0.58617522855173942453 0.84541176598609990567 3.79519962836908808512
H  -0.99939904616609909205 0.95260657278872973297 4.79784223568303769270
H  0.46887642779151966765 1.11663465419944030188 3.80502509435579794328
O  0.16237772092035962501 1.42572362705916000358 1.35186217851816903313
C  -0.72420064229639979914 -0.57561974826865003330 3.33162747555646809872
O  -1.53646263887656897573 -0.91508322368633943089 2.48476685153011844776
O  5.12016518841188084110 -3.80675011383641637153 3.06030596716629732512
H  4.25869305737139836054 -3.72293329273593265327 2.63580323223809243061
H  5.32062354544112547927 -2.90677049522949593197 3.34175791086644746741
O  -2.07739336173240829453 4.33352014407194108259 3.97883132084589563604
H  -2.35787845356035274946 3.79904446580360399821 3.22714925599252966393
H  -2.03711298227879344935 3.69888340896133804847 4.70338343691660476509
O  1.20861243434111176320 0.84716361011117102819 -2.45015501381522371460
H  1.47563441383520377315 -0.07837486559086279114 -2.48810045468183282935
H  0.38317580702480413812 0.86359757474617560025 -2.94789627442596335882
O  2.57954538705013813882 -5.94619569675729753300 2.93431070549187023033
H  2.65596581105262918854 -6.24703290143068468154 3.84700942856533290026
H  1.73718974537481085640 -5.47753390440847809373 2.92185435155271555629
O  7.29620667321037252862 3.05100343268505413974 1.44429872370218603805
H  7.01503845224758304511 2.20928903027048573193 1.06770429954158507790
H  6.76420353927246242876 3.12816771772275625807 2.24453643964550542123
O  -1.05493549403350583837 -0.20175112183925833498 -1.90578485440609046719
H  -1.23685437313731783071 -0.42092813198437378785 -0.98479135623696145707
H  -1.90977621469210645522 0.09335581160641551191 -2.23973290958756754421
O  0.40789638124594512769 4.85382894434815526097 3.72543848859718496058
H  0.01368879175008975990 4.49477322989597638525 2.92229377291796899030
H  0.03071683465176650030 4.30767446854185553917 4.42459007560179617968
O  1.21348797977724287556 -3.47827765770486418972 -4.92319011099401926401
H  1.25561636499323192595 -2.59985245536667353150 -4.52827692170230822200
H  0.26721009973673559568 -3.65151120294881614825 -4.98572311005507007309
O  -3.37744983416910171670 -0.80244443854341140909 5.02801316157645405980
H  -3.98342569205590901760 -0.66501468563138288470 5.76508058501425590947
H  -2.99943270180925969370 -1.67108239055839913334 5.20671184479757620522
O  -0.29409470751137145594 7.08250446257944599182 2.34081583065246645603
H  0.51752120379981159104 6.67959335556119793154 2.01171961923672348860
H  -0.39475462152669771321 6.69967646414601958327 3.21983367390093944138
O  -3.43295572661918013679 2.81287833768132644607 -3.73637328428637882638
H  -3.86438062166725604385 3.40821766400290604437 -4.35991615409412336390
H  -4.15948600299494675170 2.49865613529479757560 -3.18611859011283016230
O  1.35024310655608803522 2.97177396900470869312 -4.84512104697737200354
H  1.75484819780610590279 2.33269820340351374810 -4.24742635068489171601
H  0.40538034146273999037 2.85284786628234776629 -4.69527779335967299090
169
Energy -1.255737
C  0.71130776615267965468 5.00482414727958069278 -0.19561568134503989902
C  -4.13784486848083687960 3.17739904325788646844 0.68958586950538958149
C  -5.17444863619361594687 -1.77393841750645009370 -0.21665732364067985527
C  -0.87384297371556018952 -4.77917785703500719308 -0.63719983279390968178
C  4.05339626216557658012 -3.03094590633414950887 0.11871533019796989827
C  5.04884681101444510176 2.09362244562296995198 -0.58404774284701976850
O  -0.12582766454131008582 3.86927617535052936759 -0.25997818896310981307
O  -4.31294268880552600365 2.22131748928795813569 -0.31126934222609969893
O  -3.82279935479500831974 -1.93070136534545921947 -0.57994872475585967919
O  0.05957377906125960187 -3.73642003081359996841 -0.49167570712067970584
O  3.83098722953195691687 -1.80990987403622982654 -0.51821454630126961849
O  3.72723448493223719069 2.39573122461048049203 -0.94081572077923947273
C  1.36673334302333859824 5.17738746353810963541 -1.57023401112807836633
C  -3.83082197195232687648 4.52142930134692022648 -0.00861440099554997007
C  -5.86696795055896558324 -0.98447702978594020529 -1.33884527976942946381
C  -1.61012054292363893104 -4.57805317038506043303 -1.97033050864001890723
C  3.77326160587263625956 -4.12352537948484876296 -0.93397915008777943058
C  5.59790018606635531029 1.22271087148065049632 -1.73017268935670931462
O  0.41249294889497961636 5.31215455814457548911 -2.59060683846512906925
O  -4.80930237402007687564 4.84002336366017882341 -0.95372222083172941698
O  -5.78582568311042511056 -1.64728677729911021643 -2.57023780092665665720
O  -0.73773614924839026052 -4.55082005612955775575 -3.06837569591808811964
O  4.60494108751403530277 -3.96622878976938064710 -2.04751294360803903771
O  5.51089034068398309074 1.89539249938175013988 -2.95590729180038813695
C  2.21877561653414900888 3.93091745157843019953 -1.83150699881148915082
C  -2.43703341709546794647 4.47105818176657887619 -0.66523693747410916899
C  -5.20475957224313479088 0.39731597485467984310 -1.42006973941786962534
C  -2.38127676782546915391 -3.25302065840269838404 -1.88850281771867911651
C  2.29083818924970739062 -4.03265794157949919452 -1.34196827120711925652
C  4.78374355357373559627 -0.07921556826066936119 -1.75652837800578920380
O  2.95978907701573756839 4.02999105522410960845 -3.02082727297879927164
O  -2.05802748860041750945 5.73612709045024526944 -1.15190620092513951178
O  -5.88058054611833469494 1.22747881263100988569 -2.32923887821376673912
O  -3.19127255102765827743 -3.04457554296714016928 -3.01769493583701819972
O  1.91775986910106821526 -5.08492791013237965814 -2.19872422703288883383
O  5.29532575127568527762 -1.00829228528355963057 -2.67980956684520821298
C  3.21669371315159757785 3.69387210059014980956 -0.69186082520354963421
C  -1.38795551033674868791 3.99685863851938982805 0.35420949320828976070
C  -5.16778178528489551269 1.11072336231340940138 -0.06149807731087994500
C  -3.29265555667351561553 -3.24033602237473994379 -0.65776494554374898005
C  1.38149539713368874061 -4.07715922342435987957 -0.10764441609134994815
C  4.77256626082026613744 -0.75675892258768917564 -0.38217592772181979699
C  2.55256396054111922567 3.77383000390614853359 0.69472730196528931224
C  -1.87658184279176842857 2.62959785738603990524 0.86959042675287956392
C  -4.66995162147994768986 0.17586095834351950229 1.06305633345943961743
C  -2.50721461222832919802 -3.60110911172643000100 0.61297497945516965512
C  1.85352377539312773713 -3.02051341305114995350 0.89710406424008881654
C  4.36577196934167766074 0.23022434129321070473 0.72517060885729955899
O  1.66907167957595858887 4.88692368085399930777 0.81124164518227925846
O  -3.08441362729646728624 2.81665904229748020882 1.56150817661108898271
O  -5.30102626309129565385 -1.10211608872167032835 0.99847272905182959946
O  -1.77848159054403920365 -4.80866574069801888669 0.42941785465123982757
O  3.21002454205557707922 -3.18580015958223006223 1.24237706618064924768
O  5.13256533557428618053 1.42782080075291051280 0.64399374126307928901
C  3.59066688938968736622 3.98044807994619054270 1.80950926664780875619
C  -0.89645500604576855430 1.89000615206742916818 1.74680470073063887071
C  -5.01952751177552602968 0.67278465397587872143 2.47922864883734828112
C  -3.43552903897644679176 -3.83876853711820009707 1.81094492657019912052
C  1.02780373685861881050 -3.05255631487953005276 2.17255950121327856550
C  4.63334413526010635564 -0.33982799439168964728 2.12582775292363868047
O  4.36587551677528651339 5.12623218609484077035 1.58164252684446804409
O  -1.34635178925135901018 1.75509148705510997779 2.99556395054215807150
O  -6.36137881605171440214 1.05950386521692951902 2.58358829301366776932
O  -4.39579169127993640842 -4.82015551998131019928 1.53892222940309930657
O  1.15961021883623871531 -1.88140208249342943958 2.80998166284474804044
O  5.97384117287688454212 -0.72056215651174970738 2.28104190831524888949
H  0.13224704601901035583 5.90028006910375868443 0.06179845111059995011
H  -5.02906546666553655456 3.26944512916705898320 1.32195973471651906372
H  -5.66005365569407548065 -2.74597562429162023179 -0.06617953327339991254
H  -0.37596333589037028711 -5.75629752710907105495 -0.61905323145201962554
H  5.07351651543867454563 -3.11302658157459832822 0.51127945807539909584
H  5.64867625842899290234 3.00541745320616016102 -0.46425305226986962603
H  2.01854436715261886803 6.06436711980527043409 -1.54656827692787923745
H  -3.84115196116301671481 5.32232493097132941529 0.73833328706388945406
H  -6.93123890356386596068 -0.87032777596413046783 -1.10908033325346933040
H  -2.33079476852577860413 -5.39901926729751036049 -2.10116728534805874418
H  3.97846078011181525369 -5.11278456573449080480 -0.51320329701895961438
H  6.65544385173537111910 0.99639818803564983440 -1.56359344794164911718
H  -0.44758121555990915130 5.54738430107657976009 -2.19514784185843891962
H  -4.99862717111371512857 4.04655674109809648797 -1.47877335682354948965
H  -4.87862214394077664537 -1.98151913903146037477 -2.69443521680572883881
H  0.17493009918405943992 -4.73959651674300985746 -2.77483024948440881730
H  4.66410798139857529776 -3.01874084232443751219 -2.26865624666724841063
H  4.64836089514038430792 2.34140600586418878848 -3.00041084851171824255
H  1.54098607645986906967 3.06283758725334953610 -1.87427115174566893963
H  -2.46085499425985743116 3.74585258222391859206 -1.49411825115310925582
H  -4.16019338913851743911 0.25205406388909978865 -1.74488235435312732946
H  -1.65150591338989927159 -2.43341514701178018854 -1.78743297510559906449
H  2.13072481812891645347 -3.06478741669444998408 -1.84269875172082908676
H  3.74246695990955480227 0.17505707611953005842 -2.01366769037927806352
H  2.36276715127818626172 4.34815172937626659433 -3.71377294779213817932
H  -2.81157367692486648281 6.10014489877917043259 -1.64421335474422902756
H  -6.09084081771053398313 0.69029656113981896493 -3.10886487380280840398
H  -2.66909052727224915813 -3.26592044166787065507 -3.80334705793696725706
H  2.58698386619235698447 -5.14749436802668913771 -2.89909019680832802379
H  5.49408568008983611008 -0.53311484335033920701 -3.50050276010526850712
H  4.02144260633307659702 4.43873977070721803528 -0.76158004326704964448
H  -1.33879622191689873212 4.69571097986318886086 1.19890805994787918998
H  -6.17413561112708553225 1.47410559342782954140 0.19007305348557004820
H  -4.09868189285289563628 -3.97092024710498758822 -0.80481580480895953400
H  1.40934724253084797674 -5.07071095687050732437 0.35457577458490985300
H  5.76955099277967686788 -1.16139533236291936369 -0.16672775541378001551
H  1.99677609145850842864 2.83976438078294002310 0.85744948004959942178
H  -2.03432580407637875197 1.97912333649938032565 -0.00933991151863993591
H  -3.58181057813990832983 0.04730107681938962305 0.97286818618691950356
H  -1.81875059986388909472 -2.77601408995254050893 0.84523606295103970165
H  1.70767087459974709063 -2.02632998237252959228 0.44167627387429975183
H  3.29684627784058648103 0.46242992506568020294 0.61428010446683900536
H  4.27684283934914866165 3.13377304722748029064 1.84096947029981894417
H  3.05499576615011703140 4.05618852724160117162 2.76325081195894650676
H  -4.79227452249524610295 -0.15173887546790032488 3.16617738075086840865
H  -4.40898511711660745505 1.53315883400238783807 2.74824849325204567663
H  -3.97170422031588721268 -2.91608560685773054999 2.03992773831826879061
H  -2.81226758138124921516 -4.12058300134711963381 2.66817818299924836012
H  4.35574918530906440850 0.42281946590956998033 2.86286040394648688689
H  4.02684838685082624465 -1.23311937246010971947 2.28407916476905814562
H  3.76320851633328734565 5.88246056441070930276 1.54085400740711886414
H  -6.90736717162538571557 0.28345440568049945496 2.39381796429284854355
H  -3.92388988794632753709 -5.64051884971686945391 1.33424427257381927880
H  6.51908788538571037918 0.06399434512467971903 2.12347478294185876280
C  0.26127497010885958328 -1.58912450335454979999 3.90285766255619792631
H  0.88951598116402896821 -1.18363696298226983572 4.68922404710705720277
H  -0.25570570590976021697 -2.48705044817073872565 4.23160082255163860765
O  0.34924840901390941106 -3.98334818409430990727 2.55358777221210875297
C  -0.58617522855173942453 0.84541176598609990567 3.79519962836908808512
H  -0.99939904616609909205 0.95260657278872973297 4.79784223568303769270
H  0.46887642779151966765 1.11663465419944030188 3.80502509435579794328
O  0.16237772092035962501 1.42572362705916000358 1.35186217851816903313
C  -0.72420064229639979914 -0.57561974826865003330 3.33162747555646809872
O  -1.53646263887656897573 -0.91508322368633943089 2.48476685153011844776
O  5.12016518841188084110 -3.80675011383641637153 3.06030596716629732512
H  4.25869305737139836054 -3.72293329273593265327 2.63580323223809243061
H  5.32062354544112547927 -2.90677049522949593197 3.34175791086644746741
O  -2.07739336173240829453 4.33352014407194108259 3.97883132084589563604
H  -2.35787845356035274946 3.79904446580360399821 3.22714925599252966393
H  -2.03711298227879344935 3.69888340896133804847 4.70338343691660476509
O  1.20861243434111176320 0.84716361011117102819 -2.45015501381522371460
H  1.47563441383520377315 -0.07837486559086279114 -2.48810045468183282935
H  0.38317580702480413812 0.86359757474617560025 -2.94789627442596335882
O  2.57954538705013813882 -5.94619569675729753300 2.93431070549187023033
H  2.65596581105262918854 -6.24703290143068468154 3.84700942856533290026
H  1.73718974537481085640 -5.47753390440847809373 2.92185435155271555629
O  7.29620667321037252862 3.05100343268505413974 1.44429872370218603805
H  7.01503845224758304511 2.20928903027048573193 1.06770429954158507790
H  6.76420353927246242876 3.12816771772275625807 2.24453643964550542123
O  -1.05493549403350583837 -0.20175112183925833498 -1.90578485440609046719
H  -1.23685437313731783071 -0.42092813198437378785 -0.98479135623696145707
H  -1.90977621469210645522 0.09335581160641551191 -2.23973290958756754421
O  0.40789638124594512769 4.85382894434815526097 3.72543848859718496058
H  0.01368879175008975990 4.49477322989597638525 2.92229377291796899030
H  0.03071683465176650030 4.30767446854185553917 4.42459007560179617968
O  1.21348797977724287556 -3.47827765770486418972 -4.92319011099401926401
H  1.25561636499323192595 -2.59985245536667353150 -4.52827692170230822200
H  0.26721009973673559568 -3.65151120294881614825 -4.98572311005507007309
O  -3.37744983416910171670 -0.80244443854341140909 5.02801316157645405980
H  -3.98342569205590901760 -0.66501468563138288470 5.76508058501425590947
H  -2.99943270180925969370 -1.67108239055839913334 5.20671184479757620522
O  -0.29409470751137145594 7.08250446257944599182 2.34081583065246645603
H  0.51752120379981159104 6.67959335556119793154 2.01171961923672348860
H  -0.39475462152669771321 6.69967646414601958327 3.21983367390093944138
O  -3.43295572661918013679 2.81287833768132600198 -3.73637328428637882638
H  -3.86438062166725604385 3.40821766400290560028 -4.35991615409412336390
H  -4.15948600299494675170 2.49865613529479757560 -3.18611859011283016230
O  1.35024310655608803522 2.97177396900470869312 -4.84512104697737200354
H  1.75484819780610545870 2.33269820340351374810 -4.24742635068489171601
H  0.40538034146273999037 2.85284786628234776629 -4.69527779335967210272
O  0.18322687505456614065 -6.60190669290909060152 2.15079632328284464649
H  -0.09082779438799912231 -5.87151553977062601319 1.58441759346140997877
H  -0.37141095595953899089 -7.33395350912017729428 1.85780076238388747178
172
Energy -1.480862
C  0.71130776615267965468 5.00482414727958069278 -0.19561568134503989902
C  -4.13784486848083687960 3.17739904325788646844 0.68958586950538958149
C  -5.17444863619361594687 -1.77393841750645009370 -0.21665732364067985527
C  -0.87384297371556018952 -4.77917785703500719308 -0.63719983279390968178
C  4.05339626216557658012 -3.03094590633414950887 0.11871533019796989827
C  5.04884681101444510176 2.09362244562296995198 -0.58404774284701976850
O  -0.12582766454131008582 3.86927617535052936759 -0.25997818896310981307
O  -4.31294268880552600365 2.22131748928795813569 -0.31126934222609969893
O  -3.82279935479500831974 -1.93070136534545921947 -0.57994872475585967919
O  0.05957377906125960187 -3.73642003081359996841 -0.49167570712067970584
O  3.83098722953195691687 -1.80990987403622982654 -0.51821454630126961849
O  3.72723448493223719069 2.39573122461048049203 -0.94081572077923947273
C  1.36673334302333859824 5.17738746353810963541 -1.57023401112807836633
C  -3.83082197195232687648 4.52142930134692022648 -0.00861440099554997007
C  -5.86696795055896558324 -0.98447702978594020529 -1.33884527976942946381
C  -1.61012054292363893104 -4.57805317038506043303 -1.97033050864001890723
C  3.77326160587263625956 -4.12352537948484876296 -0.93397915008777943058
C  5.59790018606635531029 1.22271087148065049632 -1.73017268935670931462
O  0.41249294889497961636 5.31215455814457548911 -2.59060683846512906925
O  -4.80930237402007687564 4.84002336366017882341 -0.95372222083172941698
O  -5.78582568311042511056 -1.64728677729911021643 -2.57023780092665665720
O  -0.73773614924839026052 -4.55082005612955775575 -3.06837569591808811964
O  4.60494108751403530277 -3.96622878976938064710 -2.04751294360803903771
O  5.51089034068398309074 1.89539249938175013988 -2.95590729180038813695
C  2.21877561653414900888 3.93091745157843019953 -1.83150699881148915082
C  -2.43703341709546794647 4.47105818176657887619 -0.66523693747410916899
C  -5.20475957224313479088 0.39731597485467984310 -1.42006973941786962534
C  -2.38127676782546915391 -3.25302065840269838404 -1.88850281771867911651
C  2.29083818924970739062 -4.03265794157949919452 -1.34196827120711925652
C  4.78374355357373559627 -0.07921556826066936119 -1.75652837800578920380
O  2.95978907701573756839 4.02999105522410960845 -3.02082727297879927164
O  -2.05802748860041750945 5.73612709045024526944 -1.15190620092513951178
O  -5.88058054611833469494 1.22747881263100988569 -2.32923887821376673912
O  -3.19127255102765827743 -3.04457554296714016928 -3.01769493583701819972
O  1.91775986910106821526 -5.08492791013237965814 -2.19872422703288883383
O  5.29532575127568527762 -1.00829228528355963057 -2.67980956684520821298
C  3.21669371315159757785 3.69387210059014980956 -0.69186082520354963421
C  -1.38795551033674868791 3.99685863851938982805 0.35420949320828976070
C  -5.16778178528489551269 1.11072336231340940138 -0.06149807731087994500
C  -3.29265555667351561553 -3.24033602237473994379 -0.65776494554374898005
C  1.38149539713368874061 -4.07715922342435987957 -0.10764441609134994815
C  4.77256626082026613744 -0.75675892258768917564 -0.38217592772181979699
C  2.55256396054111922567 3.77383000390614853359 0.69472730196528931224
C  -1.87658184279176842857 2.62959785738603990524 0.86959042675287956392
C  -4.66995162147994768986 0.17586095834351950229 1.06305633345943961743
C  -2.50721461222832919802 -3.60110911172643000100 0.61297497945516965512
C  1.85352377539312773713 -3.02051341305114995350 0.89710406424008881654
C  4.36577196934167766074 0.23022434129321070473 0.72517060885729955899
O  1.66907167957595858887 4.88692368085399930777 0.81124164518227925846
O  -3.08441362729646728624 2.81665904229748020882 1.56150817661108898271
O  -5.30102626309129565385 -1.10211608872167032835 0.99847272905182959946
O  -1.77848159054403920365 -4.80866574069801888669 0.42941785465123982757
O  3.21002454205557707922 -3.18580015958223006223 1.24237706618064924768
O  5.13256533557428618053 1.42782080075291051280 0.64399374126307928901
C  3.59066688938968736622 3.98044807994619054270 1.80950926664780875619
C  -0.89645500604576855430 1.89000615206742916818 1.74680470073063887071
C  -5.01952751177552602968 0.67278465397587872143 2.47922864883734828112
C  -3.43552903897644679176 -3.83876853711820009707 1.81094492657019912052
C  1.02780373685861881050 -3.05255631487953005276 2.17255950121327856550
C  4.63334413526010635564 -0.33982799439168964728 2.12582775292363868047
O  4.36587551677528651339 5.12623218609484077035 1.58164252684446804409
O  -1.34635178925135901018 1.75509148705510997779 2.99556395054215807150
O  -6.36137881605171440214 1.05950386521692951902 2.58358829301366776932
O  -4.39579169127993640842 -4.82015551998131019928 1.53892222940309930657
O  1.15961021883623871531 -1.88140208249342943958 2.80998166284474804044
O  5.97384117287688454212 -0.72056215651174970738 2.28104190831524888949
H  0.13224704601901035583 5.90028006910375868443 0.06179845111059995011
H  -5.02906546666553655456 3.26944512916705898320 1.32195973471651906372
H  -5.66005365569407548065 -2.74597562429162023179 -0.06617953327339991254
H  -0.37596333589037028711 -5.75629752710907105495 -0.61905323145201962554
H  5.07351651543867454563 -3.11302658157459832822 0.51127945807539909584
H  5.64867625842899290234 3.00541745320616016102 -0.46425305226986962603
H  2.01854436715261886803 6.06436711980527043409 -1.54656827692787923745
H  -3.84115196116301671481 5.32232493097132941529 0.73833328706388945406
H  -6.93123890356386596068 -0.87032777596413046783 -1.10908033325346933040
H  -2.33079476852577860413 -5.39901926729751036049 -2.10116728534805874418
H  3.97846078011181525369 -5.11278456573449080480 -0.51320329701895961438
H  6.65544385173537111910 0.99639818803564983440 -1.56359344794164911718
H  -0.44758121555990915130 5.54738430107657976009 -2.19514784185843891962
H  -4.99862717111371512857 4.04655674109809648797 -1.47877335682354948965
H  -4.87862214394077664537 -1.98151913903146037477 -2.69443521680572883881
H  0.17493009918405943992 -4.73959651674300985746 -2.77483024948440881730
H  4.66410798139857529776 -3.01874084232443751219 -2.26865624666724841063
H  4.64836089514038430792 2.34140600586418878848 -3.00041084851171824255
H  1.54098607645986906967 3.06283758725334953610 -1.87427115174566893963
H  -2.46085499425985743116 3.74585258222391859206 -1.49411825115310925582
H  -4.16019338913851743911 0.25205406388909978865 -1.74488235435312732946
H  -1.65150591338989927159 -2.43341514701178018854 -1.78743297510559906449
H  2.13072481812891645347 -3.06478741669444998408 -1.84269875172082908676
H  3.74246695990955480227 0.17505707611953005842 -2.01366769037927806352
H  2.36276715127818626172 4.34815172937626659433 -3.71377294779213817932
H  -2.81157367692486648281 6.10014489877917043259 -1.64421335474422902756
H  -6.09084081771053398313 0.69029656113981896493 -3.10886487380280840398
H  -2.66909052727224915813 -3.26592044166787065507 -3.80334705793696725706
H  2.58698386619235698447 -5.14749436802668913771 -2.89909019680832802379
H  5.49408568008983611008 -0.53311484335033920701 -3.50050276010526850712
H  4.02144260633307659702 4.43873977070721803528 -0.76158004326704964448
H  -1.33879622191689873212 4.69571097986318886086 1.19890805994787918998
H  -6.17413561112708553225 1.47410559342782954140 0.19007305348557004820
H  -4.09868189285289563628 -3.97092024710498758822 -0.80481580480895953400
H  1.40934724253084797674 -5.07071095687050732437 0.35457577458490985300
H  5.76955099277967686788 -1.16139533236291936369 -0.16672775541378001551
H  1.99677609145850842864 2.83976438078294002310 0.85744948004959942178
H  -2.03432580407637875197 1.97912333649938032565 -0.00933991151863993591
H  -3.58181057813990832983 0.04730107681938962305 0.97286818618691950356
H  -1.81875059986388909472 -2.77601408995254050893 0.84523606295103970165
H  1.70767087459974709063 -2.02632998237252959228 0.44167627387429975183
H  3.29684627784058648103 0.46242992506568020294 0.61428010446683900536
H  4.27684283934914866165 3.13377304722748029064 1.84096947029981894417
H  3.05499576615011703140 4.05618852724160117162 2.76325081195894650676
H  -4.79227452249524610295 -0.15173887546790032488 3.16617738075086840865
H  -4.40898511711660745505 1.53315883400238783807 2.74824849325204567663
H  -3.97170422031588721268 -2.91608560685773054999 2.03992773831826879061
H  -2.81226758138124921516 -4.12058300134711963381 2.66817818299924836012
H  4.35574918530906440850 0.42281946590956998033 2.86286040394648688689
H  4.02684838685082624465 -1.23311937246010971947 2.28407916476905814562
H  3.76320851633328734565 5.88246056441070930276 1.54085400740711886414
H  -6.90736717162538571557 0.28345440568049945496 2.39381796429284854355
H  -3.92388988794632753709 -5.64051884971686945391 1.33424427257381927880
H  6.51908788538571037918 0.06399434512467971903 2.12347478294185876280
C  0.26127497010885958328 -1.58912450335454979999 3.90285766255619792631
H  0.88951598116402896821 -1.18363696298226983572 4.68922404710705720277
H  -0.25570570590976021697 -2.48705044817073872565 4.23160082255163860765
O  0.34924840901390941106 -3.98334818409430990727 2.55358777221210875297
C  -0.58617522855173942453 0.84541176598609990567 3.79519962836908808512
H  -0.99939904616609909205 0.95260657278872973297 4.79784223568303769270
H  0.46887642779151966765 1.11663465419944030188 3.80502509435579794328
O  0.16237772092035962501 1.42572362705916000358 1.35186217851816903313
C  -0.72420064229639979914 -0.57561974826865003330 3.33162747555646809872
O  -1.53646263887656897573 -0.91508322368633943089 2.48476685153011844776
O  5.12016518841188084110 -3.80675011383641637153 3.06030596716629732512
H  4.25869305737139836054 -3.72293329273593265327 2.63580323223809243061
H  5.32062354544112547927 -2.90677049522949593197 3.34175791086644746741
O  -2.07739336173240829453 4.33352014407194108259 3.97883132084589563604
H  -2.35787845356035274946 3.79904446580360399821 3.22714925599252966393
H  -2.03711298227879344935 3.69888340896133804847 4.70338343691660476509
O  1.20861243434111176320 0.84716361011117102819 -2.45015501381522371460
H  1.47563441383520377315 -0.07837486559086279114 -2.48810045468183282935
H  0.38317580702480413812 0.86359757474617560025 -2.94789627442596335882
O  2.57954538705013813882 -5.94619569675729753300 2.93431070549187023033
H  2.65596581105262918854 -6.24703290143068468154 3.84700942856533290026
H  1.73718974537481085640 -5.47753390440847809373 2.92185435155271555629
O  7.29620667321037252862 3.05100343268505413974 1.44429872370218603805
H  7.01503845224758304511 2.20928903027048573193 1.06770429954158507790
H  6.76420353927246242876 3.12816771772275625807 2.24453643964550542123
O  -1.05493549403350583837 -0.20175112183925833498 -1.90578485440609046719
H  -1.23685437313731783071 -0.42092813198437378785 -0.98479135623696145707
H  -1.90977621469210645522 0.09335581160641551191 -2.23973290958756754421
O  0.40789638124594512769 4.85382894434815526097 3.72543848859718496058
H  0.01368879175008975990 4.49477322989597638525 2.92229377291796899030
H  0.03071683465176650030 4.30767446854185553917 4.42459007560179617968
O  1.21348797977724287556 -3.47827765770486418972 -4.92319011099401926401
H  1.25561636499323192595 -2.59985245536667353150 -4.52827692170230822200
H  0.26721009973673559568 -3.65151120294881614825 -4.98572311005507007309
O  -3.37744983416910171670 -0.80244443854341140909 5.02801316157645405980
H  -3.98342569205590901760 -0.66501468563138288470 5.76508058501425590947
H  -2.99943270180925969370 -1.67108239055839913334 5.20671184479757620522
O  -0.29409470751137145594 7.08250446257944599182 2.34081583065246645603
H  0.51752120379981159104 6.67959335556119793154 2.01171961923672348860
H  -0.39475462152669771321 6.69967646414601958327 3.21983367390093944138
O  -3.43295572661918013679 2.81287833768132600198 -3.73637328428637882638
H  -3.86438062166725604385 3.40821766400290560028 -4.35991615409412336390
H  -4.15948600299494675170 2.49865613529479757560 -3.18611859011283016230
O  1.35024310655608803522 2.97177396900470869312 -4.84512104697737200354
H  1.75484819780610545870 2.33269820340351374810 -4.24742635068489171601
H  0.40538034146273999037 2.85284786628234776629 -4.69527779335967210272
O  0.18322687505456614065 -6.60190669290909060152 2.15079632328284464649
H  -0.09082779438799913618 -5.87151553977062601319 1.58441759346140953468
H  -0.37141095595953899089 -7.33395350912017729428 1.85780076238388747178
O  2.56947934761413288030 -7.05085454762334862266 0.50028496151401569136
H  2.21567125483624716153 -7.92918499809157051317 0.31940511939356591720
H  2.62946282806246545150 -7.02634175534128591067 1.46213898812676346139
175
Energy -1.095433
C  0.71130776615267965468 5.00482414727958069278 -0.19561568134503989902
C  -4.13784486848083687960 3.17739904325788646844 0.68958586950538958149
C  -5.17444863619361594687 -1.77393841750645009370 -0.21665732364067985527
C  -0.87384297371556018952 -4.77917785703500719308 -0.63719983279390968178
C  4.05339626216557658012 -3.03094590633414950887 0.11871533019796989827
C  5.04884681101444510176 2.09362244562296995198 -0.58404774284701976850
O  -0.12582766454131008582 3.86927617535052936759 -0.25997818896310981307
O  -4.31294268880552600365 2.22131748928795813569 -0.31126934222609969893
O  -3.82279935479500831974 -1.93070136534545921947 -0.57994872475585967919
O  0.05957377906125960187 -3.73642003081359996841 -0.49167570712067970584
O  3.83098722953195691687 -1.80990987403622982654 -0.51821454630126961849
O  3.72723448493223719069 2.39573122461048049203 -0.94081572077923947273
C  1.36673334302333859824 5.17738746353810963541 -1.57023401112807836633
C  -3.83082197195232687648 4.52142930134692022648 -0.00861440099554997007
C  -5.86696795055896558324 -0.98447702978594020529 -1.33884527976942946381
C  -1.61012054292363893104 -4.57805317038506043303 -1.97033050864001890723
C  3.77326160587263625956 -4.12352537948484876296 -0.93397915008777943058
C  5.59790018606635531029 1.22271087148065049632 -1.73017268935670931462
O  0.41249294889497961636 5.31215455814457548911 -2.59060683846512906925
O  -4.80930237402007687564 4.84002336366017882341 -0.95372222083172941698
O  -5.78582568311042511056 -1.64728677729911021643 -2.57023780092665665720
O  -0.73773614924839026052 -4.55082005612955775575 -3.06837569591808811964
O  4.60494108751403530277 -3.96622878976938064710 -2.04751294360803903771
O  5.51089034068398309074 1.89539249938175013988 -2.95590729180038813695
C  2.21877561653414900888 3.93091745157843019953 -1.83150699881148915082
C  -2.43703341709546794647 4.47105818176657887619 -0.66523693747410916899
C  -5.20475957224313479088 0.39731597485467984310 -1.42006973941786962534
C  -2.38127676782546915391 -3.25302065840269838404 -1.88850281771867911651
C  2.29083818924970739062 -4.03265794157949919452 -1.34196827120711925652
C  4.78374355357373559627 -0.07921556826066936119 -1.75652837800578920380
O  2.95978907701573756839 4.02999105522410960845 -3.02082727297879927164
O  -2.05802748860041750945 5.73612709045024526944 -1.15190620092513951178
O  -5.88058054611833469494 1.22747881263100988569 -2.32923887821376673912
O  -3.19127255102765827743 -3.04457554296714016928 -3.01769493583701819972
O  1.91775986910106821526 -5.08492791013237965814 -2.19872422703288883383
O  5.29532575127568527762 -1.00829228528355963057 -2.67980956684520821298
C  3.21669371315159757785 3.69387210059014980956 -0.69186082520354963421
C  -1.38795551033674868791 3.99685863851938982805 0.35420949320828976070
C  -5.16778178528489551269 1.11072336231340940138 -0.06149807731087994500
C  -3.29265555667351561553 -3.24033602237473994379 -0.65776494554374898005
C  1.38149539713368874061 -4.07715922342435987957 -0.10764441609134994815
C  4.77256626082026613744 -0.75675892258768917564 -0.38217592772181979699
C  2.55256396054111922567 3.77383000390614853359 0.69472730196528931224
C  -1.87658184279176842857 2.62959785738603990524 0.86959042675287956392
C  -4.66995162147994768986 0.17586095834351950229 1.06305633345943961743
C  -2.50721461222832919802 -3.60110911172643000100 0.61297497945516965512
C  1.85352377539312773713 -3.02051341305114995350 0.89710406424008881654
C  4.36577196934167766074 0.23022434129321070473 0.72517060885729955899
O  1.66907167957595858887 4.88692368085399930777 0.81124164518227925846
O  -3.08441362729646728624 2.81665904229748020882 1.56150817661108898271
O  -5.30102626309129565385 -1.10211608872167032835 0.99847272905182959946
O  -1.77848159054403920365 -4.80866574069801888669 0.42941785465123982757
O  3.21002454205557707922 -3.18580015958223006223 1.24237706618064924768
O  5.13256533557428618053 1.42782080075291051280 0.64399374126307928901
C  3.59066688938968736622 3.98044807994619054270 1.80950926664780875619
C  -0.89645500604576855430 1.89000615206742916818 1.74680470073063887071
C  -5.01952751177552602968 0.67278465397587872143 2.47922864883734828112
C  -3.43552903897644679176 -3.83876853711820009707 1.81094492657019912052
C  1.02780373685861881050 -3.05255631487953005276 2.17255950121327856550
C  4.63334413526010635564 -0.33982799439168964728 2.12582775292363868047
O  4.36587551677528651339 5.12623218609484077035 1.58164252684446804409
O  -1.34635178925135901018 1.75509148705510997779 2.99556395054215807150
O  -6.36137881605171440214 1.05950386521692951902 2.58358829301366776932
O  -4.39579169127993640842 -4.82015551998131019928 1.53892222940309930657
O  1.15961021883623871531 -1.88140208249342943958 2.80998166284474804044
O  5.97384117287688454212 -0.72056215651174970738 2.28104190831524888949
H  0.13224704601901035583 5.90028006910375868443 0.06179845111059995011
H  -5.02906546666553655456 3.26944512916705898320 1.32195973471651906372
H  -5.66005365569407548065 -2.74597562429162023179 -0.06617953327339991254
H  -0.37596333589037028711 -5.75629752710907105495 -0.61905323145201962554
H  5.07351651543867454563 -3.11302658157459832822 0.51127945807539909584
H  5.64867625842899290234 3.00541745320616016102 -0.46425305226986962603
H  2.01854436715261886803 6.06436711980527043409 -1.54656827692787923745
H  -3.84115196116301671481 5.32232493097132941529 0.73833328706388945406
H  -6.93123890356386596068 -0.87032777596413046783 -1.10908033325346933040
H  -2.33079476852577860413 -5.39901926729751036049 -2.10116728534805874418
H  3.97846078011181525369 -5.11278456573449080480 -0.51320329701895961438
H  6.65544385173537111910 0.99639818803564983440 -1.56359344794164911718
H  -0.44758121555990915130 5.54738430107657976009 -2.19514784185843891962
H  -4.99862717111371512857 4.04655674109809648797 -1.47877335682354948965
H  -4.87862214394077664537 -1.98151913903146037477 -2.69443521680572883881
H  0.17493009918405943992 -4.73959651674300985746 -2.77483024948440881730
H  4.66410798139857529776 -3.01874084232443751219 -2.26865624666724841063
H  4.64836089514038430792 2.34140600586418878848 -3.00041084851171824255
H  1.54098607645986906967 3.06283758725334953610 -1.87427115174566893963
H  -2.46085499425985743116 3.74585258222391859206 -1.49411825115310925582
H  -4.16019338913851743911 0.25205406388909978865 -1.74488235435312732946
H  -1.65150591338989927159 -2.43341514701178018854 -1.78743297510559906449
H  2.13072481812891645347 -3.06478741669444998408 -1.84269875172082908676
H  3.74246695990955480227 0.17505707611953005842 -2.01366769037927806352
H  2.36276715127818626172 4.34815172937626659433 -3.71377294779213817932
H  -2.81157367692486648281 6.10014489877917043259 -1.64421335474422902756
H  -6.09084081771053398313 0.69029656113981896493 -3.10886487380280840398
H  -2.66909052727224915813 -3.26592044166787065507 -3.80334705793696725706
H  2.58698386619235698447 -5.14749436802668913771 -2.89909019680832802379
H  5.49408568008983611008 -0.53311484335033920701 -3.50050276010526850712
H  4.02144260633307659702 4.43873977070721803528 -0.76158004326704964448
H  -1.33879622191689873212 4.69571097986318886086 1.19890805994787918998
H  -6.17413561112708553225 1.47410559342782954140 0.19007305348557004820
H  -4.09868189285289563628 -3.97092024710498758822 -0.80481580480895953400
H  1.40934724253084797674 -5.07071095687050732437 0.35457577458490985300
H  5.76955099277967686788 -1.16139533236291936369 -0.16672775541378001551
H  1.99677609145850842864 2.83976438078294002310 0.85744948004959942178
H  -2.03432580407637875197 1.97912333649938032565 -0.00933991151863993591
H  -3.58181057813990832983 0.04730107681938962305 0.97286818618691950356
H  -1.81875059986388909472 -2.77601408995254050893 0.84523606295103970165
H  1.70767087459974709063 -2.02632998237252959228 0.44167627387429975183
H  3.29684627784058648103 0.46242992506568020294 0.61428010446683900536
H  4.27684283934914866165 3.13377304722748029064 1.84096947029981894417
H  3.05499576615011703140 4.05618852724160117162 2.76325081195894650676
H  -4.79227452249524610295 -0.15173887546790032488 3.16617738075086840865
H  -4.40898511711660745505 1.53315883400238783807 2.74824849325204567663
H  -3.97170422031588721268 -2.91608560685773054999 2.03992773831826879061
H  -2.81226758138124921516 -4.12058300134711963381 2.66817818299924836012
H  4.35574918530906440850 0.42281946590956998033 2.86286040394648688689
H  4.02684838685082624465 -1.23311937246010971947 2.28407916476905814562
H  3.76320851633328734565 5.88246056441070930276 1.54085400740711886414
H  -6.90736717162538571557 0.28345440568049945496 2.39381796429284854355
H  -3.92388988794632753709 -5.64051884971686945391 1.33424427257381927880
H  6.51908788538571037918 0.06399434512467971903 2.12347478294185876280
C  0.26127497010885958328 -1.58912450335454979999 3.90285766255619792631
H  0.88951598116402896821 -1.18363696298226983572 4.68922404710705720277
H  -0.25570570590976021697 -2.48705044817073872565 4.23160082255163860765
O  0.34924840901390941106 -3.98334818409430990727 2.55358777221210875297
C  -0.58617522855173942453 0.84541176598609990567 3.79519962836908808512
H  -0.99939904616609909205 0.95260657278872973297 4.79784223568303769270
H  0.46887642779151966765 1.11663465419944030188 3.80502509435579794328
O  0.16237772092035962501 1.42572362705916000358 1.35186217851816903313
C  -0.72420064229639979914 -0.57561974826865003330 3.33162747555646809872
O  -1.53646263887656897573 -0.91508322368633943089 2.48476685153011844776
O  5.12016518841188084110 -3.80675011383641637153 3.06030596716629732512
H  4.25869305737139836054 -3.72293329273593265327 2.63580323223809243061
H  5.32062354544112547927 -2.90677049522949593197 3.34175791086644746741
O  -2.07739336173240829453 4.33352014407194108259 3.97883132084589563604
H  -2.35787845356035274946 3.79904446580360399821 3.22714925599252966393
H  -2.03711298227879344935 3.69888340896133804847 4.70338343691660476509
O  1.20861243434111176320 0.84716361011117102819 -2.45015501381522371460
H  1.47563441383520377315 -0.07837486559086279114 -2.48810045468183282935
H  0.38317580702480413812 0.86359757474617560025 -2.94789627442596335882
O  2.57954538705013813882 -5.94619569675729753300 2.93431070549187023033
H  2.65596581105262918854 -6.24703290143068468154 3.84700942856533290026
H  1.73718974537481085640 -5.47753390440847809373 2.92185435155271555629
O  7.29620667321037252862 3.05100343268505413974 1.44429872370218603805
H  7.01503845224758304511 2.20928903027048573193 1.06770429954158507790
H  6.76420353927246242876 3.12816771772275625807 2.24453643964550542123
O  -1.05493549403350583837 -0.20175112183925833498 -1.90578485440609046719
H  -1.23685437313731783071 -0.42092813198437378785 -0.98479135623696145707
H  -1.90977621469210645522 0.09335581160641551191 -2.23973290958756754421
O  0.40789638124594512769 4.85382894434815526097 3.72543848859718496058
H  0.01368879175008975990 4.49477322989597638525 2.92229377291796899030
H  0.03071683465176650030 4.30767446854185553917 4.42459007560179617968
O  1.21348797977724287556 -3.47827765770486418972 -4.92319011099401926401
H  1.25561636499323192595 -2.59985245536667353150 -4.52827692170230822200
H  0.26721009973673559568 -3.65151120294881614825 -4.98572311005507007309
O  -3.37744983416910171670 -0.80244443854341140909 5.02801316157645405980
H  -3.98342569205590901760 -0.66501468563138288470 5.76508058501425590947
H  -2.99943270180925969370 -1.67108239055839913334 5.20671184479757620522
O  -0.29409470751137145594 7.08250446257944599182 2.34081583065246645603
H  0.51752120379981159104 6.67959335556119793154 2.01171961923672348860
H  -0.39475462152669771321 6.69967646414601958327 3.21983367390093944138
O  -3.43295572661918013679 2.81287833768132600198 -3.73637328428637882638
H  -3.86438062166725604385 3.40821766400290560028 -4.35991615409412336390
H  -4.15948600299494675170 2.49865613529479757560 -3.18611859011283016230
O  1.35024310655608803522 2.97177396900470869312 -4.84512104697737200354
H  1.75484819780610545870 2.33269820340351374810 -4.24742635068489171601
H  0.40538034146273999037 2.85284786628234776629 -4.69527779335967210272
O  0.18322687505456614065 -6.60190669290909060152 2.15079632328284464649
H  -0.09082779438799913618 -5.87151553977062601319 1.58441759346140953468
H  -0.37141095595953899089 -7.33395350912017729428 1.85780076238388747178
O  2.56947934761413288030 -7.05085454762334773449 0.50028496151401569136
H  2.21567125483624716153 -7.92918499809157051317 0.31940511939356591720
H  2.62946282806246500741 -7.02634175534128413432 1.46213898812676346139
O  0.58627963217273681984 -7.34812615275521796576 -2.33549050516169076630
H  1.53648087109563014074 -7.23569529413239376225 -2.45312966360428363899
H  0.21408734174046917254 -6.97478527771062495333 -3.14261599316652207037
178
Energy -0.365197
C  0.71130776615267965468 5.00482414727958069278 -0.19561568134503989902
C  -4.13784486848083687960 3.17739904325788646844 0.68958586950538958149
C  -5.17444863619361594687 -1.77393841750645009370 -0.21665732364067985527
C  -0.87384297371556018952 -4.77917785703500719308 -0.63719983279390968178
C  4.05339626216557658012 -3.03094590633414950887 0.11871533019796989827
C  5.04884681101444510176 2.09362244562296995198 -0.58404774284701976850
O  -0.12582766454131008582 3.86927617535052936759 -0.25997818896310981307
O  -4.31294268880552600365 2.22131748928795813569 -0.31126934222609969893
O  -3.82279935479500831974 -1.93070136534545921947 -0.57994872475585967919
O  0.05957377906125960187 -3.73642003081359996841 -0.49167570712067970584
O  3.83098722953195691687 -1.80990987403622982654 -0.51821454630126961849
O  3.72723448493223719069 2.39573122461048049203 -0.94081572077923947273
C  1.36673334302333859824 5.17738746353810963541 -1.57023401112807836633
C  -3.83082197195232687648 4.52142930134692022648 -0.00861440099554997007
C  -5.86696795055896558324 -0.98447702978594020529 -1.33884527976942946381
C  -1.61012054292363893104 -4.57805317038506043303 -1.97033050864001890723
C  3.77326160587263625956 -4.12352537948484876296 -0.93397915008777943058
C  5.59790018606635531029 1.22271087148065049632 -1.73017268935670931462
O  0.41249294889497961636 5.31215455814457548911 -2.59060683846512906925
O  -4.80930237402007687564 4.84002336366017882341 -0.95372222083172941698
O  -5.78582568311042511056 -1.64728677729911021643 -2.57023780092665665720
O  -0.73773614924839026052 -4.55082005612955775575 -3.06837569591808811964
O  4.60494108751403530277 -3.96622878976938064710 -2.04751294360803903771
O  5.51089034068398309074 1.89539249938175013988 -2.95590729180038813695
C  2.21877561653414900888 3.93091745157843019953 -1.83150699881148915082
C  -2.43703341709546794647 4.47105818176657887619 -0.66523693747410916899
C  -5.20475957224313479088 0.39731597485467984310 -1.42006973941786962534
C  -2.38127676782546915391 -3.25302065840269838404 -1.88850281771867911651
C  2.29083818924970739062 -4.03265794157949919452 -1.34196827120711925652
C  4.78374355357373559627 -0.07921556826066936119 -1.75652837800578920380
O  2.95978907701573756839 4.02999105522410960845 -3.02082727297879927164
O  -2.05802748860041750945 5.73612709045024526944 -1.15190620092513951178
O  -5.88058054611833469494 1.22747881263100988569 -2.32923887821376673912
O  -3.19127255102765827743 -3.04457554296714016928 -3.01769493583701819972
O  1.91775986910106821526 -5.08492791013237965814 -2.19872422703288883383
O  5.29532575127568527762 -1.00829228528355963057 -2.67980956684520821298
C  3.21669371315159757785 3.69387210059014980956 -0.69186082520354963421
C  -1.38795551033674868791 3.99685863851938982805 0.35420949320828976070
C  -5.16778178528489551269 1.11072336231340940138 -0.06149807731087994500
C  -3.29265555667351561553 -3.24033602237473994379 -0.65776494554374898005
C  1.38149539713368874061 -4.07715922342435987957 -0.10764441609134994815
C  4.77256626082026613744 -0.75675892258768917564 -0.38217592772181979699
C  2.55256396054111922567 3.77383000390614853359 0.69472730196528931224
C  -1.87658184279176842857 2.62959785738603990524 0.86959042675287956392
C  -4.66995162147994768986 0.17586095834351950229 1.06305633345943961743
C  -2.50721461222832919802 -3.60110911172643000100 0.61297497945516965512
C  1.85352377539312773713 -3.02051341305114995350 0.89710406424008881654
C  4.36577196934167766074 0.23022434129321070473 0.72517060885729955899
O  1.66907167957595858887 4.88692368085399930777 0.81124164518227925846
O  -3.08441362729646728624 2.81665904229748020882 1.56150817661108898271
O  -5.30102626309129565385 -1.10211608872167032835 0.99847272905182959946
O  -1.77848159054403920365 -4.80866574069801888669 0.42941785465123982757
O  3.21002454205557707922 -3.18580015958223006223 1.24237706618064924768
O  5.13256533557428618053 1.42782080075291051280 0.64399374126307928901
C  3.59066688938968736622 3.98044807994619054270 1.80950926664780875619
C  -0.89645500604576855430 1.89000615206742916818 1.74680470073063887071
C  -5.01952751177552602968 0.67278465397587872143 2.47922864883734828112
C  -3.43552903897644679176 -3.83876853711820009707 1.81094492657019912052
C  1.02780373685861881050 -3.05255631487953005276 2.17255950121327856550
C  4.63334413526010635564 -0.33982799439168964728 2.12582775292363868047
O  4.36587551677528651339 5.12623218609484077035 1.58164252684446804409
O  -1.34635178925135901018 1.75509148705510997779 2.99556395054215807150
O  -6.36137881605171440214 1.05950386521692951902 2.58358829301366776932
O  -4.39579169127993640842 -4.82015551998131019928 1.53892222940309930657
O  1.15961021883623871531 -1.88140208249342943958 2.80998166284474804044
O  5.97384117287688454212 -0.72056215651174970738 2.28104190831524888949
H  0.13224704601901035583 5.90028006910375868443 0.06179845111059995011
H  -5.02906546666553655456 3.26944512916705898320 1.32195973471651906372
H  -5.66005365569407548065 -2.74597562429162023179 -0.06617953327339991254
H  -0.37596333589037028711 -5.75629752710907105495 -0.61905323145201962554
H  5.07351651543867454563 -3.11302658157459832822 0.51127945807539909584
H  5.64867625842899290234 3.00541745320616016102 -0.46425305226986962603
H  2.01854436715261886803 6.06436711980527043409 -1.54656827692787923745
H  -3.84115196116301671481 5.32232493097132941529 0.73833328706388945406
H  -6.93123890356386596068 -0.87032777596413046783 -1.10908033325346933040
H  -2.33079476852577860413 -5.39901926729751036049 -2.10116728534805874418
H  3.97846078011181525369 -5.11278456573449080480 -0.51320329701895961438
H  6.65544385173537111910 0.99639818803564983440 -1.56359344794164911718
H  -0.44758121555990915130 5.54738430107657976009 -2.19514784185843891962
H  -4.99862717111371512857 4.04655674109809648797 -1.47877335682354948965
H  -4.87862214394077664537 -1.98151913903146037477 -2.69443521680572883881
H  0.17493009918405943992 -4.73959651674300985746 -2.77483024948440881730
H  4.66410798139857529776 -3.01874084232443751219 -2.26865624666724841063
H  4.64836089514038430792 2.34140600586418878848 -3.00041084851171824255
H  1.54098607645986906967 3.06283758725334953610 -1.87427115174566893963
H  -2.46085499425985743116 3.74585258222391859206 -1.49411825115310925582
H  -4.16019338913851743911 0.25205406388909978865 -1.74488235435312732946
H  -1.65150591338989927159 -2.43341514701178018854 -1.78743297510559906449
H  2.13072481812891645347 -3.06478741669444998408 -1.84269875172082908676
H  3.74246695990955480227 0.17505707611953005842 -2.01366769037927806352
H  2.36276715127818626172 4.34815172937626659433 -3.71377294779213817932
H  -2.81157367692486648281 6.10014489877917043259 -1.64421335474422902756
H  -6.09084081771053398313 0.69029656113981896493 -3.10886487380280840398
H  -2.66909052727224915813 -3.26592044166787065507 -3.80334705793696725706
H  2.58698386619235698447 -5.14749436802668913771 -2.89909019680832802379
H  5.49408568008983611008 -0.53311484335033920701 -3.50050276010526850712
H  4.02144260633307659702 4.43873977070721803528 -0.76158004326704964448
H  -1.33879622191689873212 4.69571097986318886086 1.19890805994787918998
H  -6.17413561112708553225 1.47410559342782954140 0.19007305348557004820
H  -4.09868189285289563628 -3.97092024710498758822 -0.80481580480895953400
H  1.40934724253084797674 -5.07071095687050732437 0.35457577458490985300
H  5.76955099277967686788 -1.16139533236291936369 -0.16672775541378001551
H  1.99677609145850842864 2.83976438078294002310 0.85744948004959942178
H  -2.03432580407637875197 1.97912333649938032565 -0.00933991151863993591
H  -3.58181057813990832983 0.04730107681938962305 0.97286818618691950356
H  -1.81875059986388909472 -2.77601408995254050893 0.84523606295103970165
H  1.70767087459974709063 -2.02632998237252959228 0.44167627387429975183
H  3.29684627784058648103 0.46242992506568020294 0.61428010446683900536
H  4.27684283934914866165 3.13377304722748029064 1.84096947029981894417
H  3.05499576615011703140 4.05618852724160117162 2.76325081195894650676
H  -4.79227452249524610295 -0.15173887546790032488 3.16617738075086840865
H  -4.40898511711660745505 1.53315883400238783807 2.74824849325204567663
H  -3.97170422031588721268 -2.91608560685773054999 2.03992773831826879061
H  -2.81226758138124921516 -4.12058300134711963381 2.66817818299924836012
H  4.35574918530906440850 0.42281946590956998033 2.86286040394648688689
H  4.02684838685082624465 -1.23311937246010971947 2.28407916476905814562
H  3.76320851633328734565 5.88246056441070930276 1.54085400740711886414
H  -6.90736717162538571557 0.28345440568049945496 2.39381796429284854355
H  -3.92388988794632753709 -5.64051884971686945391 1.33424427257381927880
H  6.51908788538571037918 0.06399434512467971903 2.12347478294185876280
C  0.26127497010885958328 -1.58912450335454979999 3.90285766255619792631
H  0.88951598116402896821 -1.18363696298226983572 4.68922404710705720277
H  -0.25570570590976021697 -2.48705044817073872565 4.23160082255163860765
O  0.34924840901390941106 -3.98334818409430990727 2.55358777221210875297
C  -0.58617522855173942453 0.84541176598609990567 3.79519962836908808512
H  -0.99939904616609909205 0.95260657278872973297 4.79784223568303769270
H  0.46887642779151966765 1.11663465419944030188 3.80502509435579794328
O  0.16237772092035962501 1.42572362705916000358 1.35186217851816903313
C  -0.72420064229639979914 -0.57561974826865003330 3.33162747555646809872
O  -1.53646263887656897573 -0.91508322368633943089 2.48476685153011844776
O  5.12016518841188084110 -3.80675011383641637153 3.06030596716629732512
H  4.25869305737139836054 -3.72293329273593265327 2.63580323223809243061
H  5.32062354544112547927 -2.90677049522949593197 3.34175791086644746741
O  -2.07739336173240829453 4.33352014407194108259 3.97883132084589563604
H  -2.35787845356035274946 3.79904446580360399821 3.22714925599252966393
H  -2.03711298227879344935 3.69888340896133804847 4.70338343691660476509
O  1.20861243434111176320 0.84716361011117102819 -2.45015501381522371460
H  1.47563441383520377315 -0.07837486559086279114 -2.48810045468183282935
H  0.38317580702480413812 0.86359757474617560025 -2.94789627442596335882
O  2.57954538705013813882 -5.94619569675729753300 2.93431070549187023033
H  2.65596581105262918854 -6.24703290143068468154 3.84700942856533290026
H  1.73718974537481085640 -5.47753390440847809373 2.92185435155271555629
O  7.29620667321037252862 3.05100343268505413974 1.44429872370218603805
H  7.01503845224758304511 2.20928903027048573193 1.06770429954158507790
H  6.76420353927246242876 3.12816771772275625807 2.24453643964550542123
O  -1.05493549403350583837 -0.20175112183925833498 -1.90578485440609046719
H  -1.23685437313731783071 -0.42092813198437378785 -0.98479135623696145707
H  -1.90977621469210645522 0.09335581160641551191 -2.23973290958756754421
O  0.40789638124594512769 4.85382894434815526097 3.72543848859718496058
H  0.01368879175008975990 4.49477322989597638525 2.92229377291796899030
H  0.03071683465176650030 4.30767446854185553917 4.42459007560179617968
O  1.21348797977724287556 -3.47827765770486418972 -4.92319011099401926401
H  1.25561636499323192595 -2.59985245536667353150 -4.52827692170230822200
H  0.26721009973673559568 -3.65151120294881614825 -4.98572311005507007309
O  -3.37744983416910171670 -0.80244443854341140909 5.02801316157645405980
H  -3.98342569205590901760 -0.66501468563138288470 5.76508058501425590947
H  -2.99943270180925969370 -1.67108239055839913334 5.20671184479757620522
O  -0.29409470751137145594 7.08250446257944599182 2.34081583065246645603
H  0.51752120379981159104 6.67959335556119793154 2.01171961923672348860
H  -0.39475462152669771321 6.69967646414601958327 3.21983367390093944138
O  -3.43295572661918013679 2.81287833768132600198 -3.73637328428637882638
H  -3.86438062166725604385 3.40821766400290560028 -4.35991615409412336390
H  -4.15948600299494675170 2.49865613529479757560 -3.18611859011283016230
O  1.35024310655608803522 2.97177396900470869312 -4.84512104697737200354
H  1.75484819780610545870 2.33269820340351374810 -4.24742635068489171601
H  0.40538034146273999037 2.85284786628234776629 -4.69527779335967210272
O  0.18322687505456614065 -6.60190669290909060152 2.15079632328284464649
H  -0.09082779438799913618 -5.87151553977062601319 1.58441759346140953468
H  -0.37141095595953899089 -7.33395350912017729428 1.85780076238388747178
O  2.56947934761413288030 -7.05085454762334773449 0.50028496151401569136
H  2.21567125483624716153 -7.92918499809157051317 0.31940511939356591720
H  2.62946282806246500741 -7.02634175534128413432 1.46213898812676346139
O  0.58627963217273659779 -7.34812615275521530123 -2.33549050516169032221
H  1.53648087109563014074 -7.23569529413239376225 -2.45312966360428363899
H  0.21408734174046878396 -6.97478527771062228879 -3.14261599316652207037
O  0.89019192326940954629 -0.81060957508683373351 -5.28435931750822263098
H  1.33739023672534007581 -0.02176180210095902262 -4.95710571016715118020
H  0.39779649937544064864 -0.48928159775481222526 -6.04833388575988095681
181
Energy -0.073965
C  0.71130776615267965468 5.00482414727958069278 -0.19561568134503989902
C  -4.13784486848083687960 3.17739904325788646844 0.68958586950538958149
C  -5.17444863619361594687 -1.77393841750645009370 -0.21665732364067985527
C  -0.87384297371556018952 -4.77917785703500719308 -0.63719983279390968178
C  4.05339626216557658012 -3.03094590633414950887 0.11871533019796989827
C  5.04884681101444510176 2.09362244562296995198 -0.58404774284701976850
O  -0.12582766454131008582 3.86927617535052936759 -0.25997818896310981307
O  -4.31294268880552600365 2.22131748928795813569 -0.31126934222609969893
O  -3.82279935479500831974 -1.93070136534545921947 -0.57994872475585967919
O  0.05957377906125960187 -3.73642003081359996841 -0.49167570712067970584
O  3.83098722953195691687 -1.80990987403622982654 -0.51821454630126961849
O  3.72723448493223719069 2.39573122461048049203 -0.94081572077923947273
C  1.36673334302333859824 5.17738746353810963541 -1.57023401112807836633
C  -3.83082197195232687648 4.52142930134692022648 -0.00861440099554997007
C  -5.86696795055896558324 -0.98447702978594020529 -1.33884527976942946381
C  -1.61012054292363893104 -4.57805317038506043303 -1.97033050864001890723
C  3.77326160587263625956 -4.12352537948484876296 -0.93397915008777943058
C  5.59790018606635531029 1.22271087148065049632 -1.73017268935670931462
O  0.41249294889497961636 5.31215455814457548911 -2.59060683846512906925
O  -4.80930237402007687564 4.84002336366017882341 -0.95372222083172941698
O  -5.78582568311042511056 -1.64728677729911021643 -2.57023780092665665720
O  -0.73773614924839026052 -4.55082005612955775575 -3.06837569591808811964
O  4.60494108751403530277 -3.96622878976938064710 -2.04751294360803903771
O  5.51089034068398309074 1.89539249938175013988 -2.95590729180038813695
C  2.21877561653414900888 3.93091745157843019953 -1.83150699881148915082
C  -2.43703341709546794647 4.47105818176657887619 -0.66523693747410916899
C  -5.20475957224313479088 0.39731597485467984310 -1.42006973941786962534
C  -2.38127676782546915391 -3.25302065840269838404 -1.88850281771867911651
C  2.29083818924970739062 -4.03265794157949919452 -1.34196827120711925652
C  4.78374355357373559627 -0.07921556826066936119 -1.75652837800578920380
O  2.95978907701573756839 4.02999105522410960845 -3.02082727297879927164
O  -2.05802748860041750945 5.73612709045024526944 -1.15190620092513951178
O  -5.88058054611833469494 1.22747881263100988569 -2.32923887821376673912
O  -3.19127255102765827743 -3.04457554296714016928 -3.01769493583701819972
O  1.91775986910106821526 -5.08492791013237965814 -2.19872422703288883383
O  5.29532575127568527762 -1.00829228528355963057 -2.67980956684520821298
C  3.21669371315159757785 3.69387210059014980956 -0.69186082520354963421
C  -1.38795551033674868791 3.99685863851938982805 0.35420949320828976070
C  -5.16778178528489551269 1.11072336231340940138 -0.06149807731087994500
C  -3.29265555667351561553 -3.24033602237473994379 -0.65776494554374898005
C  1.38149539713368874061 -4.07715922342435987957 -0.10764441609134994815
C  4.77256626082026613744 -0.75675892258768917564 -0.38217592772181979699
C  2.55256396054111922567 3.77383000390614853359 0.69472730196528931224
C  -1.87658184279176842857 2.62959785738603990524 0.86959042675287956392
C  -4.66995162147994768986 0.17586095834351950229 1.06305633345943961743
C  -2.50721461222832919802 -3.60110911172643000100 0.61297497945516965512
C  1.85352377539312773713 -3.02051341305114995350 0.89710406424008881654
C  4.36577196934167766074 0.23022434129321070473 0.72517060885729955899
O  1.66907167957595858887 4.88692368085399930777 0.81124164518227925846
O  -3.08441362729646728624 2.81665904229748020882 1.56150817661108898271
O  -5.30102626309129565385 -1.10211608872167032835 0.99847272905182959946
O  -1.77848159054403920365 -4.80866574069801888669 0.42941785465123982757
O  3.21002454205557707922 -3.18580015958223006223 1.24237706618064924768
O  5.13256533557428618053 1.42782080075291051280 0.64399374126307928901
C  3.59066688938968736622 3.98044807994619054270 1.80950926664780875619
C  -0.89645500604576855430 1.89000615206742916818 1.74680470073063887071
C  -5.01952751177552602968 0.67278465397587872143 2.47922864883734828112
C  -3.43552903897644679176 -3.83876853711820009707 1.81094492657019912052
C  1.02780373685861881050 -3.05255631487953005276 2.17255950121327856550
C  4.63334413526010635564 -0.33982799439168964728 2.12582775292363868047
O  4.36587551677528651339 5.12623218609484077035 1.58164252684446804409
O  -1.34635178925135901018 1.75509148705510997779 2.99556395054215807150
O  -6.36137881605171440214 1.05950386521692951902 2.58358829301366776932
O  -4.39579169127993640842 -4.82015551998131019928 1.53892222940309930657
O  1.15961021883623871531 -1.88140208249342943958 2.80998166284474804044
O  5.97384117287688454212 -0.72056215651174970738 2.28104190831524888949
H  0.13224704601901035583 5.90028006910375868443 0.06179845111059995011
H  -5.02906546666553655456 3.26944512916705898320 1.32195973471651906372
H  -5.66005365569407548065 -2.74597562429162023179 -0.06617953327339991254
H  -0.37596333589037028711 -5.75629752710907105495 -0.61905323145201962554
H  5.07351651543867454563 -3.11302658157459832822 0.51127945807539909584
H  5.64867625842899290234 3.00541745320616016102 -0.46425305226986962603
H  2.01854436715261886803 6.06436711980527043409 -1.54656827692787923745
H  -3.84115196116301671481 5.32232493097132941529 0.73833328706388945406
H  -6.93123890356386596068 -0.87032777596413046783 -1.10908033325346933040
H  -2.33079476852577860413 -5.39901926729751036049 -2.10116728534805874418
H  3.97846078011181525369 -5.11278456573449080480 -0.51320329701895961438
H  6.65544385173537111910 0.99639818803564983440 -1.56359344794164911718
H  -0.44758121555990915130 5.54738430107657976009 -2.19514784185843891962
H  -4.99862717111371512857 4.04655674109809648797 -1.47877335682354948965
H  -4.87862214394077664537 -1.98151913903146037477 -2.69443521680572883881
H  0.17493009918405943992 -4.73959651674300985746 -2.77483024948440881730
H  4.66410798139857529776 -3.01874084232443751219 -2.26865624666724841063
H  4.64836089514038430792 2.34140600586418878848 -3.00041084851171824255
H  1.54098607645986906967 3.06283758725334953610 -1.87427115174566893963
H  -2.46085499425985743116 3.74585258222391859206 -1.49411825115310925582
H  -4.16019338913851743911 0.25205406388909978865 -1.74488235435312732946
H  -1.65150591338989927159 -2.43341514701178018854 -1.78743297510559906449
H  2.13072481812891645347 -3.06478741669444998408 -1.84269875172082908676
H  3.74246695990955480227 0.17505707611953005842 -2.01366769037927806352
H  2.36276715127818626172 4.34815172937626659433 -3.71377294779213817932
H  -2.81157367692486648281 6.10014489877917043259 -1.64421335474422902756
H  -6.09084081771053398313 0.69029656113981896493 -3.10886487380280840398
H  -2.66909052727224915813 -3.26592044166787065507 -3.80334705793696725706
H  2.58698386619235698447 -5.14749436802668913771 -2.89909019680832802379
H  5.49408568008983611008 -0.53311484335033920701 -3.50050276010526850712
H  4.02144260633307659702 4.43873977070721803528 -0.76158004326704964448
H  -1.33879622191689873212 4.69571097986318886086 1.19890805994787918998
H  -6.17413561112708553225 1.47410559342782954140 0.19007305348557004820
H  -4.09868189285289563628 -3.97092024710498758822 -0.80481580480895953400
H  1.40934724253084797674 -5.07071095687050732437 0.35457577458490985300
H  5.76955099277967686788 -1.16139533236291936369 -0.16672775541378001551
H  1.99677609145850842864 2.83976438078294002310 0.85744948004959942178
H  -2.03432580407637875197 1.97912333649938032565 -0.00933991151863993591
H  -3.58181057813990832983 0.04730107681938962305 0.97286818618691950356
H  -1.81875059986388909472 -2.77601408995254050893 0.84523606295103970165
H  1.70767087459974709063 -2.02632998237252959228 0.44167627387429975183
H  3.29684627784058648103 0.46242992506568020294 0.61428010446683900536
H  4.27684283934914866165 3.13377304722748029064 1.84096947029981894417
H  3.05499576615011703140 4.05618852724160117162 2.76325081195894650676
H  -4.79227452249524610295 -0.15173887546790032488 3.16617738075086840865
H  -4.40898511711660745505 1.53315883400238783807 2.74824849325204567663
H  -3.97170422031588721268 -2.91608560685773054999 2.03992773831826879061
H  -2.81226758138124921516 -4.12058300134711963381 2.66817818299924836012
H  4.35574918530906440850 0.42281946590956998033 2.86286040394648688689
H  4.02684838685082624465 -1.23311937246010971947 2.28407916476905814562
H  3.76320851633328734565 5.88246056441070930276 1.54085400740711886414
H  -6.90736717162538571557 0.28345440568049945496 2.39381796429284854355
H  -3.92388988794632753709 -5.64051884971686945391 1.33424427257381927880
H  6.51908788538571037918 0.06399434512467971903 2.12347478294185876280
C  0.26127497010885958328 -1.58912450335454979999 3.90285766255619792631
H  0.88951598116402896821 -1.18363696298226983572 4.68922404710705720277
H  -0.25570570590976021697 -2.48705044817073872565 4.23160082255163860765
O  0.34924840901390941106 -3.98334818409430990727 2.55358777221210875297
C  -0.58617522855173942453 0.84541176598609990567 3.79519962836908808512
H  -0.99939904616609909205 0.95260657278872973297 4.79784223568303769270
H  0.46887642779151966765 1.11663465419944030188 3.80502509435579794328
O  0.16237772092035962501 1.42572362705916000358 1.35186217851816903313
C  -0.72420064229639979914 -0.57561974826865003330 3.33162747555646809872
O  -1.53646263887656897573 -0.91508322368633943089 2.48476685153011844776
O  5.12016518841188084110 -3.80675011383641637153 3.06030596716629732512
H  4.25869305737139836054 -3.72293329273593265327 2.63580323223809243061
H  5.32062354544112547927 -2.90677049522949593197 3.34175791086644746741
O  -2.07739336173240829453 4.33352014407194108259 3.97883132084589563604
H  -2.35787845356035274946 3.79904446580360399821 3.22714925599252966393
H  -2.03711298227879344935 3.69888340896133804847 4.70338343691660476509
O  1.20861243434111176320 0.84716361011117102819 -2.45015501381522371460
H  1.47563441383520377315 -0.07837486559086279114 -2.48810045468183282935
H  0.38317580702480413812 0.86359757474617560025 -2.94789627442596335882
O  2.57954538705013813882 -5.94619569675729753300 2.93431070549187023033
H  2.65596581105262918854 -6.24703290143068468154 3.84700942856533290026
H  1.73718974537481085640 -5.47753390440847809373 2.92185435155271555629
O  7.29620667321037252862 3.05100343268505413974 1.44429872370218603805
H  7.01503845224758304511 2.20928903027048573193 1.06770429954158507790
H  6.76420353927246242876 3.12816771772275625807 2.24453643964550542123
O  -1.05493549403350583837 -0.20175112183925833498 -1.90578485440609046719
H  -1.23685437313731783071 -0.42092813198437378785 -0.98479135623696145707
H  -1.90977621469210645522 0.09335581160641551191 -2.23973290958756754421
O  0.40789638124594512769 4.85382894434815526097 3.72543848859718496058
H  0.01368879175008975990 4.49477322989597638525 2.92229377291796899030
H  0.03071683465176650030 4.30767446854185553917 4.42459007560179617968
O  1.21348797977724287556 -3.47827765770486418972 -4.92319011099401926401
H  1.25561636499323192595 -2.59985245536667353150 -4.52827692170230822200
H  0.26721009973673559568 -3.65151120294881614825 -4.98572311005507007309
O  -3.37744983416910171670 -0.80244443854341140909 5.02801316157645405980
H  -3.98342569205590901760 -0.66501468563138288470 5.76508058501425590947
H  -2.99943270180925969370 -1.67108239055839913334 5.20671184479757620522
O  -0.29409470751137145594 7.08250446257944599182 2.34081583065246645603
H  0.51752120379981159104 6.67959335556119793154 2.01171961923672348860
H  -0.39475462152669771321 6.69967646414601958327 3.21983367390093944138
O  -3.43295572661918013679 2.81287833768132600198 -3.73637328428637882638
H  -3.86438062166725604385 3.40821766400290560028 -4.35991615409412336390
H  -4.15948600299494675170 2.49865613529479757560 -3.18611859011283016230
O  1.35024310655608803522 2.97177396900470869312 -4.84512104697737200354
H  1.75484819780610545870 2.33269820340351374810 -4.24742635068489171601
H  0.40538034146273999037 2.85284786628234776629 -4.69527779335967210272
O  0.18322687505456614065 -6.60190669290909060152 2.15079632328284464649
H  -0.09082779438799913618 -5.87151553977062601319 1.58441759346140953468
H  -0.37141095595953899089 -7.33395350912017729428 1.85780076238388747178
O  2.56947934761413288030 -7.05085454762334773449 0.50028496151401569136
H  2.21567125483624716153 -7.92918499809157051317 0.31940511939356591720
H  2.62946282806246500741 -7.02634175534128413432 1.46213898812676346139
O  0.58627963217273637575 -7.34812615275521352487 -2.33549050516169032221
H  1.53648087109563014074 -7.23569529413239376225 -2.45312966360428363899
H  0.21408734174046861742 -6.97478527771062140062 -3.14261599316652207037
O  0.89019192326940954629 -0.81060957508683373351 -5.28435931750822174280
H  1.33739023672534007581 -0.02176180210095902262 -4.95710571016715118020
H  0.39779649937544075966 -0.48928159775481222526 -6.04833388575988006863
O  -7.04956873861825084049 -3.96410725474136516056 2.00995718922721300359
H  -7.15254410147000818654 -4.65493643898663123082 1.34549261014047272234
H  -6.11654403109737643263 -4.01710470963827148694 2.24663889184350074046
184
Energy 0.328145
C  0.71130776615267965468 5.00482414727958069278 -0.19561568134503989902
C  -4.13784486848083687960 3.17739904325788646844 0.68958586950538958149
C  -5.17444863619361594687 -1.77393841750645009370 -0.21665732364067985527
C  -0.87384297371556018952 -4.77917785703500719308 -0.63719983279390968178
C  4.05339626216557658012 -3.03094590633414950887 0.11871533019796989827
C  5.04884681101444510176 2.09362244562296995198 -0.58404774284701976850
O  -0.12582766454131008582 3.86927617535052936759 -0.25997818896310981307
O  -4.31294268880552600365 2.22131748928795813569 -0.31126934222609969893
O  -3.82279935479500831974 -1.93070136534545921947 -0.57994872475585967919
O  0.05957377906125960187 -3.73642003081359996841 -0.49167570712067970584
O  3.83098722953195691687 -1.80990987403622982654 -0.51821454630126961849
O  3.72723448493223719069 2.39573122461048049203 -0.94081572077923947273
C  1.36673334302333859824 5.17738746353810963541 -1.57023401112807836633
C  -3.83082197195232687648 4.52142930134692022648 -0.00861440099554997007
C  -5.86696795055896558324 -0.98447702978594020529 -1.33884527976942946381
C  -1.61012054292363893104 -4.57805317038506043303 -1.97033050864001890723
C  3.77326160587263625956 -4.12352537948484876296 -0.93397915008777943058
C  5.59790018606635531029 1.22271087148065049632 -1.73017268935670931462
O  0.41249294889497961636 5.31215455814457548911 -2.59060683846512906925
O  -4.80930237402007687564 4.84002336366017882341 -0.95372222083172941698
O  -5.78582568311042511056 -1.64728677729911021643 -2.57023780092665665720
O  -0.73773614924839026052 -4.55082005612955775575 -3.06837569591808811964
O  4.60494108751403530277 -3.96622878976938064710 -2.04751294360803903771
O  5.51089034068398309074 1.89539249938175013988 -2.95590729180038813695
C  2.21877561653414900888 3.93091745157843019953 -1.83150699881148915082
C  -2.43703341709546794647 4.47105818176657887619 -0.66523693747410916899
C  -5.20475957224313479088 0.39731597485467984310 -1.42006973941786962534
C  -2.38127676782546915391 -3.25302065840269838404 -1.88850281771867911651
C  2.29083818924970739062 -4.03265794157949919452 -1.34196827120711925652
C  4.78374355357373559627 -0.07921556826066936119 -1.75652837800578920380
O  2.95978907701573756839 4.02999105522410960845 -3.02082727297879927164
O  -2.05802748860041750945 5.73612709045024526944 -1.15190620092513951178
O  -5.88058054611833469494 1.22747881263100988569 -2.32923887821376673912
O  -3.19127255102765827743 -3.04457554296714016928 -3.01769493583701819972
O  1.91775986910106821526 -5.08492791013237965814 -2.19872422703288883383
O  5.29532575127568527762 -1.00829228528355963057 -2.67980956684520821298
C  3.21669371315159757785 3.69387210059014980956 -0.69186082520354963421
C  -1.38795551033674868791 3.99685863851938982805 0.35420949320828976070
C  -5.16778178528489551269 1.11072336231340940138 -0.06149807731087994500
C  -3.29265555667351561553 -3.24033602237473994379 -0.65776494554374898005
C  1.38149539713368874061 -4.07715922342435987957 -0.10764441609134994815
C  4.77256626082026613744 -0.75675892258768917564 -0.38217592772181979699
C  2.55256396054111922567 3.77383000390614853359 0.69472730196528931224
C  -1.87658184279176842857 2.62959785738603990524 0.86959042675287956392
C  -4.66995162147994768986 0.17586095834351950229 1.06305633345943961743
C  -2.50721461222832919802 -3.60110911172643000100 0.61297497945516965512
C  1.85352377539312773713 -3.02051341305114995350 0.89710406424008881654
C  4.36577196934167766074 0.23022434129321070473 0.72517060885729955899
O  1.66907167957595858887 4.88692368085399930777 0.81124164518227925846
O  -3.08441362729646728624 2.81665904229748020882 1.56150817661108898271
O  -5.30102626309129565385 -1.10211608872167032835 0.99847272905182959946
O  -1.77848159054403920365 -4.80866574069801888669 0.42941785465123982757
O  3.21002454205557707922 -3.18580015958223006223 1.24237706618064924768
O  5.13256533557428618053 1.42782080075291051280 0.64399374126307928901
C  3.59066688938968736622 3.98044807994619054270 1.80950926664780875619
C  -0.89645500604576855430 1.89000615206742916818 1.74680470073063887071
C  -5.01952751177552602968 0.67278465397587872143 2.47922864883734828112
C  -3.43552903897644679176 -3.83876853711820009707 1.81094492657019912052
C  1.02780373685861881050 -3.05255631487953005276 2.17255950121327856550
C  4.63334413526010635564 -0.33982799439168964728 2.12582775292363868047
O  4.36587551677528651339 5.12623218609484077035 1.58164252684446804409
O  -1.34635178925135901018 1.75509148705510997779 2.99556395054215807150
O  -6.36137881605171440214 1.05950386521692951902 2.58358829301366776932
O  -4.39579169127993640842 -4.82015551998131019928 1.53892222940309930657
O  1.15961021883623871531 -1.88140208249342943958 2.80998166284474804044
O  5.97384117287688454212 -0.72056215651174970738 2.28104190831524888949
H  0.13224704601901035583 5.90028006910375868443 0.06179845111059995011
H  -5.02906546666553655456 3.26944512916705898320 1.32195973471651906372
H  -5.66005365569407548065 -2.74597562429162023179 -0.06617953327339991254
H  -0.37596333589037028711 -5.75629752710907105495 -0.61905323145201962554
H  5.07351651543867454563 -3.11302658157459832822 0.51127945807539909584
H  5.64867625842899290234 3.00541745320616016102 -0.46425305226986962603
H  2.01854436715261886803 6.06436711980527043409 -1.54656827692787923745
H  -3.84115196116301671481 5.32232493097132941529 0.73833328706388945406
H  -6.93123890356386596068 -0.87032777596413046783 -1.10908033325346933040
H  -2.33079476852577860413 -5.39901926729751036049 -2.10116728534805874418
H  3.97846078011181525369 -5.11278456573449080480 -0.51320329701895961438
H  6.65544385173537111910 0.99639818803564983440 -1.56359344794164911718
H  -0.44758121555990915130 5.54738430107657976009 -2.19514784185843891962
H  -4.99862717111371512857 4.04655674109809648797 -1.47877335682354948965
H  -4.87862214394077664537 -1.98151913903146037477 -2.69443521680572883881
H  0.17493009918405943992 -4.73959651674300985746 -2.77483024948440881730
H  4.66410798139857529776 -3.01874084232443751219 -2.26865624666724841063
H  4.64836089514038430792 2.34140600586418878848 -3.00041084851171824255
H  1.54098607645986906967 3.06283758725334953610 -1.87427115174566893963
H  -2.46085499425985743116 3.74585258222391859206 -1.49411825115310925582
H  -4.16019338913851743911 0.25205406388909978865 -1.74488235435312732946
H  -1.65150591338989927159 -2.43341514701178018854 -1.78743297510559906449
H  2.13072481812891645347 -3.06478741669444998408 -1.84269875172082908676
H  3.74246695990955480227 0.17505707611953005842 -2.01366769037927806352
H  2.36276715127818626172 4.34815172937626659433 -3.71377294779213817932
H  -2.81157367692486648281 6.10014489877917043259 -1.64421335474422902756
H  -6.09084081771053398313 0.69029656113981896493 -3.10886487380280840398
H  -2.66909052727224915813 -3.26592044166787065507 -3.80334705793696725706
H  2.58698386619235698447 -5.14749436802668913771 -2.89909019680832802379
H  5.49408568008983611008 -0.53311484335033920701 -3.50050276010526850712
H  4.02144260633307659702 4.43873977070721803528 -0.76158004326704964448
H  -1.33879622191689873212 4.69571097986318886086 1.19890805994787918998
H  -6.17413561112708553225 1.47410559342782954140 0.19007305348557004820
H  -4.09868189285289563628 -3.97092024710498758822 -0.80481580480895953400
H  1.40934724253084797674 -5.07071095687050732437 0.35457577458490985300
H  5.76955099277967686788 -1.16139533236291936369 -0.16672775541378001551
H  1.99677609145850842864 2.83976438078294002310 0.85744948004959942178
H  -2.03432580407637875197 1.97912333649938032565 -0.00933991151863993591
H  -3.58181057813990832983 0.04730107681938962305 0.97286818618691950356
H  -1.81875059986388909472 -2.77601408995254050893 0.84523606295103970165
H  1.70767087459974709063 -2.02632998237252959228 0.44167627387429975183
H  3.29684627784058648103 0.46242992506568020294 0.61428010446683900536
H  4.27684283934914866165 3.13377304722748029064 1.84096947029981894417
H  3.05499576615011703140 4.05618852724160117162 2.76325081195894650676
H  -4.79227452249524610295 -0.15173887546790032488 3.16617738075086840865
H  -4.40898511711660745505 1.53315883400238783807 2.74824849325204567663
H  -3.97170422031588721268 -2.91608560685773054999 2.03992773831826879061
H  -2.81226758138124921516 -4.12058300134711963381 2.66817818299924836012
H  4.35574918530906440850 0.42281946590956998033 2.86286040394648688689
H  4.02684838685082624465 -1.23311937246010971947 2.28407916476905814562
H  3.76320851633328734565 5.88246056441070930276 1.54085400740711886414
H  -6.90736717162538571557 0.28345440568049945496 2.39381796429284854355
H  -3.92388988794632753709 -5.64051884971686945391 1.33424427257381927880
H  6.51908788538571037918 0.06399434512467971903 2.12347478294185876280
C  0.26127497010885958328 -1.58912450335454979999 3.90285766255619792631
H  0.88951598116402896821 -1.18363696298226983572 4.68922404710705720277
H  -0.25570570590976021697 -2.48705044817073872565 4.23160082255163860765
O  0.34924840901390941106 -3.98334818409430990727 2.55358777221210875297
C  -0.58617522855173942453 0.84541176598609990567 3.79519962836908808512
H  -0.99939904616609909205 0.95260657278872973297 4.79784223568303769270
H  0.46887642779151966765 1.11663465419944030188 3.80502509435579794328
O  0.16237772092035962501 1.42572362705916000358 1.35186217851816903313
C  -0.72420064229639979914 -0.57561974826865003330 3.33162747555646809872
O  -1.53646263887656897573 -0.91508322368633943089 2.48476685153011844776
O  5.12016518841188084110 -3.80675011383641637153 3.06030596716629732512
H  4.25869305737139836054 -3.72293329273593265327 2.63580323223809243061
H  5.32062354544112547927 -2.90677049522949593197 3.34175791086644746741
O  -2.07739336173240829453 4.33352014407194108259 3.97883132084589563604
H  -2.35787845356035274946 3.79904446580360399821 3.22714925599252966393
H  -2.03711298227879344935 3.69888340896133804847 4.70338343691660476509
O  1.20861243434111176320 0.84716361011117102819 -2.45015501381522371460
H  1.47563441383520377315 -0.07837486559086279114 -2.48810045468183282935
H  0.38317580702480413812 0.86359757474617560025 -2.94789627442596335882
O  2.57954538705013813882 -5.94619569675729753300 2.93431070549187023033
H  2.65596581105262918854 -6.24703290143068468154 3.84700942856533290026
H  1.73718974537481085640 -5.47753390440847809373 2.92185435155271555629
O  7.29620667321037252862 3.05100343268505413974 1.44429872370218603805
H  7.01503845224758304511 2.20928903027048573193 1.06770429954158507790
H  6.76420353927246242876 3.12816771772275625807 2.24453643964550542123
O  -1.05493549403350583837 -0.20175112183925833498 -1.90578485440609046719
H  -1.23685437313731783071 -0.42092813198437378785 -0.98479135623696145707
H  -1.90977621469210645522 0.09335581160641551191 -2.23973290958756754421
O  0.40789638124594512769 4.85382894434815526097 3.72543848859718496058
H  0.01368879175008975990 4.49477322989597638525 2.92229377291796899030
H  0.03071683465176650030 4.30767446854185553917 4.42459007560179617968
O  1.21348797977724287556 -3.47827765770486418972 -4.92319011099401926401
H  1.25561636499323192595 -2.59985245536667353150 -4.52827692170230822200
H  0.26721009973673559568 -3.65151120294881614825 -4.98572311005507007309
O  -3.37744983416910171670 -0.80244443854341140909 5.02801316157645405980
H  -3.98342569205590901760 -0.66501468563138288470 5.76508058501425590947
H  -2.99943270180925969370 -1.67108239055839913334 5.20671184479757620522
O  -0.29409470751137145594 7.08250446257944599182 2.34081583065246645603
H  0.51752120379981159104 6.67959335556119793154 2.01171961923672348860
H  -0.39475462152669771321 6.69967646414601958327 3.21983367390093944138
O  -3.43295572661918013679 2.81287833768132600198 -3.73637328428637882638
H  -3.86438062166725604385 3.40821766400290560028 -4.35991615409412336390
H  -4.15948600299494675170 2.49865613529479757560 -3.18611859011283016230
O  1.35024310655608803522 2.97177396900470869312 -4.84512104697737200354
H  1.75484819780610545870 2.33269820340351374810 -4.24742635068489171601
H  0.40538034146273999037 2.85284786628234776629 -4.69527779335967210272
O  0.18322687505456614065 -6.60190669290909060152 2.15079632328284464649
H  -0.09082779438799913618 -5.87151553977062601319 1.58441759346140953468
H  -0.37141095595953899089 -7.33395350912017729428 1.85780076238388747178
O  2.56947934761413288030 -7.05085454762334773449 0.50028496151401569136
H  2.21567125483624716153 -7.92918499809157051317 0.31940511939356591720
H  2.62946282806246500741 -7.02634175534128413432 1.46213898812676346139
O  0.58627963217273637575 -7.34812615275521352487 -2.33549050516169032221
H  1.53648087109563014074 -7.23569529413239376225 -2.45312966360428363899
H  0.21408734174046861742 -6.97478527771062140062 -3.14261599316652207037
O  0.89019192326940954629 -0.81060957508683373351 -5.28435931750822174280
H  1.33739023672534007581 -0.02176180210095902262 -4.95710571016715118020
H  0.39779649937544075966 -0.48928159775481222526 -6.04833388575988006863
O  -7.04956873861824817595 -3.96410725474136516056 2.00995718922721300359
H  -7.15254410147000818654 -4.65493643898663123082 1.34549261014047272234
H  -6.11654403109737643263 -4.01710470963826971058 2.24663889184350029637
O  -2.39204768770303655145 0.15717982328363380717 -4.46632338538250728277
H  -1.53045049202667371446 0.00772474470296939664 -4.87212569674781104112
H  -3.01349931175671681416 -0.09387819900866248291 -5.15923738569354028982
187
Energy -0.057973
C  0.71130776615267965468 5.00482414727958069278 -0.19561568134503989902
C  -4.13784486848083687960 3.17739904325788646844 0.68958586950538958149
C  -5.17444863619361594687 -1.77393841750645009370 -0.21665732364067985527
C  -0.87384297371556018952 -4.77917785703500719308 -0.63719983279390968178
C  4.05339626216557658012 -3.03094590633414950887 0.11871533019796989827
C  5.04884681101444510176 2.09362244562296995198 -0.58404774284701976850
O  -0.12582766454131008582 3.86927617535052936759 -0.25997818896310981307
O  -4.31294268880552600365 2.22131748928795813569 -0.31126934222609969893
O  -3.82279935479500831974 -1.93070136534545921947 -0.57994872475585967919
O  0.05957377906125960187 -3.73642003081359996841 -0.49167570712067970584
O  3.83098722953195691687 -1.80990987403622982654 -0.51821454630126961849
O  3.72723448493223719069 2.39573122461048049203 -0.94081572077923947273
C  1.36673334302333859824 5.17738746353810963541 -1.57023401112807836633
C  -3.83082197195232687648 4.52142930134692022648 -0.00861440099554997007
C  -5.86696795055896558324 -0.98447702978594020529 -1.33884527976942946381
C  -1.61012054292363893104 -4.57805317038506043303 -1.97033050864001890723
C  3.77326160587263625956 -4.12352537948484876296 -0.93397915008777943058
C  5.59790018606635531029 1.22271087148065049632 -1.73017268935670931462
O  0.41249294889497961636 5.31215455814457548911 -2.59060683846512906925
O  -4.80930237402007687564 4.84002336366017882341 -0.95372222083172941698
O  -5.78582568311042511056 -1.64728677729911021643 -2.57023780092665665720
O  -0.73773614924839026052 -4.55082005612955775575 -3.06837569591808811964
O  4.60494108751403530277 -3.96622878976938064710 -2.04751294360803903771
O  5.51089034068398309074 1.89539249938175013988 -2.95590729180038813695
C  2.21877561653414900888 3.93091745157843019953 -1.83150699881148915082
C  -2.43703341709546794647 4.47105818176657887619 -0.66523693747410916899
C  -5.20475957224313479088 0.39731597485467984310 -1.42006973941786962534
C  -2.38127676782546915391 -3.25302065840269838404 -1.88850281771867911651
C  2.29083818924970739062 -4.03265794157949919452 -1.34196827120711925652
C  4.78374355357373559627 -0.07921556826066936119 -1.75652837800578920380
O  2.95978907701573756839 4.02999105522410960845 -3.02082727297879927164
O  -2.05802748860041750945 5.73612709045024526944 -1.15190620092513951178
O  -5.88058054611833469494 1.22747881263100988569 -2.32923887821376673912
O  -3.19127255102765827743 -3.04457554296714016928 -3.01769493583701819972
O  1.91775986910106821526 -5.08492791013237965814 -2.19872422703288883383
O  5.29532575127568527762 -1.00829228528355963057 -2.67980956684520821298
C  3.21669371315159757785 3.69387210059014980956 -0.69186082520354963421
C  -1.38795551033674868791 3.99685863851938982805 0.35420949320828976070
C  -5.16778178528489551269 1.11072336231340940138 -0.06149807731087994500
C  -3.29265555667351561553 -3.24033602237473994379 -0.65776494554374898005
C  1.38149539713368874061 -4.07715922342435987957 -0.10764441609134994815
C  4.77256626082026613744 -0.75675892258768917564 -0.38217592772181979699
C  2.55256396054111922567 3.77383000390614853359 0.69472730196528931224
C  -1.87658184279176842857 2.62959785738603990524 0.86959042675287956392
C  -4.66995162147994768986 0.17586095834351950229 1.06305633345943961743
C  -2.50721461222832919802 -3.60110911172643000100 0.61297497945516965512
C  1.85352377539312773713 -3.02051341305114995350 0.89710406424008881654
C  4.36577196934167766074 0.23022434129321070473 0.72517060885729955899
O  1.66907167957595858887 4.88692368085399930777 0.81124164518227925846
O  -3.08441362729646728624 2.81665904229748020882 1.56150817661108898271
O  -5.30102626309129565385 -1.10211608872167032835 0.99847272905182959946
O  -1.77848159054403920365 -4.80866574069801888669 0.42941785465123982757
O  3.21002454205557707922 -3.18580015958223006223 1.24237706618064924768
O  5.13256533557428618053 1.42782080075291051280 0.64399374126307928901
C  3.59066688938968736622 3.98044807994619054270 1.80950926664780875619
C  -0.89645500604576855430 1.89000615206742916818 1.74680470073063887071
C  -5.01952751177552602968 0.67278465397587872143 2.47922864883734828112
C  -3.43552903897644679176 -3.83876853711820009707 1.81094492657019912052
C  1.02780373685861881050 -3.05255631487953005276 2.17255950121327856550
C  4.63334413526010635564 -0.33982799439168964728 2.12582775292363868047
O  4.36587551677528651339 5.12623218609484077035 1.58164252684446804409
O  -1.34635178925135901018 1.75509148705510997779 2.99556395054215807150
O  -6.36137881605171440214 1.05950386521692951902 2.58358829301366776932
O  -4.39579169127993640842 -4.82015551998131019928 1.53892222940309930657
O  1.15961021883623871531 -1.88140208249342943958 2.80998166284474804044
O  5.97384117287688454212 -0.72056215651174970738 2.28104190831524888949
H  0.13224704601901035583 5.90028006910375868443 0.06179845111059995011
H  -5.02906546666553655456 3.26944512916705898320 1.32195973471651906372
H  -5.66005365569407548065 -2.74597562429162023179 -0.06617953327339991254
H  -0.37596333589037028711 -5.75629752710907105495 -0.61905323145201962554
H  5.07351651543867454563 -3.11302658157459832822 0.51127945807539909584
H  5.64867625842899290234 3.00541745320616016102 -0.46425305226986962603
H  2.01854436715261886803 6.06436711980527043409 -1.54656827692787923745
H  -3.84115196116301671481 5.32232493097132941529 0.73833328706388945406
H  -6.93123890356386596068 -0.87032777596413046783 -1.10908033325346933040
H  -2.33079476852577860413 -5.39901926729751036049 -2.10116728534805874418
H  3.97846078011181525369 -5.11278456573449080480 -0.51320329701895961438
H  6.65544385173537111910 0.99639818803564983440 -1.56359344794164911718
H  -0.44758121555990915130 5.54738430107657976009 -2.19514784185843891962
H  -4.99862717111371512857 4.04655674109809648797 -1.47877335682354948965
H  -4.87862214394077664537 -1.98151913903146037477 -2.69443521680572883881
H  0.17493009918405943992 -4.73959651674300985746 -2.77483024948440881730
H  4.66410798139857529776 -3.01874084232443751219 -2.26865624666724841063
H  4.64836089514038430792 2.34140600586418878848 -3.00041084851171824255
H  1.54098607645986906967 3.06283758725334953610 -1.87427115174566893963
H  -2.46085499425985743116 3.74585258222391859206 -1.49411825115310925582
H  -4.16019338913851743911 0.25205406388909978865 -1.74488235435312732946
H  -1.65150591338989927159 -2.43341514701178018854 -1.78743297510559906449
H  2.13072481812891645347 -3.06478741669444998408 -1.84269875172082908676
H  3.74246695990955480227 0.17505707611953005842 -2.01366769037927806352
H  2.36276715127818626172 4.34815172937626659433 -3.71377294779213817932
H  -2.81157367692486648281 6.10014489877917043259 -1.64421335474422902756
H  -6.09084081771053398313 0.69029656113981896493 -3.10886487380280840398
H  -2.66909052727224915813 -3.26592044166787065507 -3.80334705793696725706
H  2.58698386619235698447 -5.14749436802668913771 -2.89909019680832802379
H  5.49408568008983611008 -0.53311484335033920701 -3.50050276010526850712
H  4.02144260633307659702 4.43873977070721803528 -0.76158004326704964448
H  -1.33879622191689873212 4.69571097986318886086 1.19890805994787918998
H  -6.17413561112708553225 1.47410559342782954140 0.19007305348557004820
H  -4.09868189285289563628 -3.97092024710498758822 -0.80481580480895953400
H  1.40934724253084797674 -5.07071095687050732437 0.35457577458490985300
H  5.76955099277967686788 -1.16139533236291936369 -0.16672775541378001551
H  1.99677609145850842864 2.83976438078294002310 0.85744948004959942178
H  -2.03432580407637875197 1.97912333649938032565 -0.00933991151863993591
H  -3.58181057813990832983 0.04730107681938962305 0.97286818618691950356
H  -1.81875059986388909472 -2.77601408995254050893 0.84523606295103970165
H  1.70767087459974709063 -2.02632998237252959228 0.44167627387429975183
H  3.29684627784058648103 0.46242992506568020294 0.61428010446683900536
H  4.27684283934914866165 3.13377304722748029064 1.84096947029981894417
H  3.05499576615011703140 4.05618852724160117162 2.76325081195894650676
H  -4.79227452249524610295 -0.15173887546790032488 3.16617738075086840865
H  -4.40898511711660745505 1.53315883400238783807 2.74824849325204567663
H  -3.97170422031588721268 -2.91608560685773054999 2.03992773831826879061
H  -2.81226758138124921516 -4.12058300134711963381 2.66817818299924836012
H  4.35574918530906440850 0.42281946590956998033 2.86286040394648688689
H  4.02684838685082624465 -1.23311937246010971947 2.28407916476905814562
H  3.76320851633328734565 5.88246056441070930276 1.54085400740711886414
H  -6.90736717162538571557 0.28345440568049945496 2.39381796429284854355
H  -3.92388988794632753709 -5.64051884971686945391 1.33424427257381927880
H  6.51908788538571037918 0.06399434512467971903 2.12347478294185876280
C  0.26127497010885958328 -1.58912450335454979999 3.90285766255619792631
H  0.88951598116402896821 -1.18363696298226983572 4.68922404710705720277
H  -0.25570570590976021697 -2.48705044817073872565 4.23160082255163860765
O  0.34924840901390941106 -3.98334818409430990727 2.55358777221210875297
C  -0.58617522855173942453 0.84541176598609990567 3.79519962836908808512
H  -0.99939904616609909205 0.95260657278872973297 4.79784223568303769270
H  0.46887642779151966765 1.11663465419944030188 3.80502509435579794328
O  0.16237772092035962501 1.42572362705916000358 1.35186217851816903313
C  -0.72420064229639979914 -0.57561974826865003330 3.33162747555646809872
O  -1.53646263887656897573 -0.91508322368633943089 2.48476685153011844776
O  5.12016518841188084110 -3.80675011383641637153 3.06030596716629732512
H  4.25869305737139836054 -3.72293329273593265327 2.63580323223809243061
H  5.32062354544112547927 -2.90677049522949593197 3.34175791086644746741
O  -2.07739336173240829453 4.33352014407194108259 3.97883132084589563604
H  -2.35787845356035274946 3.79904446580360399821 3.22714925599252966393
H  -2.03711298227879344935 3.69888340896133804847 4.70338343691660476509
O  1.20861243434111176320 0.84716361011117102819 -2.45015501381522371460
H  1.47563441383520377315 -0.07837486559086279114 -2.48810045468183282935
H  0.38317580702480413812 0.86359757474617560025 -2.94789627442596335882
O  2.57954538705013813882 -5.94619569675729753300 2.93431070549187023033
H  2.65596581105262918854 -6.24703290143068468154 3.84700942856533290026
H  1.73718974537481085640 -5.47753390440847809373 2.92185435155271555629
O  7.29620667321037252862 3.05100343268505413974 1.44429872370218603805
H  7.01503845224758304511 2.20928903027048573193 1.06770429954158507790
H  6.76420353927246242876 3.12816771772275625807 2.24453643964550542123
O  -1.05493549403350583837 -0.20175112183925833498 -1.90578485440609046719
H  -1.23685437313731783071 -0.42092813198437378785 -0.98479135623696145707
H  -1.90977621469210645522 0.09335581160641551191 -2.23973290958756754421
O  0.40789638124594512769 4.85382894434815526097 3.72543848859718496058
H  0.01368879175008975990 4.49477322989597638525 2.92229377291796899030
H  0.03071683465176650030 4.30767446854185553917 4.42459007560179617968
O  1.21348797977724287556 -3.47827765770486418972 -4.92319011099401926401
H  1.25561636499323192595 -2.59985245536667353150 -4.52827692170230822200
H  0.26721009973673559568 -3.65151120294881614825 -4.98572311005507007309
O  -3.37744983416910171670 -0.80244443854341140909 5.02801316157645405980
H  -3.98342569205590901760 -0.66501468563138288470 5.76508058501425590947
H  -2.99943270180925969370 -1.67108239055839913334 5.20671184479757620522
O  -0.29409470751137145594 7.08250446257944599182 2.34081583065246645603
H  0.51752120379981159104 6.67959335556119793154 2.01171961923672348860
H  -0.39475462152669771321 6.69967646414601958327 3.21983367390093944138
O  -3.43295572661918013679 2.81287833768132600198 -3.73637328428637882638
H  -3.86438062166725604385 3.40821766400290560028 -4.35991615409412336390
H  -4.15948600299494675170 2.49865613529479757560 -3.18611859011283016230
O  1.35024310655608803522 2.97177396900470869312 -4.84512104697737200354
H  1.75484819780610545870 2.33269820340351374810 -4.24742635068489171601
H  0.40538034146273999037 2.85284786628234776629 -4.69527779335967210272
O  0.18322687505456614065 -6.60190669290909060152 2.15079632328284464649
H  -0.09082779438799913618 -5.87151553977062601319 1.58441759346140953468
H  -0.37141095595953899089 -7.33395350912017729428 1.85780076238388747178
O  2.56947934761413288030 -7.05085454762334773449 0.50028496151401569136
H  2.21567125483624716153 -7.92918499809157051317 0.31940511939356591720
H  2.62946282806246500741 -7.02634175534128413432 1.46213898812676346139
O  0.58627963217273637575 -7.34812615275521352487 -2.33549050516169032221
H  1.53648087109563014074 -7.23569529413239376225 -2.45312966360428363899
H  0.21408734174046861742 -6.97478527771062140062 -3.14261599316652207037
O  0.89019192326940954629 -0.81060957508683373351 -5.28435931750822174280
H  1.33739023672534007581 -0.02176180210095902262 -4.95710571016715118020
H  0.39779649937544075966 -0.48928159775481222526 -6.04833388575988006863
O  -7.04956873861824728777 -3.96410725474136516056 2.00995718922721300359
H  -7.15254410147000818654 -4.65493643898663123082 1.34549261014047272234
H  -6.11654403109737643263 -4.01710470963826971058 2.24663889184350029637
O  -2.39204768770303655145 0.15717982328363380717 -4.46632338538250728277
H  -1.53045049202667371446 0.00772474470296939664 -4.87212569674781104112
H  -3.01349931175671681416 -0.09387819900866256617 -5.15923738569354028982
O  3.14332620986744570857 -1.62109111580771436678 -4.37889695172932036371
H  3.95613356745356270494 -1.99669242749930186953 -4.73615024860673283769
H  3.41939840053587573721 -1.25197539084039122237 -3.53219760098863444497
190
Energy 0.936525
C  0.71130776615267965468 5.00482414727958069278 -0.19561568134503989902
C  -4.13784486848083687960 3.17739904325788646844 0.68958586950538958149
C  -5.17444863619361594687 -1.77393841750645009370 -0.21665732364067985527
C  -0.87384297371556018952 -4.77917785703500719308 -0.63719983279390968178
C  4.05339626216557658012 -3.03094590633414950887 0.11871533019796989827
C  5.04884681101444510176 2.09362244562296995198 -0.58404774284701976850
O  -0.12582766454131008582 3.86927617535052936759 -0.25997818896310981307
O  -4.31294268880552600365 2.22131748928795813569 -0.31126934222609969893
O  -3.82279935479500831974 -1.93070136534545921947 -0.57994872475585967919
O  0.05957377906125960187 -3.73642003081359996841 -0.49167570712067970584
O  3.83098722953195691687 -1.80990987403622982654 -0.51821454630126961849
O  3.72723448493223719069 2.39573122461048049203 -0.94081572077923947273
C  1.36673334302333859824 5.17738746353810963541 -1.57023401112807836633
C  -3.83082197195232687648 4.52142930134692022648 -0.00861440099554997007
C  -5.86696795055896558324 -0.98447702978594020529 -1.33884527976942946381
C  -1.61012054292363893104 -4.57805317038506043303 -1.97033050864001890723
C  3.77326160587263625956 -4.12352537948484876296 -0.93397915008777943058
C  5.59790018606635531029 1.22271087148065049632 -1.73017268935670931462
O  0.41249294889497961636 5.31215455814457548911 -2.59060683846512906925
O  -4.80930237402007687564 4.84002336366017882341 -0.95372222083172941698
O  -5.78582568311042511056 -1.64728677729911021643 -2.57023780092665665720
O  -0.73773614924839026052 -4.55082005612955775575 -3.06837569591808811964
O  4.60494108751403530277 -3.96622878976938064710 -2.04751294360803903771
O  5.51089034068398309074 1.89539249938175013988 -2.95590729180038813695
C  2.21877561653414900888 3.93091745157843019953 -1.83150699881148915082
C  -2.43703341709546794647 4.47105818176657887619 -0.66523693747410916899
C  -5.20475957224313479088 0.39731597485467984310 -1.42006973941786962534
C  -2.38127676782546915391 -3.25302065840269838404 -1.88850281771867911651
C  2.29083818924970739062 -4.03265794157949919452 -1.34196827120711925652
C  4.78374355357373559627 -0.07921556826066936119 -1.75652837800578920380
O  2.95978907701573756839 4.02999105522410960845 -3.02082727297879927164
O  -2.05802748860041750945 5.73612709045024526944 -1.15190620092513951178
O  -5.88058054611833469494 1.22747881263100988569 -2.32923887821376673912
O  -3.19127255102765827743 -3.04457554296714016928 -3.01769493583701819972
O  1.91775986910106821526 -5.08492791013237965814 -2.19872422703288883383
O  5.29532575127568527762 -1.00829228528355963057 -2.67980956684520821298
C  3.21669371315159757785 3.69387210059014980956 -0.69186082520354963421
C  -1.38795551033674868791 3.99685863851938982805 0.35420949320828976070
C  -5.16778178528489551269 1.11072336231340940138 -0.06149807731087994500
C  -3.29265555667351561553 -3.24033602237473994379 -0.65776494554374898005
C  1.38149539713368874061 -4.07715922342435987957 -0.10764441609134994815
C  4.77256626082026613744 -0.75675892258768917564 -0.38217592772181979699
C  2.55256396054111922567 3.77383000390614853359 0.69472730196528931224
C  -1.87658184279176842857 2.62959785738603990524 0.86959042675287956392
C  -4.66995162147994768986 0.17586095834351950229 1.06305633345943961743
C  -2.50721461222832919802 -3.60110911172643000100 0.61297497945516965512
C  1.85352377539312773713 -3.02051341305114995350 0.89710406424008881654
C  4.36577196934167766074 0.23022434129321070473 0.72517060885729955899
O  1.66907167957595858887 4.88692368085399930777 0.81124164518227925846
O  -3.08441362729646728624 2.81665904229748020882 1.56150817661108898271
O  -5.30102626309129565385 -1.10211608872167032835 0.99847272905182959946
O  -1.77848159054403920365 -4.80866574069801888669 0.42941785465123982757
O  3.21002454205557707922 -3.18580015958223006223 1.24237706618064924768
O  5.13256533557428618053 1.42782080075291051280 0.64399374126307928901
C  3.59066688938968736622 3.98044807994619054270 1.80950926664780875619
C  -0.89645500604576855430 1.89000615206742916818 1.74680470073063887071
C  -5.01952751177552602968 0.67278465397587872143 2.47922864883734828112
C  -3.43552903897644679176 -3.83876853711820009707 1.81094492657019912052
C  1.02780373685861881050 -3.05255631487953005276 2.17255950121327856550
C  4.63334413526010635564 -0.33982799439168964728 2.12582775292363868047
O  4.36587551677528651339 5.12623218609484077035 1.58164252684446804409
O  -1.34635178925135901018 1.75509148705510997779 2.99556395054215807150
O  -6.36137881605171440214 1.05950386521692951902 2.58358829301366776932
O  -4.39579169127993640842 -4.82015551998131019928 1.53892222940309930657
O  1.15961021883623871531 -1.88140208249342943958 2.80998166284474804044
O  5.97384117287688454212 -0.72056215651174970738 2.28104190831524888949
H  0.13224704601901035583 5.90028006910375868443 0.06179845111059995011
H  -5.02906546666553655456 3.26944512916705898320 1.32195973471651906372
H  -5.66005365569407548065 -2.74597562429162023179 -0.06617953327339991254
H  -0.37596333589037028711 -5.75629752710907105495 -0.61905323145201962554
H  5.07351651543867454563 -3.11302658157459832822 0.51127945807539909584
H  5.64867625842899290234 3.00541745320616016102 -0.46425305226986962603
H  2.01854436715261886803 6.06436711980527043409 -1.54656827692787923745
H  -3.84115196116301671481 5.32232493097132941529 0.73833328706388945406
H  -6.93123890356386596068 -0.87032777596413046783 -1.10908033325346933040
H  -2.33079476852577860413 -5.39901926729751036049 -2.10116728534805874418
H  3.97846078011181525369 -5.11278456573449080480 -0.51320329701895961438
H  6.65544385173537111910 0.99639818803564983440 -1.56359344794164911718
H  -0.44758121555990915130 5.54738430107657976009 -2.19514784185843891962
H  -4.99862717111371512857 4.04655674109809648797 -1.47877335682354948965
H  -4.87862214394077664537 -1.98151913903146037477 -2.69443521680572883881
H  0.17493009918405943992 -4.73959651674300985746 -2.77483024948440881730
H  4.66410798139857529776 -3.01874084232443751219 -2.26865624666724841063
H  4.64836089514038430792 2.34140600586418878848 -3.00041084851171824255
H  1.54098607645986906967 3.06283758725334953610 -1.87427115174566893963
H  -2.46085499425985743116 3.74585258222391859206 -1.49411825115310925582
H  -4.16019338913851743911 0.25205406388909978865 -1.74488235435312732946
H  -1.65150591338989927159 -2.43341514701178018854 -1.78743297510559906449
H  2.13072481812891645347 -3.06478741669444998408 -1.84269875172082908676
H  3.74246695990955480227 0.17505707611953005842 -2.01366769037927806352
H  2.36276715127818626172 4.34815172937626659433 -3.71377294779213817932
H  -2.81157367692486648281 6.10014489877917043259 -1.64421335474422902756
H  -6.09084081771053398313 0.69029656113981896493 -3.10886487380280840398
H  -2.66909052727224915813 -3.26592044166787065507 -3.80334705793696725706
H  2.58698386619235698447 -5.14749436802668913771 -2.89909019680832802379
H  5.49408568008983611008 -0.53311484335033920701 -3.50050276010526850712
H  4.02144260633307659702 4.43873977070721803528 -0.76158004326704964448
H  -1.33879622191689873212 4.69571097986318886086 1.19890805994787918998
H  -6.17413561112708553225 1.47410559342782954140 0.19007305348557004820
H  -4.09868189285289563628 -3.97092024710498758822 -0.80481580480895953400
H  1.40934724253084797674 -5.07071095687050732437 0.35457577458490985300
H  5.76955099277967686788 -1.16139533236291936369 -0.16672775541378001551
H  1.99677609145850842864 2.83976438078294002310 0.85744948004959942178
H  -2.03432580407637875197 1.97912333649938032565 -0.00933991151863993591
H  -3.58181057813990832983 0.04730107681938962305 0.97286818618691950356
H  -1.81875059986388909472 -2.77601408995254050893 0.84523606295103970165
H  1.70767087459974709063 -2.02632998237252959228 0.44167627387429975183
H  3.29684627784058648103 0.46242992506568020294 0.61428010446683900536
H  4.27684283934914866165 3.13377304722748029064 1.84096947029981894417
H  3.05499576615011703140 4.05618852724160117162 2.76325081195894650676
H  -4.79227452249524610295 -0.15173887546790032488 3.16617738075086840865
H  -4.40898511711660745505 1.53315883400238783807 2.74824849325204567663
H  -3.97170422031588721268 -2.91608560685773054999 2.03992773831826879061
H  -2.81226758138124921516 -4.12058300134711963381 2.66817818299924836012
H  4.35574918530906440850 0.42281946590956998033 2.86286040394648688689
H  4.02684838685082624465 -1.23311937246010971947 2.28407916476905814562
H  3.76320851633328734565 5.88246056441070930276 1.54085400740711886414
H  -6.90736717162538571557 0.28345440568049945496 2.39381796429284854355
H  -3.92388988794632753709 -5.64051884971686945391 1.33424427257381927880
H  6.51908788538571037918 0.06399434512467971903 2.12347478294185876280
C  0.26127497010885958328 -1.58912450335454979999 3.90285766255619792631
H  0.88951598116402896821 -1.18363696298226983572 4.68922404710705720277
H  -0.25570570590976021697 -2.48705044817073872565 4.23160082255163860765
O  0.34924840901390941106 -3.98334818409430990727 2.55358777221210875297
C  -0.58617522855173942453 0.84541176598609990567 3.79519962836908808512
H  -0.99939904616609909205 0.95260657278872973297 4.79784223568303769270
H  0.46887642779151966765 1.11663465419944030188 3.80502509435579794328
O  0.16237772092035962501 1.42572362705916000358 1.35186217851816903313
C  -0.72420064229639979914 -0.57561974826865003330 3.33162747555646809872
O  -1.53646263887656897573 -0.91508322368633943089 2.48476685153011844776
O  5.12016518841188084110 -3.80675011383641637153 3.06030596716629732512
H  4.25869305737139836054 -3.72293329273593265327 2.63580323223809243061
H  5.32062354544112547927 -2.90677049522949593197 3.34175791086644746741
O  -2.07739336173240829453 4.33352014407194108259 3.97883132084589563604
H  -2.35787845356035274946 3.79904446580360399821 3.22714925599252966393
H  -2.03711298227879344935 3.69888340896133804847 4.70338343691660476509
O  1.20861243434111176320 0.84716361011117102819 -2.45015501381522371460
H  1.47563441383520377315 -0.07837486559086279114 -2.48810045468183282935
H  0.38317580702480413812 0.86359757474617560025 -2.94789627442596335882
O  2.57954538705013813882 -5.94619569675729753300 2.93431070549187023033
H  2.65596581105262918854 -6.24703290143068468154 3.84700942856533290026
H  1.73718974537481085640 -5.47753390440847809373 2.92185435155271555629
O  7.29620667321037252862 3.05100343268505413974 1.44429872370218603805
H  7.01503845224758304511 2.20928903027048573193 1.06770429954158507790
H  6.76420353927246242876 3.12816771772275625807 2.24453643964550542123
O  -1.05493549403350583837 -0.20175112183925833498 -1.90578485440609046719
H  -1.23685437313731783071 -0.42092813198437378785 -0.98479135623696145707
H  -1.90977621469210645522 0.09335581160641551191 -2.23973290958756754421
O  0.40789638124594512769 4.85382894434815526097 3.72543848859718496058
H  0.01368879175008975990 4.49477322989597638525 2.92229377291796899030
H  0.03071683465176650030 4.30767446854185553917 4.42459007560179617968
O  1.21348797977724287556 -3.47827765770486418972 -4.92319011099401926401
H  1.25561636499323192595 -2.59985245536667353150 -4.52827692170230822200
H  0.26721009973673559568 -3.65151120294881614825 -4.98572311005507007309
O  -3.37744983416910171670 -0.80244443854341140909 5.02801316157645405980
H  -3.98342569205590901760 -0.66501468563138288470 5.76508058501425590947
H  -2.99943270180925969370 -1.67108239055839913334 5.20671184479757620522
O  -0.29409470751137145594 7.08250446257944599182 2.34081583065246645603
H  0.51752120379981159104 6.67959335556119793154 2.01171961923672348860
H  -0.39475462152669771321 6.69967646414601958327 3.21983367390093944138
O  -3.43295572661918013679 2.81287833768132600198 -3.73637328428637882638
H  -3.86438062166725604385 3.40821766400290560028 -4.35991615409412336390
H  -4.15948600299494675170 2.49865613529479757560 -3.18611859011283016230
O  1.35024310655608803522 2.97177396900470869312 -4.84512104697737200354
H  1.75484819780610545870 2.33269820340351374810 -4.24742635068489171601
H  0.40538034146273999037 2.85284786628234776629 -4.69527779335967210272
O  0.18322687505456614065 -6.60190669290909060152 2.15079632328284464649
H  -0.09082779438799913618 -5.87151553977062601319 1.58441759346140953468
H  -0.37141095595953899089 -7.33395350912017729428 1.85780076238388747178
O  2.56947934761413288030 -7.05085454762334773449 0.50028496151401569136
H  2.21567125483624716153 -7.92918499809157051317 0.31940511939356591720
H  2.62946282806246500741 -7.02634175534128413432 1.46213898812676346139
O  0.58627963217273637575 -7.34812615275521352487 -2.33549050516169032221
H  1.53648087109563014074 -7.23569529413239376225 -2.45312966360428363899
H  0.21408734174046861742 -6.97478527771062140062 -3.14261599316652207037
O  0.89019192326940954629 -0.81060957508683373351 -5.28435931750822174280
H  1.33739023672534007581 -0.02176180210095902262 -4.95710571016715118020
H  0.39779649937544075966 -0.48928159775481222526 -6.04833388575988006863
O  -7.04956873861824728777 -3.96410725474136516056 2.00995718922721300359
H  -7.15254410147000818654 -4.65493643898663123082 1.34549261014047272234
H  -6.11654403109737643263 -4.01710470963826971058 2.24663889184350029637
O  -2.39204768770303655145 0.15717982328363380717 -4.46632338538250728277
H  -1.53045049202667371446 0.00772474470296939664 -4.87212569674781104112
H  -3.01349931175671681416 -0.09387819900866259393 -5.15923738569354028982
O  3.14332620986744482039 -1.62109111580771458883 -4.37889695172932036371
H  3.95613356745356270494 -1.99669242749930186953 -4.73615024860673283769
H  3.41939840053587484903 -1.25197539084039055624 -3.53219760098863355680
O  -2.67562507398253446311 -2.72429854713833474733 -5.71877295514880223948
H  -2.04201429833394332292 -2.02689782699283638223 -5.51497971545993781461
H  -3.48775396947860283348 -2.24134700532619701718 -5.90999672141472842668
193
Energy 0.034881
C  0.71130776615267965468 5.00482414727958069278 -0.19561568134503989902
C  -4.13784486848083687960 3.17739904325788646844 0.68958586950538958149
C  -5.17444863619361594687 -1.77393841750645009370 -0.21665732364067985527
C  -0.87384297371556018952 -4.77917785703500719308 -0.63719983279390968178
C  4.05339626216557658012 -3.03094590633414950887 0.11871533019796989827
C  5.04884681101444510176 2.09362244562296995198 -0.58404774284701976850
O  -0.12582766454131008582 3.86927617535052936759 -0.25997818896310981307
O  -4.31294268880552600365 2.22131748928795813569 -0.31126934222609969893
O  -3.82279935479500831974 -1.93070136534545921947 -0.57994872475585967919
O  0.05957377906125960187 -3.73642003081359996841 -0.49167570712067970584
O  3.83098722953195691687 -1.80990987403622982654 -0.51821454630126961849
O  3.72723448493223719069 2.39573122461048049203 -0.94081572077923947273
C  1.36673334302333859824 5.17738746353810963541 -1.57023401112807836633
C  -3.83082197195232687648 4.52142930134692022648 -0.00861440099554997007
C  -5.86696795055896558324 -0.98447702978594020529 -1.33884527976942946381
C  -1.61012054292363893104 -4.57805317038506043303 -1.97033050864001890723
C  3.77326160587263625956 -4.12352537948484876296 -0.93397915008777943058
C  5.59790018606635531029 1.22271087148065049632 -1.73017268935670931462
O  0.41249294889497961636 5.31215455814457548911 -2.59060683846512906925
O  -4.80930237402007687564 4.84002336366017882341 -0.95372222083172941698
O  -5.78582568311042511056 -1.64728677729911021643 -2.57023780092665665720
O  -0.73773614924839026052 -4.55082005612955775575 -3.06837569591808811964
O  4.60494108751403530277 -3.96622878976938064710 -2.04751294360803903771
O  5.51089034068398309074 1.89539249938175013988 -2.95590729180038813695
C  2.21877561653414900888 3.93091745157843019953 -1.83150699881148915082
C  -2.43703341709546794647 4.47105818176657887619 -0.66523693747410916899
C  -5.20475957224313479088 0.39731597485467984310 -1.42006973941786962534
C  -2.38127676782546915391 -3.25302065840269838404 -1.88850281771867911651
C  2.29083818924970739062 -4.03265794157949919452 -1.34196827120711925652
C  4.78374355357373559627 -0.07921556826066936119 -1.75652837800578920380
O  2.95978907701573756839 4.02999105522410960845 -3.02082727297879927164
O  -2.05802748860041750945 5.73612709045024526944 -1.15190620092513951178
O  -5.88058054611833469494 1.22747881263100988569 -2.32923887821376673912
O  -3.19127255102765827743 -3.04457554296714016928 -3.01769493583701819972
O  1.91775986910106821526 -5.08492791013237965814 -2.19872422703288883383
O  5.29532575127568527762 -1.00829228528355963057 -2.67980956684520821298
C  3.21669371315159757785 3.69387210059014980956 -0.69186082520354963421
C  -1.38795551033674868791 3.99685863851938982805 0.35420949320828976070
C  -5.16778178528489551269 1.11072336231340940138 -0.06149807731087994500
C  -3.29265555667351561553 -3.24033602237473994379 -0.65776494554374898005
C  1.38149539713368874061 -4.07715922342435987957 -0.10764441609134994815
C  4.77256626082026613744 -0.75675892258768917564 -0.38217592772181979699
C  2.55256396054111922567 3.77383000390614853359 0.69472730196528931224
C  -1.87658184279176842857 2.62959785738603990524 0.86959042675287956392
C  -4.66995162147994768986 0.17586095834351950229 1.06305633345943961743
C  -2.50721461222832919802 -3.60110911172643000100 0.61297497945516965512
C  1.85352377539312773713 -3.02051341305114995350 0.89710406424008881654
C  4.36577196934167766074 0.23022434129321070473 0.72517060885729955899
O  1.66907167957595858887 4.88692368085399930777 0.81124164518227925846
O  -3.08441362729646728624 2.81665904229748020882 1.56150817661108898271
O  -5.30102626309129565385 -1.10211608872167032835 0.99847272905182959946
O  -1.77848159054403920365 -4.80866574069801888669 0.42941785465123982757
O  3.21002454205557707922 -3.18580015958223006223 1.24237706618064924768
O  5.13256533557428618053 1.42782080075291051280 0.64399374126307928901
C  3.59066688938968736622 3.98044807994619054270 1.80950926664780875619
C  -0.89645500604576855430 1.89000615206742916818 1.74680470073063887071
C  -5.01952751177552602968 0.67278465397587872143 2.47922864883734828112
C  -3.43552903897644679176 -3.83876853711820009707 1.81094492657019912052
C  1.02780373685861881050 -3.05255631487953005276 2.17255950121327856550
C  4.63334413526010635564 -0.33982799439168964728 2.12582775292363868047
O  4.36587551677528651339 5.12623218609484077035 1.58164252684446804409
O  -1.34635178925135901018 1.75509148705510997779 2.99556395054215807150
O  -6.36137881605171440214 1.05950386521692951902 2.58358829301366776932
O  -4.39579169127993640842 -4.82015551998131019928 1.53892222940309930657
O  1.15961021883623871531 -1.88140208249342943958 2.80998166284474804044
O  5.97384117287688454212 -0.72056215651174970738 2.28104190831524888949
H  0.13224704601901035583 5.90028006910375868443 0.06179845111059995011
H  -5.02906546666553655456 3.26944512916705898320 1.32195973471651906372
H  -5.66005365569407548065 -2.74597562429162023179 -0.06617953327339991254
H  -0.37596333589037028711 -5.75629752710907105495 -0.61905323145201962554
H  5.07351651543867454563 -3.11302658157459832822 0.51127945807539909584
H  5.64867625842899290234 3.00541745320616016102 -0.46425305226986962603
H  2.01854436715261886803 6.06436711980527043409 -1.54656827692787923745
H  -3.84115196116301671481 5.32232493097132941529 0.73833328706388945406
H  -6.93123890356386596068 -0.87032777596413046783 -1.10908033325346933040
H  -2.33079476852577860413 -5.39901926729751036049 -2.10116728534805874418
H  3.97846078011181525369 -5.11278456573449080480 -0.51320329701895961438
H  6.65544385173537111910 0.99639818803564983440 -1.56359344794164911718
H  -0.44758121555990915130 5.54738430107657976009 -2.19514784185843891962
H  -4.99862717111371512857 4.04655674109809648797 -1.47877335682354948965
H  -4.87862214394077664537 -1.98151913903146037477 -2.69443521680572883881
H  0.17493009918405943992 -4.73959651674300985746 -2.77483024948440881730
H  4.66410798139857529776 -3.01874084232443751219 -2.26865624666724841063
H  4.64836089514038430792 2.34140600586418878848 -3.00041084851171824255
H  1.54098607645986906967 3.06283758725334953610 -1.87427115174566893963
H  -2.46085499425985743116 3.74585258222391859206 -1.49411825115310925582
H  -4.16019338913851743911 0.25205406388909978865 -1.74488235435312732946
H  -1.65150591338989927159 -2.43341514701178018854 -1.78743297510559906449
H  2.13072481812891645347 -3.06478741669444998408 -1.84269875172082908676
H  3.74246695990955480227 0.17505707611953005842 -2.01366769037927806352
H  2.36276715127818626172 4.34815172937626659433 -3.71377294779213817932
H  -2.81157367692486648281 6.10014489877917043259 -1.64421335474422902756
H  -6.09084081771053398313 0.69029656113981896493 -3.10886487380280840398
H  -2.66909052727224915813 -3.26592044166787065507 -3.80334705793696725706
H  2.58698386619235698447 -5.14749436802668913771 -2.89909019680832802379
H  5.49408568008983611008 -0.53311484335033920701 -3.50050276010526850712
H  4.02144260633307659702 4.43873977070721803528 -0.76158004326704964448
H  -1.33879622191689873212 4.69571097986318886086 1.19890805994787918998
H  -6.17413561112708553225 1.47410559342782954140 0.19007305348557004820
H  -4.09868189285289563628 -3.97092024710498758822 -0.80481580480895953400
H  1.40934724253084797674 -5.07071095687050732437 0.35457577458490985300
H  5.76955099277967686788 -1.16139533236291936369 -0.16672775541378001551
H  1.99677609145850842864 2.83976438078294002310 0.85744948004959942178
H  -2.03432580407637875197 1.97912333649938032565 -0.00933991151863993591
H  -3.58181057813990832983 0.04730107681938962305 0.97286818618691950356
H  -1.81875059986388909472 -2.77601408995254050893 0.84523606295103970165
H  1.70767087459974709063 -2.02632998237252959228 0.44167627387429975183
H  3.29684627784058648103 0.46242992506568020294 0.61428010446683900536
H  4.27684283934914866165 3.13377304722748029064 1.84096947029981894417
H  3.05499576615011703140 4.05618852724160117162 2.76325081195894650676
H  -4.79227452249524610295 -0.15173887546790032488 3.16617738075086840865
H  -4.40898511711660745505 1.53315883400238783807 2.74824849325204567663
H  -3.97170422031588721268 -2.91608560685773054999 2.03992773831826879061
H  -2.81226758138124921516 -4.12058300134711963381 2.66817818299924836012
H  4.35574918530906440850 0.42281946590956998033 2.86286040394648688689
H  4.02684838685082624465 -1.23311937246010971947 2.28407916476905814562
H  3.76320851633328734565 5.88246056441070930276 1.54085400740711886414
H  -6.90736717162538571557 0.28345440568049945496 2.39381796429284854355
H  -3.92388988794632753709 -5.64051884971686945391 1.33424427257381927880
H  6.51908788538571037918 0.06399434512467971903 2.12347478294185876280
C  0.26127497010885958328 -1.58912450335454979999 3.90285766255619792631
H  0.88951598116402896821 -1.18363696298226983572 4.68922404710705720277
H  -0.25570570590976021697 -2.48705044817073872565 4.23160082255163860765
O  0.34924840901390941106 -3.98334818409430990727 2.55358777221210875297
C  -0.58617522855173942453 0.84541176598609990567 3.79519962836908808512
H  -0.99939904616609909205 0.95260657278872973297 4.79784223568303769270
H  0.46887642779151966765 1.11663465419944030188 3.80502509435579794328
O  0.16237772092035962501 1.42572362705916000358 1.35186217851816903313
C  -0.72420064229639979914 -0.57561974826865003330 3.33162747555646809872
O  -1.53646263887656897573 -0.91508322368633943089 2.48476685153011844776
O  5.12016518841188084110 -3.80675011383641637153 3.06030596716629732512
H  4.25869305737139836054 -3.72293329273593265327 2.63580323223809243061
H  5.32062354544112547927 -2.90677049522949593197 3.34175791086644746741
O  -2.07739336173240829453 4.33352014407194108259 3.97883132084589563604
H  -2.35787845356035274946 3.79904446580360399821 3.22714925599252966393
H  -2.03711298227879344935 3.69888340896133804847 4.70338343691660476509
O  1.20861243434111176320 0.84716361011117102819 -2.45015501381522371460
H  1.47563441383520377315 -0.07837486559086279114 -2.48810045468183282935
H  0.38317580702480413812 0.86359757474617560025 -2.94789627442596335882
O  2.57954538705013813882 -5.94619569675729753300 2.93431070549187023033
H  2.65596581105262918854 -6.24703290143068468154 3.84700942856533290026
H  1.73718974537481085640 -5.47753390440847809373 2.92185435155271555629
O  7.29620667321037252862 3.05100343268505413974 1.44429872370218603805
H  7.01503845224758304511 2.20928903027048573193 1.06770429954158507790
H  6.76420353927246242876 3.12816771772275625807 2.24453643964550542123
O  -1.05493549403350583837 -0.20175112183925833498 -1.90578485440609046719
H  -1.23685437313731783071 -0.42092813198437378785 -0.98479135623696145707
H  -1.90977621469210645522 0.09335581160641551191 -2.23973290958756754421
O  0.40789638124594512769 4.85382894434815526097 3.72543848859718496058
H  0.01368879175008975990 4.49477322989597638525 2.92229377291796899030
H  0.03071683465176650030 4.30767446854185553917 4.42459007560179617968
O  1.21348797977724287556 -3.47827765770486418972 -4.92319011099401926401
H  1.25561636499323192595 -2.59985245536667353150 -4.52827692170230822200
H  0.26721009973673559568 -3.65151120294881614825 -4.98572311005507007309
O  -3.37744983416910171670 -0.80244443854341140909 5.02801316157645405980
H  -3.98342569205590901760 -0.66501468563138288470 5.76508058501425590947
H  -2.99943270180925969370 -1.67108239055839913334 5.20671184479757620522
O  -0.29409470751137145594 7.08250446257944599182 2.34081583065246645603
H  0.51752120379981159104 6.67959335556119793154 2.01171961923672348860
H  -0.39475462152669771321 6.69967646414601958327 3.21983367390093944138
O  -3.43295572661918013679 2.81287833768132600198 -3.73637328428637882638
H  -3.86438062166725604385 3.40821766400290560028 -4.35991615409412336390
H  -4.15948600299494675170 2.49865613529479757560 -3.18611859011283016230
O  1.35024310655608803522 2.97177396900470869312 -4.84512104697737200354
H  1.75484819780610545870 2.33269820340351374810 -4.24742635068489171601
H  0.40538034146273999037 2.85284786628234776629 -4.69527779335967210272
O  0.18322687505456614065 -6.60190669290909060152 2.15079632328284464649
H  -0.09082779438799913618 -5.87151553977062601319 1.58441759346140953468
H  -0.37141095595953899089 -7.33395350912017729428 1.85780076238388747178
O  2.56947934761413288030 -7.05085454762334773449 0.50028496151401569136
H  2.21567125483624716153 -7.92918499809157051317 0.31940511939356591720
H  2.62946282806246500741 -7.02634175534128413432 1.46213898812676346139
O  0.58627963217273637575 -7.34812615275521352487 -2.33549050516169032221
H  1.53648087109563014074 -7.23569529413239376225 -2.45312966360428363899
H  0.21408734174046861742 -6.97478527771062140062 -3.14261599316652207037
O  0.89019192326940954629 -0.81060957508683373351 -5.28435931750822174280
H  1.33739023672534007581 -0.02176180210095902262 -4.95710571016715118020
H  0.39779649937544075966 -0.48928159775481222526 -6.04833388575988006863
O  -7.04956873861824728777 -3.96410725474136516056 2.00995718922721300359
H  -7.15254410147000818654 -4.65493643898663123082 1.34549261014047272234
H  -6.11654403109737643263 -4.01710470963826971058 2.24663889184350029637
O  -2.39204768770303655145 0.15717982328363380717 -4.46632338538250728277
H  -1.53045049202667371446 0.00772474470296939664 -4.87212569674781104112
H  -3.01349931175671681416 -0.09387819900866259393 -5.15923738569354028982
O  3.14332620986744482039 -1.62109111580771458883 -4.37889695172932036371
H  3.95613356745356270494 -1.99669242749930186953 -4.73615024860673283769
H  3.41939840053587484903 -1.25197539084039011215 -3.53219760098863355680
O  -2.67562507398253446311 -2.72429854713833474733 -5.71877295514880223948
H  -2.04201429833394287883 -2.02689782699283638223 -5.51497971545993515008
H  -3.48775396947860238939 -2.24134700532619701718 -5.90999672141472753850
O  -5.16179463953493655737 1.22880828697755473122 5.39796580930602942772
H  -4.30623578081447266896 1.46134611394679203578 5.01940635253112343861
H  -5.78909550991919452656 1.71748339740495525874 4.85294074760039073624
196
Energy 1.532716
C  0.71130776615267965468 5.00482414727958069278 -0.19561568134503989902
C  -4.13784486848083687960 3.17739904325788646844 0.68958586950538958149
C  -5.17444863619361594687 -1.77393841750645009370 -0.21665732364067985527
C  -0.87384297371556018952 -4.77917785703500719308 -0.63719983279390968178
C  4.05339626216557658012 -3.03094590633414950887 0.11871533019796989827
C  5.04884681101444510176 2.09362244562296995198 -0.58404774284701976850
O  -0.12582766454131008582 3.86927617535052936759 -0.25997818896310981307
O  -4.31294268880552600365 2.22131748928795813569 -0.31126934222609969893
O  -3.82279935479500831974 -1.93070136534545921947 -0.57994872475585967919
O  0.05957377906125960187 -3.73642003081359996841 -0.49167570712067970584
O  3.83098722953195691687 -1.80990987403622982654 -0.51821454630126961849
O  3.72723448493223719069 2.39573122461048049203 -0.94081572077923947273
C  1.36673334302333859824 5.17738746353810963541 -1.57023401112807836633
C  -3.83082197195232687648 4.52142930134692022648 -0.00861440099554997007
C  -5.86696795055896558324 -0.98447702978594020529 -1.33884527976942946381
C  -1.61012054292363893104 -4.57805317038506043303 -1.97033050864001890723
C  3.77326160587263625956 -4.12352537948484876296 -0.93397915008777943058
C  5.59790018606635531029 1.22271087148065049632 -1.73017268935670931462
O  0.41249294889497961636 5.31215455814457548911 -2.59060683846512906925
O  -4.80930237402007687564 4.84002336366017882341 -0.95372222083172941698
O  -5.78582568311042511056 -1.64728677729911021643 -2.57023780092665665720
O  -0.73773614924839026052 -4.55082005612955775575 -3.06837569591808811964
O  4.60494108751403530277 -3.96622878976938064710 -2.04751294360803903771
O  5.51089034068398309074 1.89539249938175013988 -2.95590729180038813695
C  2.21877561653414900888 3.93091745157843019953 -1.83150699881148915082
C  -2.43703341709546794647 4.47105818176657887619 -0.66523693747410916899
C  -5.20475957224313479088 0.39731597485467984310 -1.42006973941786962534
C  -2.38127676782546915391 -3.25302065840269838404 -1.88850281771867911651
C  2.29083818924970739062 -4.03265794157949919452 -1.34196827120711925652
C  4.78374355357373559627 -0.07921556826066936119 -1.75652837800578920380
O  2.95978907701573756839 4.02999105522410960845 -3.02082727297879927164
O  -2.05802748860041750945 5.73612709045024526944 -1.15190620092513951178
O  -5.88058054611833469494 1.22747881263100988569 -2.32923887821376673912
O  -3.19127255102765827743 -3.04457554296714016928 -3.01769493583701819972
O  1.91775986910106821526 -5.08492791013237965814 -2.19872422703288883383
O  5.29532575127568527762 -1.00829228528355963057 -2.67980956684520821298
C  3.21669371315159757785 3.69387210059014980956 -0.69186082520354963421
C  -1.38795551033674868791 3.99685863851938982805 0.35420949320828976070
C  -5.16778178528489551269 1.11072336231340940138 -0.06149807731087994500
C  -3.29265555667351561553 -3.24033602237473994379 -0.65776494554374898005
C  1.38149539713368874061 -4.07715922342435987957 -0.10764441609134994815
C  4.77256626082026613744 -0.75675892258768917564 -0.38217592772181979699
C  2.55256396054111922567 3.77383000390614853359 0.69472730196528931224
C  -1.87658184279176842857 2.62959785738603990524 0.86959042675287956392
C  -4.66995162147994768986 0.17586095834351950229 1.06305633345943961743
C  -2.50721461222832919802 -3.60110911172643000100 0.61297497945516965512
C  1.85352377539312773713 -3.02051341305114995350 0.89710406424008881654
C  4.36577196934167766074 0.23022434129321070473 0.72517060885729955899
O  1.66907167957595858887 4.88692368085399930777 0.81124164518227925846
O  -3.08441362729646728624 2.81665904229748020882 1.56150817661108898271
O  -5.30102626309129565385 -1.10211608872167032835 0.99847272905182959946
O  -1.77848159054403920365 -4.80866574069801888669 0.42941785465123982757
O  3.21002454205557707922 -3.18580015958223006223 1.24237706618064924768
O  5.13256533557428618053 1.42782080075291051280 0.64399374126307928901
C  3.59066688938968736622 3.98044807994619054270 1.80950926664780875619
C  -0.89645500604576855430 1.89000615206742916818 1.74680470073063887071
C  -5.01952751177552602968 0.67278465397587872143 2.47922864883734828112
C  -3.43552903897644679176 -3.83876853711820009707 1.81094492657019912052
C  1.02780373685861881050 -3.05255631487953005276 2.17255950121327856550
C  4.63334413526010635564 -0.33982799439168964728 2.12582775292363868047
O  4.36587551677528651339 5.12623218609484077035 1.58164252684446804409
O  -1.34635178925135901018 1.75509148705510997779 2.99556395054215807150
O  -6.36137881605171440214 1.05950386521692951902 2.58358829301366776932
O  -4.39579169127993640842 -4.82015551998131019928 1.53892222940309930657
O  1.15961021883623871531 -1.88140208249342943958 2.80998166284474804044
O  5.97384117287688454212 -0.72056215651174970738 2.28104190831524888949
H  0.13224704601901035583 5.90028006910375868443 0.06179845111059995011
H  -5.02906546666553655456 3.26944512916705898320 1.32195973471651906372
H  -5.66005365569407548065 -2.74597562429162023179 -0.06617953327339991254
H  -0.37596333589037028711 -5.75629752710907105495 -0.61905323145201962554
H  5.07351651543867454563 -3.11302658157459832822 0.51127945807539909584
H  5.64867625842899290234 3.00541745320616016102 -0.46425305226986962603
H  2.01854436715261886803 6.06436711980527043409 -1.54656827692787923745
H  -3.84115196116301671481 5.32232493097132941529 0.73833328706388945406
H  -6.93123890356386596068 -0.87032777596413046783 -1.10908033325346933040
H  -2.33079476852577860413 -5.39901926729751036049 -2.10116728534805874418
H  3.97846078011181525369 -5.11278456573449080480 -0.51320329701895961438
H  6.65544385173537111910 0.99639818803564983440 -1.56359344794164911718
H  -0.44758121555990915130 5.54738430107657976009 -2.19514784185843891962
H  -4.99862717111371512857 4.04655674109809648797 -1.47877335682354948965
H  -4.87862214394077664537 -1.98151913903146037477 -2.69443521680572883881
H  0.17493009918405943992 -4.73959651674300985746 -2.77483024948440881730
H  4.66410798139857529776 -3.01874084232443751219 -2.26865624666724841063
H  4.64836089514038430792 2.34140600586418878848 -3.00041084851171824255
H  1.54098607645986906967 3.06283758725334953610 -1.87427115174566893963
H  -2.46085499425985743116 3.74585258222391859206 -1.49411825115310925582
H  -4.16019338913851743911 0.25205406388909978865 -1.74488235435312732946
H  -1.65150591338989927159 -2.43341514701178018854 -1.78743297510559906449
H  2.13072481812891645347 -3.06478741669444998408 -1.84269875172082908676
H  3.74246695990955480227 0.17505707611953005842 -2.01366769037927806352
H  2.36276715127818626172 4.34815172937626659433 -3.71377294779213817932
H  -2.81157367692486648281 6.10014489877917043259 -1.64421335474422902756
H  -6.09084081771053398313 0.69029656113981896493 -3.10886487380280840398
H  -2.66909052727224915813 -3.26592044166787065507 -3.80334705793696725706
H  2.58698386619235698447 -5.14749436802668913771 -2.89909019680832802379
H  5.49408568008983611008 -0.53311484335033920701 -3.50050276010526850712
H  4.02144260633307659702 4.43873977070721803528 -0.76158004326704964448
H  -1.33879622191689873212 4.69571097986318886086 1.19890805994787918998
H  -6.17413561112708553225 1.47410559342782954140 0.19007305348557004820
H  -4.09868189285289563628 -3.97092024710498758822 -0.80481580480895953400
H  1.40934724253084797674 -5.07071095687050732437 0.35457577458490985300
H  5.76955099277967686788 -1.16139533236291936369 -0.16672775541378001551
H  1.99677609145850842864 2.83976438078294002310 0.85744948004959942178
H  -2.03432580407637875197 1.97912333649938032565 -0.00933991151863993591
H  -3.58181057813990832983 0.04730107681938962305 0.97286818618691950356
H  -1.81875059986388909472 -2.77601408995254050893 0.84523606295103970165
H  1.70767087459974709063 -2.02632998237252959228 0.44167627387429975183
H  3.29684627784058648103 0.46242992506568020294 0.61428010446683900536
H  4.27684283934914866165 3.13377304722748029064 1.84096947029981894417
H  3.05499576615011703140 4.05618852724160117162 2.76325081195894650676
H  -4.79227452249524610295 -0.15173887546790032488 3.16617738075086840865
H  -4.40898511711660745505 1.53315883400238783807 2.74824849325204567663
H  -3.97170422031588721268 -2.91608560685773054999 2.03992773831826879061
H  -2.81226758138124921516 -4.12058300134711963381 2.66817818299924836012
H  4.35574918530906440850 0.42281946590956998033 2.86286040394648688689
H  4.02684838685082624465 -1.23311937246010971947 2.28407916476905814562
H  3.76320851633328734565 5.88246056441070930276 1.54085400740711886414
H  -6.90736717162538571557 0.28345440568049945496 2.39381796429284854355
H  -3.92388988794632753709 -5.64051884971686945391 1.33424427257381927880
H  6.51908788538571037918 0.06399434512467971903 2.12347478294185876280
C  0.26127497010885958328 -1.58912450335454979999 3.90285766255619792631
H  0.88951598116402896821 -1.18363696298226983572 4.68922404710705720277
H  -0.25570570590976021697 -2.48705044817073872565 4.23160082255163860765
O  0.34924840901390941106 -3.98334818409430990727 2.55358777221210875297
C  -0.58617522855173942453 0.84541176598609990567 3.79519962836908808512
H  -0.99939904616609909205 0.95260657278872973297 4.79784223568303769270
H  0.46887642779151966765 1.11663465419944030188 3.80502509435579794328
O  0.16237772092035962501 1.42572362705916000358 1.35186217851816903313
C  -0.72420064229639979914 -0.57561974826865003330 3.33162747555646809872
O  -1.53646263887656897573 -0.91508322368633943089 2.48476685153011844776
O  5.12016518841188084110 -3.80675011383641637153 3.06030596716629732512
H  4.25869305737139836054 -3.72293329273593265327 2.63580323223809243061
H  5.32062354544112547927 -2.90677049522949593197 3.34175791086644746741
O  -2.07739336173240829453 4.33352014407194108259 3.97883132084589563604
H  -2.35787845356035274946 3.79904446580360399821 3.22714925599252966393
H  -2.03711298227879344935 3.69888340896133804847 4.70338343691660476509
O  1.20861243434111176320 0.84716361011117102819 -2.45015501381522371460
H  1.47563441383520377315 -0.07837486559086279114 -2.48810045468183282935
H  0.38317580702480413812 0.86359757474617560025 -2.94789627442596335882
O  2.57954538705013813882 -5.94619569675729753300 2.93431070549187023033
H  2.65596581105262918854 -6.24703290143068468154 3.84700942856533290026
H  1.73718974537481085640 -5.47753390440847809373 2.92185435155271555629
O  7.29620667321037252862 3.05100343268505413974 1.44429872370218603805
H  7.01503845224758304511 2.20928903027048573193 1.06770429954158507790
H  6.76420353927246242876 3.12816771772275625807 2.24453643964550542123
O  -1.05493549403350583837 -0.20175112183925833498 -1.90578485440609046719
H  -1.23685437313731783071 -0.42092813198437378785 -0.98479135623696145707
H  -1.90977621469210645522 0.09335581160641551191 -2.23973290958756754421
O  0.40789638124594512769 4.85382894434815526097 3.72543848859718496058
H  0.01368879175008975990 4.49477322989597638525 2.92229377291796899030
H  0.03071683465176650030 4.30767446854185553917 4.42459007560179617968
O  1.21348797977724287556 -3.47827765770486418972 -4.92319011099401926401
H  1.25561636499323192595 -2.59985245536667353150 -4.52827692170230822200
H  0.26721009973673559568 -3.65151120294881614825 -4.98572311005507007309
O  -3.37744983416910171670 -0.80244443854341140909 5.02801316157645405980
H  -3.98342569205590901760 -0.66501468563138288470 5.76508058501425590947
H  -2.99943270180925969370 -1.67108239055839913334 5.20671184479757620522
O  -0.29409470751137145594 7.08250446257944599182 2.34081583065246645603
H  0.51752120379981159104 6.67959335556119793154 2.01171961923672348860
H  -0.39475462152669771321 6.69967646414601958327 3.21983367390093944138
O  -3.43295572661918013679 2.81287833768132600198 -3.73637328428637882638
H  -3.86438062166725604385 3.40821766400290560028 -4.35991615409412336390
H  -4.15948600299494675170 2.49865613529479757560 -3.18611859011283016230
O  1.35024310655608803522 2.97177396900470869312 -4.84512104697737200354
H  1.75484819780610545870 2.33269820340351374810 -4.24742635068489171601
H  0.40538034146273999037 2.85284786628234776629 -4.69527779335967210272
O  0.18322687505456614065 -6.60190669290909060152 2.15079632328284464649
H  -0.09082779438799913618 -5.87151553977062601319 1.58441759346140953468
H  -0.37141095595953899089 -7.33395350912017729428 1.85780076238388747178
O  2.56947934761413288030 -7.05085454762334773449 0.50028496151401569136
H  2.21567125483624716153 -7.92918499809157051317 0.31940511939356591720
H  2.62946282806246500741 -7.02634175534128413432 1.46213898812676346139
O  0.58627963217273637575 -7.34812615275521352487 -2.33549050516169032221
H  1.53648087109563014074 -7.23569529413239376225 -2.45312966360428363899
H  0.21408734174046861742 -6.97478527771062140062 -3.14261599316652207037
O  0.89019192326940954629 -0.81060957508683373351 -5.28435931750822174280
H  1.33739023672534007581 -0.02176180210095902262 -4.95710571016715118020
H  0.39779649937544075966 -0.48928159775481222526 -6.04833388575988006863
O  -7.04956873861824728777 -3.96410725474136516056 2.00995718922721300359
H  -7.15254410147000818654 -4.65493643898663123082 1.34549261014047272234
H  -6.11654403109737643263 -4.01710470963826971058 2.24663889184350029637
O  -2.39204768770303655145 0.15717982328363380717 -4.46632338538250728277
H  -1.53045049202667371446 0.00772474470296939664 -4.87212569674781104112
H  -3.01349931175671681416 -0.09387819900866259393 -5.15923738569354028982
O  3.14332620986744482039 -1.62109111580771458883 -4.37889695172932036371
H  3.95613356745356270494 -1.99669242749930186953 -4.73615024860673283769
H  3.41939840053587484903 -1.25197539084039011215 -3.53219760098863355680
O  -2.67562507398253446311 -2.72429854713833474733 -5.71877295514880223948
H  -2.04201429833394287883 -2.02689782699283638223 -5.51497971545993515008
H  -3.48775396947860238939 -2.24134700532619701718 -5.90999672141472753850
O  -5.16179463953493655737 1.22880828697755473122 5.39796580930602942772
H  -4.30623578081447266896 1.46134611394679203578 5.01940635253112343861
H  -5.78909550991919452656 1.71748339740495525874 4.85294074760039073624
O  7.47482153174193530987 -2.68927817501331345440 -0.05106943122605772656
H  8.13144470871629110320 -2.53901163294919740565 -0.74072734194451583800
H  7.93040395968893374601 -2.42164143292063771540 0.75526628610962420751
199
Energy 0.845563
C  0.71130776615267965468 5.00482414727958069278 -0.19561568134503989902
C  -4.13784486848083687960 3.17739904325788646844 0.68958586950538958149
C  -5.17444863619361594687 -1.77393841750645009370 -0.21665732364067985527
C  -0.87384297371556018952 -4.77917785703500719308 -0.63719983279390968178
C  4.05339626216557658012 -3.03094590633414950887 0.11871533019796989827
C  5.04884681101444510176 2.09362244562296995198 -0.58404774284701976850
O  -0.12582766454131008582 3.86927617535052936759 -0.25997818896310981307
O  -4.31294268880552600365 2.22131748928795813569 -0.31126934222609969893
O  -3.82279935479500831974 -1.93070136534545921947 -0.57994872475585967919
O  0.05957377906125960187 -3.73642003081359996841 -0.49167570712067970584
O  3.83098722953195691687 -1.80990987403622982654 -0.51821454630126961849
O  3.72723448493223719069 2.39573122461048049203 -0.94081572077923947273
C  1.36673334302333859824 5.17738746353810963541 -1.57023401112807836633
C  -3.83082197195232687648 4.52142930134692022648 -0.00861440099554997007
C  -5.86696795055896558324 -0.98447702978594020529 -1.33884527976942946381
C  -1.61012054292363893104 -4.57805317038506043303 -1.97033050864001890723
C  3.77326160587263625956 -4.12352537948484876296 -0.93397915008777943058
C  5.59790018606635531029 1.22271087148065049632 -1.73017268935670931462
O  0.41249294889497961636 5.31215455814457548911 -2.59060683846512906925
O  -4.80930237402007687564 4.84002336366017882341 -0.95372222083172941698
O  -5.78582568311042511056 -1.64728677729911021643 -2.57023780092665665720
O  -0.73773614924839026052 -4.55082005612955775575 -3.06837569591808811964
O  4.60494108751403530277 -3.96622878976938064710 -2.04751294360803903771
O  5.51089034068398309074 1.89539249938175013988 -2.95590729180038813695
C  2.21877561653414900888 3.93091745157843019953 -1.83150699881148915082
C  -2.43703341709546794647 4.47105818176657887619 -0.66523693747410916899
C  -5.20475957224313479088 0.39731597485467984310 -1.42006973941786962534
C  -2.38127676782546915391 -3.25302065840269838404 -1.88850281771867911651
C  2.29083818924970739062 -4.03265794157949919452 -1.34196827120711925652
C  4.78374355357373559627 -0.07921556826066936119 -1.75652837800578920380
O  2.95978907701573756839 4.02999105522410960845 -3.02082727297879927164
O  -2.05802748860041750945 5.73612709045024526944 -1.15190620092513951178
O  -5.88058054611833469494 1.22747881263100988569 -2.32923887821376673912
O  -3.19127255102765827743 -3.04457554296714016928 -3.01769493583701819972
O  1.91775986910106821526 -5.08492791013237965814 -2.19872422703288883383
O  5.29532575127568527762 -1.00829228528355963057 -2.67980956684520821298
C  3.21669371315159757785 3.69387210059014980956 -0.69186082520354963421
C  -1.38795551033674868791 3.99685863851938982805 0.35420949320828976070
C  -5.16778178528489551269 1.11072336231340940138 -0.06149807731087994500
C  -3.29265555667351561553 -3.24033602237473994379 -0.65776494554374898005
C  1.38149539713368874061 -4.07715922342435987957 -0.10764441609134994815
C  4.77256626082026613744 -0.75675892258768917564 -0.38217592772181979699
C  2.55256396054111922567 3.77383000390614853359 0.69472730196528931224
C  -1.87658184279176842857 2.62959785738603990524 0.86959042675287956392
C  -4.66995162147994768986 0.17586095834351950229 1.06305633345943961743
C  -2.50721461222832919802 -3.60110911172643000100 0.61297497945516965512
C  1.85352377539312773713 -3.02051341305114995350 0.89710406424008881654
C  4.36577196934167766074 0.23022434129321070473 0.72517060885729955899
O  1.66907167957595858887 4.88692368085399930777 0.81124164518227925846
O  -3.08441362729646728624 2.81665904229748020882 1.56150817661108898271
O  -5.30102626309129565385 -1.10211608872167032835 0.99847272905182959946
O  -1.77848159054403920365 -4.80866574069801888669 0.42941785465123982757
O  3.21002454205557707922 -3.18580015958223006223 1.24237706618064924768
O  5.13256533557428618053 1.42782080075291051280 0.64399374126307928901
C  3.59066688938968736622 3.98044807994619054270 1.80950926664780875619
C  -0.89645500604576855430 1.89000615206742916818 1.74680470073063887071
C  -5.01952751177552602968 0.67278465397587872143 2.47922864883734828112
C  -3.43552903897644679176 -3.83876853711820009707 1.81094492657019912052
C  1.02780373685861881050 -3.05255631487953005276 2.17255950121327856550
C  4.63334413526010635564 -0.33982799439168964728 2.12582775292363868047
O  4.36587551677528651339 5.12623218609484077035 1.58164252684446804409
O  -1.34635178925135901018 1.75509148705510997779 2.99556395054215807150
O  -6.36137881605171440214 1.05950386521692951902 2.58358829301366776932
O  -4.39579169127993640842 -4.82015551998131019928 1.53892222940309930657
O  1.15961021883623871531 -1.88140208249342943958 2.80998166284474804044
O  5.97384117287688454212 -0.72056215651174970738 2.28104190831524888949
H  0.13224704601901035583 5.90028006910375868443 0.06179845111059995011
H  -5.02906546666553655456 3.26944512916705898320 1.32195973471651906372
H  -5.66005365569407548065 -2.74597562429162023179 -0.06617953327339991254
H  -0.37596333589037028711 -5.75629752710907105495 -0.61905323145201962554
H  5.07351651543867454563 -3.11302658157459832822 0.51127945807539909584
H  5.64867625842899290234 3.00541745320616016102 -0.46425305226986962603
H  2.01854436715261886803 6.06436711980527043409 -1.54656827692787923745
H  -3.84115196116301671481 5.32232493097132941529 0.73833328706388945406
H  -6.93123890356386596068 -0.87032777596413046783 -1.10908033325346933040
H  -2.33079476852577860413 -5.39901926729751036049 -2.10116728534805874418
H  3.97846078011181525369 -5.11278456573449080480 -0.51320329701895961438
H  6.65544385173537111910 0.99639818803564983440 -1.56359344794164911718
H  -0.44758121555990915130 5.54738430107657976009 -2.19514784185843891962
H  -4.99862717111371512857 4.04655674109809648797 -1.47877335682354948965
H  -4.87862214394077664537 -1.98151913903146037477 -2.69443521680572883881
H  0.17493009918405943992 -4.73959651674300985746 -2.77483024948440881730
H  4.66410798139857529776 -3.01874084232443751219 -2.26865624666724841063
H  4.64836089514038430792 2.34140600586418878848 -3.00041084851171824255
H  1.54098607645986906967 3.06283758725334953610 -1.87427115174566893963
H  -2.46085499425985743116 3.74585258222391859206 -1.49411825115310925582
H  -4.16019338913851743911 0.25205406388909978865 -1.74488235435312732946
H  -1.65150591338989927159 -2.43341514701178018854 -1.78743297510559906449
H  2.13072481812891645347 -3.06478741669444998408 -1.84269875172082908676
H  3.74246695990955480227 0.17505707611953005842 -2.01366769037927806352
H  2.36276715127818626172 4.34815172937626659433 -3.71377294779213817932
H  -2.81157367692486648281 6.10014489877917043259 -1.64421335474422902756
H  -6.09084081771053398313 0.69029656113981896493 -3.10886487380280840398
H  -2.66909052727224915813 -3.26592044166787065507 -3.80334705793696725706
H  2.58698386619235698447 -5.14749436802668913771 -2.89909019680832802379
H  5.49408568008983611008 -0.53311484335033920701 -3.50050276010526850712
H  4.02144260633307659702 4.43873977070721803528 -0.76158004326704964448
H  -1.33879622191689873212 4.69571097986318886086 1.19890805994787918998
H  -6.17413561112708553225 1.47410559342782954140 0.19007305348557004820
H  -4.09868189285289563628 -3.97092024710498758822 -0.80481580480895953400
H  1.40934724253084797674 -5.07071095687050732437 0.35457577458490985300
H  5.76955099277967686788 -1.16139533236291936369 -0.16672775541378001551
H  1.99677609145850842864 2.83976438078294002310 0.85744948004959942178
H  -2.03432580407637875197 1.97912333649938032565 -0.00933991151863993591
H  -3.58181057813990832983 0.04730107681938962305 0.97286818618691950356
H  -1.81875059986388909472 -2.77601408995254050893 0.84523606295103970165
H  1.70767087459974709063 -2.02632998237252959228 0.44167627387429975183
H  3.29684627784058648103 0.46242992506568020294 0.61428010446683900536
H  4.27684283934914866165 3.13377304722748029064 1.84096947029981894417
H  3.05499576615011703140 4.05618852724160117162 2.76325081195894650676
H  -4.79227452249524610295 -0.15173887546790032488 3.16617738075086840865
H  -4.40898511711660745505 1.53315883400238783807 2.74824849325204567663
H  -3.97170422031588721268 -2.91608560685773054999 2.03992773831826879061
H  -2.81226758138124921516 -4.12058300134711963381 2.66817818299924836012
H  4.35574918530906440850 0.42281946590956998033 2.86286040394648688689
H  4.02684838685082624465 -1.23311937246010971947 2.28407916476905814562
H  3.76320851633328734565 5.88246056441070930276 1.54085400740711886414
H  -6.90736717162538571557 0.28345440568049945496 2.39381796429284854355
H  -3.92388988794632753709 -5.64051884971686945391 1.33424427257381927880
H  6.51908788538571037918 0.06399434512467971903 2.12347478294185876280
C  0.26127497010885958328 -1.58912450335454979999 3.90285766255619792631
H  0.88951598116402896821 -1.18363696298226983572 4.68922404710705720277
H  -0.25570570590976021697 -2.48705044817073872565 4.23160082255163860765
O  0.34924840901390941106 -3.98334818409430990727 2.55358777221210875297
C  -0.58617522855173942453 0.84541176598609990567 3.79519962836908808512
H  -0.99939904616609909205 0.95260657278872973297 4.79784223568303769270
H  0.46887642779151966765 1.11663465419944030188 3.80502509435579794328
O  0.16237772092035962501 1.42572362705916000358 1.35186217851816903313
C  -0.72420064229639979914 -0.57561974826865003330 3.33162747555646809872
O  -1.53646263887656897573 -0.91508322368633943089 2.48476685153011844776
O  5.12016518841188084110 -3.80675011383641637153 3.06030596716629732512
H  4.25869305737139836054 -3.72293329273593265327 2.63580323223809243061
H  5.32062354544112547927 -2.90677049522949593197 3.34175791086644746741
O  -2.07739336173240829453 4.33352014407194108259 3.97883132084589563604
H  -2.35787845356035274946 3.79904446580360399821 3.22714925599252966393
H  -2.03711298227879344935 3.69888340896133804847 4.70338343691660476509
O  1.20861243434111176320 0.84716361011117102819 -2.45015501381522371460
H  1.47563441383520377315 -0.07837486559086279114 -2.48810045468183282935
H  0.38317580702480413812 0.86359757474617560025 -2.94789627442596335882
O  2.57954538705013813882 -5.94619569675729753300 2.93431070549187023033
H  2.65596581105262918854 -6.24703290143068468154 3.84700942856533290026
H  1.73718974537481085640 -5.47753390440847809373 2.92185435155271555629
O  7.29620667321037252862 3.05100343268505413974 1.44429872370218603805
H  7.01503845224758304511 2.20928903027048573193 1.06770429954158507790
H  6.76420353927246242876 3.12816771772275625807 2.24453643964550542123
O  -1.05493549403350583837 -0.20175112183925833498 -1.90578485440609046719
H  -1.23685437313731783071 -0.42092813198437378785 -0.98479135623696145707
H  -1.90977621469210645522 0.09335581160641551191 -2.23973290958756754421
O  0.40789638124594512769 4.85382894434815526097 3.72543848859718496058
H  0.01368879175008975990 4.49477322989597638525 2.92229377291796899030
H  0.03071683465176650030 4.30767446854185553917 4.42459007560179617968
O  1.21348797977724287556 -3.47827765770486418972 -4.92319011099401926401
H  1.25561636499323192595 -2.59985245536667353150 -4.52827692170230822200
H  0.26721009973673559568 -3.65151120294881614825 -4.98572311005507007309
O  -3.37744983416910171670 -0.80244443854341140909 5.02801316157645405980
H  -3.98342569205590901760 -0.66501468563138288470 5.76508058501425590947
H  -2.99943270180925969370 -1.67108239055839913334 5.20671184479757620522
O  -0.29409470751137145594 7.08250446257944599182 2.34081583065246645603
H  0.51752120379981159104 6.67959335556119793154 2.01171961923672348860
H  -0.39475462152669771321 6.69967646414601958327 3.21983367390093944138
O  -3.43295572661918013679 2.81287833768132600198 -3.73637328428637882638
H  -3.86438062166725604385 3.40821766400290560028 -4.35991615409412336390
H  -4.15948600299494675170 2.49865613529479757560 -3.18611859011283016230
O  1.35024310655608803522 2.97177396900470869312 -4.84512104697737200354
H  1.75484819780610545870 2.33269820340351374810 -4.24742635068489171601
H  0.40538034146273999037 2.85284786628234776629 -4.69527779335967210272
O  0.18322687505456614065 -6.60190669290909060152 2.15079632328284464649
H  -0.09082779438799913618 -5.87151553977062601319 1.58441759346140953468
H  -0.37141095595953899089 -7.33395350912017729428 1.85780076238388747178
O  2.56947934761413288030 -7.05085454762334773449 0.50028496151401569136
H  2.21567125483624716153 -7.92918499809157051317 0.31940511939356591720
H  2.62946282806246500741 -7.02634175534128413432 1.46213898812676346139
O  0.58627963217273637575 -7.34812615275521352487 -2.33549050516169032221
H  1.53648087109563014074 -7.23569529413239376225 -2.45312966360428363899
H  0.21408734174046861742 -6.97478527771062140062 -3.14261599316652207037
O  0.89019192326940954629 -0.81060957508683373351 -5.28435931750822174280
H  1.33739023672534007581 -0.02176180210095902262 -4.95710571016715118020
H  0.39779649937544075966 -0.48928159775481222526 -6.04833388575988006863
O  -7.04956873861824728777 -3.96410725474136516056 2.00995718922721300359
H  -7.15254410147000818654 -4.65493643898663123082 1.34549261014047272234
H  -6.11654403109737643263 -4.01710470963826971058 2.24663889184350029637
O  -2.39204768770303655145 0.15717982328363380717 -4.46632338538250728277
H  -1.53045049202667371446 0.00772474470296939664 -4.87212569674781104112
H  -3.01349931175671681416 -0.09387819900866259393 -5.15923738569354028982
O  3.14332620986744482039 -1.62109111580771458883 -4.37889695172932036371
H  3.95613356745356270494 -1.99669242749930186953 -4.73615024860673283769
H  3.41939840053587484903 -1.25197539084039011215 -3.53219760098863355680
O  -2.67562507398253446311 -2.72429854713833474733 -5.71877295514880223948
H  -2.04201429833394287883 -2.02689782699283638223 -5.51497971545993515008
H  -3.48775396947860238939 -2.24134700532619701718 -5.90999672141472753850
O  -5.16179463953493655737 1.22880828697755473122 5.39796580930602942772
H  -4.30623578081447266896 1.46134611394679203578 5.01940635253112343861
H  -5.78909550991919452656 1.71748339740495525874 4.85294074760039073624
O  7.47482153174193530987 -2.68927817501331345440 -0.05106943122605772656
H  8.13144470871629110320 -2.53901163294919740565 -0.74072734194451583800
H  7.93040395968893019329 -2.42164143292063815949 0.75526628610962387445
O  3.28308700329775504656 0.25360364509140098654 4.83243799257620310073
H  3.23293046070106671053 -0.70364738321965725198 4.72988627853632692677
H  4.06735062240857292437 0.38041984245367749251 5.37852433304727917118
202
Energy 0.906448
C  0.71130776615267965468 5.00482414727958069278 -0.19561568134503989902
C  -4.13784486848083687960 3.17739904325788646844 0.68958586950538958149
C  -5.17444863619361594687 -1.77393841750645009370 -0.21665732364067985527
C  -0.87384297371556018952 -4.77917785703500719308 -0.63719983279390968178
C  4.05339626216557658012 -3.03094590633414950887 0.11871533019796989827
C  5.04884681101444510176 2.09362244562296995198 -0.58404774284701976850
O  -0.12582766454131008582 3.86927617535052936759 -0.25997818896310981307
O  -4.31294268880552600365 2.22131748928795813569 -0.31126934222609969893
O  -3.82279935479500831974 -1.93070136534545921947 -0.57994872475585967919
O  0.05957377906125960187 -3.73642003081359996841 -0.49167570712067970584
O  3.83098722953195691687 -1.80990987403622982654 -0.51821454630126961849
O  3.72723448493223719069 2.39573122461048049203 -0.94081572077923947273
C  1.36673334302333859824 5.17738746353810963541 -1.57023401112807836633
C  -3.83082197195232687648 4.52142930134692022648 -0.00861440099554997007
C  -5.86696795055896558324 -0.98447702978594020529 -1.33884527976942946381
C  -1.61012054292363893104 -4.57805317038506043303 -1.97033050864001890723
C  3.77326160587263625956 -4.12352537948484876296 -0.93397915008777943058
C  5.59790018606635531029 1.22271087148065049632 -1.73017268935670931462
O  0.41249294889497961636 5.31215455814457548911 -2.59060683846512906925
O  -4.80930237402007687564 4.84002336366017882341 -0.95372222083172941698
O  -5.78582568311042511056 -1.64728677729911021643 -2.57023780092665665720
O  -0.73773614924839026052 -4.55082005612955775575 -3.06837569591808811964
O  4.60494108751403530277 -3.96622878976938064710 -2.04751294360803903771
O  5.51089034068398309074 1.89539249938175013988 -2.95590729180038813695
C  2.21877561653414900888 3.93091745157843019953 -1.83150699881148915082
C  -2.43703341709546794647 4.47105818176657887619 -0.66523693747410916899
C  -5.20475957224313479088 0.39731597485467984310 -1.42006973941786962534
C  -2.38127676782546915391 -3.25302065840269838404 -1.88850281771867911651
C  2.29083818924970739062 -4.03265794157949919452 -1.34196827120711925652
C  4.78374355357373559627 -0.07921556826066936119 -1.75652837800578920380
O  2.95978907701573756839 4.02999105522410960845 -3.02082727297879927164
O  -2.05802748860041750945 5.73612709045024526944 -1.15190620092513951178
O  -5.88058054611833469494 1.22747881263100988569 -2.32923887821376673912
O  -3.19127255102765827743 -3.04457554296714016928 -3.01769493583701819972
O  1.91775986910106821526 -5.08492791013237965814 -2.19872422703288883383
O  5.29532575127568527762 -1.00829228528355963057 -2.67980956684520821298
C  3.21669371315159757785 3.69387210059014980956 -0.69186082520354963421
C  -1.38795551033674868791 3.99685863851938982805 0.35420949320828976070
C  -5.16778178528489551269 1.11072336231340940138 -0.06149807731087994500
C  -3.29265555667351561553 -3.24033602237473994379 -0.65776494554374898005
C  1.38149539713368874061 -4.07715922342435987957 -0.10764441609134994815
C  4.77256626082026613744 -0.75675892258768917564 -0.38217592772181979699
C  2.55256396054111922567 3.77383000390614853359 0.69472730196528931224
C  -1.87658184279176842857 2.62959785738603990524 0.86959042675287956392
C  -4.66995162147994768986 0.17586095834351950229 1.06305633345943961743
C  -2.50721461222832919802 -3.60110911172643000100 0.61297497945516965512
C  1.85352377539312773713 -3.02051341305114995350 0.89710406424008881654
C  4.36577196934167766074 0.23022434129321070473 0.72517060885729955899
O  1.66907167957595858887 4.88692368085399930777 0.81124164518227925846
O  -3.08441362729646728624 2.81665904229748020882 1.56150817661108898271
O  -5.30102626309129565385 -1.10211608872167032835 0.99847272905182959946
O  -1.77848159054403920365 -4.80866574069801888669 0.42941785465123982757
O  3.21002454205557707922 -3.18580015958223006223 1.24237706618064924768
O  5.13256533557428618053 1.42782080075291051280 0.64399374126307928901
C  3.59066688938968736622 3.98044807994619054270 1.80950926664780875619
C  -0.89645500604576855430 1.89000615206742916818 1.74680470073063887071
C  -5.01952751177552602968 0.67278465397587872143 2.47922864883734828112
C  -3.43552903897644679176 -3.83876853711820009707 1.81094492657019912052
C  1.02780373685861881050 -3.05255631487953005276 2.17255950121327856550
C  4.63334413526010635564 -0.33982799439168964728 2.12582775292363868047
O  4.36587551677528651339 5.12623218609484077035 1.58164252684446804409
O  -1.34635178925135901018 1.75509148705510997779 2.99556395054215807150
O  -6.36137881605171440214 1.05950386521692951902 2.58358829301366776932
O  -4.39579169127993640842 -4.82015551998131019928 1.53892222940309930657
O  1.15961021883623871531 -1.88140208249342943958 2.80998166284474804044
O  5.97384117287688454212 -0.72056215651174970738 2.28104190831524888949
H  0.13224704601901035583 5.90028006910375868443 0.06179845111059995011
H  -5.02906546666553655456 3.26944512916705898320 1.32195973471651906372
H  -5.66005365569407548065 -2.74597562429162023179 -0.06617953327339991254
H  -0.37596333589037028711 -5.75629752710907105495 -0.61905323145201962554
H  5.07351651543867454563 -3.11302658157459832822 0.51127945807539909584
H  5.64867625842899290234 3.00541745320616016102 -0.46425305226986962603
H  2.01854436715261886803 6.06436711980527043409 -1.54656827692787923745
H  -3.84115196116301671481 5.32232493097132941529 0.73833328706388945406
H  -6.93123890356386596068 -0.87032777596413046783 -1.10908033325346933040
H  -2.33079476852577860413 -5.39901926729751036049 -2.10116728534805874418
H  3.97846078011181525369 -5.11278456573449080480 -0.51320329701895961438
H  6.65544385173537111910 0.99639818803564983440 -1.56359344794164911718
H  -0.44758121555990915130 5.54738430107657976009 -2.19514784185843891962
H  -4.99862717111371512857 4.04655674109809648797 -1.47877335682354948965
H  -4.87862214394077664537 -1.98151913903146037477 -2.69443521680572883881
H  0.17493009918405943992 -4.73959651674300985746 -2.77483024948440881730
H  4.66410798139857529776 -3.01874084232443751219 -2.26865624666724841063
H  4.64836089514038430792 2.34140600586418878848 -3.00041084851171824255
H  1.54098607645986906967 3.06283758725334953610 -1.87427115174566893963
H  -2.46085499425985743116 3.74585258222391859206 -1.49411825115310925582
H  -4.16019338913851743911 0.25205406388909978865 -1.74488235435312732946
H  -1.65150591338989927159 -2.43341514701178018854 -1.78743297510559906449
H  2.13072481812891645347 -3.06478741669444998408 -1.84269875172082908676
H  3.74246695990955480227 0.17505707611953005842 -2.01366769037927806352
H  2.36276715127818626172 4.34815172937626659433 -3.71377294779213817932
H  -2.81157367692486648281 6.10014489877917043259 -1.64421335474422902756
H  -6.09084081771053398313 0.69029656113981896493 -3.10886487380280840398
H  -2.66909052727224915813 -3.26592044166787065507 -3.80334705793696725706
H  2.58698386619235698447 -5.14749436802668913771 -2.89909019680832802379
H  5.49408568008983611008 -0.53311484335033920701 -3.50050276010526850712
H  4.02144260633307659702 4.43873977070721803528 -0.76158004326704964448
H  -1.33879622191689873212 4.69571097986318886086 1.19890805994787918998
H  -6.17413561112708553225 1.47410559342782954140 0.19007305348557004820
H  -4.09868189285289563628 -3.97092024710498758822 -0.80481580480895953400
H  1.40934724253084797674 -5.07071095687050732437 0.35457577458490985300
H  5.76955099277967686788 -1.16139533236291936369 -0.16672775541378001551
H  1.99677609145850842864 2.83976438078294002310 0.85744948004959942178
H  -2.03432580407637875197 1.97912333649938032565 -0.00933991151863993591
H  -3.58181057813990832983 0.04730107681938962305 0.97286818618691950356
H  -1.81875059986388909472 -2.77601408995254050893 0.84523606295103970165
H  1.70767087459974709063 -2.02632998237252959228 0.44167627387429975183
H  3.29684627784058648103 0.46242992506568020294 0.61428010446683900536
H  4.27684283934914866165 3.13377304722748029064 1.84096947029981894417
H  3.05499576615011703140 4.05618852724160117162 2.76325081195894650676
H  -4.79227452249524610295 -0.15173887546790032488 3.16617738075086840865
H  -4.40898511711660745505 1.53315883400238783807 2.74824849325204567663
H  -3.97170422031588721268 -2.91608560685773054999 2.03992773831826879061
H  -2.81226758138124921516 -4.12058300134711963381 2.66817818299924836012
H  4.35574918530906440850 0.42281946590956998033 2.86286040394648688689
H  4.02684838685082624465 -1.23311937246010971947 2.28407916476905814562
H  3.76320851633328734565 5.88246056441070930276 1.54085400740711886414
H  -6.90736717162538571557 0.28345440568049945496 2.39381796429284854355
H  -3.92388988794632753709 -5.64051884971686945391 1.33424427257381927880
H  6.51908788538571037918 0.06399434512467971903 2.12347478294185876280
C  0.26127497010885958328 -1.58912450335454979999 3.90285766255619792631
H  0.88951598116402896821 -1.18363696298226983572 4.68922404710705720277
H  -0.25570570590976021697 -2.48705044817073872565 4.23160082255163860765
O  0.34924840901390941106 -3.98334818409430990727 2.55358777221210875297
C  -0.58617522855173942453 0.84541176598609990567 3.79519962836908808512
H  -0.99939904616609909205 0.95260657278872973297 4.79784223568303769270
H  0.46887642779151966765 1.11663465419944030188 3.80502509435579794328
O  0.16237772092035962501 1.42572362705916000358 1.35186217851816903313
C  -0.72420064229639979914 -0.57561974826865003330 3.33162747555646809872
O  -1.53646263887656897573 -0.91508322368633943089 2.48476685153011844776
O  5.12016518841188084110 -3.80675011383641637153 3.06030596716629732512
H  4.25869305737139836054 -3.72293329273593265327 2.63580323223809243061
H  5.32062354544112547927 -2.90677049522949593197 3.34175791086644746741
O  -2.07739336173240829453 4.33352014407194108259 3.97883132084589563604
H  -2.35787845356035274946 3.79904446580360399821 3.22714925599252966393
H  -2.03711298227879344935 3.69888340896133804847 4.70338343691660476509
O  1.20861243434111176320 0.84716361011117102819 -2.45015501381522371460
H  1.47563441383520377315 -0.07837486559086279114 -2.48810045468183282935
H  0.38317580702480413812 0.86359757474617560025 -2.94789627442596335882
O  2.57954538705013813882 -5.94619569675729753300 2.93431070549187023033
H  2.65596581105262918854 -6.24703290143068468154 3.84700942856533290026
H  1.73718974537481085640 -5.47753390440847809373 2.92185435155271555629
O  7.29620667321037252862 3.05100343268505413974 1.44429872370218603805
H  7.01503845224758304511 2.20928903027048573193 1.06770429954158507790
H  6.76420353927246242876 3.12816771772275625807 2.24453643964550542123
O  -1.05493549403350583837 -0.20175112183925833498 -1.90578485440609046719
H  -1.23685437313731783071 -0.42092813198437378785 -0.98479135623696145707
H  -1.90977621469210645522 0.09335581160641551191 -2.23973290958756754421
O  0.40789638124594512769 4.85382894434815526097 3.72543848859718496058
H  0.01368879175008975990 4.49477322989597638525 2.92229377291796899030
H  0.03071683465176650030 4.30767446854185553917 4.42459007560179617968
O  1.21348797977724287556 -3.47827765770486418972 -4.92319011099401926401
H  1.25561636499323192595 -2.59985245536667353150 -4.52827692170230822200
H  0.26721009973673559568 -3.65151120294881614825 -4.98572311005507007309
O  -3.37744983416910171670 -0.80244443854341140909 5.02801316157645405980
H  -3.98342569205590901760 -0.66501468563138288470 5.76508058501425590947
H  -2.99943270180925969370 -1.67108239055839913334 5.20671184479757620522
O  -0.29409470751137145594 7.08250446257944599182 2.34081583065246645603
H  0.51752120379981159104 6.67959335556119793154 2.01171961923672348860
H  -0.39475462152669771321 6.69967646414601958327 3.21983367390093944138
O  -3.43295572661918013679 2.81287833768132600198 -3.73637328428637882638
H  -3.86438062166725604385 3.40821766400290560028 -4.35991615409412336390
H  -4.15948600299494675170 2.49865613529479757560 -3.18611859011283016230
O  1.35024310655608803522 2.97177396900470869312 -4.84512104697737200354
H  1.75484819780610545870 2.33269820340351374810 -4.24742635068489171601
H  0.40538034146273999037 2.85284786628234776629 -4.69527779335967210272
O  0.18322687505456614065 -6.60190669290909060152 2.15079632328284464649
H  -0.09082779438799913618 -5.87151553977062601319 1.58441759346140953468
H  -0.37141095595953899089 -7.33395350912017729428 1.85780076238388747178
O  2.56947934761413288030 -7.05085454762334773449 0.50028496151401569136
H  2.21567125483624716153 -7.92918499809157051317 0.31940511939356591720
H  2.62946282806246500741 -7.02634175534128413432 1.46213898812676346139
O  0.58627963217273637575 -7.34812615275521352487 -2.33549050516169032221
H  1.53648087109563014074 -7.23569529413239376225 -2.45312966360428363899
H  0.21408734174046861742 -6.97478527771062140062 -3.14261599316652207037
O  0.89019192326940954629 -0.81060957508683373351 -5.28435931750822174280
H  1.33739023672534007581 -0.02176180210095902262 -4.95710571016715118020
H  0.39779649937544075966 -0.48928159775481222526 -6.04833388575988006863
O  -7.04956873861824728777 -3.96410725474136516056 2.00995718922721300359
H  -7.15254410147000818654 -4.65493643898663123082 1.34549261014047272234
H  -6.11654403109737643263 -4.01710470963826971058 2.24663889184350029637
O  -2.39204768770303655145 0.15717982328363380717 -4.46632338538250728277
H  -1.53045049202667371446 0.00772474470296939664 -4.87212569674781104112
H  -3.01349931175671681416 -0.09387819900866259393 -5.15923738569354028982
O  3.14332620986744482039 -1.62109111580771458883 -4.37889695172932036371
H  3.95613356745356270494 -1.99669242749930186953 -4.73615024860673283769
H  3.41939840053587484903 -1.25197539084039011215 -3.53219760098863355680
O  -2.67562507398253446311 -2.72429854713833474733 -5.71877295514880223948
H  -2.04201429833394287883 -2.02689782699283638223 -5.51497971545993515008
H  -3.48775396947860238939 -2.24134700532619701718 -5.90999672141472753850
O  -5.16179463953493655737 1.22880828697755473122 5.39796580930602942772
H  -4.30623578081447266896 1.46134611394679203578 5.01940635253112343861
H  -5.78909550991919452656 1.71748339740495525874 4.85294074760039073624
O  7.47482153174193530987 -2.68927817501331345440 -0.05106943122605772656
H  8.13144470871629110320 -2.53901163294919740565 -0.74072734194451583800
H  7.93040395968893019329 -2.42164143292063815949 0.75526628610962387445
O  3.28308700329775504656 0.25360364509140098654 4.83243799257620310073
H  3.23293046070106671053 -0.70364738321965725198 4.72988627853632603859
H  4.06735062240857292437 0.38041984245367749251 5.37852433304727917118
O  -5.07534094216287634538 3.89321310787356278382 4.18836856975482074716
H  -4.61545125675281653344 4.72313013558524108504 4.01777763099195883711
H  -5.96276847180845059881 4.05379896144220630561 3.84771239898420702730
205
Energy 2.088085
C  0.71130776615267965468 5.00482414727958069278 -0.19561568134503989902
C  -4.13784486848083687960 3.17739904325788646844 0.68958586950538958149
C  -5.17444863619361594687 -1.77393841750645009370 -0.21665732364067985527
C  -0.87384297371556018952 -4.77917785703500719308 -0.63719983279390968178
C  4.05339626216557658012 -3.03094590633414950887 0.11871533019796989827
C  5.04884681101444510176 2.09362244562296995198 -0.58404774284701976850
O  -0.12582766454131008582 3.86927617535052936759 -0.25997818896310981307
O  -4.31294268880552600365 2.22131748928795813569 -0.31126934222609969893
O  -3.82279935479500831974 -1.93070136534545921947 -0.57994872475585967919
O  0.05957377906125960187 -3.73642003081359996841 -0.49167570712067970584
O  3.83098722953195691687 -1.80990987403622982654 -0.51821454630126961849
O  3.72723448493223719069 2.39573122461048049203 -0.94081572077923947273
C  1.36673334302333859824 5.17738746353810963541 -1.57023401112807836633
C  -3.83082197195232687648 4.52142930134692022648 -0.00861440099554997007
C  -5.86696795055896558324 -0.98447702978594020529 -1.33884527976942946381
C  -1.61012054292363893104 -4.57805317038506043303 -1.97033050864001890723
C  3.77326160587263625956 -4.12352537948484876296 -0.93397915008777943058
C  5.59790018606635531029 1.22271087148065049632 -1.73017268935670931462
O  0.41249294889497961636 5.31215455814457548911 -2.59060683846512906925
O  -4.80930237402007687564 4.84002336366017882341 -0.95372222083172941698
O  -5.78582568311042511056 -1.64728677729911021643 -2.57023780092665665720
O  -0.73773614924839026052 -4.55082005612955775575 -3.06837569591808811964
O  4.60494108751403530277 -3.96622878976938064710 -2.04751294360803903771
O  5.51089034068398309074 1.89539249938175013988 -2.95590729180038813695
C  2.21877561653414900888 3.93091745157843019953 -1.83150699881148915082
C  -2.43703341709546794647 4.47105818176657887619 -0.66523693747410916899
C  -5.20475957224313479088 0.39731597485467984310 -1.42006973941786962534
C  -2.38127676782546915391 -3.25302065840269838404 -1.88850281771867911651
C  2.29083818924970739062 -4.03265794157949919452 -1.34196827120711925652
C  4.78374355357373559627 -0.07921556826066936119 -1.75652837800578920380
O  2.95978907701573756839 4.02999105522410960845 -3.02082727297879927164
O  -2.05802748860041750945 5.73612709045024526944 -1.15190620092513951178
O  -5.88058054611833469494 1.22747881263100988569 -2.32923887821376673912
O  -3.19127255102765827743 -3.04457554296714016928 -3.01769493583701819972
O  1.91775986910106821526 -5.08492791013237965814 -2.19872422703288883383
O  5.29532575127568527762 -1.00829228528355963057 -2.67980956684520821298
C  3.21669371315159757785 3.69387210059014980956 -0.69186082520354963421
C  -1.38795551033674868791 3.99685863851938982805 0.35420949320828976070
C  -5.16778178528489551269 1.11072336231340940138 -0.06149807731087994500
C  -3.29265555667351561553 -3.24033602237473994379 -0.65776494554374898005
C  1.38149539713368874061 -4.07715922342435987957 -0.10764441609134994815
C  4.77256626082026613744 -0.75675892258768917564 -0.38217592772181979699
C  2.55256396054111922567 3.77383000390614853359 0.69472730196528931224
C  -1.87658184279176842857 2.62959785738603990524 0.86959042675287956392
C  -4.66995162147994768986 0.17586095834351950229 1.06305633345943961743
C  -2.50721461222832919802 -3.60110911172643000100 0.61297497945516965512
C  1.85352377539312773713 -3.02051341305114995350 0.89710406424008881654
C  4.36577196934167766074 0.23022434129321070473 0.72517060885729955899
O  1.66907167957595858887 4.88692368085399930777 0.81124164518227925846
O  -3.08441362729646728624 2.81665904229748020882 1.56150817661108898271
O  -5.30102626309129565385 -1.10211608872167032835 0.99847272905182959946
O  -1.77848159054403920365 -4.80866574069801888669 0.42941785465123982757
O  3.21002454205557707922 -3.18580015958223006223 1.24237706618064924768
O  5.13256533557428618053 1.42782080075291051280 0.64399374126307928901
C  3.59066688938968736622 3.98044807994619054270 1.80950926664780875619
C  -0.89645500604576855430 1.89000615206742916818 1.74680470073063887071
C  -5.01952751177552602968 0.67278465397587872143 2.47922864883734828112
C  -3.43552903897644679176 -3.83876853711820009707 1.81094492657019912052
C  1.02780373685861881050 -3.05255631487953005276 2.17255950121327856550
C  4.63334413526010635564 -0.33982799439168964728 2.12582775292363868047
O  4.36587551677528651339 5.12623218609484077035 1.58164252684446804409
O  -1.34635178925135901018 1.75509148705510997779 2.99556395054215807150
O  -6.36137881605171440214 1.05950386521692951902 2.58358829301366776932
O  -4.39579169127993640842 -4.82015551998131019928 1.53892222940309930657
O  1.15961021883623871531 -1.88140208249342943958 2.80998166284474804044
O  5.97384117287688454212 -0.72056215651174970738 2.28104190831524888949
H  0.13224704601901035583 5.90028006910375868443 0.06179845111059995011
H  -5.02906546666553655456 3.26944512916705898320 1.32195973471651906372
H  -5.66005365569407548065 -2.74597562429162023179 -0.06617953327339991254
H  -0.37596333589037028711 -5.75629752710907105495 -0.61905323145201962554
H  5.07351651543867454563 -3.11302658157459832822 0.51127945807539909584
H  5.64867625842899290234 3.00541745320616016102 -0.46425305226986962603
H  2.01854436715261886803 6.06436711980527043409 -1.54656827692787923745
H  -3.84115196116301671481 5.32232493097132941529 0.73833328706388945406
H  -6.93123890356386596068 -0.87032777596413046783 -1.10908033325346933040
H  -2.33079476852577860413 -5.39901926729751036049 -2.10116728534805874418
H  3.97846078011181525369 -5.11278456573449080480 -0.51320329701895961438
H  6.65544385173537111910 0.99639818803564983440 -1.56359344794164911718
H  -0.44758121555990915130 5.54738430107657976009 -2.19514784185843891962
H  -4.99862717111371512857 4.04655674109809648797 -1.47877335682354948965
H  -4.87862214394077664537 -1.98151913903146037477 -2.69443521680572883881
H  0.17493009918405943992 -4.73959651674300985746 -2.77483024948440881730
H  4.66410798139857529776 -3.01874084232443751219 -2.26865624666724841063
H  4.64836089514038430792 2.34140600586418878848 -3.00041084851171824255
H  1.54098607645986906967 3.06283758725334953610 -1.87427115174566893963
H  -2.46085499425985743116 3.74585258222391859206 -1.49411825115310925582
H  -4.16019338913851743911 0.25205406388909978865 -1.74488235435312732946
H  -1.65150591338989927159 -2.43341514701178018854 -1.78743297510559906449
H  2.13072481812891645347 -3.06478741669444998408 -1.84269875172082908676
H  3.74246695990955480227 0.17505707611953005842 -2.01366769037927806352
H  2.36276715127818626172 4.34815172937626659433 -3.71377294779213817932
H  -2.81157367692486648281 6.10014489877917043259 -1.64421335474422902756
H  -6.09084081771053398313 0.69029656113981896493 -3.10886487380280840398
H  -2.66909052727224915813 -3.26592044166787065507 -3.80334705793696725706
H  2.58698386619235698447 -5.14749436802668913771 -2.89909019680832802379
H  5.49408568008983611008 -0.53311484335033920701 -3.50050276010526850712
H  4.02144260633307659702 4.43873977070721803528 -0.76158004326704964448
H  -1.33879622191689873212 4.69571097986318886086 1.19890805994787918998
H  -6.17413561112708553225 1.47410559342782954140 0.19007305348557004820
H  -4.09868189285289563628 -3.97092024710498758822 -0.80481580480895953400
H  1.40934724253084797674 -5.07071095687050732437 0.35457577458490985300
H  5.76955099277967686788 -1.16139533236291936369 -0.16672775541378001551
H  1.99677609145850842864 2.83976438078294002310 0.85744948004959942178
H  -2.03432580407637875197 1.97912333649938032565 -0.00933991151863993591
H  -3.58181057813990832983 0.04730107681938962305 0.97286818618691950356
H  -1.81875059986388909472 -2.77601408995254050893 0.84523606295103970165
H  1.70767087459974709063 -2.02632998237252959228 0.44167627387429975183
H  3.29684627784058648103 0.46242992506568020294 0.61428010446683900536
H  4.27684283934914866165 3.13377304722748029064 1.84096947029981894417
H  3.05499576615011703140 4.05618852724160117162 2.76325081195894650676
H  -4.79227452249524610295 -0.15173887546790032488 3.16617738075086840865
H  -4.40898511711660745505 1.53315883400238783807 2.74824849325204567663
H  -3.97170422031588721268 -2.91608560685773054999 2.03992773831826879061
H  -2.81226758138124921516 -4.12058300134711963381 2.66817818299924836012
H  4.35574918530906440850 0.42281946590956998033 2.86286040394648688689
H  4.02684838685082624465 -1.23311937246010971947 2.28407916476905814562
H  3.76320851633328734565 5.88246056441070930276 1.54085400740711886414
H  -6.90736717162538571557 0.28345440568049945496 2.39381796429284854355
H  -3.92388988794632753709 -5.64051884971686945391 1.33424427257381927880
H  6.51908788538571037918 0.06399434512467971903 2.12347478294185876280
C  0.26127497010885958328 -1.58912450335454979999 3.90285766255619792631
H  0.88951598116402896821 -1.18363696298226983572 4.68922404710705720277
H  -0.25570570590976021697 -2.48705044817073872565 4.23160082255163860765
O  0.34924840901390941106 -3.98334818409430990727 2.55358777221210875297
C  -0.58617522855173942453 0.84541176598609990567 3.79519962836908808512
H  -0.99939904616609909205 0.95260657278872973297 4.79784223568303769270
H  0.46887642779151966765 1.11663465419944030188 3.80502509435579794328
O  0.16237772092035962501 1.42572362705916000358 1.35186217851816903313
C  -0.72420064229639979914 -0.57561974826865003330 3.33162747555646809872
O  -1.53646263887656897573 -0.91508322368633943089 2.48476685153011844776
O  5.12016518841188084110 -3.80675011383641637153 3.06030596716629732512
H  4.25869305737139836054 -3.72293329273593265327 2.63580323223809243061
H  5.32062354544112547927 -2.90677049522949593197 3.34175791086644746741
O  -2.07739336173240829453 4.33352014407194108259 3.97883132084589563604
H  -2.35787845356035274946 3.79904446580360399821 3.22714925599252966393
H  -2.03711298227879344935 3.69888340896133804847 4.70338343691660476509
O  1.20861243434111176320 0.84716361011117102819 -2.45015501381522371460
H  1.47563441383520377315 -0.07837486559086279114 -2.48810045468183282935
H  0.38317580702480413812 0.86359757474617560025 -2.94789627442596335882
O  2.57954538705013813882 -5.94619569675729753300 2.93431070549187023033
H  2.65596581105262918854 -6.24703290143068468154 3.84700942856533290026
H  1.73718974537481085640 -5.47753390440847809373 2.92185435155271555629
O  7.29620667321037252862 3.05100343268505413974 1.44429872370218603805
H  7.01503845224758304511 2.20928903027048573193 1.06770429954158507790
H  6.76420353927246242876 3.12816771772275625807 2.24453643964550542123
O  -1.05493549403350583837 -0.20175112183925833498 -1.90578485440609046719
H  -1.23685437313731783071 -0.42092813198437378785 -0.98479135623696145707
H  -1.90977621469210645522 0.09335581160641551191 -2.23973290958756754421
O  0.40789638124594512769 4.85382894434815526097 3.72543848859718496058
H  0.01368879175008975990 4.49477322989597638525 2.92229377291796899030
H  0.03071683465176650030 4.30767446854185553917 4.42459007560179617968
O  1.21348797977724287556 -3.47827765770486418972 -4.92319011099401926401
H  1.25561636499323192595 -2.59985245536667353150 -4.52827692170230822200
H  0.26721009973673559568 -3.65151120294881614825 -4.98572311005507007309
O  -3.37744983416910171670 -0.80244443854341140909 5.02801316157645405980
H  -3.98342569205590901760 -0.66501468563138288470 5.76508058501425590947
H  -2.99943270180925969370 -1.67108239055839913334 5.20671184479757620522
O  -0.29409470751137145594 7.08250446257944599182 2.34081583065246645603
H  0.51752120379981159104 6.67959335556119793154 2.01171961923672348860
H  -0.39475462152669771321 6.69967646414601958327 3.21983367390093944138
O  -3.43295572661918013679 2.81287833768132600198 -3.73637328428637882638
H  -3.86438062166725604385 3.40821766400290560028 -4.35991615409412336390
H  -4.15948600299494675170 2.49865613529479757560 -3.18611859011283016230
O  1.35024310655608803522 2.97177396900470869312 -4.84512104697737200354
H  1.75484819780610545870 2.33269820340351374810 -4.24742635068489171601
H  0.40538034146273999037 2.85284786628234776629 -4.69527779335967210272
O  0.18322687505456614065 -6.60190669290909060152 2.15079632328284464649
H  -0.09082779438799913618 -5.87151553977062601319 1.58441759346140953468
H  -0.37141095595953899089 -7.33395350912017729428 1.85780076238388747178
O  2.56947934761413288030 -7.05085454762334773449 0.50028496151401569136
H  2.21567125483624716153 -7.92918499809157051317 0.31940511939356591720
H  2.62946282806246500741 -7.02634175534128413432 1.46213898812676346139
O  0.58627963217273637575 -7.34812615275521352487 -2.33549050516169032221
H  1.53648087109563014074 -7.23569529413239376225 -2.45312966360428363899
H  0.21408734174046861742 -6.97478527771062140062 -3.14261599316652207037
O  0.89019192326940954629 -0.81060957508683373351 -5.28435931750822174280
H  1.33739023672534007581 -0.02176180210095902262 -4.95710571016715118020
H  0.39779649937544075966 -0.48928159775481222526 -6.04833388575988006863
O  -7.04956873861824728777 -3.96410725474136516056 2.00995718922721300359
H  -7.15254410147000818654 -4.65493643898663123082 1.34549261014047272234
H  -6.11654403109737643263 -4.01710470963826971058 2.24663889184350029637
O  -2.39204768770303655145 0.15717982328363380717 -4.46632338538250728277
H  -1.53045049202667371446 0.00772474470296939664 -4.87212569674781104112
H  -3.01349931175671681416 -0.09387819900866259393 -5.15923738569354028982
O  3.14332620986744482039 -1.62109111580771458883 -4.37889695172932036371
H  3.95613356745356270494 -1.99669242749930186953 -4.73615024860673283769
H  3.41939840053587484903 -1.25197539084039011215 -3.53219760098863355680
O  -2.67562507398253446311 -2.72429854713833474733 -5.71877295514880223948
H  -2.04201429833394287883 -2.02689782699283638223 -5.51497971545993515008
H  -3.48775396947860238939 -2.24134700532619701718 -5.90999672141472753850
O  -5.16179463953493655737 1.22880828697755473122 5.39796580930602942772
H  -4.30623578081447266896 1.46134611394679203578 5.01940635253112343861
H  -5.78909550991919452656 1.71748339740495525874 4.85294074760039073624
O  7.47482153174193530987 -2.68927817501331345440 -0.05106943122605772656
H  8.13144470871629110320 -2.53901163294919740565 -0.74072734194451583800
H  7.93040395968893019329 -2.42164143292063815949 0.75526628610962387445
O  3.28308700329775504656 0.25360364509140098654 4.83243799257620310073
H  3.23293046070106671053 -0.70364738321965725198 4.72988627853632603859
H  4.06735062240857292437 0.38041984245367749251 5.37852433304727917118
O  -5.07534094216287634538 3.89321310787356278382 4.18836856975482074716
H  -4.61545125675281653344 4.72313013558524108504 4.01777763099195883711
H  -5.96276847180845059881 4.05379896144220630561 3.84771239898420569503
O  1.45025193988893930097 0.85417997595781436360 6.76870280392417633664
H  1.93168607196916974900 0.40658874102402198236 6.06354656102552258545
H  1.57211704817955344460 1.78876006609927351576 6.56604295611061861138
208
Energy 1.432015
C  0.71130776615267965468 5.00482414727958069278 -0.19561568134503989902
C  -4.13784486848083687960 3.17739904325788646844 0.68958586950538958149
C  -5.17444863619361594687 -1.77393841750645009370 -0.21665732364067985527
C  -0.87384297371556018952 -4.77917785703500719308 -0.63719983279390968178
C  4.05339626216557658012 -3.03094590633414950887 0.11871533019796989827
C  5.04884681101444510176 2.09362244562296995198 -0.58404774284701976850
O  -0.12582766454131008582 3.86927617535052936759 -0.25997818896310981307
O  -4.31294268880552600365 2.22131748928795813569 -0.31126934222609969893
O  -3.82279935479500831974 -1.93070136534545921947 -0.57994872475585967919
O  0.05957377906125960187 -3.73642003081359996841 -0.49167570712067970584
O  3.83098722953195691687 -1.80990987403622982654 -0.51821454630126961849
O  3.72723448493223719069 2.39573122461048049203 -0.94081572077923947273
C  1.36673334302333859824 5.17738746353810963541 -1.57023401112807836633
C  -3.83082197195232687648 4.52142930134692022648 -0.00861440099554997007
C  -5.86696795055896558324 -0.98447702978594020529 -1.33884527976942946381
C  -1.61012054292363893104 -4.57805317038506043303 -1.97033050864001890723
C  3.77326160587263625956 -4.12352537948484876296 -0.93397915008777943058
C  5.59790018606635531029 1.22271087148065049632 -1.73017268935670931462
O  0.41249294889497961636 5.31215455814457548911 -2.59060683846512906925
O  -4.80930237402007687564 4.84002336366017882341 -0.95372222083172941698
O  -5.78582568311042511056 -1.64728677729911021643 -2.57023780092665665720
O  -0.73773614924839026052 -4.55082005612955775575 -3.06837569591808811964
O  4.60494108751403530277 -3.96622878976938064710 -2.04751294360803903771
O  5.51089034068398309074 1.89539249938175013988 -2.95590729180038813695
C  2.21877561653414900888 3.93091745157843019953 -1.83150699881148915082
C  -2.43703341709546794647 4.47105818176657887619 -0.66523693747410916899
C  -5.20475957224313479088 0.39731597485467984310 -1.42006973941786962534
C  -2.38127676782546915391 -3.25302065840269838404 -1.88850281771867911651
C  2.29083818924970739062 -4.03265794157949919452 -1.34196827120711925652
C  4.78374355357373559627 -0.07921556826066936119 -1.75652837800578920380
O  2.95978907701573756839 4.02999105522410960845 -3.02082727297879927164
O  -2.05802748860041750945 5.73612709045024526944 -1.15190620092513951178
O  -5.88058054611833469494 1.22747881263100988569 -2.32923887821376673912
O  -3.19127255102765827743 -3.04457554296714016928 -3.01769493583701819972
O  1.91775986910106821526 -5.08492791013237965814 -2.19872422703288883383
O  5.29532575127568527762 -1.00829228528355963057 -2.67980956684520821298
C  3.21669371315159757785 3.69387210059014980956 -0.69186082520354963421
C  -1.38795551033674868791 3.99685863851938982805 0.35420949320828976070
C  -5.16778178528489551269 1.11072336231340940138 -0.06149807731087994500
C  -3.29265555667351561553 -3.24033602237473994379 -0.65776494554374898005
C  1.38149539713368874061 -4.07715922342435987957 -0.10764441609134994815
C  4.77256626082026613744 -0.75675892258768917564 -0.38217592772181979699
C  2.55256396054111922567 3.77383000390614853359 0.69472730196528931224
C  -1.87658184279176842857 2.62959785738603990524 0.86959042675287956392
C  -4.66995162147994768986 0.17586095834351950229 1.06305633345943961743
C  -2.50721461222832919802 -3.60110911172643000100 0.61297497945516965512
C  1.85352377539312773713 -3.02051341305114995350 0.89710406424008881654
C  4.36577196934167766074 0.23022434129321070473 0.72517060885729955899
O  1.66907167957595858887 4.88692368085399930777 0.81124164518227925846
O  -3.08441362729646728624 2.81665904229748020882 1.56150817661108898271
O  -5.30102626309129565385 -1.10211608872167032835 0.99847272905182959946
O  -1.77848159054403920365 -4.80866574069801888669 0.42941785465123982757
O  3.21002454205557707922 -3.18580015958223006223 1.24237706618064924768
O  5.13256533557428618053 1.42782080075291051280 0.64399374126307928901
C  3.59066688938968736622 3.98044807994619054270 1.80950926664780875619
C  -0.89645500604576855430 1.89000615206742916818 1.74680470073063887071
C  -5.01952751177552602968 0.67278465397587872143 2.47922864883734828112
C  -3.43552903897644679176 -3.83876853711820009707 1.81094492657019912052
C  1.02780373685861881050 -3.05255631487953005276 2.17255950121327856550
C  4.63334413526010635564 -0.33982799439168964728 2.12582775292363868047
O  4.36587551677528651339 5.12623218609484077035 1.58164252684446804409
O  -1.34635178925135901018 1.75509148705510997779 2.99556395054215807150
O  -6.36137881605171440214 1.05950386521692951902 2.58358829301366776932
O  -4.39579169127993640842 -4.82015551998131019928 1.53892222940309930657
O  1.15961021883623871531 -1.88140208249342943958 2.80998166284474804044
O  5.97384117287688454212 -0.72056215651174970738 2.28104190831524888949
H  0.13224704601901035583 5.90028006910375868443 0.06179845111059995011
H  -5.02906546666553655456 3.26944512916705898320 1.32195973471651906372
H  -5.66005365569407548065 -2.74597562429162023179 -0.06617953327339991254
H  -0.37596333589037028711 -5.75629752710907105495 -0.61905323145201962554
H  5.07351651543867454563 -3.11302658157459832822 0.51127945807539909584
H  5.64867625842899290234 3.00541745320616016102 -0.46425305226986962603
H  2.01854436715261886803 6.06436711980527043409 -1.54656827692787923745
H  -3.84115196116301671481 5.32232493097132941529 0.73833328706388945406
H  -6.93123890356386596068 -0.87032777596413046783 -1.10908033325346933040
H  -2.33079476852577860413 -5.39901926729751036049 -2.10116728534805874418
H  3.97846078011181525369 -5.11278456573449080480 -0.51320329701895961438
H  6.65544385173537111910 0.99639818803564983440 -1.56359344794164911718
H  -0.44758121555990915130 5.54738430107657976009 -2.19514784185843891962
H  -4.99862717111371512857 4.04655674109809648797 -1.47877335682354948965
H  -4.87862214394077664537 -1.98151913903146037477 -2.69443521680572883881
H  0.17493009918405943992 -4.73959651674300985746 -2.77483024948440881730
H  4.66410798139857529776 -3.01874084232443751219 -2.26865624666724841063
H  4.64836089514038430792 2.34140600586418878848 -3.00041084851171824255
H  1.54098607645986906967 3.06283758725334953610 -1.87427115174566893963
H  -2.46085499425985743116 3.74585258222391859206 -1.49411825115310925582
H  -4.16019338913851743911 0.25205406388909978865 -1.74488235435312732946
H  -1.65150591338989927159 -2.43341514701178018854 -1.78743297510559906449
H  2.13072481812891645347 -3.06478741669444998408 -1.84269875172082908676
H  3.74246695990955480227 0.17505707611953005842 -2.01366769037927806352
H  2.36276715127818626172 4.34815172937626659433 -3.71377294779213817932
H  -2.81157367692486648281 6.10014489877917043259 -1.64421335474422902756
H  -6.09084081771053398313 0.69029656113981896493 -3.10886487380280840398
H  -2.66909052727224915813 -3.26592044166787065507 -3.80334705793696725706
H  2.58698386619235698447 -5.14749436802668913771 -2.89909019680832802379
H  5.49408568008983611008 -0.53311484335033920701 -3.50050276010526850712
H  4.02144260633307659702 4.43873977070721803528 -0.76158004326704964448
H  -1.33879622191689873212 4.69571097986318886086 1.19890805994787918998
H  -6.17413561112708553225 1.47410559342782954140 0.19007305348557004820
H  -4.09868189285289563628 -3.97092024710498758822 -0.80481580480895953400
H  1.40934724253084797674 -5.07071095687050732437 0.35457577458490985300
H  5.76955099277967686788 -1.16139533236291936369 -0.16672775541378001551
H  1.99677609145850842864 2.83976438078294002310 0.85744948004959942178
H  -2.03432580407637875197 1.97912333649938032565 -0.00933991151863993591
H  -3.58181057813990832983 0.04730107681938962305 0.97286818618691950356
H  -1.81875059986388909472 -2.77601408995254050893 0.84523606295103970165
H  1.70767087459974709063 -2.02632998237252959228 0.44167627387429975183
H  3.29684627784058648103 0.46242992506568020294 0.61428010446683900536
H  4.27684283934914866165 3.13377304722748029064 1.84096947029981894417
H  3.05499576615011703140 4.05618852724160117162 2.76325081195894650676
H  -4.79227452249524610295 -0.15173887546790032488 3.16617738075086840865
H  -4.40898511711660745505 1.53315883400238783807 2.74824849325204567663
H  -3.97170422031588721268 -2.91608560685773054999 2.03992773831826879061
H  -2.81226758138124921516 -4.12058300134711963381 2.66817818299924836012
H  4.35574918530906440850 0.42281946590956998033 2.86286040394648688689
H  4.02684838685082624465 -1.23311937246010971947 2.28407916476905814562
H  3.76320851633328734565 5.88246056441070930276 1.54085400740711886414
H  -6.90736717162538571557 0.28345440568049945496 2.39381796429284854355
H  -3.92388988794632753709 -5.64051884971686945391 1.33424427257381927880
H  6.51908788538571037918 0.06399434512467971903 2.12347478294185876280
C  0.26127497010885958328 -1.58912450335454979999 3.90285766255619792631
H  0.88951598116402896821 -1.18363696298226983572 4.68922404710705720277
H  -0.25570570590976021697 -2.48705044817073872565 4.23160082255163860765
O  0.34924840901390941106 -3.98334818409430990727 2.55358777221210875297
C  -0.58617522855173942453 0.84541176598609990567 3.79519962836908808512
H  -0.99939904616609909205 0.95260657278872973297 4.79784223568303769270
H  0.46887642779151966765 1.11663465419944030188 3.80502509435579794328
O  0.16237772092035962501 1.42572362705916000358 1.35186217851816903313
C  -0.72420064229639979914 -0.57561974826865003330 3.33162747555646809872
O  -1.53646263887656897573 -0.91508322368633943089 2.48476685153011844776
O  5.12016518841188084110 -3.80675011383641637153 3.06030596716629732512
H  4.25869305737139836054 -3.72293329273593265327 2.63580323223809243061
H  5.32062354544112547927 -2.90677049522949593197 3.34175791086644746741
O  -2.07739336173240829453 4.33352014407194108259 3.97883132084589563604
H  -2.35787845356035274946 3.79904446580360399821 3.22714925599252966393
H  -2.03711298227879344935 3.69888340896133804847 4.70338343691660476509
O  1.20861243434111176320 0.84716361011117102819 -2.45015501381522371460
H  1.47563441383520377315 -0.07837486559086279114 -2.48810045468183282935
H  0.38317580702480413812 0.86359757474617560025 -2.94789627442596335882
O  2.57954538705013813882 -5.94619569675729753300 2.93431070549187023033
H  2.65596581105262918854 -6.24703290143068468154 3.84700942856533290026
H  1.73718974537481085640 -5.47753390440847809373 2.92185435155271555629
O  7.29620667321037252862 3.05100343268505413974 1.44429872370218603805
H  7.01503845224758304511 2.20928903027048573193 1.06770429954158507790
H  6.76420353927246242876 3.12816771772275625807 2.24453643964550542123
O  -1.05493549403350583837 -0.20175112183925833498 -1.90578485440609046719
H  -1.23685437313731783071 -0.42092813198437378785 -0.98479135623696145707
H  -1.90977621469210645522 0.09335581160641551191 -2.23973290958756754421
O  0.40789638124594512769 4.85382894434815526097 3.72543848859718496058
H  0.01368879175008975990 4.49477322989597638525 2.92229377291796899030
H  0.03071683465176650030 4.30767446854185553917 4.42459007560179617968
O  1.21348797977724287556 -3.47827765770486418972 -4.92319011099401926401
H  1.25561636499323192595 -2.59985245536667353150 -4.52827692170230822200
H  0.26721009973673559568 -3.65151120294881614825 -4.98572311005507007309
O  -3.37744983416910171670 -0.80244443854341140909 5.02801316157645405980
H  -3.98342569205590901760 -0.66501468563138288470 5.76508058501425590947
H  -2.99943270180925969370 -1.67108239055839913334 5.20671184479757620522
O  -0.29409470751137145594 7.08250446257944599182 2.34081583065246645603
H  0.51752120379981159104 6.67959335556119793154 2.01171961923672348860
H  -0.39475462152669771321 6.69967646414601958327 3.21983367390093944138
O  -3.43295572661918013679 2.81287833768132600198 -3.73637328428637882638
H  -3.86438062166725604385 3.40821766400290560028 -4.35991615409412336390
H  -4.15948600299494675170 2.49865613529479757560 -3.18611859011283016230
O  1.35024310655608803522 2.97177396900470869312 -4.84512104697737200354
H  1.75484819780610545870 2.33269820340351374810 -4.24742635068489171601
H  0.40538034146273999037 2.85284786628234776629 -4.69527779335967210272
O  0.18322687505456614065 -6.60190669290909060152 2.15079632328284464649
H  -0.09082779438799913618 -5.87151553977062601319 1.58441759346140953468
H  -0.37141095595953899089 -7.33395350912017729428 1.85780076238388747178
O  2.56947934761413288030 -7.05085454762334773449 0.50028496151401569136
H  2.21567125483624716153 -7.92918499809157051317 0.31940511939356591720
H  2.62946282806246500741 -7.02634175534128413432 1.46213898812676346139
O  0.58627963217273637575 -7.34812615275521352487 -2.33549050516169032221
H  1.53648087109563014074 -7.23569529413239376225 -2.45312966360428363899
H  0.21408734174046861742 -6.97478527771062140062 -3.14261599316652207037
O  0.89019192326940954629 -0.81060957508683373351 -5.28435931750822174280
H  1.33739023672534007581 -0.02176180210095902262 -4.95710571016715118020
H  0.39779649937544075966 -0.48928159775481222526 -6.04833388575988006863
O  -7.04956873861824728777 -3.96410725474136516056 2.00995718922721300359
H  -7.15254410147000818654 -4.65493643898663123082 1.34549261014047272234
H  -6.11654403109737643263 -4.01710470963826971058 2.24663889184350029637
O  -2.39204768770303655145 0.15717982328363380717 -4.46632338538250728277
H  -1.53045049202667371446 0.00772474470296939664 -4.87212569674781104112
H  -3.01349931175671681416 -0.09387819900866259393 -5.15923738569354028982
O  3.14332620986744482039 -1.62109111580771458883 -4.37889695172932036371
H  3.95613356745356270494 -1.99669242749930186953 -4.73615024860673283769
H  3.41939840053587484903 -1.25197539084039011215 -3.53219760098863355680
O  -2.67562507398253446311 -2.72429854713833474733 -5.71877295514880223948
H  -2.04201429833394287883 -2.02689782699283638223 -5.51497971545993515008
H  -3.48775396947860238939 -2.24134700532619701718 -5.90999672141472753850
O  -5.16179463953493655737 1.22880828697755473122 5.39796580930602942772
H  -4.30623578081447266896 1.46134611394679203578 5.01940635253112343861
H  -5.78909550991919452656 1.71748339740495525874 4.85294074760039073624
O  7.47482153174193530987 -2.68927817501331345440 -0.05106943122605772656
H  8.13144470871629110320 -2.53901163294919740565 -0.74072734194451583800
H  7.93040395968893019329 -2.42164143292063815949 0.75526628610962387445
O  3.28308700329775504656 0.25360364509140098654 4.83243799257620310073
H  3.23293046070106671053 -0.70364738321965725198 4.72988627853632603859
H  4.06735062240857292437 0.38041984245367749251 5.37852433304727917118
O  -5.07534094216287634538 3.89321310787356278382 4.18836856975482074716
H  -4.61545125675281653344 4.72313013558524108504 4.01777763099195883711
H  -5.96276847180845059881 4.05379896144220630561 3.84771239898420525094
O  1.45025193988893930097 0.85417997595781436360 6.76870280392417633664
H  1.93168607196916974900 0.40658874102402198236 6.06354656102552258545
H  1.57211704817955344460 1.78876006609927284963 6.56604295611061861138
O  -3.44570730021408433430 6.77245127343282771193 2.84439293874128606987
H  -2.83813269621510055885 6.02427171225839241941 2.86542883274777748781
H  -3.25376718262646669189 7.19423259426640626657 1.99904001121358820825
211
Energy 2.573417
C  0.71130776615267965468 5.00482414727958069278 -0.19561568134503989902
C  -4.13784486848083687960 3.17739904325788646844 0.68958586950538958149
C  -5.17444863619361594687 -1.77393841750645009370 -0.21665732364067985527
C  -0.87384297371556018952 -4.77917785703500719308 -0.63719983279390968178
C  4.05339626216557658012 -3.03094590633414950887 0.11871533019796989827
C  5.04884681101444510176 2.09362244562296995198 -0.58404774284701976850
O  -0.12582766454131008582 3.86927617535052936759 -0.25997818896310981307
O  -4.31294268880552600365 2.22131748928795813569 -0.31126934222609969893
O  -3.82279935479500831974 -1.93070136534545921947 -0.57994872475585967919
O  0.05957377906125960187 -3.73642003081359996841 -0.49167570712067970584
O  3.83098722953195691687 -1.80990987403622982654 -0.51821454630126961849
O  3.72723448493223719069 2.39573122461048049203 -0.94081572077923947273
C  1.36673334302333859824 5.17738746353810963541 -1.57023401112807836633
C  -3.83082197195232687648 4.52142930134692022648 -0.00861440099554997007
C  -5.86696795055896558324 -0.98447702978594020529 -1.33884527976942946381
C  -1.61012054292363893104 -4.57805317038506043303 -1.97033050864001890723
C  3.77326160587263625956 -4.12352537948484876296 -0.93397915008777943058
C  5.59790018606635531029 1.22271087148065049632 -1.73017268935670931462
O  0.41249294889497961636 5.31215455814457548911 -2.59060683846512906925
O  -4.80930237402007687564 4.84002336366017882341 -0.95372222083172941698
O  -5.78582568311042511056 -1.64728677729911021643 -2.57023780092665665720
O  -0.73773614924839026052 -4.55082005612955775575 -3.06837569591808811964
O  4.60494108751403530277 -3.96622878976938064710 -2.04751294360803903771
O  5.51089034068398309074 1.89539249938175013988 -2.95590729180038813695
C  2.21877561653414900888 3.93091745157843019953 -1.83150699881148915082
C  -2.43703341709546794647 4.47105818176657887619 -0.66523693747410916899
C  -5.20475957224313479088 0.39731597485467984310 -1.42006973941786962534
C  -2.38127676782546915391 -3.25302065840269838404 -1.88850281771867911651
C  2.29083818924970739062 -4.03265794157949919452 -1.34196827120711925652
C  4.78374355357373559627 -0.07921556826066936119 -1.75652837800578920380
O  2.95978907701573756839 4.02999105522410960845 -3.02082727297879927164
O  -2.05802748860041750945 5.73612709045024526944 -1.15190620092513951178
O  -5.88058054611833469494 1.22747881263100988569 -2.32923887821376673912
O  -3.19127255102765827743 -3.04457554296714016928 -3.01769493583701819972
O  1.91775986910106821526 -5.08492791013237965814 -2.19872422703288883383
O  5.29532575127568527762 -1.00829228528355963057 -2.67980956684520821298
C  3.21669371315159757785 3.69387210059014980956 -0.69186082520354963421
C  -1.38795551033674868791 3.99685863851938982805 0.35420949320828976070
C  -5.16778178528489551269 1.11072336231340940138 -0.06149807731087994500
C  -3.29265555667351561553 -3.24033602237473994379 -0.65776494554374898005
C  1.38149539713368874061 -4.07715922342435987957 -0.10764441609134994815
C  4.77256626082026613744 -0.75675892258768917564 -0.38217592772181979699
C  2.55256396054111922567 3.77383000390614853359 0.69472730196528931224
C  -1.87658184279176842857 2.62959785738603990524 0.86959042675287956392
C  -4.66995162147994768986 0.17586095834351950229 1.06305633345943961743
C  -2.50721461222832919802 -3.60110911172643000100 0.61297497945516965512
C  1.85352377539312773713 -3.02051341305114995350 0.89710406424008881654
C  4.36577196934167766074 0.23022434129321070473 0.72517060885729955899
O  1.66907167957595858887 4.88692368085399930777 0.81124164518227925846
O  -3.08441362729646728624 2.81665904229748020882 1.56150817661108898271
O  -5.30102626309129565385 -1.10211608872167032835 0.99847272905182959946
O  -1.77848159054403920365 -4.80866574069801888669 0.42941785465123982757
O  3.21002454205557707922 -3.18580015958223006223 1.24237706618064924768
O  5.13256533557428618053 1.42782080075291051280 0.64399374126307928901
C  3.59066688938968736622 3.98044807994619054270 1.80950926664780875619
C  -0.89645500604576855430 1.89000615206742916818 1.74680470073063887071
C  -5.01952751177552602968 0.67278465397587872143 2.47922864883734828112
C  -3.43552903897644679176 -3.83876853711820009707 1.81094492657019912052
C  1.02780373685861881050 -3.05255631487953005276 2.17255950121327856550
C  4.63334413526010635564 -0.33982799439168964728 2.12582775292363868047
O  4.36587551677528651339 5.12623218609484077035 1.58164252684446804409
O  -1.34635178925135901018 1.75509148705510997779 2.99556395054215807150
O  -6.36137881605171440214 1.05950386521692951902 2.58358829301366776932
O  -4.39579169127993640842 -4.82015551998131019928 1.53892222940309930657
O  1.15961021883623871531 -1.88140208249342943958 2.80998166284474804044
O  5.97384117287688454212 -0.72056215651174970738 2.28104190831524888949
H  0.13224704601901035583 5.90028006910375868443 0.06179845111059995011
H  -5.02906546666553655456 3.26944512916705898320 1.32195973471651906372
H  -5.66005365569407548065 -2.74597562429162023179 -0.06617953327339991254
H  -0.37596333589037028711 -5.75629752710907105495 -0.61905323145201962554
H  5.07351651543867454563 -3.11302658157459832822 0.51127945807539909584
H  5.64867625842899290234 3.00541745320616016102 -0.46425305226986962603
H  2.01854436715261886803 6.06436711980527043409 -1.54656827692787923745
H  -3.84115196116301671481 5.32232493097132941529 0.73833328706388945406
H  -6.93123890356386596068 -0.87032777596413046783 -1.10908033325346933040
H  -2.33079476852577860413 -5.39901926729751036049 -2.10116728534805874418
H  3.97846078011181525369 -5.11278456573449080480 -0.51320329701895961438
H  6.65544385173537111910 0.99639818803564983440 -1.56359344794164911718
H  -0.44758121555990915130 5.54738430107657976009 -2.19514784185843891962
H  -4.99862717111371512857 4.04655674109809648797 -1.47877335682354948965
H  -4.87862214394077664537 -1.98151913903146037477 -2.69443521680572883881
H  0.17493009918405943992 -4.73959651674300985746 -2.77483024948440881730
H  4.66410798139857529776 -3.01874084232443751219 -2.26865624666724841063
H  4.64836089514038430792 2.34140600586418878848 -3.00041084851171824255
H  1.54098607645986906967 3.06283758725334953610 -1.87427115174566893963
H  -2.46085499425985743116 3.74585258222391859206 -1.49411825115310925582
H  -4.16019338913851743911 0.25205406388909978865 -1.74488235435312732946
H  -1.65150591338989927159 -2.43341514701178018854 -1.78743297510559906449
H  2.13072481812891645347 -3.06478741669444998408 -1.84269875172082908676
H  3.74246695990955480227 0.17505707611953005842 -2.01366769037927806352
H  2.36276715127818626172 4.34815172937626659433 -3.71377294779213817932
H  -2.81157367692486648281 6.10014489877917043259 -1.64421335474422902756
H  -6.09084081771053398313 0.69029656113981896493 -3.10886487380280840398
H  -2.66909052727224915813 -3.26592044166787065507 -3.80334705793696725706
H  2.58698386619235698447 -5.14749436802668913771 -2.89909019680832802379
H  5.49408568008983611008 -0.53311484335033920701 -3.50050276010526850712
H  4.02144260633307659702 4.43873977070721803528 -0.76158004326704964448
H  -1.33879622191689873212 4.69571097986318886086 1.19890805994787918998
H  -6.17413561112708553225 1.47410559342782954140 0.19007305348557004820
H  -4.09868189285289563628 -3.97092024710498758822 -0.80481580480895953400
H  1.40934724253084797674 -5.07071095687050732437 0.35457577458490985300
H  5.76955099277967686788 -1.16139533236291936369 -0.16672775541378001551
H  1.99677609145850842864 2.83976438078294002310 0.85744948004959942178
H  -2.03432580407637875197 1.97912333649938032565 -0.00933991151863993591
H  -3.58181057813990832983 0.04730107681938962305 0.97286818618691950356
H  -1.81875059986388909472 -2.77601408995254050893 0.84523606295103970165
H  1.70767087459974709063 -2.02632998237252959228 0.44167627387429975183
H  3.29684627784058648103 0.46242992506568020294 0.61428010446683900536
H  4.27684283934914866165 3.13377304722748029064 1.84096947029981894417
H  3.05499576615011703140 4.05618852724160117162 2.76325081195894650676
H  -4.79227452249524610295 -0.15173887546790032488 3.16617738075086840865
H  -4.40898511711660745505 1.53315883400238783807 2.74824849325204567663
H  -3.97170422031588721268 -2.91608560685773054999 2.03992773831826879061
H  -2.81226758138124921516 -4.12058300134711963381 2.66817818299924836012
H  4.35574918530906440850 0.42281946590956998033 2.86286040394648688689
H  4.02684838685082624465 -1.23311937246010971947 2.28407916476905814562
H  3.76320851633328734565 5.88246056441070930276 1.54085400740711886414
H  -6.90736717162538571557 0.28345440568049945496 2.39381796429284854355
H  -3.92388988794632753709 -5.64051884971686945391 1.33424427257381927880
H  6.51908788538571037918 0.06399434512467971903 2.12347478294185876280
C  0.26127497010885958328 -1.58912450335454979999 3.90285766255619792631
H  0.88951598116402896821 -1.18363696298226983572 4.68922404710705720277
H  -0.25570570590976021697 -2.48705044817073872565 4.23160082255163860765
O  0.34924840901390941106 -3.98334818409430990727 2.55358777221210875297
C  -0.58617522855173942453 0.84541176598609990567 3.79519962836908808512
H  -0.99939904616609909205 0.95260657278872973297 4.79784223568303769270
H  0.46887642779151966765 1.11663465419944030188 3.80502509435579794328
O  0.16237772092035962501 1.42572362705916000358 1.35186217851816903313
C  -0.72420064229639979914 -0.57561974826865003330 3.33162747555646809872
O  -1.53646263887656897573 -0.91508322368633943089 2.48476685153011844776
O  5.12016518841188084110 -3.80675011383641637153 3.06030596716629732512
H  4.25869305737139836054 -3.72293329273593265327 2.63580323223809243061
H  5.32062354544112547927 -2.90677049522949593197 3.34175791086644746741
O  -2.07739336173240829453 4.33352014407194108259 3.97883132084589563604
H  -2.35787845356035274946 3.79904446580360399821 3.22714925599252966393
H  -2.03711298227879344935 3.69888340896133804847 4.70338343691660476509
O  1.20861243434111176320 0.84716361011117102819 -2.45015501381522371460
H  1.47563441383520377315 -0.07837486559086279114 -2.48810045468183282935
H  0.38317580702480413812 0.86359757474617560025 -2.94789627442596335882
O  2.57954538705013813882 -5.94619569675729753300 2.93431070549187023033
H  2.65596581105262918854 -6.24703290143068468154 3.84700942856533290026
H  1.73718974537481085640 -5.47753390440847809373 2.92185435155271555629
O  7.29620667321037252862 3.05100343268505413974 1.44429872370218603805
H  7.01503845224758304511 2.20928903027048573193 1.06770429954158507790
H  6.76420353927246242876 3.12816771772275625807 2.24453643964550542123
O  -1.05493549403350583837 -0.20175112183925833498 -1.90578485440609046719
H  -1.23685437313731783071 -0.42092813198437378785 -0.98479135623696145707
H  -1.90977621469210645522 0.09335581160641551191 -2.23973290958756754421
O  0.40789638124594512769 4.85382894434815526097 3.72543848859718496058
H  0.01368879175008975990 4.49477322989597638525 2.92229377291796899030
H  0.03071683465176650030 4.30767446854185553917 4.42459007560179617968
O  1.21348797977724287556 -3.47827765770486418972 -4.92319011099401926401
H  1.25561636499323192595 -2.59985245536667353150 -4.52827692170230822200
H  0.26721009973673559568 -3.65151120294881614825 -4.98572311005507007309
O  -3.37744983416910171670 -0.80244443854341140909 5.02801316157645405980
H  -3.98342569205590901760 -0.66501468563138288470 5.76508058501425590947
H  -2.99943270180925969370 -1.67108239055839913334 5.20671184479757620522
O  -0.29409470751137145594 7.08250446257944599182 2.34081583065246645603
H  0.51752120379981159104 6.67959335556119793154 2.01171961923672348860
H  -0.39475462152669771321 6.69967646414601958327 3.21983367390093944138
O  -3.43295572661918013679 2.81287833768132600198 -3.73637328428637882638
H  -3.86438062166725604385 3.40821766400290560028 -4.35991615409412336390
H  -4.15948600299494675170 2.49865613529479757560 -3.18611859011283016230
O  1.35024310655608803522 2.97177396900470869312 -4.84512104697737200354
H  1.75484819780610545870 2.33269820340351374810 -4.24742635068489171601
H  0.40538034146273999037 2.85284786628234776629 -4.69527779335967210272
O  0.18322687505456614065 -6.60190669290909060152 2.15079632328284464649
H  -0.09082779438799913618 -5.87151553977062601319 1.58441759346140953468
H  -0.37141095595953899089 -7.33395350912017729428 1.85780076238388747178
O  2.56947934761413288030 -7.05085454762334773449 0.50028496151401569136
H  2.21567125483624716153 -7.92918499809157051317 0.31940511939356591720
H  2.62946282806246500741 -7.02634175534128413432 1.46213898812676346139
O  0.58627963217273637575 -7.34812615275521352487 -2.33549050516169032221
H  1.53648087109563014074 -7.23569529413239376225 -2.45312966360428363899
H  0.21408734174046861742 -6.97478527771062140062 -3.14261599316652207037
O  0.89019192326940954629 -0.81060957508683373351 -5.28435931750822174280
H  1.33739023672534007581 -0.02176180210095902262 -4.95710571016715118020
H  0.39779649937544075966 -0.48928159775481222526 -6.04833388575988006863
O  -7.04956873861824728777 -3.96410725474136516056 2.00995718922721300359
H  -7.15254410147000818654 -4.65493643898663123082 1.34549261014047272234
H  -6.11654403109737643263 -4.01710470963826971058 2.24663889184350029637
O  -2.39204768770303655145 0.15717982328363380717 -4.46632338538250728277
H  -1.53045049202667371446 0.00772474470296939664 -4.87212569674781104112
H  -3.01349931175671681416 -0.09387819900866259393 -5.15923738569354028982
O  3.14332620986744482039 -1.62109111580771458883 -4.37889695172932036371
H  3.95613356745356270494 -1.99669242749930186953 -4.73615024860673283769
H  3.41939840053587484903 -1.25197539084039011215 -3.53219760098863355680
O  -2.67562507398253446311 -2.72429854713833474733 -5.71877295514880223948
H  -2.04201429833394287883 -2.02689782699283638223 -5.51497971545993515008
H  -3.48775396947860238939 -2.24134700532619701718 -5.90999672141472753850
O  -5.16179463953493655737 1.22880828697755473122 5.39796580930602942772
H  -4.30623578081447266896 1.46134611394679203578 5.01940635253112343861
H  -5.78909550991919452656 1.71748339740495525874 4.85294074760039073624
O  7.47482153174193530987 -2.68927817501331345440 -0.05106943122605772656
H  8.13144470871629110320 -2.53901163294919740565 -0.74072734194451583800
H  7.93040395968893019329 -2.42164143292063815949 0.75526628610962387445
O  3.28308700329775504656 0.25360364509140098654 4.83243799257620310073
H  3.23293046070106671053 -0.70364738321965725198 4.72988627853632603859
H  4.06735062240857292437 0.38041984245367749251 5.37852433304727917118
O  -5.07534094216287634538 3.89321310787356278382 4.18836856975482074716
H  -4.61545125675281653344 4.72313013558524108504 4.01777763099195883711
H  -5.96276847180845059881 4.05379896144220630561 3.84771239898420525094
O  1.45025193988893930097 0.85417997595781436360 6.76870280392417633664
H  1.93168607196916974900 0.40658874102402198236 6.06354656102552258545
H  1.57211704817955344460 1.78876006609927284963 6.56604295611061861138
O  -3.44570730021408344612 6.77245127343282860011 2.84439293874128606987
H  -2.83813269621510055885 6.02427171225839241941 2.86542883274777748781
H  -3.25376718262646669189 7.19423259426640626657 1.99904001121358820825
O  1.11816444679303672594 -4.32565546146346058265 5.35386354484279181065
H  1.95414561632925742884 -4.77549682520086538062 5.52161423984008425947
H  1.09148599170977855799 -4.25173814587538156928 4.39303757000971195623
214
Energy 3.324457
C  0.71130776615267965468 5.00482414727958069278 -0.19561568134503989902
C  -4.13784486848083687960 3.17739904325788646844 0.68958586950538958149
C  -5.17444863619361594687 -1.77393841750645009370 -0.21665732364067985527
C  -0.87384297371556018952 -4.77917785703500719308 -0.63719983279390968178
C  4.05339626216557658012 -3.03094590633414950887 0.11871533019796989827
C  5.04884681101444510176 2.09362244562296995198 -0.58404774284701976850
O  -0.12582766454131008582 3.86927617535052936759 -0.25997818896310981307
O  -4.31294268880552600365 2.22131748928795813569 -0.31126934222609969893
O  -3.82279935479500831974 -1.93070136534545921947 -0.57994872475585967919
O  0.05957377906125960187 -3.73642003081359996841 -0.49167570712067970584
O  3.83098722953195691687 -1.80990987403622982654 -0.51821454630126961849
O  3.72723448493223719069 2.39573122461048049203 -0.94081572077923947273
C  1.36673334302333859824 5.17738746353810963541 -1.57023401112807836633
C  -3.83082197195232687648 4.52142930134692022648 -0.00861440099554997007
C  -5.86696795055896558324 -0.98447702978594020529 -1.33884527976942946381
C  -1.61012054292363893104 -4.57805317038506043303 -1.97033050864001890723
C  3.77326160587263625956 -4.12352537948484876296 -0.93397915008777943058
C  5.59790018606635531029 1.22271087148065049632 -1.73017268935670931462
O  0.41249294889497961636 5.31215455814457548911 -2.59060683846512906925
O  -4.80930237402007687564 4.84002336366017882341 -0.95372222083172941698
O  -5.78582568311042511056 -1.64728677729911021643 -2.57023780092665665720
O  -0.73773614924839026052 -4.55082005612955775575 -3.06837569591808811964
O  4.60494108751403530277 -3.96622878976938064710 -2.04751294360803903771
O  5.51089034068398309074 1.89539249938175013988 -2.95590729180038813695
C  2.21877561653414900888 3.93091745157843019953 -1.83150699881148915082
C  -2.43703341709546794647 4.47105818176657887619 -0.66523693747410916899
C  -5.20475957224313479088 0.39731597485467984310 -1.42006973941786962534
C  -2.38127676782546915391 -3.25302065840269838404 -1.88850281771867911651
C  2.29083818924970739062 -4.03265794157949919452 -1.34196827120711925652
C  4.78374355357373559627 -0.07921556826066936119 -1.75652837800578920380
O  2.95978907701573756839 4.02999105522410960845 -3.02082727297879927164
O  -2.05802748860041750945 5.73612709045024526944 -1.15190620092513951178
O  -5.88058054611833469494 1.22747881263100988569 -2.32923887821376673912
O  -3.19127255102765827743 -3.04457554296714016928 -3.01769493583701819972
O  1.91775986910106821526 -5.08492791013237965814 -2.19872422703288883383
O  5.29532575127568527762 -1.00829228528355963057 -2.67980956684520821298
C  3.21669371315159757785 3.69387210059014980956 -0.69186082520354963421
C  -1.38795551033674868791 3.99685863851938982805 0.35420949320828976070
C  -5.16778178528489551269 1.11072336231340940138 -0.06149807731087994500
C  -3.29265555667351561553 -3.24033602237473994379 -0.65776494554374898005
C  1.38149539713368874061 -4.07715922342435987957 -0.10764441609134994815
C  4.77256626082026613744 -0.75675892258768917564 -0.38217592772181979699
C  2.55256396054111922567 3.77383000390614853359 0.69472730196528931224
C  -1.87658184279176842857 2.62959785738603990524 0.86959042675287956392
C  -4.66995162147994768986 0.17586095834351950229 1.06305633345943961743
C  -2.50721461222832919802 -3.60110911172643000100 0.61297497945516965512
C  1.85352377539312773713 -3.02051341305114995350 0.89710406424008881654
C  4.36577196934167766074 0.23022434129321070473 0.72517060885729955899
O  1.66907167957595858887 4.88692368085399930777 0.81124164518227925846
O  -3.08441362729646728624 2.81665904229748020882 1.56150817661108898271
O  -5.30102626309129565385 -1.10211608872167032835 0.99847272905182959946
O  -1.77848159054403920365 -4.80866574069801888669 0.42941785465123982757
O  3.21002454205557707922 -3.18580015958223006223 1.24237706618064924768
O  5.13256533557428618053 1.42782080075291051280 0.64399374126307928901
C  3.59066688938968736622 3.98044807994619054270 1.80950926664780875619
C  -0.89645500604576855430 1.89000615206742916818 1.74680470073063887071
C  -5.01952751177552602968 0.67278465397587872143 2.47922864883734828112
C  -3.43552903897644679176 -3.83876853711820009707 1.81094492657019912052
C  1.02780373685861881050 -3.05255631487953005276 2.17255950121327856550
C  4.63334413526010635564 -0.33982799439168964728 2.12582775292363868047
O  4.36587551677528651339 5.12623218609484077035 1.58164252684446804409
O  -1.34635178925135901018 1.75509148705510997779 2.99556395054215807150
O  -6.36137881605171440214 1.05950386521692951902 2.58358829301366776932
O  -4.39579169127993640842 -4.82015551998131019928 1.53892222940309930657
O  1.15961021883623871531 -1.88140208249342943958 2.80998166284474804044
O  5.97384117287688454212 -0.72056215651174970738 2.28104190831524888949
H  0.13224704601901035583 5.90028006910375868443 0.06179845111059995011
H  -5.02906546666553655456 3.26944512916705898320 1.32195973471651906372
H  -5.66005365569407548065 -2.74597562429162023179 -0.06617953327339991254
H  -0.37596333589037028711 -5.75629752710907105495 -0.61905323145201962554
H  5.07351651543867454563 -3.11302658157459832822 0.51127945807539909584
H  5.64867625842899290234 3.00541745320616016102 -0.46425305226986962603
H  2.01854436715261886803 6.06436711980527043409 -1.54656827692787923745
H  -3.84115196116301671481 5.32232493097132941529 0.73833328706388945406
H  -6.93123890356386596068 -0.87032777596413046783 -1.10908033325346933040
H  -2.33079476852577860413 -5.39901926729751036049 -2.10116728534805874418
H  3.97846078011181525369 -5.11278456573449080480 -0.51320329701895961438
H  6.65544385173537111910 0.99639818803564983440 -1.56359344794164911718
H  -0.44758121555990915130 5.54738430107657976009 -2.19514784185843891962
H  -4.99862717111371512857 4.04655674109809648797 -1.47877335682354948965
H  -4.87862214394077664537 -1.98151913903146037477 -2.69443521680572883881
H  0.17493009918405943992 -4.73959651674300985746 -2.77483024948440881730
H  4.66410798139857529776 -3.01874084232443751219 -2.26865624666724841063
H  4.64836089514038430792 2.34140600586418878848 -3.00041084851171824255
H  1.54098607645986906967 3.06283758725334953610 -1.87427115174566893963
H  -2.46085499425985743116 3.74585258222391859206 -1.49411825115310925582
H  -4.16019338913851743911 0.25205406388909978865 -1.74488235435312732946
H  -1.65150591338989927159 -2.43341514701178018854 -1.78743297510559906449
H  2.13072481812891645347 -3.06478741669444998408 -1.84269875172082908676
H  3.74246695990955480227 0.17505707611953005842 -2.01366769037927806352
H  2.36276715127818626172 4.34815172937626659433 -3.71377294779213817932
H  -2.81157367692486648281 6.10014489877917043259 -1.64421335474422902756
H  -6.09084081771053398313 0.69029656113981896493 -3.10886487380280840398
H  -2.66909052727224915813 -3.26592044166787065507 -3.80334705793696725706
H  2.58698386619235698447 -5.14749436802668913771 -2.89909019680832802379
H  5.49408568008983611008 -0.53311484335033920701 -3.50050276010526850712
H  4.02144260633307659702 4.43873977070721803528 -0.76158004326704964448
H  -1.33879622191689873212 4.69571097986318886086 1.19890805994787918998
H  -6.17413561112708553225 1.47410559342782954140 0.19007305348557004820
H  -4.09868189285289563628 -3.97092024710498758822 -0.80481580480895953400
H  1.40934724253084797674 -5.07071095687050732437 0.35457577458490985300
H  5.76955099277967686788 -1.16139533236291936369 -0.16672775541378001551
H  1.99677609145850842864 2.83976438078294002310 0.85744948004959942178
H  -2.03432580407637875197 1.97912333649938032565 -0.00933991151863993591
H  -3.58181057813990832983 0.04730107681938962305 0.97286818618691950356
H  -1.81875059986388909472 -2.77601408995254050893 0.84523606295103970165
H  1.70767087459974709063 -2.02632998237252959228 0.44167627387429975183
H  3.29684627784058648103 0.46242992506568020294 0.61428010446683900536
H  4.27684283934914866165 3.13377304722748029064 1.84096947029981894417
H  3.05499576615011703140 4.05618852724160117162 2.76325081195894650676
H  -4.79227452249524610295 -0.15173887546790032488 3.16617738075086840865
H  -4.40898511711660745505 1.53315883400238783807 2.74824849325204567663
H  -3.97170422031588721268 -2.91608560685773054999 2.03992773831826879061
H  -2.81226758138124921516 -4.12058300134711963381 2.66817818299924836012
H  4.35574918530906440850 0.42281946590956998033 2.86286040394648688689
H  4.02684838685082624465 -1.23311937246010971947 2.28407916476905814562
H  3.76320851633328734565 5.88246056441070930276 1.54085400740711886414
H  -6.90736717162538571557 0.28345440568049945496 2.39381796429284854355
H  -3.92388988794632753709 -5.64051884971686945391 1.33424427257381927880
H  6.51908788538571037918 0.06399434512467971903 2.12347478294185876280
C  0.26127497010885958328 -1.58912450335454979999 3.90285766255619792631
H  0.88951598116402896821 -1.18363696298226983572 4.68922404710705720277
H  -0.25570570590976021697 -2.48705044817073872565 4.23160082255163860765
O  0.34924840901390941106 -3.98334818409430990727 2.55358777221210875297
C  -0.58617522855173942453 0.84541176598609990567 3.79519962836908808512
H  -0.99939904616609909205 0.95260657278872973297 4.79784223568303769270
H  0.46887642779151966765 1.11663465419944030188 3.80502509435579794328
O  0.16237772092035962501 1.42572362705916000358 1.35186217851816903313
C  -0.72420064229639979914 -0.57561974826865003330 3.33162747555646809872
O  -1.53646263887656897573 -0.91508322368633943089 2.48476685153011844776
O  5.12016518841188084110 -3.80675011383641637153 3.06030596716629732512
H  4.25869305737139836054 -3.72293329273593265327 2.63580323223809243061
H  5.32062354544112547927 -2.90677049522949593197 3.34175791086644746741
O  -2.07739336173240829453 4.33352014407194108259 3.97883132084589563604
H  -2.35787845356035274946 3.79904446580360399821 3.22714925599252966393
H  -2.03711298227879344935 3.69888340896133804847 4.70338343691660476509
O  1.20861243434111176320 0.84716361011117102819 -2.45015501381522371460
H  1.47563441383520377315 -0.07837486559086279114 -2.48810045468183282935
H  0.38317580702480413812 0.86359757474617560025 -2.94789627442596335882
O  2.57954538705013813882 -5.94619569675729753300 2.93431070549187023033
H  2.65596581105262918854 -6.24703290143068468154 3.84700942856533290026
H  1.73718974537481085640 -5.47753390440847809373 2.92185435155271555629
O  7.29620667321037252862 3.05100343268505413974 1.44429872370218603805
H  7.01503845224758304511 2.20928903027048573193 1.06770429954158507790
H  6.76420353927246242876 3.12816771772275625807 2.24453643964550542123
O  -1.05493549403350583837 -0.20175112183925833498 -1.90578485440609046719
H  -1.23685437313731783071 -0.42092813198437378785 -0.98479135623696145707
H  -1.90977621469210645522 0.09335581160641551191 -2.23973290958756754421
O  0.40789638124594512769 4.85382894434815526097 3.72543848859718496058
H  0.01368879175008975990 4.49477322989597638525 2.92229377291796899030
H  0.03071683465176650030 4.30767446854185553917 4.42459007560179617968
O  1.21348797977724287556 -3.47827765770486418972 -4.92319011099401926401
H  1.25561636499323192595 -2.59985245536667353150 -4.52827692170230822200
H  0.26721009973673559568 -3.65151120294881614825 -4.98572311005507007309
O  -3.37744983416910171670 -0.80244443854341140909 5.02801316157645405980
H  -3.98342569205590901760 -0.66501468563138288470 5.76508058501425590947
H  -2.99943270180925969370 -1.67108239055839913334 5.20671184479757620522
O  -0.29409470751137145594 7.08250446257944599182 2.34081583065246645603
H  0.51752120379981159104 6.67959335556119793154 2.01171961923672348860
H  -0.39475462152669771321 6.69967646414601958327 3.21983367390093944138
O  -3.43295572661918013679 2.81287833768132600198 -3.73637328428637882638
H  -3.86438062166725604385 3.40821766400290560028 -4.35991615409412336390
H  -4.15948600299494675170 2.49865613529479757560 -3.18611859011283016230
O  1.35024310655608803522 2.97177396900470869312 -4.84512104697737200354
H  1.75484819780610545870 2.33269820340351374810 -4.24742635068489171601
H  0.40538034146273999037 2.85284786628234776629 -4.69527779335967210272
O  0.18322687505456614065 -6.60190669290909060152 2.15079632328284464649
H  -0.09082779438799913618 -5.87151553977062601319 1.58441759346140953468
H  -0.37141095595953899089 -7.33395350912017729428 1.85780076238388747178
O  2.56947934761413288030 -7.05085454762334773449 0.50028496151401569136
H  2.21567125483624716153 -7.92918499809157051317 0.31940511939356591720
H  2.62946282806246500741 -7.02634175534128413432 1.46213898812676346139
O  0.58627963217273637575 -7.34812615275521352487 -2.33549050516169032221
H  1.53648087109563014074 -7.23569529413239376225 -2.45312966360428363899
H  0.21408734174046861742 -6.97478527771062140062 -3.14261599316652207037
O  0.89019192326940954629 -0.81060957508683373351 -5.28435931750822174280
H  1.33739023672534007581 -0.02176180210095902262 -4.95710571016715118020
H  0.39779649937544075966 -0.48928159775481222526 -6.04833388575988006863
O  -7.04956873861824728777 -3.96410725474136516056 2.00995718922721300359
H  -7.15254410147000818654 -4.65493643898663123082 1.34549261014047272234
H  -6.11654403109737643263 -4.01710470963826971058 2.24663889184350029637
O  -2.39204768770303655145 0.15717982328363380717 -4.46632338538250728277
H  -1.53045049202667371446 0.00772474470296939664 -4.87212569674781104112
H  -3.01349931175671681416 -0.09387819900866259393 -5.15923738569354028982
O  3.14332620986744482039 -1.62109111580771458883 -4.37889695172932036371
H  3.95613356745356270494 -1.99669242749930186953 -4.73615024860673283769
H  3.41939840053587484903 -1.25197539084039011215 -3.53219760098863355680
O  -2.67562507398253446311 -2.72429854713833474733 -5.71877295514880223948
H  -2.04201429833394287883 -2.02689782699283638223 -5.51497971545993515008
H  -3.48775396947860238939 -2.24134700532619701718 -5.90999672141472753850
O  -5.16179463953493655737 1.22880828697755473122 5.39796580930602942772
H  -4.30623578081447266896 1.46134611394679203578 5.01940635253112343861
H  -5.78909550991919452656 1.71748339740495525874 4.85294074760039073624
O  7.47482153174193530987 -2.68927817501331345440 -0.05106943122605772656
H  8.13144470871629110320 -2.53901163294919740565 -0.74072734194451583800
H  7.93040395968893019329 -2.42164143292063815949 0.75526628610962387445
O  3.28308700329775504656 0.25360364509140098654 4.83243799257620310073
H  3.23293046070106671053 -0.70364738321965725198 4.72988627853632603859
H  4.06735062240857292437 0.38041984245367749251 5.37852433304727917118
O  -5.07534094216287634538 3.89321310787356278382 4.18836856975482074716
H  -4.61545125675281653344 4.72313013558524108504 4.01777763099195883711
H  -5.96276847180845059881 4.05379896144220630561 3.84771239898420525094
O  1.45025193988893930097 0.85417997595781436360 6.76870280392417633664
H  1.93168607196916974900 0.40658874102402198236 6.06354656102552258545
H  1.57211704817955344460 1.78876006609927284963 6.56604295611061861138
O  -3.44570730021408344612 6.77245127343282860011 2.84439293874128606987
H  -2.83813269621510055885 6.02427171225839241941 2.86542883274777748781
H  -3.25376718262646669189 7.19423259426640626657 1.99904001121358820825
O  1.11816444679303672594 -4.32565546146346058265 5.35386354484279181065
H  1.95414561632925742884 -4.77549682520086538062 5.52161423984008425947
H  1.09148599170977855799 -4.25173814587538156928 4.39303757000971195623
O  5.69783059855965134943 6.18101505111007654136 -0.46750319903466597271
H  5.65619013476971144172 5.71961212919333217286 -1.31292349654496254274
H  5.53829147136253219230 5.48279244561875067632 0.17778318970865775173
217
Energy 1.831816
C  0.71130776615267965468 5.00482414727958069278 -0.19561568134503989902
C  -4.13784486848083687960 3.17739904325788646844 0.68958586950538958149
C  -5.17444863619361594687 -1.77393841750645009370 -0.21665732364067985527
C  -0.87384297371556018952 -4.77917785703500719308 -0.63719983279390968178
C  4.05339626216557658012 -3.03094590633414950887 0.11871533019796989827
C  5.04884681101444510176 2.09362244562296995198 -0.58404774284701976850
O  -0.12582766454131008582 3.86927617535052936759 -0.25997818896310981307
O  -4.31294268880552600365 2.22131748928795813569 -0.31126934222609969893
O  -3.82279935479500831974 -1.93070136534545921947 -0.57994872475585967919
O  0.05957377906125960187 -3.73642003081359996841 -0.49167570712067970584
O  3.83098722953195691687 -1.80990987403622982654 -0.51821454630126961849
O  3.72723448493223719069 2.39573122461048049203 -0.94081572077923947273
C  1.36673334302333859824 5.17738746353810963541 -1.57023401112807836633
C  -3.83082197195232687648 4.52142930134692022648 -0.00861440099554997007
C  -5.86696795055896558324 -0.98447702978594020529 -1.33884527976942946381
C  -1.61012054292363893104 -4.57805317038506043303 -1.97033050864001890723
C  3.77326160587263625956 -4.12352537948484876296 -0.93397915008777943058
C  5.59790018606635531029 1.22271087148065049632 -1.73017268935670931462
O  0.41249294889497961636 5.31215455814457548911 -2.59060683846512906925
O  -4.80930237402007687564 4.84002336366017882341 -0.95372222083172941698
O  -5.78582568311042511056 -1.64728677729911021643 -2.57023780092665665720
O  -0.73773614924839026052 -4.55082005612955775575 -3.06837569591808811964
O  4.60494108751403530277 -3.96622878976938064710 -2.04751294360803903771
O  5.51089034068398309074 1.89539249938175013988 -2.95590729180038813695
C  2.21877561653414900888 3.93091745157843019953 -1.83150699881148915082
C  -2.43703341709546794647 4.47105818176657887619 -0.66523693747410916899
C  -5.20475957224313479088 0.39731597485467984310 -1.42006973941786962534
C  -2.38127676782546915391 -3.25302065840269838404 -1.88850281771867911651
C  2.29083818924970739062 -4.03265794157949919452 -1.34196827120711925652
C  4.78374355357373559627 -0.07921556826066936119 -1.75652837800578920380
O  2.95978907701573756839 4.02999105522410960845 -3.02082727297879927164
O  -2.05802748860041750945 5.73612709045024526944 -1.15190620092513951178
O  -5.88058054611833469494 1.22747881263100988569 -2.32923887821376673912
O  -3.19127255102765827743 -3.04457554296714016928 -3.01769493583701819972
O  1.91775986910106821526 -5.08492791013237965814 -2.19872422703288883383
O  5.29532575127568527762 -1.00829228528355963057 -2.67980956684520821298
C  3.21669371315159757785 3.69387210059014980956 -0.69186082520354963421
C  -1.38795551033674868791 3.99685863851938982805 0.35420949320828976070
C  -5.16778178528489551269 1.11072336231340940138 -0.06149807731087994500
C  -3.29265555667351561553 -3.24033602237473994379 -0.65776494554374898005
C  1.38149539713368874061 -4.07715922342435987957 -0.10764441609134994815
C  4.77256626082026613744 -0.75675892258768917564 -0.38217592772181979699
C  2.55256396054111922567 3.77383000390614853359 0.69472730196528931224
C  -1.87658184279176842857 2.62959785738603990524 0.86959042675287956392
C  -4.66995162147994768986 0.17586095834351950229 1.06305633345943961743
C  -2.50721461222832919802 -3.60110911172643000100 0.61297497945516965512
C  1.85352377539312773713 -3.02051341305114995350 0.89710406424008881654
C  4.36577196934167766074 0.23022434129321070473 0.72517060885729955899
O  1.66907167957595858887 4.88692368085399930777 0.81124164518227925846
O  -3.08441362729646728624 2.81665904229748020882 1.56150817661108898271
O  -5.30102626309129565385 -1.10211608872167032835 0.99847272905182959946
O  -1.77848159054403920365 -4.80866574069801888669 0.42941785465123982757
O  3.21002454205557707922 -3.18580015958223006223 1.24237706618064924768
O  5.13256533557428618053 1.42782080075291051280 0.64399374126307928901
C  3.59066688938968736622 3.98044807994619054270 1.80950926664780875619
C  -0.89645500604576855430 1.89000615206742916818 1.74680470073063887071
C  -5.01952751177552602968 0.67278465397587872143 2.47922864883734828112
C  -3.43552903897644679176 -3.83876853711820009707 1.81094492657019912052
C  1.02780373685861881050 -3.05255631487953005276 2.17255950121327856550
C  4.63334413526010635564 -0.33982799439168964728 2.12582775292363868047
O  4.36587551677528651339 5.12623218609484077035 1.58164252684446804409
O  -1.34635178925135901018 1.75509148705510997779 2.99556395054215807150
O  -6.36137881605171440214 1.05950386521692951902 2.58358829301366776932
O  -4.39579169127993640842 -4.82015551998131019928 1.53892222940309930657
O  1.15961021883623871531 -1.88140208249342943958 2.80998166284474804044
O  5.97384117287688454212 -0.72056215651174970738 2.28104190831524888949
H  0.13224704601901035583 5.90028006910375868443 0.06179845111059995011
H  -5.02906546666553655456 3.26944512916705898320 1.32195973471651906372
H  -5.66005365569407548065 -2.74597562429162023179 -0.06617953327339991254
H  -0.37596333589037028711 -5.75629752710907105495 -0.61905323145201962554
H  5.07351651543867454563 -3.11302658157459832822 0.51127945807539909584
H  5.64867625842899290234 3.00541745320616016102 -0.46425305226986962603
H  2.01854436715261886803 6.06436711980527043409 -1.54656827692787923745
H  -3.84115196116301671481 5.32232493097132941529 0.73833328706388945406
H  -6.93123890356386596068 -0.87032777596413046783 -1.10908033325346933040
H  -2.33079476852577860413 -5.39901926729751036049 -2.10116728534805874418
H  3.97846078011181525369 -5.11278456573449080480 -0.51320329701895961438
H  6.65544385173537111910 0.99639818803564983440 -1.56359344794164911718
H  -0.44758121555990915130 5.54738430107657976009 -2.19514784185843891962
H  -4.99862717111371512857 4.04655674109809648797 -1.47877335682354948965
H  -4.87862214394077664537 -1.98151913903146037477 -2.69443521680572883881
H  0.17493009918405943992 -4.73959651674300985746 -2.77483024948440881730
H  4.66410798139857529776 -3.01874084232443751219 -2.26865624666724841063
H  4.64836089514038430792 2.34140600586418878848 -3.00041084851171824255
H  1.54098607645986906967 3.06283758725334953610 -1.87427115174566893963
H  -2.46085499425985743116 3.74585258222391859206 -1.49411825115310925582
H  -4.16019338913851743911 0.25205406388909978865 -1.74488235435312732946
H  -1.65150591338989927159 -2.43341514701178018854 -1.78743297510559906449
H  2.13072481812891645347 -3.06478741669444998408 -1.84269875172082908676
H  3.74246695990955480227 0.17505707611953005842 -2.01366769037927806352
H  2.36276715127818626172 4.34815172937626659433 -3.71377294779213817932
H  -2.81157367692486648281 6.10014489877917043259 -1.64421335474422902756
H  -6.09084081771053398313 0.69029656113981896493 -3.10886487380280840398
H  -2.66909052727224915813 -3.26592044166787065507 -3.80334705793696725706
H  2.58698386619235698447 -5.14749436802668913771 -2.89909019680832802379
H  5.49408568008983611008 -0.53311484335033920701 -3.50050276010526850712
H  4.02144260633307659702 4.43873977070721803528 -0.76158004326704964448
H  -1.33879622191689873212 4.69571097986318886086 1.19890805994787918998
H  -6.17413561112708553225 1.47410559342782954140 0.19007305348557004820
H  -4.09868189285289563628 -3.97092024710498758822 -0.80481580480895953400
H  1.40934724253084797674 -5.07071095687050732437 0.35457577458490985300
H  5.76955099277967686788 -1.16139533236291936369 -0.16672775541378001551
H  1.99677609145850842864 2.83976438078294002310 0.85744948004959942178
H  -2.03432580407637875197 1.97912333649938032565 -0.00933991151863993591
H  -3.58181057813990832983 0.04730107681938962305 0.97286818618691950356
H  -1.81875059986388909472 -2.77601408995254050893 0.84523606295103970165
H  1.70767087459974709063 -2.02632998237252959228 0.44167627387429975183
H  3.29684627784058648103 0.46242992506568020294 0.61428010446683900536
H  4.27684283934914866165 3.13377304722748029064 1.84096947029981894417
H  3.05499576615011703140 4.05618852724160117162 2.76325081195894650676
H  -4.79227452249524610295 -0.15173887546790032488 3.16617738075086840865
H  -4.40898511711660745505 1.53315883400238783807 2.74824849325204567663
H  -3.97170422031588721268 -2.91608560685773054999 2.03992773831826879061
H  -2.81226758138124921516 -4.12058300134711963381 2.66817818299924836012
H  4.35574918530906440850 0.42281946590956998033 2.86286040394648688689
H  4.02684838685082624465 -1.23311937246010971947 2.28407916476905814562
H  3.76320851633328734565 5.88246056441070930276 1.54085400740711886414
H  -6.90736717162538571557 0.28345440568049945496 2.39381796429284854355
H  -3.92388988794632753709 -5.64051884971686945391 1.33424427257381927880
H  6.51908788538571037918 0.06399434512467971903 2.12347478294185876280
C  0.26127497010885958328 -1.58912450335454979999 3.90285766255619792631
H  0.88951598116402896821 -1.18363696298226983572 4.68922404710705720277
H  -0.25570570590976021697 -2.48705044817073872565 4.23160082255163860765
O  0.34924840901390941106 -3.98334818409430990727 2.55358777221210875297
C  -0.58617522855173942453 0.84541176598609990567 3.79519962836908808512
H  -0.99939904616609909205 0.95260657278872973297 4.79784223568303769270
H  0.46887642779151966765 1.11663465419944030188 3.80502509435579794328
O  0.16237772092035962501 1.42572362705916000358 1.35186217851816903313
C  -0.72420064229639979914 -0.57561974826865003330 3.33162747555646809872
O  -1.53646263887656897573 -0.91508322368633943089 2.48476685153011844776
O  5.12016518841188084110 -3.80675011383641637153 3.06030596716629732512
H  4.25869305737139836054 -3.72293329273593265327 2.63580323223809243061
H  5.32062354544112547927 -2.90677049522949593197 3.34175791086644746741
O  -2.07739336173240829453 4.33352014407194108259 3.97883132084589563604
H  -2.35787845356035274946 3.79904446580360399821 3.22714925599252966393
H  -2.03711298227879344935 3.69888340896133804847 4.70338343691660476509
O  1.20861243434111176320 0.84716361011117102819 -2.45015501381522371460
H  1.47563441383520377315 -0.07837486559086279114 -2.48810045468183282935
H  0.38317580702480413812 0.86359757474617560025 -2.94789627442596335882
O  2.57954538705013813882 -5.94619569675729753300 2.93431070549187023033
H  2.65596581105262918854 -6.24703290143068468154 3.84700942856533290026
H  1.73718974537481085640 -5.47753390440847809373 2.92185435155271555629
O  7.29620667321037252862 3.05100343268505413974 1.44429872370218603805
H  7.01503845224758304511 2.20928903027048573193 1.06770429954158507790
H  6.76420353927246242876 3.12816771772275625807 2.24453643964550542123
O  -1.05493549403350583837 -0.20175112183925833498 -1.90578485440609046719
H  -1.23685437313731783071 -0.42092813198437378785 -0.98479135623696145707
H  -1.90977621469210645522 0.09335581160641551191 -2.23973290958756754421
O  0.40789638124594512769 4.85382894434815526097 3.72543848859718496058
H  0.01368879175008975990 4.49477322989597638525 2.92229377291796899030
H  0.03071683465176650030 4.30767446854185553917 4.42459007560179617968
O  1.21348797977724287556 -3.47827765770486418972 -4.92319011099401926401
H  1.25561636499323192595 -2.59985245536667353150 -4.52827692170230822200
H  0.26721009973673559568 -3.65151120294881614825 -4.98572311005507007309
O  -3.37744983416910171670 -0.80244443854341140909 5.02801316157645405980
H  -3.98342569205590901760 -0.66501468563138288470 5.76508058501425590947
H  -2.99943270180925969370 -1.67108239055839913334 5.20671184479757620522
O  -0.29409470751137145594 7.08250446257944599182 2.34081583065246645603
H  0.51752120379981159104 6.67959335556119793154 2.01171961923672348860
H  -0.39475462152669771321 6.69967646414601958327 3.21983367390093944138
O  -3.43295572661918013679 2.81287833768132600198 -3.73637328428637882638
H  -3.86438062166725604385 3.40821766400290560028 -4.35991615409412336390
H  -4.15948600299494675170 2.49865613529479757560 -3.18611859011283016230
O  1.35024310655608803522 2.97177396900470869312 -4.84512104697737200354
H  1.75484819780610545870 2.33269820340351374810 -4.24742635068489171601
H  0.40538034146273999037 2.85284786628234776629 -4.69527779335967210272
O  0.18322687505456614065 -6.60190669290909060152 2.15079632328284464649
H  -0.09082779438799913618 -5.87151553977062601319 1.58441759346140953468
H  -0.37141095595953899089 -7.33395350912017729428 1.85780076238388747178
O  2.56947934761413288030 -7.05085454762334773449 0.50028496151401569136
H  2.21567125483624716153 -7.92918499809157051317 0.31940511939356591720
H  2.62946282806246500741 -7.02634175534128413432 1.46213898812676346139
O  0.58627963217273637575 -7.34812615275521352487 -2.33549050516169032221
H  1.53648087109563014074 -7.23569529413239376225 -2.45312966360428363899
H  0.21408734174046861742 -6.97478527771062140062 -3.14261599316652207037
O  0.89019192326940954629 -0.81060957508683373351 -5.28435931750822174280
H  1.33739023672534007581 -0.02176180210095902262 -4.95710571016715118020
H  0.39779649937544075966 -0.48928159775481222526 -6.04833388575988006863
O  -7.04956873861824728777 -3.96410725474136516056 2.00995718922721300359
H  -7.15254410147000818654 -4.65493643898663123082 1.34549261014047272234
H  -6.11654403109737643263 -4.01710470963826971058 2.24663889184350029637
O  -2.39204768770303655145 0.15717982328363380717 -4.46632338538250728277
H  -1.53045049202667371446 0.00772474470296939664 -4.87212569674781104112
H  -3.01349931175671681416 -0.09387819900866259393 -5.15923738569354028982
O  3.14332620986744482039 -1.62109111580771458883 -4.37889695172932036371
H  3.95613356745356270494 -1.99669242749930186953 -4.73615024860673283769
H  3.41939840053587484903 -1.25197539084039011215 -3.53219760098863355680
O  -2.67562507398253446311 -2.72429854713833474733 -5.71877295514880223948
H  -2.04201429833394287883 -2.02689782699283638223 -5.51497971545993515008
H  -3.48775396947860238939 -2.24134700532619701718 -5.90999672141472753850
O  -5.16179463953493655737 1.22880828697755473122 5.39796580930602942772
H  -4.30623578081447266896 1.46134611394679203578 5.01940635253112343861
H  -5.78909550991919452656 1.71748339740495525874 4.85294074760039073624
O  7.47482153174193530987 -2.68927817501331345440 -0.05106943122605772656
H  8.13144470871629110320 -2.53901163294919740565 -0.74072734194451583800
H  7.93040395968893019329 -2.42164143292063815949 0.75526628610962387445
O  3.28308700329775504656 0.25360364509140098654 4.83243799257620310073
H  3.23293046070106671053 -0.70364738321965725198 4.72988627853632603859
H  4.06735062240857292437 0.38041984245367749251 5.37852433304727917118
O  -5.07534094216287634538 3.89321310787356278382 4.18836856975482074716
H  -4.61545125675281653344 4.72313013558524108504 4.01777763099195883711
H  -5.96276847180845059881 4.05379896144220630561 3.84771239898420525094
O  1.45025193988893930097 0.85417997595781436360 6.76870280392417633664
H  1.93168607196916974900 0.40658874102402198236 6.06354656102552258545
H  1.57211704817955344460 1.78876006609927284963 6.56604295611061861138
O  -3.44570730021408344612 6.77245127343282860011 2.84439293874128606987
H  -2.83813269621510055885 6.02427171225839241941 2.86542883274777748781
H  -3.25376718262646669189 7.19423259426640626657 1.99904001121358820825
O  1.11816444679303672594 -4.32565546146346058265 5.35386354484279181065
H  1.95414561632925742884 -4.77549682520086538062 5.52161423984008425947
H  1.09148599170977855799 -4.25173814587538156928 4.39303757000971195623
O  5.69783059855965134943 6.18101505111007654136 -0.46750319903466597271
H  5.65619013476971144172 5.71961212919333217286 -1.31292349654496254274
H  5.53829147136253219230 5.48279244561875067632 0.17778318970865775173
O  2.97214826822710387333 -2.54039818672827300006 4.88361746345918756873
H  3.41044717656149964924 -3.18502199179687339736 5.45081785213333436246
H  2.66417877776444944615 -3.06908794922679950545 4.13863156332634751777
220
Energy 2.819487
C  0.71130776615267965468 5.00482414727958069278 -0.19561568134503989902
C  -4.13784486848083687960 3.17739904325788646844 0.68958586950538958149
C  -5.17444863619361594687 -1.77393841750645009370 -0.21665732364067985527
C  -0.87384297371556018952 -4.77917785703500719308 -0.63719983279390968178
C  4.05339626216557658012 -3.03094590633414950887 0.11871533019796989827
C  5.04884681101444510176 2.09362244562296995198 -0.58404774284701976850
O  -0.12582766454131008582 3.86927617535052936759 -0.25997818896310981307
O  -4.31294268880552600365 2.22131748928795813569 -0.31126934222609969893
O  -3.82279935479500831974 -1.93070136534545921947 -0.57994872475585967919
O  0.05957377906125960187 -3.73642003081359996841 -0.49167570712067970584
O  3.83098722953195691687 -1.80990987403622982654 -0.51821454630126961849
O  3.72723448493223719069 2.39573122461048049203 -0.94081572077923947273
C  1.36673334302333859824 5.17738746353810963541 -1.57023401112807836633
C  -3.83082197195232687648 4.52142930134692022648 -0.00861440099554997007
C  -5.86696795055896558324 -0.98447702978594020529 -1.33884527976942946381
C  -1.61012054292363893104 -4.57805317038506043303 -1.97033050864001890723
C  3.77326160587263625956 -4.12352537948484876296 -0.93397915008777943058
C  5.59790018606635531029 1.22271087148065049632 -1.73017268935670931462
O  0.41249294889497961636 5.31215455814457548911 -2.59060683846512906925
O  -4.80930237402007687564 4.84002336366017882341 -0.95372222083172941698
O  -5.78582568311042511056 -1.64728677729911021643 -2.57023780092665665720
O  -0.73773614924839026052 -4.55082005612955775575 -3.06837569591808811964
O  4.60494108751403530277 -3.96622878976938064710 -2.04751294360803903771
O  5.51089034068398309074 1.89539249938175013988 -2.95590729180038813695
C  2.21877561653414900888 3.93091745157843019953 -1.83150699881148915082
C  -2.43703341709546794647 4.47105818176657887619 -0.66523693747410916899
C  -5.20475957224313479088 0.39731597485467984310 -1.42006973941786962534
C  -2.38127676782546915391 -3.25302065840269838404 -1.88850281771867911651
C  2.29083818924970739062 -4.03265794157949919452 -1.34196827120711925652
C  4.78374355357373559627 -0.07921556826066936119 -1.75652837800578920380
O  2.95978907701573756839 4.02999105522410960845 -3.02082727297879927164
O  -2.05802748860041750945 5.73612709045024526944 -1.15190620092513951178
O  -5.88058054611833469494 1.22747881263100988569 -2.32923887821376673912
O  -3.19127255102765827743 -3.04457554296714016928 -3.01769493583701819972
O  1.91775986910106821526 -5.08492791013237965814 -2.19872422703288883383
O  5.29532575127568527762 -1.00829228528355963057 -2.67980956684520821298
C  3.21669371315159757785 3.69387210059014980956 -0.69186082520354963421
C  -1.38795551033674868791 3.99685863851938982805 0.35420949320828976070
C  -5.16778178528489551269 1.11072336231340940138 -0.06149807731087994500
C  -3.29265555667351561553 -3.24033602237473994379 -0.65776494554374898005
C  1.38149539713368874061 -4.07715922342435987957 -0.10764441609134994815
C  4.77256626082026613744 -0.75675892258768917564 -0.38217592772181979699
C  2.55256396054111922567 3.77383000390614853359 0.69472730196528931224
C  -1.87658184279176842857 2.62959785738603990524 0.86959042675287956392
C  -4.66995162147994768986 0.17586095834351950229 1.06305633345943961743
C  -2.50721461222832919802 -3.60110911172643000100 0.61297497945516965512
C  1.85352377539312773713 -3.02051341305114995350 0.89710406424008881654
C  4.36577196934167766074 0.23022434129321070473 0.72517060885729955899
O  1.66907167957595858887 4.88692368085399930777 0.81124164518227925846
O  -3.08441362729646728624 2.81665904229748020882 1.56150817661108898271
O  -5.30102626309129565385 -1.10211608872167032835 0.99847272905182959946
O  -1.77848159054403920365 -4.80866574069801888669 0.42941785465123982757
O  3.21002454205557707922 -3.18580015958223006223 1.24237706618064924768
O  5.13256533557428618053 1.42782080075291051280 0.64399374126307928901
C  3.59066688938968736622 3.98044807994619054270 1.80950926664780875619
C  -0.89645500604576855430 1.89000615206742916818 1.74680470073063887071
C  -5.01952751177552602968 0.67278465397587872143 2.47922864883734828112
C  -3.43552903897644679176 -3.83876853711820009707 1.81094492657019912052
C  1.02780373685861881050 -3.05255631487953005276 2.17255950121327856550
C  4.63334413526010635564 -0.33982799439168964728 2.12582775292363868047
O  4.36587551677528651339 5.12623218609484077035 1.58164252684446804409
O  -1.34635178925135901018 1.75509148705510997779 2.99556395054215807150
O  -6.36137881605171440214 1.05950386521692951902 2.58358829301366776932
O  -4.39579169127993640842 -4.82015551998131019928 1.53892222940309930657
O  1.15961021883623871531 -1.88140208249342943958 2.80998166284474804044
O  5.97384117287688454212 -0.72056215651174970738 2.28104190831524888949
H  0.13224704601901035583 5.90028006910375868443 0.06179845111059995011
H  -5.02906546666553655456 3.26944512916705898320 1.32195973471651906372
H  -5.66005365569407548065 -2.74597562429162023179 -0.06617953327339991254
H  -0.37596333589037028711 -5.75629752710907105495 -0.61905323145201962554
H  5.07351651543867454563 -3.11302658157459832822 0.51127945807539909584
H  5.64867625842899290234 3.00541745320616016102 -0.46425305226986962603
H  2.01854436715261886803 6.06436711980527043409 -1.54656827692787923745
H  -3.84115196116301671481 5.32232493097132941529 0.73833328706388945406
H  -6.93123890356386596068 -0.87032777596413046783 -1.10908033325346933040
H  -2.33079476852577860413 -5.39901926729751036049 -2.10116728534805874418
H  3.97846078011181525369 -5.11278456573449080480 -0.51320329701895961438
H  6.65544385173537111910 0.99639818803564983440 -1.56359344794164911718
H  -0.44758121555990915130 5.54738430107657976009 -2.19514784185843891962
H  -4.99862717111371512857 4.04655674109809648797 -1.47877335682354948965
H  -4.87862214394077664537 -1.98151913903146037477 -2.69443521680572883881
H  0.17493009918405943992 -4.73959651674300985746 -2.77483024948440881730
H  4.66410798139857529776 -3.01874084232443751219 -2.26865624666724841063
H  4.64836089514038430792 2.34140600586418878848 -3.00041084851171824255
H  1.54098607645986906967 3.06283758725334953610 -1.87427115174566893963
H  -2.46085499425985743116 3.74585258222391859206 -1.49411825115310925582
H  -4.16019338913851743911 0.25205406388909978865 -1.74488235435312732946
H  -1.65150591338989927159 -2.43341514701178018854 -1.78743297510559906449
H  2.13072481812891645347 -3.06478741669444998408 -1.84269875172082908676
H  3.74246695990955480227 0.17505707611953005842 -2.01366769037927806352
H  2.36276715127818626172 4.34815172937626659433 -3.71377294779213817932
H  -2.81157367692486648281 6.10014489877917043259 -1.64421335474422902756
H  -6.09084081771053398313 0.69029656113981896493 -3.10886487380280840398
H  -2.66909052727224915813 -3.26592044166787065507 -3.80334705793696725706
H  2.58698386619235698447 -5.14749436802668913771 -2.89909019680832802379
H  5.49408568008983611008 -0.53311484335033920701 -3.50050276010526850712
H  4.02144260633307659702 4.43873977070721803528 -0.76158004326704964448
H  -1.33879622191689873212 4.69571097986318886086 1.19890805994787918998
H  -6.17413561112708553225 1.47410559342782954140 0.19007305348557004820
H  -4.09868189285289563628 -3.97092024710498758822 -0.80481580480895953400
H  1.40934724253084797674 -5.07071095687050732437 0.35457577458490985300
H  5.76955099277967686788 -1.16139533236291936369 -0.16672775541378001551
H  1.99677609145850842864 2.83976438078294002310 0.85744948004959942178
H  -2.03432580407637875197 1.97912333649938032565 -0.00933991151863993591
H  -3.58181057813990832983 0.04730107681938962305 0.97286818618691950356
H  -1.81875059986388909472 -2.77601408995254050893 0.84523606295103970165
H  1.70767087459974709063 -2.02632998237252959228 0.44167627387429975183
H  3.29684627784058648103 0.46242992506568020294 0.61428010446683900536
H  4.27684283934914866165 3.13377304722748029064 1.84096947029981894417
H  3.05499576615011703140 4.05618852724160117162 2.76325081195894650676
H  -4.79227452249524610295 -0.15173887546790032488 3.16617738075086840865
H  -4.40898511711660745505 1.53315883400238783807 2.74824849325204567663
H  -3.97170422031588721268 -2.91608560685773054999 2.03992773831826879061
H  -2.81226758138124921516 -4.12058300134711963381 2.66817818299924836012
H  4.35574918530906440850 0.42281946590956998033 2.86286040394648688689
H  4.02684838685082624465 -1.23311937246010971947 2.28407916476905814562
H  3.76320851633328734565 5.88246056441070930276 1.54085400740711886414
H  -6.90736717162538571557 0.28345440568049945496 2.39381796429284854355
H  -3.92388988794632753709 -5.64051884971686945391 1.33424427257381927880
H  6.51908788538571037918 0.06399434512467971903 2.12347478294185876280
C  0.26127497010885958328 -1.58912450335454979999 3.90285766255619792631
H  0.88951598116402896821 -1.18363696298226983572 4.68922404710705720277
H  -0.25570570590976021697 -2.48705044817073872565 4.23160082255163860765
O  0.34924840901390941106 -3.98334818409430990727 2.55358777221210875297
C  -0.58617522855173942453 0.84541176598609990567 3.79519962836908808512
H  -0.99939904616609909205 0.95260657278872973297 4.79784223568303769270
H  0.46887642779151966765 1.11663465419944030188 3.80502509435579794328
O  0.16237772092035962501 1.42572362705916000358 1.35186217851816903313
C  -0.72420064229639979914 -0.57561974826865003330 3.33162747555646809872
O  -1.53646263887656897573 -0.91508322368633943089 2.48476685153011844776
O  5.12016518841188084110 -3.80675011383641637153 3.06030596716629732512
H  4.25869305737139836054 -3.72293329273593265327 2.63580323223809243061
H  5.32062354544112547927 -2.90677049522949593197 3.34175791086644746741
O  -2.07739336173240829453 4.33352014407194108259 3.97883132084589563604
H  -2.35787845356035274946 3.79904446580360399821 3.22714925599252966393
H  -2.03711298227879344935 3.69888340896133804847 4.70338343691660476509
O  1.20861243434111176320 0.84716361011117102819 -2.45015501381522371460
H  1.47563441383520377315 -0.07837486559086279114 -2.48810045468183282935
H  0.38317580702480413812 0.86359757474617560025 -2.94789627442596335882
O  2.57954538705013813882 -5.94619569675729753300 2.93431070549187023033
H  2.65596581105262918854 -6.24703290143068468154 3.84700942856533290026
H  1.73718974537481085640 -5.47753390440847809373 2.92185435155271555629
O  7.29620667321037252862 3.05100343268505413974 1.44429872370218603805
H  7.01503845224758304511 2.20928903027048573193 1.06770429954158507790
H  6.76420353927246242876 3.12816771772275625807 2.24453643964550542123
O  -1.05493549403350583837 -0.20175112183925833498 -1.90578485440609046719
H  -1.23685437313731783071 -0.42092813198437378785 -0.98479135623696145707
H  -1.90977621469210645522 0.09335581160641551191 -2.23973290958756754421
O  0.40789638124594512769 4.85382894434815526097 3.72543848859718496058
H  0.01368879175008975990 4.49477322989597638525 2.92229377291796899030
H  0.03071683465176650030 4.30767446854185553917 4.42459007560179617968
O  1.21348797977724287556 -3.47827765770486418972 -4.92319011099401926401
H  1.25561636499323192595 -2.59985245536667353150 -4.52827692170230822200
H  0.26721009973673559568 -3.65151120294881614825 -4.98572311005507007309
O  -3.37744983416910171670 -0.80244443854341140909 5.02801316157645405980
H  -3.98342569205590901760 -0.66501468563138288470 5.76508058501425590947
H  -2.99943270180925969370 -1.67108239055839913334 5.20671184479757620522
O  -0.29409470751137145594 7.08250446257944599182 2.34081583065246645603
H  0.51752120379981159104 6.67959335556119793154 2.01171961923672348860
H  -0.39475462152669771321 6.69967646414601958327 3.21983367390093944138
O  -3.43295572661918013679 2.81287833768132600198 -3.73637328428637882638
H  -3.86438062166725604385 3.40821766400290560028 -4.35991615409412336390
H  -4.15948600299494675170 2.49865613529479757560 -3.18611859011283016230
O  1.35024310655608803522 2.97177396900470869312 -4.84512104697737200354
H  1.75484819780610545870 2.33269820340351374810 -4.24742635068489171601
H  0.40538034146273999037 2.85284786628234776629 -4.69527779335967210272
O  0.18322687505456614065 -6.60190669290909060152 2.15079632328284464649
H  -0.09082779438799913618 -5.87151553977062601319 1.58441759346140953468
H  -0.37141095595953899089 -7.33395350912017729428 1.85780076238388747178
O  2.56947934761413288030 -7.05085454762334773449 0.50028496151401569136
H  2.21567125483624716153 -7.92918499809157051317 0.31940511939356591720
H  2.62946282806246500741 -7.02634175534128413432 1.46213898812676346139
O  0.58627963217273637575 -7.34812615275521352487 -2.33549050516169032221
H  1.53648087109563014074 -7.23569529413239376225 -2.45312966360428363899
H  0.21408734174046861742 -6.97478527771062140062 -3.14261599316652207037
O  0.89019192326940954629 -0.81060957508683373351 -5.28435931750822174280
H  1.33739023672534007581 -0.02176180210095902262 -4.95710571016715118020
H  0.39779649937544075966 -0.48928159775481222526 -6.04833388575988006863
O  -7.04956873861824728777 -3.96410725474136516056 2.00995718922721300359
H  -7.15254410147000818654 -4.65493643898663123082 1.34549261014047272234
H  -6.11654403109737643263 -4.01710470963826971058 2.24663889184350029637
O  -2.39204768770303655145 0.15717982328363380717 -4.46632338538250728277
H  -1.53045049202667371446 0.00772474470296939664 -4.87212569674781104112
H  -3.01349931175671681416 -0.09387819900866259393 -5.15923738569354028982
O  3.14332620986744482039 -1.62109111580771458883 -4.37889695172932036371
H  3.95613356745356270494 -1.99669242749930186953 -4.73615024860673283769
H  3.41939840053587484903 -1.25197539084039011215 -3.53219760098863355680
O  -2.67562507398253446311 -2.72429854713833474733 -5.71877295514880223948
H  -2.04201429833394287883 -2.02689782699283638223 -5.51497971545993515008
H  -3.48775396947860238939 -2.24134700532619701718 -5.90999672141472753850
O  -5.16179463953493655737 1.22880828697755473122 5.39796580930602942772
H  -4.30623578081447266896 1.46134611394679203578 5.01940635253112343861
H  -5.78909550991919452656 1.71748339740495525874 4.85294074760039073624
O  7.47482153174193530987 -2.68927817501331345440 -0.05106943122605772656
H  8.13144470871629110320 -2.53901163294919740565 -0.74072734194451583800
H  7.93040395968893019329 -2.42164143292063815949 0.75526628610962387445
O  3.28308700329775504656 0.25360364509140098654 4.83243799257620310073
H  3.23293046070106671053 -0.70364738321965725198 4.72988627853632603859
H  4.06735062240857292437 0.38041984245367749251 5.37852433304727917118
O  -5.07534094216287634538 3.89321310787356278382 4.18836856975482074716
H  -4.61545125675281653344 4.72313013558524108504 4.01777763099195883711
H  -5.96276847180845059881 4.05379896144220630561 3.84771239898420525094
O  1.45025193988893930097 0.85417997595781436360 6.76870280392417633664
H  1.93168607196916974900 0.40658874102402198236 6.06354656102552258545
H  1.57211704817955344460 1.78876006609927284963 6.56604295611061861138
O  -3.44570730021408344612 6.77245127343282860011 2.84439293874128606987
H  -2.83813269621510055885 6.02427171225839241941 2.86542883274777748781
H  -3.25376718262646669189 7.19423259426640626657 1.99904001121358820825
O  1.11816444679303672594 -4.32565546146346058265 5.35386354484279181065
H  1.95414561632925742884 -4.77549682520086538062 5.52161423984008425947
H  1.09148599170977855799 -4.25173814587538156928 4.39303757000971195623
O  5.69783059855965134943 6.18101505111007654136 -0.46750319903466597271
H  5.65619013476971144172 5.71961212919333217286 -1.31292349654496254274
H  5.53829147136253219230 5.48279244561875067632 0.17778318970865775173
O  2.97214826822710387333 -2.54039818672827300006 4.88361746345918756873
H  3.41044717656149964924 -3.18502199179687339736 5.45081785213333347428
H  2.66417877776444944615 -3.06908794922679950545 4.13863156332634751777
O  -2.10927255164601490378 -7.62235687850030174673 0.24960413766669745095
H  -2.13965310933945929150 -6.83056022449032518296 0.79869169392088013026
H  -2.07196267734623562617 -7.27229058048671817005 -0.64784982978685123900
223
Energy 4.161664
C  0.71130776615267965468 5.00482414727958069278 -0.19561568134503989902
C  -4.13784486848083687960 3.17739904325788646844 0.68958586950538958149
C  -5.17444863619361594687 -1.77393841750645009370 -0.21665732364067985527
C  -0.87384297371556018952 -4.77917785703500719308 -0.63719983279390968178
C  4.05339626216557658012 -3.03094590633414950887 0.11871533019796989827
C  5.04884681101444510176 2.09362244562296995198 -0.58404774284701976850
O  -0.12582766454131008582 3.86927617535052936759 -0.25997818896310981307
O  -4.31294268880552600365 2.22131748928795813569 -0.31126934222609969893
O  -3.82279935479500831974 -1.93070136534545921947 -0.57994872475585967919
O  0.05957377906125960187 -3.73642003081359996841 -0.49167570712067970584
O  3.83098722953195691687 -1.80990987403622982654 -0.51821454630126961849
O  3.72723448493223719069 2.39573122461048049203 -0.94081572077923947273
C  1.36673334302333859824 5.17738746353810963541 -1.57023401112807836633
C  -3.83082197195232687648 4.52142930134692022648 -0.00861440099554997007
C  -5.86696795055896558324 -0.98447702978594020529 -1.33884527976942946381
C  -1.61012054292363893104 -4.57805317038506043303 -1.97033050864001890723
C  3.77326160587263625956 -4.12352537948484876296 -0.93397915008777943058
C  5.59790018606635531029 1.22271087148065049632 -1.73017268935670931462
O  0.41249294889497961636 5.31215455814457548911 -2.59060683846512906925
O  -4.80930237402007687564 4.84002336366017882341 -0.95372222083172941698
O  -5.78582568311042511056 -1.64728677729911021643 -2.57023780092665665720
O  -0.73773614924839026052 -4.55082005612955775575 -3.06837569591808811964
O  4.60494108751403530277 -3.96622878976938064710 -2.04751294360803903771
O  5.51089034068398309074 1.89539249938175013988 -2.95590729180038813695
C  2.21877561653414900888 3.93091745157843019953 -1.83150699881148915082
C  -2.43703341709546794647 4.47105818176657887619 -0.66523693747410916899
C  -5.20475957224313479088 0.39731597485467984310 -1.42006973941786962534
C  -2.38127676782546915391 -3.25302065840269838404 -1.88850281771867911651
C  2.29083818924970739062 -4.03265794157949919452 -1.34196827120711925652
C  4.78374355357373559627 -0.07921556826066936119 -1.75652837800578920380
O  2.95978907701573756839 4.02999105522410960845 -3.02082727297879927164
O  -2.05802748860041750945 5.73612709045024526944 -1.15190620092513951178
O  -5.88058054611833469494 1.22747881263100988569 -2.32923887821376673912
O  -3.19127255102765827743 -3.04457554296714016928 -3.01769493583701819972
O  1.91775986910106821526 -5.08492791013237965814 -2.19872422703288883383
O  5.29532575127568527762 -1.00829228528355963057 -2.67980956684520821298
C  3.21669371315159757785 3.69387210059014980956 -0.69186082520354963421
C  -1.38795551033674868791 3.99685863851938982805 0.35420949320828976070
C  -5.16778178528489551269 1.11072336231340940138 -0.06149807731087994500
C  -3.29265555667351561553 -3.24033602237473994379 -0.65776494554374898005
C  1.38149539713368874061 -4.07715922342435987957 -0.10764441609134994815
C  4.77256626082026613744 -0.75675892258768917564 -0.38217592772181979699
C  2.55256396054111922567 3.77383000390614853359 0.69472730196528931224
C  -1.87658184279176842857 2.62959785738603990524 0.86959042675287956392
C  -4.66995162147994768986 0.17586095834351950229 1.06305633345943961743
C  -2.50721461222832919802 -3.60110911172643000100 0.61297497945516965512
C  1.85352377539312773713 -3.02051341305114995350 0.89710406424008881654
C  4.36577196934167766074 0.23022434129321070473 0.72517060885729955899
O  1.66907167957595858887 4.88692368085399930777 0.81124164518227925846
O  -3.08441362729646728624 2.81665904229748020882 1.56150817661108898271
O  -5.30102626309129565385 -1.10211608872167032835 0.99847272905182959946
O  -1.77848159054403920365 -4.80866574069801888669 0.42941785465123982757
O  3.21002454205557707922 -3.18580015958223006223 1.24237706618064924768
O  5.13256533557428618053 1.42782080075291051280 0.64399374126307928901
C  3.59066688938968736622 3.98044807994619054270 1.80950926664780875619
C  -0.89645500604576855430 1.89000615206742916818 1.74680470073063887071
C  -5.01952751177552602968 0.67278465397587872143 2.47922864883734828112
C  -3.43552903897644679176 -3.83876853711820009707 1.81094492657019912052
C  1.02780373685861881050 -3.05255631487953005276 2.17255950121327856550
C  4.63334413526010635564 -0.33982799439168964728 2.12582775292363868047
O  4.36587551677528651339 5.12623218609484077035 1.58164252684446804409
O  -1.34635178925135901018 1.75509148705510997779 2.99556395054215807150
O  -6.36137881605171440214 1.05950386521692951902 2.58358829301366776932
O  -4.39579169127993640842 -4.82015551998131019928 1.53892222940309930657
O  1.15961021883623871531 -1.88140208249342943958 2.80998166284474804044
O  5.97384117287688454212 -0.72056215651174970738 2.28104190831524888949
H  0.13224704601901035583 5.90028006910375868443 0.06179845111059995011
H  -5.02906546666553655456 3.26944512916705898320 1.32195973471651906372
H  -5.66005365569407548065 -2.74597562429162023179 -0.06617953327339991254
H  -0.37596333589037028711 -5.75629752710907105495 -0.61905323145201962554
H  5.07351651543867454563 -3.11302658157459832822 0.51127945807539909584
H  5.64867625842899290234 3.00541745320616016102 -0.46425305226986962603
H  2.01854436715261886803 6.06436711980527043409 -1.54656827692787923745
H  -3.84115196116301671481 5.32232493097132941529 0.73833328706388945406
H  -6.93123890356386596068 -0.87032777596413046783 -1.10908033325346933040
H  -2.33079476852577860413 -5.39901926729751036049 -2.10116728534805874418
H  3.97846078011181525369 -5.11278456573449080480 -0.51320329701895961438
H  6.65544385173537111910 0.99639818803564983440 -1.56359344794164911718
H  -0.44758121555990915130 5.54738430107657976009 -2.19514784185843891962
H  -4.99862717111371512857 4.04655674109809648797 -1.47877335682354948965
H  -4.87862214394077664537 -1.98151913903146037477 -2.69443521680572883881
H  0.17493009918405943992 -4.73959651674300985746 -2.77483024948440881730
H  4.66410798139857529776 -3.01874084232443751219 -2.26865624666724841063
H  4.64836089514038430792 2.34140600586418878848 -3.00041084851171824255
H  1.54098607645986906967 3.06283758725334953610 -1.87427115174566893963
H  -2.46085499425985743116 3.74585258222391859206 -1.49411825115310925582
H  -4.16019338913851743911 0.25205406388909978865 -1.74488235435312732946
H  -1.65150591338989927159 -2.43341514701178018854 -1.78743297510559906449
H  2.13072481812891645347 -3.06478741669444998408 -1.84269875172082908676
H  3.74246695990955480227 0.17505707611953005842 -2.01366769037927806352
H  2.36276715127818626172 4.34815172937626659433 -3.71377294779213817932
H  -2.81157367692486648281 6.10014489877917043259 -1.64421335474422902756
H  -6.09084081771053398313 0.69029656113981896493 -3.10886487380280840398
H  -2.66909052727224915813 -3.26592044166787065507 -3.80334705793696725706
H  2.58698386619235698447 -5.14749436802668913771 -2.89909019680832802379
H  5.49408568008983611008 -0.53311484335033920701 -3.50050276010526850712
H  4.02144260633307659702 4.43873977070721803528 -0.76158004326704964448
H  -1.33879622191689873212 4.69571097986318886086 1.19890805994787918998
H  -6.17413561112708553225 1.47410559342782954140 0.19007305348557004820
H  -4.09868189285289563628 -3.97092024710498758822 -0.80481580480895953400
H  1.40934724253084797674 -5.07071095687050732437 0.35457577458490985300
H  5.76955099277967686788 -1.16139533236291936369 -0.16672775541378001551
H  1.99677609145850842864 2.83976438078294002310 0.85744948004959942178
H  -2.03432580407637875197 1.97912333649938032565 -0.00933991151863993591
H  -3.58181057813990832983 0.04730107681938962305 0.97286818618691950356
H  -1.81875059986388909472 -2.77601408995254050893 0.84523606295103970165
H  1.70767087459974709063 -2.02632998237252959228 0.44167627387429975183
H  3.29684627784058648103 0.46242992506568020294 0.61428010446683900536
H  4.27684283934914866165 3.13377304722748029064 1.84096947029981894417
H  3.05499576615011703140 4.05618852724160117162 2.76325081195894650676
H  -4.79227452249524610295 -0.15173887546790032488 3.16617738075086840865
H  -4.40898511711660745505 1.53315883400238783807 2.74824849325204567663
H  -3.97170422031588721268 -2.91608560685773054999 2.03992773831826879061
H  -2.81226758138124921516 -4.12058300134711963381 2.66817818299924836012
H  4.35574918530906440850 0.42281946590956998033 2.86286040394648688689
H  4.02684838685082624465 -1.23311937246010971947 2.28407916476905814562
H  3.76320851633328734565 5.88246056441070930276 1.54085400740711886414
H  -6.90736717162538571557 0.28345440568049945496 2.39381796429284854355
H  -3.92388988794632753709 -5.64051884971686945391 1.33424427257381927880
H  6.51908788538571037918 0.06399434512467971903 2.12347478294185876280
C  0.26127497010885958328 -1.58912450335454979999 3.90285766255619792631
H  0.88951598116402896821 -1.18363696298226983572 4.68922404710705720277
H  -0.25570570590976021697 -2.48705044817073872565 4.23160082255163860765
O  0.34924840901390941106 -3.98334818409430990727 2.55358777221210875297
C  -0.58617522855173942453 0.84541176598609990567 3.79519962836908808512
H  -0.99939904616609909205 0.95260657278872973297 4.79784223568303769270
H  0.46887642779151966765 1.11663465419944030188 3.80502509435579794328
O  0.16237772092035962501 1.42572362705916000358 1.35186217851816903313
C  -0.72420064229639979914 -0.57561974826865003330 3.33162747555646809872
O  -1.53646263887656897573 -0.91508322368633943089 2.48476685153011844776
O  5.12016518841188084110 -3.80675011383641637153 3.06030596716629732512
H  4.25869305737139836054 -3.72293329273593265327 2.63580323223809243061
H  5.32062354544112547927 -2.90677049522949593197 3.34175791086644746741
O  -2.07739336173240829453 4.33352014407194108259 3.97883132084589563604
H  -2.35787845356035274946 3.79904446580360399821 3.22714925599252966393
H  -2.03711298227879344935 3.69888340896133804847 4.70338343691660476509
O  1.20861243434111176320 0.84716361011117102819 -2.45015501381522371460
H  1.47563441383520377315 -0.07837486559086279114 -2.48810045468183282935
H  0.38317580702480413812 0.86359757474617560025 -2.94789627442596335882
O  2.57954538705013813882 -5.94619569675729753300 2.93431070549187023033
H  2.65596581105262918854 -6.24703290143068468154 3.84700942856533290026
H  1.73718974537481085640 -5.47753390440847809373 2.92185435155271555629
O  7.29620667321037252862 3.05100343268505413974 1.44429872370218603805
H  7.01503845224758304511 2.20928903027048573193 1.06770429954158507790
H  6.76420353927246242876 3.12816771772275625807 2.24453643964550542123
O  -1.05493549403350583837 -0.20175112183925833498 -1.90578485440609046719
H  -1.23685437313731783071 -0.42092813198437378785 -0.98479135623696145707
H  -1.90977621469210645522 0.09335581160641551191 -2.23973290958756754421
O  0.40789638124594512769 4.85382894434815526097 3.72543848859718496058
H  0.01368879175008975990 4.49477322989597638525 2.92229377291796899030
H  0.03071683465176650030 4.30767446854185553917 4.42459007560179617968
O  1.21348797977724287556 -3.47827765770486418972 -4.92319011099401926401
H  1.25561636499323192595 -2.59985245536667353150 -4.52827692170230822200
H  0.26721009973673559568 -3.65151120294881614825 -4.98572311005507007309
O  -3.37744983416910171670 -0.80244443854341140909 5.02801316157645405980
H  -3.98342569205590901760 -0.66501468563138288470 5.76508058501425590947
H  -2.99943270180925969370 -1.67108239055839913334 5.20671184479757620522
O  -0.29409470751137145594 7.08250446257944599182 2.34081583065246645603
H  0.51752120379981159104 6.67959335556119793154 2.01171961923672348860
H  -0.39475462152669771321 6.69967646414601958327 3.21983367390093944138
O  -3.43295572661918013679 2.81287833768132600198 -3.73637328428637882638
H  -3.86438062166725604385 3.40821766400290560028 -4.35991615409412336390
H  -4.15948600299494675170 2.49865613529479757560 -3.18611859011283016230
O  1.35024310655608803522 2.97177396900470869312 -4.84512104697737200354
H  1.75484819780610545870 2.33269820340351374810 -4.24742635068489171601
H  0.40538034146273999037 2.85284786628234776629 -4.69527779335967210272
O  0.18322687505456614065 -6.60190669290909060152 2.15079632328284464649
H  -0.09082779438799913618 -5.87151553977062601319 1.58441759346140953468
H  -0.37141095595953899089 -7.33395350912017729428 1.85780076238388747178
O  2.56947934761413288030 -7.05085454762334773449 0.50028496151401569136
H  2.21567125483624716153 -7.92918499809157051317 0.31940511939356591720
H  2.62946282806246500741 -7.02634175534128413432 1.46213898812676346139
O  0.58627963217273637575 -7.34812615275521352487 -2.33549050516169032221
H  1.53648087109563014074 -7.23569529413239376225 -2.45312966360428363899
H  0.21408734174046861742 -6.97478527771062140062 -3.14261599316652207037
O  0.89019192326940954629 -0.81060957508683373351 -5.28435931750822174280
H  1.33739023672534007581 -0.02176180210095902262 -4.95710571016715118020
H  0.39779649937544075966 -0.48928159775481222526 -6.04833388575988006863
O  -7.04956873861824728777 -3.96410725474136516056 2.00995718922721300359
H  -7.15254410147000818654 -4.65493643898663123082 1.34549261014047272234
H  -6.11654403109737643263 -4.01710470963826971058 2.24663889184350029637
O  -2.39204768770303655145 0.15717982328363380717 -4.46632338538250728277
H  -1.53045049202667371446 0.00772474470296939664 -4.87212569674781104112
H  -3.01349931175671681416 -0.09387819900866259393 -5.15923738569354028982
O  3.14332620986744482039 -1.62109111580771458883 -4.37889695172932036371
H  3.95613356745356270494 -1.99669242749930186953 -4.73615024860673283769
H  3.41939840053587484903 -1.25197539084039011215 -3.53219760098863355680
O  -2.67562507398253446311 -2.72429854713833474733 -5.71877295514880223948
H  -2.04201429833394287883 -2.02689782699283638223 -5.51497971545993515008
H  -3.48775396947860238939 -2.24134700532619701718 -5.90999672141472753850
O  -5.16179463953493655737 1.22880828697755473122 5.39796580930602942772
H  -4.30623578081447266896 1.46134611394679203578 5.01940635253112343861
H  -5.78909550991919452656 1.71748339740495525874 4.85294074760039073624
O  7.47482153174193530987 -2.68927817501331345440 -0.05106943122605772656
H  8.13144470871629110320 -2.53901163294919740565 -0.74072734194451583800
H  7.93040395968893019329 -2.42164143292063815949 0.75526628610962387445
O  3.28308700329775504656 0.25360364509140098654 4.83243799257620310073
H  3.23293046070106671053 -0.70364738321965725198 4.72988627853632603859
H  4.06735062240857292437 0.38041984245367749251 5.37852433304727917118
O  -5.07534094216287634538 3.89321310787356278382 4.18836856975482074716
H  -4.61545125675281653344 4.72313013558524108504 4.01777763099195883711
H  -5.96276847180845059881 4.05379896144220630561 3.84771239898420525094
O  1.45025193988893930097 0.85417997595781436360 6.76870280392417633664
H  1.93168607196916974900 0.40658874102402198236 6.06354656102552258545
H  1.57211704817955344460 1.78876006609927284963 6.56604295611061861138
O  -3.44570730021408344612 6.77245127343282860011 2.84439293874128606987
H  -2.83813269621510055885 6.02427171225839241941 2.86542883274777748781
H  -3.25376718262646669189 7.19423259426640626657 1.99904001121358820825
O  1.11816444679303672594 -4.32565546146346058265 5.35386354484279181065
H  1.95414561632925742884 -4.77549682520086538062 5.52161423984008425947
H  1.09148599170977855799 -4.25173814587538156928 4.39303757000971195623
O  5.69783059855965134943 6.18101505111007654136 -0.46750319903466597271
H  5.65619013476971144172 5.71961212919333217286 -1.31292349654496254274
H  5.53829147136253219230 5.48279244561875067632 0.17778318970865775173
O  2.97214826822710387333 -2.54039818672827300006 4.88361746345918756873
H  3.41044717656149964924 -3.18502199179687339736 5.45081785213333347428
H  2.66417877776444944615 -3.06908794922679950545 4.13863156332634751777
O  -2.10927255164601490378 -7.62235687850030174673 0.24960413766669745095
H  -2.13965310933945929150 -6.83056022449032518296 0.79869169392088013026
H  -2.07196267734623429391 -7.27229058048671817005 -0.64784982978685135002
O  -5.95738119874374572049 -2.71946959444895020042 3.84506308661250484349
H  -5.96340446262175483128 -1.86313932192317133207 3.40231682895634879316
H  -6.78868546794184801740 -2.72604528790807520977 4.33317376636849971305
226
Energy 5.643559
C  0.71130776615267965468 5.00482414727958069278 -0.19561568134503989902
C  -4.13784486848083687960 3.17739904325788646844 0.68958586950538958149
C  -5.17444863619361594687 -1.77393841750645009370 -0.21665732364067985527
C  -0.87384297371556018952 -4.77917785703500719308 -0.63719983279390968178
C  4.05339626216557658012 -3.03094590633414950887 0.11871533019796989827
C  5.04884681101444510176 2.09362244562296995198 -0.58404774284701976850
O  -0.12582766454131008582 3.86927617535052936759 -0.25997818896310981307
O  -4.31294268880552600365 2.22131748928795813569 -0.31126934222609969893
O  -3.82279935479500831974 -1.93070136534545921947 -0.57994872475585967919
O  0.05957377906125960187 -3.73642003081359996841 -0.49167570712067970584
O  3.83098722953195691687 -1.80990987403622982654 -0.51821454630126961849
O  3.72723448493223719069 2.39573122461048049203 -0.94081572077923947273
C  1.36673334302333859824 5.17738746353810963541 -1.57023401112807836633
C  -3.83082197195232687648 4.52142930134692022648 -0.00861440099554997007
C  -5.86696795055896558324 -0.98447702978594020529 -1.33884527976942946381
C  -1.61012054292363893104 -4.57805317038506043303 -1.97033050864001890723
C  3.77326160587263625956 -4.12352537948484876296 -0.93397915008777943058
C  5.59790018606635531029 1.22271087148065049632 -1.73017268935670931462
O  0.41249294889497961636 5.31215455814457548911 -2.59060683846512906925
O  -4.80930237402007687564 4.84002336366017882341 -0.95372222083172941698
O  -5.78582568311042511056 -1.64728677729911021643 -2.57023780092665665720
O  -0.73773614924839026052 -4.55082005612955775575 -3.06837569591808811964
O  4.60494108751403530277 -3.96622878976938064710 -2.04751294360803903771
O  5.51089034068398309074 1.89539249938175013988 -2.95590729180038813695
C  2.21877561653414900888 3.93091745157843019953 -1.83150699881148915082
C  -2.43703341709546794647 4.47105818176657887619 -0.66523693747410916899
C  -5.20475957224313479088 0.39731597485467984310 -1.42006973941786962534
C  -2.38127676782546915391 -3.25302065840269838404 -1.88850281771867911651
C  2.29083818924970739062 -4.03265794157949919452 -1.34196827120711925652
C  4.78374355357373559627 -0.07921556826066936119 -1.75652837800578920380
O  2.95978907701573756839 4.02999105522410960845 -3.02082727297879927164
O  -2.05802748860041750945 5.73612709045024526944 -1.15190620092513951178
O  -5.88058054611833469494 1.22747881263100988569 -2.32923887821376673912
O  -3.19127255102765827743 -3.04457554296714016928 -3.01769493583701819972
O  1.91775986910106821526 -5.08492791013237965814 -2.19872422703288883383
O  5.29532575127568527762 -1.00829228528355963057 -2.67980956684520821298
C  3.21669371315159757785 3.69387210059014980956 -0.69186082520354963421
C  -1.38795551033674868791 3.99685863851938982805 0.35420949320828976070
C  -5.16778178528489551269 1.11072336231340940138 -0.06149807731087994500
C  -3.29265555667351561553 -3.24033602237473994379 -0.65776494554374898005
C  1.38149539713368874061 -4.07715922342435987957 -0.10764441609134994815
C  4.77256626082026613744 -0.75675892258768917564 -0.38217592772181979699
C  2.55256396054111922567 3.77383000390614853359 0.69472730196528931224
C  -1.87658184279176842857 2.62959785738603990524 0.86959042675287956392
C  -4.66995162147994768986 0.17586095834351950229 1.06305633345943961743
C  -2.50721461222832919802 -3.60110911172643000100 0.61297497945516965512
C  1.85352377539312773713 -3.02051341305114995350 0.89710406424008881654
C  4.36577196934167766074 0.23022434129321070473 0.72517060885729955899
O  1.66907167957595858887 4.88692368085399930777 0.81124164518227925846
O  -3.08441362729646728624 2.81665904229748020882 1.56150817661108898271
O  -5.30102626309129565385 -1.10211608872167032835 0.99847272905182959946
O  -1.77848159054403920365 -4.80866574069801888669 0.42941785465123982757
O  3.21002454205557707922 -3.18580015958223006223 1.24237706618064924768
O  5.13256533557428618053 1.42782080075291051280 0.64399374126307928901
C  3.59066688938968736622 3.98044807994619054270 1.80950926664780875619
C  -0.89645500604576855430 1.89000615206742916818 1.74680470073063887071
C  -5.01952751177552602968 0.67278465397587872143 2.47922864883734828112
C  -3.43552903897644679176 -3.83876853711820009707 1.81094492657019912052
C  1.02780373685861881050 -3.05255631487953005276 2.17255950121327856550
C  4.63334413526010635564 -0.33982799439168964728 2.12582775292363868047
O  4.36587551677528651339 5.12623218609484077035 1.58164252684446804409
O  -1.34635178925135901018 1.75509148705510997779 2.99556395054215807150
O  -6.36137881605171440214 1.05950386521692951902 2.58358829301366776932
O  -4.39579169127993640842 -4.82015551998131019928 1.53892222940309930657
O  1.15961021883623871531 -1.88140208249342943958 2.80998166284474804044
O  5.97384117287688454212 -0.72056215651174970738 2.28104190831524888949
H  0.13224704601901035583 5.90028006910375868443 0.06179845111059995011
H  -5.02906546666553655456 3.26944512916705898320 1.32195973471651906372
H  -5.66005365569407548065 -2.74597562429162023179 -0.06617953327339991254
H  -0.37596333589037028711 -5.75629752710907105495 -0.61905323145201962554
H  5.07351651543867454563 -3.11302658157459832822 0.51127945807539909584
H  5.64867625842899290234 3.00541745320616016102 -0.46425305226986962603
H  2.01854436715261886803 6.06436711980527043409 -1.54656827692787923745
H  -3.84115196116301671481 5.32232493097132941529 0.73833328706388945406
H  -6.93123890356386596068 -0.87032777596413046783 -1.10908033325346933040
H  -2.33079476852577860413 -5.39901926729751036049 -2.10116728534805874418
H  3.97846078011181525369 -5.11278456573449080480 -0.51320329701895961438
H  6.65544385173537111910 0.99639818803564983440 -1.56359344794164911718
H  -0.44758121555990915130 5.54738430107657976009 -2.19514784185843891962
H  -4.99862717111371512857 4.04655674109809648797 -1.47877335682354948965
H  -4.87862214394077664537 -1.98151913903146037477 -2.69443521680572883881
H  0.17493009918405943992 -4.73959651674300985746 -2.77483024948440881730
H  4.66410798139857529776 -3.01874084232443751219 -2.26865624666724841063
H  4.64836089514038430792 2.34140600586418878848 -3.00041084851171824255
H  1.54098607645986906967 3.06283758725334953610 -1.87427115174566893963
H  -2.46085499425985743116 3.74585258222391859206 -1.49411825115310925582
H  -4.16019338913851743911 0.25205406388909978865 -1.74488235435312732946
H  -1.65150591338989927159 -2.43341514701178018854 -1.78743297510559906449
H  2.13072481812891645347 -3.06478741669444998408 -1.84269875172082908676
H  3.74246695990955480227 0.17505707611953005842 -2.01366769037927806352
H  2.36276715127818626172 4.34815172937626659433 -3.71377294779213817932
H  -2.81157367692486648281 6.10014489877917043259 -1.64421335474422902756
H  -6.09084081771053398313 0.69029656113981896493 -3.10886487380280840398
H  -2.66909052727224915813 -3.26592044166787065507 -3.80334705793696725706
H  2.58698386619235698447 -5.14749436802668913771 -2.89909019680832802379
H  5.49408568008983611008 -0.53311484335033920701 -3.50050276010526850712
H  4.02144260633307659702 4.43873977070721803528 -0.76158004326704964448
H  -1.33879622191689873212 4.69571097986318886086 1.19890805994787918998
H  -6.17413561112708553225 1.47410559342782954140 0.19007305348557004820
H  -4.09868189285289563628 -3.97092024710498758822 -0.80481580480895953400
H  1.40934724253084797674 -5.07071095687050732437 0.35457577458490985300
H  5.76955099277967686788 -1.16139533236291936369 -0.16672775541378001551
H  1.99677609145850842864 2.83976438078294002310 0.85744948004959942178
H  -2.03432580407637875197 1.97912333649938032565 -0.00933991151863993591
H  -3.58181057813990832983 0.04730107681938962305 0.97286818618691950356
H  -1.81875059986388909472 -2.77601408995254050893 0.84523606295103970165
H  1.70767087459974709063 -2.02632998237252959228 0.44167627387429975183
H  3.29684627784058648103 0.46242992506568020294 0.61428010446683900536
H  4.27684283934914866165 3.13377304722748029064 1.84096947029981894417
H  3.05499576615011703140 4.05618852724160117162 2.76325081195894650676
H  -4.79227452249524610295 -0.15173887546790032488 3.16617738075086840865
H  -4.40898511711660745505 1.53315883400238783807 2.74824849325204567663
H  -3.97170422031588721268 -2.91608560685773054999 2.03992773831826879061
H  -2.81226758138124921516 -4.12058300134711963381 2.66817818299924836012
H  4.35574918530906440850 0.42281946590956998033 2.86286040394648688689
H  4.02684838685082624465 -1.23311937246010971947 2.28407916476905814562
H  3.76320851633328734565 5.88246056441070930276 1.54085400740711886414
H  -6.90736717162538571557 0.28345440568049945496 2.39381796429284854355
H  -3.92388988794632753709 -5.64051884971686945391 1.33424427257381927880
H  6.51908788538571037918 0.06399434512467971903 2.12347478294185876280
C  0.26127497010885958328 -1.58912450335454979999 3.90285766255619792631
H  0.88951598116402896821 -1.18363696298226983572 4.68922404710705720277
H  -0.25570570590976021697 -2.48705044817073872565 4.23160082255163860765
O  0.34924840901390941106 -3.98334818409430990727 2.55358777221210875297
C  -0.58617522855173942453 0.84541176598609990567 3.79519962836908808512
H  -0.99939904616609909205 0.95260657278872973297 4.79784223568303769270
H  0.46887642779151966765 1.11663465419944030188 3.80502509435579794328
O  0.16237772092035962501 1.42572362705916000358 1.35186217851816903313
C  -0.72420064229639979914 -0.57561974826865003330 3.33162747555646809872
O  -1.53646263887656897573 -0.91508322368633943089 2.48476685153011844776
O  5.12016518841188084110 -3.80675011383641637153 3.06030596716629732512
H  4.25869305737139836054 -3.72293329273593265327 2.63580323223809243061
H  5.32062354544112547927 -2.90677049522949593197 3.34175791086644746741
O  -2.07739336173240829453 4.33352014407194108259 3.97883132084589563604
H  -2.35787845356035274946 3.79904446580360399821 3.22714925599252966393
H  -2.03711298227879344935 3.69888340896133804847 4.70338343691660476509
O  1.20861243434111176320 0.84716361011117102819 -2.45015501381522371460
H  1.47563441383520377315 -0.07837486559086279114 -2.48810045468183282935
H  0.38317580702480413812 0.86359757474617560025 -2.94789627442596335882
O  2.57954538705013813882 -5.94619569675729753300 2.93431070549187023033
H  2.65596581105262918854 -6.24703290143068468154 3.84700942856533290026
H  1.73718974537481085640 -5.47753390440847809373 2.92185435155271555629
O  7.29620667321037252862 3.05100343268505413974 1.44429872370218603805
H  7.01503845224758304511 2.20928903027048573193 1.06770429954158507790
H  6.76420353927246242876 3.12816771772275625807 2.24453643964550542123
O  -1.05493549403350583837 -0.20175112183925833498 -1.90578485440609046719
H  -1.23685437313731783071 -0.42092813198437378785 -0.98479135623696145707
H  -1.90977621469210645522 0.09335581160641551191 -2.23973290958756754421
O  0.40789638124594512769 4.85382894434815526097 3.72543848859718496058
H  0.01368879175008975990 4.49477322989597638525 2.92229377291796899030
H  0.03071683465176650030 4.30767446854185553917 4.42459007560179617968
O  1.21348797977724287556 -3.47827765770486418972 -4.92319011099401926401
H  1.25561636499323192595 -2.59985245536667353150 -4.52827692170230822200
H  0.26721009973673559568 -3.65151120294881614825 -4.98572311005507007309
O  -3.37744983416910171670 -0.80244443854341140909 5.02801316157645405980
H  -3.98342569205590901760 -0.66501468563138288470 5.76508058501425590947
H  -2.99943270180925969370 -1.67108239055839913334 5.20671184479757620522
O  -0.29409470751137145594 7.08250446257944599182 2.34081583065246645603
H  0.51752120379981159104 6.67959335556119793154 2.01171961923672348860
H  -0.39475462152669771321 6.69967646414601958327 3.21983367390093944138
O  -3.43295572661918013679 2.81287833768132600198 -3.73637328428637882638
H  -3.86438062166725604385 3.40821766400290560028 -4.35991615409412336390
H  -4.15948600299494675170 2.49865613529479757560 -3.18611859011283016230
O  1.35024310655608803522 2.97177396900470869312 -4.84512104697737200354
H  1.75484819780610545870 2.33269820340351374810 -4.24742635068489171601
H  0.40538034146273999037 2.85284786628234776629 -4.69527779335967210272
O  0.18322687505456614065 -6.60190669290909060152 2.15079632328284464649
H  -0.09082779438799913618 -5.87151553977062601319 1.58441759346140953468
H  -0.37141095595953899089 -7.33395350912017729428 1.85780076238388747178
O  2.56947934761413288030 -7.05085454762334773449 0.50028496151401569136
H  2.21567125483624716153 -7.92918499809157051317 0.31940511939356591720
H  2.62946282806246500741 -7.02634175534128413432 1.46213898812676346139
O  0.58627963217273637575 -7.34812615275521352487 -2.33549050516169032221
H  1.53648087109563014074 -7.23569529413239376225 -2.45312966360428363899
H  0.21408734174046861742 -6.97478527771062140062 -3.14261599316652207037
O  0.89019192326940954629 -0.81060957508683373351 -5.28435931750822174280
H  1.33739023672534007581 -0.02176180210095902262 -4.95710571016715118020
H  0.39779649937544075966 -0.48928159775481222526 -6.04833388575988006863
O  -7.04956873861824728777 -3.96410725474136516056 2.00995718922721300359
H  -7.15254410147000818654 -4.65493643898663123082 1.34549261014047272234
H  -6.11654403109737643263 -4.01710470963826971058 2.24663889184350029637
O  -2.39204768770303655145 0.15717982328363380717 -4.46632338538250728277
H  -1.53045049202667371446 0.00772474470296939664 -4.87212569674781104112
H  -3.01349931175671681416 -0.09387819900866259393 -5.15923738569354028982
O  3.14332620986744482039 -1.62109111580771458883 -4.37889695172932036371
H  3.95613356745356270494 -1.99669242749930186953 -4.73615024860673283769
H  3.41939840053587484903 -1.25197539084039011215 -3.53219760098863355680
O  -2.67562507398253446311 -2.72429854713833474733 -5.71877295514880223948
H  -2.04201429833394287883 -2.02689782699283638223 -5.51497971545993515008
H  -3.48775396947860238939 -2.24134700532619701718 -5.90999672141472753850
O  -5.16179463953493655737 1.22880828697755473122 5.39796580930602942772
H  -4.30623578081447266896 1.46134611394679203578 5.01940635253112343861
H  -5.78909550991919452656 1.71748339740495525874 4.85294074760039073624
O  7.47482153174193530987 -2.68927817501331345440 -0.05106943122605772656
H  8.13144470871629110320 -2.53901163294919740565 -0.74072734194451583800
H  7.93040395968893019329 -2.42164143292063815949 0.75526628610962387445
O  3.28308700329775504656 0.25360364509140098654 4.83243799257620310073
H  3.23293046070106671053 -0.70364738321965725198 4.72988627853632603859
H  4.06735062240857292437 0.38041984245367749251 5.37852433304727917118
O  -5.07534094216287634538 3.89321310787356278382 4.18836856975482074716
H  -4.61545125675281653344 4.72313013558524108504 4.01777763099195883711
H  -5.96276847180845059881 4.05379896144220630561 3.84771239898420525094
O  1.45025193988893930097 0.85417997595781436360 6.76870280392417633664
H  1.93168607196916974900 0.40658874102402198236 6.06354656102552258545
H  1.57211704817955344460 1.78876006609927284963 6.56604295611061861138
O  -3.44570730021408344612 6.77245127343282860011 2.84439293874128606987
H  -2.83813269621510055885 6.02427171225839241941 2.86542883274777748781
H  -3.25376718262646669189 7.19423259426640626657 1.99904001121358820825
O  1.11816444679303672594 -4.32565546146346058265 5.35386354484279181065
H  1.95414561632925742884 -4.77549682520086538062 5.52161423984008425947
H  1.09148599170977855799 -4.25173814587538156928 4.39303757000971195623
O  5.69783059855965134943 6.18101505111007654136 -0.46750319903466597271
H  5.65619013476971144172 5.71961212919333217286 -1.31292349654496254274
H  5.53829147136253219230 5.48279244561875067632 0.17778318970865775173
O  2.97214826822710387333 -2.54039818672827300006 4.88361746345918756873
H  3.41044717656149964924 -3.18502199179687339736 5.45081785213333347428
H  2.66417877776444944615 -3.06908794922679950545 4.13863156332634751777
O  -2.10927255164601490378 -7.62235687850030174673 0.24960413766669745095
H  -2.13965310933945929150 -6.83056022449032518296 0.79869169392088013026
H  -2.07196267734623429391 -7.27229058048671817005 -0.64784982978685135002
O  -5.95738119874374394414 -2.71946959444894975633 3.84506308661250484349
H  -5.96340446262175483128 -1.86313932192317133207 3.40231682895634879316
H  -6.78868546794184801740 -2.72604528790807476568 4.33317376636849971305
O  -3.06978445874264238569 -3.43806722092029648508 5.47737141699656771010
H  -3.67898439910825869603 -3.83318839658434606932 4.84324465268146475694
H  -3.01545803629152464609 -4.09790447024198467574 6.17810353960445901578
229
Energy -0.056521
C  0.71130776615267965468 5.00482414727958069278 -0.19561568134503989902
C  -4.13784486848083687960 3.17739904325788646844 0.68958586950538958149
C  -5.17444863619361594687 -1.77393841750645009370 -0.21665732364067985527
C  -0.87384297371556018952 -4.77917785703500719308 -0.63719983279390968178
C  4.05339626216557658012 -3.03094590633414950887 0.11871533019796989827
C  5.04884681101444510176 2.09362244562296995198 -0.58404774284701976850
O  -0.12582766454131008582 3.86927617535052936759 -0.25997818896310981307
O  -4.31294268880552600365 2.22131748928795813569 -0.31126934222609969893
O  -3.82279935479500831974 -1.93070136534545921947 -0.57994872475585967919
O  0.05957377906125960187 -3.73642003081359996841 -0.49167570712067970584
O  3.83098722953195691687 -1.80990987403622982654 -0.51821454630126961849
O  3.72723448493223719069 2.39573122461048049203 -0.94081572077923947273
C  1.36673334302333859824 5.17738746353810963541 -1.57023401112807836633
C  -3.83082197195232687648 4.52142930134692022648 -0.00861440099554997007
C  -5.86696795055896558324 -0.98447702978594020529 -1.33884527976942946381
C  -1.61012054292363893104 -4.57805317038506043303 -1.97033050864001890723
C  3.77326160587263625956 -4.12352537948484876296 -0.93397915008777943058
C  5.59790018606635531029 1.22271087148065049632 -1.73017268935670931462
O  0.41249294889497961636 5.31215455814457548911 -2.59060683846512906925
O  -4.80930237402007687564 4.84002336366017882341 -0.95372222083172941698
O  -5.78582568311042511056 -1.64728677729911021643 -2.57023780092665665720
O  -0.73773614924839026052 -4.55082005612955775575 -3.06837569591808811964
O  4.60494108751403530277 -3.96622878976938064710 -2.04751294360803903771
O  5.51089034068398309074 1.89539249938175013988 -2.95590729180038813695
C  2.21877561653414900888 3.93091745157843019953 -1.83150699881148915082
C  -2.43703341709546794647 4.47105818176657887619 -0.66523693747410916899
C  -5.20475957224313479088 0.39731597485467984310 -1.42006973941786962534
C  -2.38127676782546915391 -3.25302065840269838404 -1.88850281771867911651
C  2.29083818924970739062 -4.03265794157949919452 -1.34196827120711925652
C  4.78374355357373559627 -0.07921556826066936119 -1.75652837800578920380
O  2.95978907701573756839 4.02999105522410960845 -3.02082727297879927164
O  -2.05802748860041750945 5.73612709045024526944 -1.15190620092513951178
O  -5.88058054611833469494 1.22747881263100988569 -2.32923887821376673912
O  -3.19127255102765827743 -3.04457554296714016928 -3.01769493583701819972
O  1.91775986910106821526 -5.08492791013237965814 -2.19872422703288883383
O  5.29532575127568527762 -1.00829228528355963057 -2.67980956684520821298
C  3.21669371315159757785 3.69387210059014980956 -0.69186082520354963421
C  -1.38795551033674868791 3.99685863851938982805 0.35420949320828976070
C  -5.16778178528489551269 1.11072336231340940138 -0.06149807731087994500
C  -3.29265555667351561553 -3.24033602237473994379 -0.65776494554374898005
C  1.38149539713368874061 -4.07715922342435987957 -0.10764441609134994815
C  4.77256626082026613744 -0.75675892258768917564 -0.38217592772181979699
C  2.55256396054111922567 3.77383000390614853359 0.69472730196528931224
C  -1.87658184279176842857 2.62959785738603990524 0.86959042675287956392
C  -4.66995162147994768986 0.17586095834351950229 1.06305633345943961743
C  -2.50721461222832919802 -3.60110911172643000100 0.61297497945516965512
C  1.85352377539312773713 -3.02051341305114995350 0.89710406424008881654
C  4.36577196934167766074 0.23022434129321070473 0.72517060885729955899
O  1.66907167957595858887 4.88692368085399930777 0.81124164518227925846
O  -3.08441362729646728624 2.81665904229748020882 1.56150817661108898271
O  -5.30102626309129565385 -1.10211608872167032835 0.99847272905182959946
O  -1.77848159054403920365 -4.80866574069801888669 0.42941785465123982757
O  3.21002454205557707922 -3.18580015958223006223 1.24237706618064924768
O  5.13256533557428618053 1.42782080075291051280 0.64399374126307928901
C  3.59066688938968736622 3.98044807994619054270 1.80950926664780875619
C  -0.89645500604576855430 1.89000615206742916818 1.74680470073063887071
C  -5.01952751177552602968 0.67278465397587872143 2.47922864883734828112
C  -3.43552903897644679176 -3.83876853711820009707 1.81094492657019912052
C  1.02780373685861881050 -3.05255631487953005276 2.17255950121327856550
C  4.63334413526010635564 -0.33982799439168964728 2.12582775292363868047
O  4.36587551677528651339 5.12623218609484077035 1.58164252684446804409
O  -1.34635178925135901018 1.75509148705510997779 2.99556395054215807150
O  -6.36137881605171440214 1.05950386521692951902 2.58358829301366776932
O  -4.39579169127993640842 -4.82015551998131019928 1.53892222940309930657
O  1.15961021883623871531 -1.88140208249342943958 2.80998166284474804044
O  5.97384117287688454212 -0.72056215651174970738 2.28104190831524888949
H  0.13224704601901035583 5.90028006910375868443 0.06179845111059995011
H  -5.02906546666553655456 3.26944512916705898320 1.32195973471651906372
H  -5.66005365569407548065 -2.74597562429162023179 -0.06617953327339991254
H  -0.37596333589037028711 -5.75629752710907105495 -0.61905323145201962554
H  5.07351651543867454563 -3.11302658157459832822 0.51127945807539909584
H  5.64867625842899290234 3.00541745320616016102 -0.46425305226986962603
H  2.01854436715261886803 6.06436711980527043409 -1.54656827692787923745
H  -3.84115196116301671481 5.32232493097132941529 0.73833328706388945406
H  -6.93123890356386596068 -0.87032777596413046783 -1.10908033325346933040
H  -2.33079476852577860413 -5.39901926729751036049 -2.10116728534805874418
H  3.97846078011181525369 -5.11278456573449080480 -0.51320329701895961438
H  6.65544385173537111910 0.99639818803564983440 -1.56359344794164911718
H  -0.44758121555990915130 5.54738430107657976009 -2.19514784185843891962
H  -4.99862717111371512857 4.04655674109809648797 -1.47877335682354948965
H  -4.87862214394077664537 -1.98151913903146037477 -2.69443521680572883881
H  0.17493009918405943992 -4.73959651674300985746 -2.77483024948440881730
H  4.66410798139857529776 -3.01874084232443751219 -2.26865624666724841063
H  4.64836089514038430792 2.34140600586418878848 -3.00041084851171824255
H  1.54098607645986906967 3.06283758725334953610 -1.87427115174566893963
H  -2.46085499425985743116 3.74585258222391859206 -1.49411825115310925582
H  -4.16019338913851743911 0.25205406388909978865 -1.74488235435312732946
H  -1.65150591338989927159 -2.43341514701178018854 -1.78743297510559906449
H  2.13072481812891645347 -3.06478741669444998408 -1.84269875172082908676
H  3.74246695990955480227 0.17505707611953005842 -2.01366769037927806352
H  2.36276715127818626172 4.34815172937626659433 -3.71377294779213817932
H  -2.81157367692486648281 6.10014489877917043259 -1.64421335474422902756
H  -6.09084081771053398313 0.69029656113981896493 -3.10886487380280840398
H  -2.66909052727224915813 -3.26592044166787065507 -3.80334705793696725706
H  2.58698386619235698447 -5.14749436802668913771 -2.89909019680832802379
H  5.49408568008983611008 -0.53311484335033920701 -3.50050276010526850712
H  4.02144260633307659702 4.43873977070721803528 -0.76158004326704964448
H  -1.33879622191689873212 4.69571097986318886086 1.19890805994787918998
H  -6.17413561112708553225 1.47410559342782954140 0.19007305348557004820
H  -4.09868189285289563628 -3.97092024710498758822 -0.80481580480895953400
H  1.40934724253084797674 -5.07071095687050732437 0.35457577458490985300
H  5.76955099277967686788 -1.16139533236291936369 -0.16672775541378001551
H  1.99677609145850842864 2.83976438078294002310 0.85744948004959942178
H  -2.03432580407637875197 1.97912333649938032565 -0.00933991151863993591
H  -3.58181057813990832983 0.04730107681938962305 0.97286818618691950356
H  -1.81875059986388909472 -2.77601408995254050893 0.84523606295103970165
H  1.70767087459974709063 -2.02632998237252959228 0.44167627387429975183
H  3.29684627784058648103 0.46242992506568020294 0.61428010446683900536
H  4.27684283934914866165 3.13377304722748029064 1.84096947029981894417
H  3.05499576615011703140 4.05618852724160117162 2.76325081195894650676
H  -4.79227452249524610295 -0.15173887546790032488 3.16617738075086840865
H  -4.40898511711660745505 1.53315883400238783807 2.74824849325204567663
H  -3.97170422031588721268 -2.91608560685773054999 2.03992773831826879061
H  -2.81226758138124921516 -4.12058300134711963381 2.66817818299924836012
H  4.35574918530906440850 0.42281946590956998033 2.86286040394648688689
H  4.02684838685082624465 -1.23311937246010971947 2.28407916476905814562
H  3.76320851633328734565 5.88246056441070930276 1.54085400740711886414
H  -6.90736717162538571557 0.28345440568049945496 2.39381796429284854355
H  -3.92388988794632753709 -5.64051884971686945391 1.33424427257381927880
H  6.51908788538571037918 0.06399434512467971903 2.12347478294185876280
C  0.26127497010885958328 -1.58912450335454979999 3.90285766255619792631
H  0.88951598116402896821 -1.18363696298226983572 4.68922404710705720277
H  -0.25570570590976021697 -2.48705044817073872565 4.23160082255163860765
O  0.34924840901390941106 -3.98334818409430990727 2.55358777221210875297
C  -0.58617522855173942453 0.84541176598609990567 3.79519962836908808512
H  -0.99939904616609909205 0.95260657278872973297 4.79784223568303769270
H  0.46887642779151966765 1.11663465419944030188 3.80502509435579794328
O  0.16237772092035962501 1.42572362705916000358 1.35186217851816903313
C  -0.72420064229639979914 -0.57561974826865003330 3.33162747555646809872
O  -1.53646263887656897573 -0.91508322368633943089 2.48476685153011844776
O  5.12016518841188084110 -3.80675011383641637153 3.06030596716629732512
H  4.25869305737139836054 -3.72293329273593265327 2.63580323223809243061
H  5.32062354544112547927 -2.90677049522949593197 3.34175791086644746741
O  -2.07739336173240829453 4.33352014407194108259 3.97883132084589563604
H  -2.35787845356035274946 3.79904446580360399821 3.22714925599252966393
H  -2.03711298227879344935 3.69888340896133804847 4.70338343691660476509
O  1.20861243434111176320 0.84716361011117102819 -2.45015501381522371460
H  1.47563441383520377315 -0.07837486559086279114 -2.48810045468183282935
H  0.38317580702480413812 0.86359757474617560025 -2.94789627442596335882
O  2.57954538705013813882 -5.94619569675729753300 2.93431070549187023033
H  2.65596581105262918854 -6.24703290143068468154 3.84700942856533290026
H  1.73718974537481085640 -5.47753390440847809373 2.92185435155271555629
O  7.29620667321037252862 3.05100343268505413974 1.44429872370218603805
H  7.01503845224758304511 2.20928903027048573193 1.06770429954158507790
H  6.76420353927246242876 3.12816771772275625807 2.24453643964550542123
O  -1.05493549403350583837 -0.20175112183925833498 -1.90578485440609046719
H  -1.23685437313731783071 -0.42092813198437378785 -0.98479135623696145707
H  -1.90977621469210645522 0.09335581160641551191 -2.23973290958756754421
O  0.40789638124594512769 4.85382894434815526097 3.72543848859718496058
H  0.01368879175008975990 4.49477322989597638525 2.92229377291796899030
H  0.03071683465176650030 4.30767446854185553917 4.42459007560179617968
O  1.21348797977724287556 -3.47827765770486418972 -4.92319011099401926401
H  1.25561636499323192595 -2.59985245536667353150 -4.52827692170230822200
H  0.26721009973673559568 -3.65151120294881614825 -4.98572311005507007309
O  -3.37744983416910171670 -0.80244443854341140909 5.02801316157645405980
H  -3.98342569205590901760 -0.66501468563138288470 5.76508058501425590947
H  -2.99943270180925969370 -1.67108239055839913334 5.20671184479757620522
O  -0.29409470751137145594 7.08250446257944599182 2.34081583065246645603
H  0.51752120379981159104 6.67959335556119793154 2.01171961923672348860
H  -0.39475462152669771321 6.69967646414601958327 3.21983367390093944138
O  -3.43295572661918013679 2.81287833768132600198 -3.73637328428637882638
H  -3.86438062166725604385 3.40821766400290560028 -4.35991615409412336390
H  -4.15948600299494675170 2.49865613529479757560 -3.18611859011283016230
O  1.35024310655608803522 2.97177396900470869312 -4.84512104697737200354
H  1.75484819780610545870 2.33269820340351374810 -4.24742635068489171601
H  0.40538034146273999037 2.85284786628234776629 -4.69527779335967210272
O  0.18322687505456614065 -6.60190669290909060152 2.15079632328284464649
H  -0.09082779438799913618 -5.87151553977062601319 1.58441759346140953468
H  -0.37141095595953899089 -7.33395350912017729428 1.85780076238388747178
O  2.56947934761413288030 -7.05085454762334773449 0.50028496151401569136
H  2.21567125483624716153 -7.92918499809157051317 0.31940511939356591720
H  2.62946282806246500741 -7.02634175534128413432 1.46213898812676346139
O  0.58627963217273637575 -7.34812615275521352487 -2.33549050516169032221
H  1.53648087109563014074 -7.23569529413239376225 -2.45312966360428363899
H  0.21408734174046861742 -6.97478527771062140062 -3.14261599316652207037
O  0.89019192326940954629 -0.81060957508683373351 -5.28435931750822174280
H  1.33739023672534007581 -0.02176180210095902262 -4.95710571016715118020
H  0.39779649937544075966 -0.48928159775481222526 -6.04833388575988006863
O  -7.04956873861824728777 -3.96410725474136516056 2.00995718922721300359
H  -7.15254410147000818654 -4.65493643898663123082 1.34549261014047272234
H  -6.11654403109737643263 -4.01710470963826971058 2.24663889184350029637
O  -2.39204768770303655145 0.15717982328363380717 -4.46632338538250728277
H  -1.53045049202667371446 0.00772474470296939664 -4.87212569674781104112
H  -3.01349931175671681416 -0.09387819900866259393 -5.15923738569354028982
O  3.14332620986744482039 -1.62109111580771458883 -4.37889695172932036371
H  3.95613356745356270494 -1.99669242749930186953 -4.73615024860673283769
H  3.41939840053587484903 -1.25197539084039011215 -3.53219760098863355680
O  -2.67562507398253446311 -2.72429854713833474733 -5.71877295514880223948
H  -2.04201429833394287883 -2.02689782699283638223 -5.51497971545993515008
H  -3.48775396947860238939 -2.24134700532619701718 -5.90999672141472753850
O  -5.16179463953493655737 1.22880828697755473122 5.39796580930602942772
H  -4.30623578081447266896 1.46134611394679203578 5.01940635253112343861
H  -5.78909550991919452656 1.71748339740495525874 4.85294074760039073624
O  7.47482153174193530987 -2.68927817501331345440 -0.05106943122605772656
H  8.13144470871629110320 -2.53901163294919740565 -0.74072734194451583800
H  7.93040395968893019329 -2.42164143292063815949 0.75526628610962387445
O  3.28308700329775504656 0.25360364509140098654 4.83243799257620310073
H  3.23293046070106671053 -0.70364738321965725198 4.72988627853632603859
H  4.06735062240857292437 0.38041984245367749251 5.37852433304727917118
O  -5.07534094216287634538 3.89321310787356278382 4.18836856975482074716
H  -4.61545125675281653344 4.72313013558524108504 4.01777763099195883711
H  -5.96276847180845059881 4.05379896144220630561 3.84771239898420525094
O  1.45025193988893930097 0.85417997595781436360 6.76870280392417633664
H  1.93168607196916974900 0.40658874102402198236 6.06354656102552258545
H  1.57211704817955344460 1.78876006609927284963 6.56604295611061861138
O  -3.44570730021408344612 6.77245127343282860011 2.84439293874128606987
H  -2.83813269621510055885 6.02427171225839241941 2.86542883274777748781
H  -3.25376718262646669189 7.19423259426640626657 1.99904001121358820825
O  1.11816444679303672594 -4.32565546146346058265 5.35386354484279181065
H  1.95414561632925742884 -4.77549682520086538062 5.52161423984008425947
H  1.09148599170977855799 -4.25173814587538156928 4.39303757000971195623
O  5.69783059855965134943 6.18101505111007654136 -0.46750319903466597271
H  5.65619013476971144172 5.71961212919333217286 -1.31292349654496254274
H  5.53829147136253219230 5.48279244561875067632 0.17778318970865775173
O  2.97214826822710387333 -2.54039818672827300006 4.88361746345918756873
H  3.41044717656149964924 -3.18502199179687339736 5.45081785213333347428
H  2.66417877776444944615 -3.06908794922679950545 4.13863156332634751777
O  -2.10927255164601490378 -7.62235687850030174673 0.24960413766669745095
H  -2.13965310933945929150 -6.83056022449032518296 0.79869169392088013026
H  -2.07196267734623429391 -7.27229058048671817005 -0.64784982978685135002
O  -5.95738119874374394414 -2.71946959444894975633 3.84506308661250484349
H  -5.96340446262175483128 -1.86313932192317133207 3.40231682895634879316
H  -6.78868546794184801740 -2.72604528790807476568 4.33317376636849971305
O  -3.06978445874264105342 -3.43806722092029648508 5.47737141699656771010
H  -3.67898439910825914012 -3.83318839658434562523 4.84324465268146386876
H  -3.01545803629152464609 -4.09790447024198378756 6.17810353960445901578
O  -2.10081379495279207958 8.35058361134574589357 0.53683197392943493576
H  -1.61379119656063219068 7.95027358434584385805 1.26616244426441015847
H  -1.73720053490439929611 7.91471854570989652444 -0.24237859138558603966
232
Energy -0.352982
C  0.71130776615267965468 5.00482414727958069278 -0.19561568134503989902
C  -4.13784486848083687960 3.17739904325788646844 0.68958586950538958149
C  -5.17444863619361594687 -1.77393841750645009370 -0.21665732364067985527
C  -0.87384297371556018952 -4.77917785703500719308 -0.63719983279390968178
C  4.05339626216557658012 -3.03094590633414950887 0.11871533019796989827
C  5.04884681101444510176 2.09362244562296995198 -0.58404774284701976850
O  -0.12582766454131008582 3.86927617535052936759 -0.25997818896310981307
O  -4.31294268880552600365 2.22131748928795813569 -0.31126934222609969893
O  -3.82279935479500831974 -1.93070136534545921947 -0.57994872475585967919
O  0.05957377906125960187 -3.73642003081359996841 -0.49167570712067970584
O  3.83098722953195691687 -1.80990987403622982654 -0.51821454630126961849
O  3.72723448493223719069 2.39573122461048049203 -0.94081572077923947273
C  1.36673334302333859824 5.17738746353810963541 -1.57023401112807836633
C  -3.83082197195232687648 4.52142930134692022648 -0.00861440099554997007
C  -5.86696795055896558324 -0.98447702978594020529 -1.33884527976942946381
C  -1.61012054292363893104 -4.57805317038506043303 -1.97033050864001890723
C  3.77326160587263625956 -4.12352537948484876296 -0.93397915008777943058
C  5.59790018606635531029 1.22271087148065049632 -1.73017268935670931462
O  0.41249294889497961636 5.31215455814457548911 -2.59060683846512906925
O  -4.80930237402007687564 4.84002336366017882341 -0.95372222083172941698
O  -5.78582568311042511056 -1.64728677729911021643 -2.57023780092665665720
O  -0.73773614924839026052 -4.55082005612955775575 -3.06837569591808811964
O  4.60494108751403530277 -3.96622878976938064710 -2.04751294360803903771
O  5.51089034068398309074 1.89539249938175013988 -2.95590729180038813695
C  2.21877561653414900888 3.93091745157843019953 -1.83150699881148915082
C  -2.43703341709546794647 4.47105818176657887619 -0.66523693747410916899
C  -5.20475957224313479088 0.39731597485467984310 -1.42006973941786962534
C  -2.38127676782546915391 -3.25302065840269838404 -1.88850281771867911651
C  2.29083818924970739062 -4.03265794157949919452 -1.34196827120711925652
C  4.78374355357373559627 -0.07921556826066936119 -1.75652837800578920380
O  2.95978907701573756839 4.02999105522410960845 -3.02082727297879927164
O  -2.05802748860041750945 5.73612709045024526944 -1.15190620092513951178
O  -5.88058054611833469494 1.22747881263100988569 -2.32923887821376673912
O  -3.19127255102765827743 -3.04457554296714016928 -3.01769493583701819972
O  1.91775986910106821526 -5.08492791013237965814 -2.19872422703288883383
O  5.29532575127568527762 -1.00829228528355963057 -2.67980956684520821298
C  3.21669371315159757785 3.69387210059014980956 -0.69186082520354963421
C  -1.38795551033674868791 3.99685863851938982805 0.35420949320828976070
C  -5.16778178528489551269 1.11072336231340940138 -0.06149807731087994500
C  -3.29265555667351561553 -3.24033602237473994379 -0.65776494554374898005
C  1.38149539713368874061 -4.07715922342435987957 -0.10764441609134994815
C  4.77256626082026613744 -0.75675892258768917564 -0.38217592772181979699
C  2.55256396054111922567 3.77383000390614853359 0.69472730196528931224
C  -1.87658184279176842857 2.62959785738603990524 0.86959042675287956392
C  -4.66995162147994768986 0.17586095834351950229 1.06305633345943961743
C  -2.50721461222832919802 -3.60110911172643000100 0.61297497945516965512
C  1.85352377539312773713 -3.02051341305114995350 0.89710406424008881654
C  4.36577196934167766074 0.23022434129321070473 0.72517060885729955899
O  1.66907167957595858887 4.88692368085399930777 0.81124164518227925846
O  -3.08441362729646728624 2.81665904229748020882 1.56150817661108898271
O  -5.30102626309129565385 -1.10211608872167032835 0.99847272905182959946
O  -1.77848159054403920365 -4.80866574069801888669 0.42941785465123982757
O  3.21002454205557707922 -3.18580015958223006223 1.24237706618064924768
O  5.13256533557428618053 1.42782080075291051280 0.64399374126307928901
C  3.59066688938968736622 3.98044807994619054270 1.80950926664780875619
C  -0.89645500604576855430 1.89000615206742916818 1.74680470073063887071
C  -5.01952751177552602968 0.67278465397587872143 2.47922864883734828112
C  -3.43552903897644679176 -3.83876853711820009707 1.81094492657019912052
C  1.02780373685861881050 -3.05255631487953005276 2.17255950121327856550
C  4.63334413526010635564 -0.33982799439168964728 2.12582775292363868047
O  4.36587551677528651339 5.12623218609484077035 1.58164252684446804409
O  -1.34635178925135901018 1.75509148705510997779 2.99556395054215807150
O  -6.36137881605171440214 1.05950386521692951902 2.58358829301366776932
O  -4.39579169127993640842 -4.82015551998131019928 1.53892222940309930657
O  1.15961021883623871531 -1.88140208249342943958 2.80998166284474804044
O  5.97384117287688454212 -0.72056215651174970738 2.28104190831524888949
H  0.13224704601901035583 5.90028006910375868443 0.06179845111059995011
H  -5.02906546666553655456 3.26944512916705898320 1.32195973471651906372
H  -5.66005365569407548065 -2.74597562429162023179 -0.06617953327339991254
H  -0.37596333589037028711 -5.75629752710907105495 -0.61905323145201962554
H  5.07351651543867454563 -3.11302658157459832822 0.51127945807539909584
H  5.64867625842899290234 3.00541745320616016102 -0.46425305226986962603
H  2.01854436715261886803 6.06436711980527043409 -1.54656827692787923745
H  -3.84115196116301671481 5.32232493097132941529 0.73833328706388945406
H  -6.93123890356386596068 -0.87032777596413046783 -1.10908033325346933040
H  -2.33079476852577860413 -5.39901926729751036049 -2.10116728534805874418
H  3.97846078011181525369 -5.11278456573449080480 -0.51320329701895961438
H  6.65544385173537111910 0.99639818803564983440 -1.56359344794164911718
H  -0.44758121555990915130 5.54738430107657976009 -2.19514784185843891962
H  -4.99862717111371512857 4.04655674109809648797 -1.47877335682354948965
H  -4.87862214394077664537 -1.98151913903146037477 -2.69443521680572883881
H  0.17493009918405943992 -4.73959651674300985746 -2.77483024948440881730
H  4.66410798139857529776 -3.01874084232443751219 -2.26865624666724841063
H  4.64836089514038430792 2.34140600586418878848 -3.00041084851171824255
H  1.54098607645986906967 3.06283758725334953610 -1.87427115174566893963
H  -2.46085499425985743116 3.74585258222391859206 -1.49411825115310925582
H  -4.16019338913851743911 0.25205406388909978865 -1.74488235435312732946
H  -1.65150591338989927159 -2.43341514701178018854 -1.78743297510559906449
H  2.13072481812891645347 -3.06478741669444998408 -1.84269875172082908676
H  3.74246695990955480227 0.17505707611953005842 -2.01366769037927806352
H  2.36276715127818626172 4.34815172937626659433 -3.71377294779213817932
H  -2.81157367692486648281 6.10014489877917043259 -1.64421335474422902756
H  -6.09084081771053398313 0.69029656113981896493 -3.10886487380280840398
H  -2.66909052727224915813 -3.26592044166787065507 -3.80334705793696725706
H  2.58698386619235698447 -5.14749436802668913771 -2.89909019680832802379
H  5.49408568008983611008 -0.53311484335033920701 -3.50050276010526850712
H  4.02144260633307659702 4.43873977070721803528 -0.76158004326704964448
H  -1.33879622191689873212 4.69571097986318886086 1.19890805994787918998
H  -6.17413561112708553225 1.47410559342782954140 0.19007305348557004820
H  -4.09868189285289563628 -3.97092024710498758822 -0.80481580480895953400
H  1.40934724253084797674 -5.07071095687050732437 0.35457577458490985300
H  5.76955099277967686788 -1.16139533236291936369 -0.16672775541378001551
H  1.99677609145850842864 2.83976438078294002310 0.85744948004959942178
H  -2.03432580407637875197 1.97912333649938032565 -0.00933991151863993591
H  -3.58181057813990832983 0.04730107681938962305 0.97286818618691950356
H  -1.81875059986388909472 -2.77601408995254050893 0.84523606295103970165
H  1.70767087459974709063 -2.02632998237252959228 0.44167627387429975183
H  3.29684627784058648103 0.46242992506568020294 0.61428010446683900536
H  4.27684283934914866165 3.13377304722748029064 1.84096947029981894417
H  3.05499576615011703140 4.05618852724160117162 2.76325081195894650676
H  -4.79227452249524610295 -0.15173887546790032488 3.16617738075086840865
H  -4.40898511711660745505 1.53315883400238783807 2.74824849325204567663
H  -3.97170422031588721268 -2.91608560685773054999 2.03992773831826879061
H  -2.81226758138124921516 -4.12058300134711963381 2.66817818299924836012
H  4.35574918530906440850 0.42281946590956998033 2.86286040394648688689
H  4.02684838685082624465 -1.23311937246010971947 2.28407916476905814562
H  3.76320851633328734565 5.88246056441070930276 1.54085400740711886414
H  -6.90736717162538571557 0.28345440568049945496 2.39381796429284854355
H  -3.92388988794632753709 -5.64051884971686945391 1.33424427257381927880
H  6.51908788538571037918 0.06399434512467971903 2.12347478294185876280
C  0.26127497010885958328 -1.58912450335454979999 3.90285766255619792631
H  0.88951598116402896821 -1.18363696298226983572 4.68922404710705720277
H  -0.25570570590976021697 -2.48705044817073872565 4.23160082255163860765
O  0.34924840901390941106 -3.98334818409430990727 2.55358777221210875297
C  -0.58617522855173942453 0.84541176598609990567 3.79519962836908808512
H  -0.99939904616609909205 0.95260657278872973297 4.79784223568303769270
H  0.46887642779151966765 1.11663465419944030188 3.80502509435579794328
O  0.16237772092035962501 1.42572362705916000358 1.35186217851816903313
C  -0.72420064229639979914 -0.57561974826865003330 3.33162747555646809872
O  -1.53646263887656897573 -0.91508322368633943089 2.48476685153011844776
O  5.12016518841188084110 -3.80675011383641637153 3.06030596716629732512
H  4.25869305737139836054 -3.72293329273593265327 2.63580323223809243061
H  5.32062354544112547927 -2.90677049522949593197 3.34175791086644746741
O  -2.07739336173240829453 4.33352014407194108259 3.97883132084589563604
H  -2.35787845356035274946 3.79904446580360399821 3.22714925599252966393
H  -2.03711298227879344935 3.69888340896133804847 4.70338343691660476509
O  1.20861243434111176320 0.84716361011117102819 -2.45015501381522371460
H  1.47563441383520377315 -0.07837486559086279114 -2.48810045468183282935
H  0.38317580702480413812 0.86359757474617560025 -2.94789627442596335882
O  2.57954538705013813882 -5.94619569675729753300 2.93431070549187023033
H  2.65596581105262918854 -6.24703290143068468154 3.84700942856533290026
H  1.73718974537481085640 -5.47753390440847809373 2.92185435155271555629
O  7.29620667321037252862 3.05100343268505413974 1.44429872370218603805
H  7.01503845224758304511 2.20928903027048573193 1.06770429954158507790
H  6.76420353927246242876 3.12816771772275625807 2.24453643964550542123
O  -1.05493549403350583837 -0.20175112183925833498 -1.90578485440609046719
H  -1.23685437313731783071 -0.42092813198437378785 -0.98479135623696145707
H  -1.90977621469210645522 0.09335581160641551191 -2.23973290958756754421
O  0.40789638124594512769 4.85382894434815526097 3.72543848859718496058
H  0.01368879175008975990 4.49477322989597638525 2.92229377291796899030
H  0.03071683465176650030 4.30767446854185553917 4.42459007560179617968
O  1.21348797977724287556 -3.47827765770486418972 -4.92319011099401926401
H  1.25561636499323192595 -2.59985245536667353150 -4.52827692170230822200
H  0.26721009973673559568 -3.65151120294881614825 -4.98572311005507007309
O  -3.37744983416910171670 -0.80244443854341140909 5.02801316157645405980
H  -3.98342569205590901760 -0.66501468563138288470 5.76508058501425590947
H  -2.99943270180925969370 -1.67108239055839913334 5.20671184479757620522
O  -0.29409470751137145594 7.08250446257944599182 2.34081583065246645603
H  0.51752120379981159104 6.67959335556119793154 2.01171961923672348860
H  -0.39475462152669771321 6.69967646414601958327 3.21983367390093944138
O  -3.43295572661918013679 2.81287833768132600198 -3.73637328428637882638
H  -3.86438062166725604385 3.40821766400290560028 -4.35991615409412336390
H  -4.15948600299494675170 2.49865613529479757560 -3.18611859011283016230
O  1.35024310655608803522 2.97177396900470869312 -4.84512104697737200354
H  1.75484819780610545870 2.33269820340351374810 -4.24742635068489171601
H  0.40538034146273999037 2.85284786628234776629 -4.69527779335967210272
O  0.18322687505456614065 -6.60190669290909060152 2.15079632328284464649
H  -0.09082779438799913618 -5.87151553977062601319 1.58441759346140953468
H  -0.37141095595953899089 -7.33395350912017729428 1.85780076238388747178
O  2.56947934761413288030 -7.05085454762334773449 0.50028496151401569136
H  2.21567125483624716153 -7.92918499809157051317 0.31940511939356591720
H  2.62946282806246500741 -7.02634175534128413432 1.46213898812676346139
O  0.58627963217273637575 -7.34812615275521352487 -2.33549050516169032221
H  1.53648087109563014074 -7.23569529413239376225 -2.45312966360428363899
H  0.21408734174046861742 -6.97478527771062140062 -3.14261599316652207037
O  0.89019192326940954629 -0.81060957508683373351 -5.28435931750822174280
H  1.33739023672534007581 -0.02176180210095902262 -4.95710571016715118020
H  0.39779649937544075966 -0.48928159775481222526 -6.04833388575988006863
O  -7.04956873861824728777 -3.96410725474136516056 2.00995718922721300359
H  -7.15254410147000818654 -4.65493643898663123082 1.34549261014047272234
H  -6.11654403109737643263 -4.01710470963826971058 2.24663889184350029637
O  -2.39204768770303655145 0.15717982328363380717 -4.46632338538250728277
H  -1.53045049202667371446 0.00772474470296939664 -4.87212569674781104112
H  -3.01349931175671681416 -0.09387819900866259393 -5.15923738569354028982
O  3.14332620986744482039 -1.62109111580771458883 -4.37889695172932036371
H  3.95613356745356270494 -1.99669242749930186953 -4.73615024860673283769
H  3.41939840053587484903 -1.25197539084039011215 -3.53219760098863355680
O  -2.67562507398253446311 -2.72429854713833474733 -5.71877295514880223948
H  -2.04201429833394287883 -2.02689782699283638223 -5.51497971545993515008
H  -3.48775396947860238939 -2.24134700532619701718 -5.90999672141472753850
O  -5.16179463953493655737 1.22880828697755473122 5.39796580930602942772
H  -4.30623578081447266896 1.46134611394679203578 5.01940635253112343861
H  -5.78909550991919452656 1.71748339740495525874 4.85294074760039073624
O  7.47482153174193530987 -2.68927817501331345440 -0.05106943122605772656
H  8.13144470871629110320 -2.53901163294919740565 -0.74072734194451583800
H  7.93040395968893019329 -2.42164143292063815949 0.75526628610962387445
O  3.28308700329775504656 0.25360364509140098654 4.83243799257620310073
H  3.23293046070106671053 -0.70364738321965725198 4.72988627853632603859
H  4.06735062240857292437 0.38041984245367749251 5.37852433304727917118
O  -5.07534094216287634538 3.89321310787356278382 4.18836856975482074716
H  -4.61545125675281653344 4.72313013558524108504 4.01777763099195883711
H  -5.96276847180845059881 4.05379896144220630561 3.84771239898420525094
O  1.45025193988893930097 0.85417997595781436360 6.76870280392417633664
H  1.93168607196916974900 0.40658874102402198236 6.06354656102552258545
H  1.57211704817955344460 1.78876006609927284963 6.56604295611061861138
O  -3.44570730021408344612 6.77245127343282860011 2.84439293874128606987
H  -2.83813269621510055885 6.02427171225839241941 2.86542883274777748781
H  -3.25376718262646669189 7.19423259426640626657 1.99904001121358820825
O  1.11816444679303672594 -4.32565546146346058265 5.35386354484279181065
H  1.95414561632925742884 -4.77549682520086538062 5.52161423984008425947
H  1.09148599170977855799 -4.25173814587538156928 4.39303757000971195623
O  5.69783059855965134943 6.18101505111007654136 -0.46750319903466597271
H  5.65619013476971144172 5.71961212919333217286 -1.31292349654496254274
H  5.53829147136253219230 5.48279244561875067632 0.17778318970865775173
O  2.97214826822710387333 -2.54039818672827300006 4.88361746345918756873
H  3.41044717656149964924 -3.18502199179687339736 5.45081785213333347428
H  2.66417877776444944615 -3.06908794922679950545 4.13863156332634751777
O  -2.10927255164601490378 -7.62235687850030174673 0.24960413766669745095
H  -2.13965310933945929150 -6.83056022449032518296 0.79869169392088013026
H  -2.07196267734623429391 -7.27229058048671817005 -0.64784982978685135002
O  -5.95738119874374394414 -2.71946959444894975633 3.84506308661250484349
H  -5.96340446262175483128 -1.86313932192317133207 3.40231682895634879316
H  -6.78868546794184801740 -2.72604528790807476568 4.33317376636849971305
O  -3.06978445874264105342 -3.43806722092029648508 5.47737141699656771010
H  -3.67898439910825914012 -3.83318839658434562523 4.84324465268146386876
H  -3.01545803629152464609 -4.09790447024198378756 6.17810353960445901578
O  -2.10081379495279207958 8.35058361134574589357 0.53683197392943493576
H  -1.61379119656063196864 7.95027358434584385805 1.26616244426441015847
H  -1.73720053490439929611 7.91471854570989652444 -0.24237859138558603966
O  -8.42745239344178287411 -1.03324261877772083373 1.40939887423460197269
H  -8.74522024018301102899 -1.47272331779698473220 0.61237793675094354118
H  -8.15702876973042201314 -1.76432351012953780867 1.97663238652241091131
235
Energy -0.127382
C  0.71130776615267965468 5.00482414727958069278 -0.19561568134503989902
C  -4.13784486848083687960 3.17739904325788646844 0.68958586950538958149
C  -5.17444863619361594687 -1.77393841750645009370 -0.21665732364067985527
C  -0.87384297371556018952 -4.77917785703500719308 -0.63719983279390968178
C  4.05339626216557658012 -3.03094590633414950887 0.11871533019796989827
C  5.04884681101444510176 2.09362244562296995198 -0.58404774284701976850
O  -0.12582766454131008582 3.86927617535052936759 -0.25997818896310981307
O  -4.31294268880552600365 2.22131748928795813569 -0.31126934222609969893
O  -3.82279935479500831974 -1.93070136534545921947 -0.57994872475585967919
O  0.05957377906125960187 -3.73642003081359996841 -0.49167570712067970584
O  3.83098722953195691687 -1.80990987403622982654 -0.51821454630126961849
O  3.72723448493223719069 2.39573122461048049203 -0.94081572077923947273
C  1.36673334302333859824 5.17738746353810963541 -1.57023401112807836633
C  -3.83082197195232687648 4.52142930134692022648 -0.00861440099554997007
C  -5.86696795055896558324 -0.98447702978594020529 -1.33884527976942946381
C  -1.61012054292363893104 -4.57805317038506043303 -1.97033050864001890723
C  3.77326160587263625956 -4.12352537948484876296 -0.93397915008777943058
C  5.59790018606635531029 1.22271087148065049632 -1.73017268935670931462
O  0.41249294889497961636 5.31215455814457548911 -2.59060683846512906925
O  -4.80930237402007687564 4.84002336366017882341 -0.95372222083172941698
O  -5.78582568311042511056 -1.64728677729911021643 -2.57023780092665665720
O  -0.73773614924839026052 -4.55082005612955775575 -3.06837569591808811964
O  4.60494108751403530277 -3.96622878976938064710 -2.04751294360803903771
O  5.51089034068398309074 1.89539249938175013988 -2.95590729180038813695
C  2.21877561653414900888 3.93091745157843019953 -1.83150699881148915082
C  -2.43703341709546794647 4.47105818176657887619 -0.66523693747410916899
C  -5.20475957224313479088 0.39731597485467984310 -1.42006973941786962534
C  -2.38127676782546915391 -3.25302065840269838404 -1.88850281771867911651
C  2.29083818924970739062 -4.03265794157949919452 -1.34196827120711925652
C  4.78374355357373559627 -0.07921556826066936119 -1.75652837800578920380
O  2.95978907701573756839 4.02999105522410960845 -3.02082727297879927164
O  -2.05802748860041750945 5.73612709045024526944 -1.15190620092513951178
O  -5.88058054611833469494 1.22747881263100988569 -2.32923887821376673912
O  -3.19127255102765827743 -3.04457554296714016928 -3.01769493583701819972
O  1.91775986910106821526 -5.08492791013237965814 -2.19872422703288883383
O  5.29532575127568527762 -1.00829228528355963057 -2.67980956684520821298
C  3.21669371315159757785 3.69387210059014980956 -0.69186082520354963421
C  -1.38795551033674868791 3.99685863851938982805 0.35420949320828976070
C  -5.16778178528489551269 1.11072336231340940138 -0.06149807731087994500
C  -3.29265555667351561553 -3.24033602237473994379 -0.65776494554374898005
C  1.38149539713368874061 -4.07715922342435987957 -0.10764441609134994815
C  4.77256626082026613744 -0.75675892258768917564 -0.38217592772181979699
C  2.55256396054111922567 3.77383000390614853359 0.69472730196528931224
C  -1.87658184279176842857 2.62959785738603990524 0.86959042675287956392
C  -4.66995162147994768986 0.17586095834351950229 1.06305633345943961743
C  -2.50721461222832919802 -3.60110911172643000100 0.61297497945516965512
C  1.85352377539312773713 -3.02051341305114995350 0.89710406424008881654
C  4.36577196934167766074 0.23022434129321070473 0.72517060885729955899
O  1.66907167957595858887 4.88692368085399930777 0.81124164518227925846
O  -3.08441362729646728624 2.81665904229748020882 1.56150817661108898271
O  -5.30102626309129565385 -1.10211608872167032835 0.99847272905182959946
O  -1.77848159054403920365 -4.80866574069801888669 0.42941785465123982757
O  3.21002454205557707922 -3.18580015958223006223 1.24237706618064924768
O  5.13256533557428618053 1.42782080075291051280 0.64399374126307928901
C  3.59066688938968736622 3.98044807994619054270 1.80950926664780875619
C  -0.89645500604576855430 1.89000615206742916818 1.74680470073063887071
C  -5.01952751177552602968 0.67278465397587872143 2.47922864883734828112
C  -3.43552903897644679176 -3.83876853711820009707 1.81094492657019912052
C  1.02780373685861881050 -3.05255631487953005276 2.17255950121327856550
C  4.63334413526010635564 -0.33982799439168964728 2.12582775292363868047
O  4.36587551677528651339 5.12623218609484077035 1.58164252684446804409
O  -1.34635178925135901018 1.75509148705510997779 2.99556395054215807150
O  -6.36137881605171440214 1.05950386521692951902 2.58358829301366776932
O  -4.39579169127993640842 -4.82015551998131019928 1.53892222940309930657
O  1.15961021883623871531 -1.88140208249342943958 2.80998166284474804044
O  5.97384117287688454212 -0.72056215651174970738 2.28104190831524888949
H  0.13224704601901035583 5.90028006910375868443 0.06179845111059995011
H  -5.02906546666553655456 3.26944512916705898320 1.32195973471651906372
H  -5.66005365569407548065 -2.74597562429162023179 -0.06617953327339991254
H  -0.37596333589037028711 -5.75629752710907105495 -0.61905323145201962554
H  5.07351651543867454563 -3.11302658157459832822 0.51127945807539909584
H  5.64867625842899290234 3.00541745320616016102 -0.46425305226986962603
H  2.01854436715261886803 6.06436711980527043409 -1.54656827692787923745
H  -3.84115196116301671481 5.32232493097132941529 0.73833328706388945406
H  -6.93123890356386596068 -0.87032777596413046783 -1.10908033325346933040
H  -2.33079476852577860413 -5.39901926729751036049 -2.10116728534805874418
H  3.97846078011181525369 -5.11278456573449080480 -0.51320329701895961438
H  6.65544385173537111910 0.99639818803564983440 -1.56359344794164911718
H  -0.44758121555990915130 5.54738430107657976009 -2.19514784185843891962
H  -4.99862717111371512857 4.04655674109809648797 -1.47877335682354948965
H  -4.87862214394077664537 -1.98151913903146037477 -2.69443521680572883881
H  0.17493009918405943992 -4.73959651674300985746 -2.77483024948440881730
H  4.66410798139857529776 -3.01874084232443751219 -2.26865624666724841063
H  4.64836089514038430792 2.34140600586418878848 -3.00041084851171824255
H  1.54098607645986906967 3.06283758725334953610 -1.87427115174566893963
H  -2.46085499425985743116 3.74585258222391859206 -1.49411825115310925582
H  -4.16019338913851743911 0.25205406388909978865 -1.74488235435312732946
H  -1.65150591338989927159 -2.43341514701178018854 -1.78743297510559906449
H  2.13072481812891645347 -3.06478741669444998408 -1.84269875172082908676
H  3.74246695990955480227 0.17505707611953005842 -2.01366769037927806352
H  2.36276715127818626172 4.34815172937626659433 -3.71377294779213817932
H  -2.81157367692486648281 6.10014489877917043259 -1.64421335474422902756
H  -6.09084081771053398313 0.69029656113981896493 -3.10886487380280840398
H  -2.66909052727224915813 -3.26592044166787065507 -3.80334705793696725706
H  2.58698386619235698447 -5.14749436802668913771 -2.89909019680832802379
H  5.49408568008983611008 -0.53311484335033920701 -3.50050276010526850712
H  4.02144260633307659702 4.43873977070721803528 -0.76158004326704964448
H  -1.33879622191689873212 4.69571097986318886086 1.19890805994787918998
H  -6.17413561112708553225 1.47410559342782954140 0.19007305348557004820
H  -4.09868189285289563628 -3.97092024710498758822 -0.80481580480895953400
H  1.40934724253084797674 -5.07071095687050732437 0.35457577458490985300
H  5.76955099277967686788 -1.16139533236291936369 -0.16672775541378001551
H  1.99677609145850842864 2.83976438078294002310 0.85744948004959942178
H  -2.03432580407637875197 1.97912333649938032565 -0.00933991151863993591
H  -3.58181057813990832983 0.04730107681938962305 0.97286818618691950356
H  -1.81875059986388909472 -2.77601408995254050893 0.84523606295103970165
H  1.70767087459974709063 -2.02632998237252959228 0.44167627387429975183
H  3.29684627784058648103 0.46242992506568020294 0.61428010446683900536
H  4.27684283934914866165 3.13377304722748029064 1.84096947029981894417
H  3.05499576615011703140 4.05618852724160117162 2.76325081195894650676
H  -4.79227452249524610295 -0.15173887546790032488 3.16617738075086840865
H  -4.40898511711660745505 1.53315883400238783807 2.74824849325204567663
H  -3.97170422031588721268 -2.91608560685773054999 2.03992773831826879061
H  -2.81226758138124921516 -4.12058300134711963381 2.66817818299924836012
H  4.35574918530906440850 0.42281946590956998033 2.86286040394648688689
H  4.02684838685082624465 -1.23311937246010971947 2.28407916476905814562
H  3.76320851633328734565 5.88246056441070930276 1.54085400740711886414
H  -6.90736717162538571557 0.28345440568049945496 2.39381796429284854355
H  -3.92388988794632753709 -5.64051884971686945391 1.33424427257381927880
H  6.51908788538571037918 0.06399434512467971903 2.12347478294185876280
C  0.26127497010885958328 -1.58912450335454979999 3.90285766255619792631
H  0.88951598116402896821 -1.18363696298226983572 4.68922404710705720277
H  -0.25570570590976021697 -2.48705044817073872565 4.23160082255163860765
O  0.34924840901390941106 -3.98334818409430990727 2.55358777221210875297
C  -0.58617522855173942453 0.84541176598609990567 3.79519962836908808512
H  -0.99939904616609909205 0.95260657278872973297 4.79784223568303769270
H  0.46887642779151966765 1.11663465419944030188 3.80502509435579794328
O  0.16237772092035962501 1.42572362705916000358 1.35186217851816903313
C  -0.72420064229639979914 -0.57561974826865003330 3.33162747555646809872
O  -1.53646263887656897573 -0.91508322368633943089 2.48476685153011844776
O  5.12016518841188084110 -3.80675011383641637153 3.06030596716629732512
H  4.25869305737139836054 -3.72293329273593265327 2.63580323223809243061
H  5.32062354544112547927 -2.90677049522949593197 3.34175791086644746741
O  -2.07739336173240829453 4.33352014407194108259 3.97883132084589563604
H  -2.35787845356035274946 3.79904446580360399821 3.22714925599252966393
H  -2.03711298227879344935 3.69888340896133804847 4.70338343691660476509
O  1.20861243434111176320 0.84716361011117102819 -2.45015501381522371460
H  1.47563441383520377315 -0.07837486559086279114 -2.48810045468183282935
H  0.38317580702480413812 0.86359757474617560025 -2.94789627442596335882
O  2.57954538705013813882 -5.94619569675729753300 2.93431070549187023033
H  2.65596581105262918854 -6.24703290143068468154 3.84700942856533290026
H  1.73718974537481085640 -5.47753390440847809373 2.92185435155271555629
O  7.29620667321037252862 3.05100343268505413974 1.44429872370218603805
H  7.01503845224758304511 2.20928903027048573193 1.06770429954158507790
H  6.76420353927246242876 3.12816771772275625807 2.24453643964550542123
O  -1.05493549403350583837 -0.20175112183925833498 -1.90578485440609046719
H  -1.23685437313731783071 -0.42092813198437378785 -0.98479135623696145707
H  -1.90977621469210645522 0.09335581160641551191 -2.23973290958756754421
O  0.40789638124594512769 4.85382894434815526097 3.72543848859718496058
H  0.01368879175008975990 4.49477322989597638525 2.92229377291796899030
H  0.03071683465176650030 4.30767446854185553917 4.42459007560179617968
O  1.21348797977724287556 -3.47827765770486418972 -4.92319011099401926401
H  1.25561636499323192595 -2.59985245536667353150 -4.52827692170230822200
H  0.26721009973673559568 -3.65151120294881614825 -4.98572311005507007309
O  -3.37744983416910171670 -0.80244443854341140909 5.02801316157645405980
H  -3.98342569205590901760 -0.66501468563138288470 5.76508058501425590947
H  -2.99943270180925969370 -1.67108239055839913334 5.20671184479757620522
O  -0.29409470751137145594 7.08250446257944599182 2.34081583065246645603
H  0.51752120379981159104 6.67959335556119793154 2.01171961923672348860
H  -0.39475462152669771321 6.69967646414601958327 3.21983367390093944138
O  -3.43295572661918013679 2.81287833768132600198 -3.73637328428637882638
H  -3.86438062166725604385 3.40821766400290560028 -4.35991615409412336390
H  -4.15948600299494675170 2.49865613529479757560 -3.18611859011283016230
O  1.35024310655608803522 2.97177396900470869312 -4.84512104697737200354
H  1.75484819780610545870 2.33269820340351374810 -4.24742635068489171601
H  0.40538034146273999037 2.85284786628234776629 -4.69527779335967210272
O  0.18322687505456614065 -6.60190669290909060152 2.15079632328284464649
H  -0.09082779438799913618 -5.87151553977062601319 1.58441759346140953468
H  -0.37141095595953899089 -7.33395350912017729428 1.85780076238388747178
O  2.56947934761413288030 -7.05085454762334773449 0.50028496151401569136
H  2.21567125483624716153 -7.92918499809157051317 0.31940511939356591720
H  2.62946282806246500741 -7.02634175534128413432 1.46213898812676346139
O  0.58627963217273637575 -7.34812615275521352487 -2.33549050516169032221
H  1.53648087109563014074 -7.23569529413239376225 -2.45312966360428363899
H  0.21408734174046861742 -6.97478527771062140062 -3.14261599316652207037
O  0.89019192326940954629 -0.81060957508683373351 -5.28435931750822174280
H  1.33739023672534007581 -0.02176180210095902262 -4.95710571016715118020
H  0.39779649937544075966 -0.48928159775481222526 -6.04833388575988006863
O  -7.04956873861824728777 -3.96410725474136516056 2.00995718922721300359
H  -7.15254410147000818654 -4.65493643898663123082 1.34549261014047272234
H  -6.11654403109737643263 -4.01710470963826971058 2.24663889184350029637
O  -2.39204768770303655145 0.15717982328363380717 -4.46632338538250728277
H  -1.53045049202667371446 0.00772474470296939664 -4.87212569674781104112
H  -3.01349931175671681416 -0.09387819900866259393 -5.15923738569354028982
O  3.14332620986744482039 -1.62109111580771458883 -4.37889695172932036371
H  3.95613356745356270494 -1.99669242749930186953 -4.73615024860673283769
H  3.41939840053587484903 -1.25197539084039011215 -3.53219760098863355680
O  -2.67562507398253446311 -2.72429854713833474733 -5.71877295514880223948
H  -2.04201429833394287883 -2.02689782699283638223 -5.51497971545993515008
H  -3.48775396947860238939 -2.24134700532619701718 -5.90999672141472753850
O  -5.16179463953493655737 1.22880828697755473122 5.39796580930602942772
H  -4.30623578081447266896 1.46134611394679203578 5.01940635253112343861
H  -5.78909550991919452656 1.71748339740495525874 4.85294074760039073624
O  7.47482153174193530987 -2.68927817501331345440 -0.05106943122605772656
H  8.13144470871629110320 -2.53901163294919740565 -0.74072734194451583800
H  7.93040395968893019329 -2.42164143292063815949 0.75526628610962387445
O  3.28308700329775504656 0.25360364509140098654 4.83243799257620310073
H  3.23293046070106671053 -0.70364738321965725198 4.72988627853632603859
H  4.06735062240857292437 0.38041984245367749251 5.37852433304727917118
O  -5.07534094216287634538 3.89321310787356278382 4.18836856975482074716
H  -4.61545125675281653344 4.72313013558524108504 4.01777763099195883711
H  -5.96276847180845059881 4.05379896144220630561 3.84771239898420525094
O  1.45025193988893930097 0.85417997595781436360 6.76870280392417633664
H  1.93168607196916974900 0.40658874102402198236 6.06354656102552258545
H  1.57211704817955344460 1.78876006609927284963 6.56604295611061861138
O  -3.44570730021408344612 6.77245127343282860011 2.84439293874128606987
H  -2.83813269621510055885 6.02427171225839241941 2.86542883274777748781
H  -3.25376718262646669189 7.19423259426640626657 1.99904001121358820825
O  1.11816444679303672594 -4.32565546146346058265 5.35386354484279181065
H  1.95414561632925742884 -4.77549682520086538062 5.52161423984008425947
H  1.09148599170977855799 -4.25173814587538156928 4.39303757000971195623
O  5.69783059855965134943 6.18101505111007654136 -0.46750319903466597271
H  5.65619013476971144172 5.71961212919333217286 -1.31292349654496254274
H  5.53829147136253219230 5.48279244561875067632 0.17778318970865775173
O  2.97214826822710387333 -2.54039818672827300006 4.88361746345918756873
H  3.41044717656149964924 -3.18502199179687339736 5.45081785213333347428
H  2.66417877776444944615 -3.06908794922679950545 4.13863156332634751777
O  -2.10927255164601490378 -7.62235687850030174673 0.24960413766669745095
H  -2.13965310933945929150 -6.83056022449032518296 0.79869169392088013026
H  -2.07196267734623429391 -7.27229058048671817005 -0.64784982978685135002
O  -5.95738119874374394414 -2.71946959444894975633 3.84506308661250484349
H  -5.96340446262175483128 -1.86313932192317133207 3.40231682895634879316
H  -6.78868546794184801740 -2.72604528790807476568 4.33317376636849971305
O  -3.06978445874264105342 -3.43806722092029648508 5.47737141699656771010
H  -3.67898439910825914012 -3.83318839658434562523 4.84324465268146386876
H  -3.01545803629152464609 -4.09790447024198378756 6.17810353960445901578
O  -2.10081379495279207958 8.35058361134574589357 0.53683197392943493576
H  -1.61379119656063196864 7.95027358434584385805 1.26616244426441015847
H  -1.73720053490439929611 7.91471854570989652444 -0.24237859138558603966
O  -8.42745239344178287411 -1.03324261877772083373 1.40939887423460175064
H  -8.74522024018301102899 -1.47272331779698451015 0.61237793675094354118
H  -8.15702876973042201314 -1.76432351012953780867 1.97663238652241024518
O  3.87943375610813978582 -4.37462418223442295329 -4.97668615011491155542
H  4.00479093303440514262 -4.03851172306594285999 -4.08188111157012123442
H  3.18345245043729807577 -3.81081113013313599325 -5.33317868560514440901
238
Energy 0.529908
C  0.71130776615267965468 5.00482414727958069278 -0.19561568134503989902
C  -4.13784486848083687960 3.17739904325788646844 0.68958586950538958149
C  -5.17444863619361594687 -1.77393841750645009370 -0.21665732364067985527
C  -0.87384297371556018952 -4.77917785703500719308 -0.63719983279390968178
C  4.05339626216557658012 -3.03094590633414950887 0.11871533019796989827
C  5.04884681101444510176 2.09362244562296995198 -0.58404774284701976850
O  -0.12582766454131008582 3.86927617535052936759 -0.25997818896310981307
O  -4.31294268880552600365 2.22131748928795813569 -0.31126934222609969893
O  -3.82279935479500831974 -1.93070136534545921947 -0.57994872475585967919
O  0.05957377906125960187 -3.73642003081359996841 -0.49167570712067970584
O  3.83098722953195691687 -1.80990987403622982654 -0.51821454630126961849
O  3.72723448493223719069 2.39573122461048049203 -0.94081572077923947273
C  1.36673334302333859824 5.17738746353810963541 -1.57023401112807836633
C  -3.83082197195232687648 4.52142930134692022648 -0.00861440099554997007
C  -5.86696795055896558324 -0.98447702978594020529 -1.33884527976942946381
C  -1.61012054292363893104 -4.57805317038506043303 -1.97033050864001890723
C  3.77326160587263625956 -4.12352537948484876296 -0.93397915008777943058
C  5.59790018606635531029 1.22271087148065049632 -1.73017268935670931462
O  0.41249294889497961636 5.31215455814457548911 -2.59060683846512906925
O  -4.80930237402007687564 4.84002336366017882341 -0.95372222083172941698
O  -5.78582568311042511056 -1.64728677729911021643 -2.57023780092665665720
O  -0.73773614924839026052 -4.55082005612955775575 -3.06837569591808811964
O  4.60494108751403530277 -3.96622878976938064710 -2.04751294360803903771
O  5.51089034068398309074 1.89539249938175013988 -2.95590729180038813695
C  2.21877561653414900888 3.93091745157843019953 -1.83150699881148915082
C  -2.43703341709546794647 4.47105818176657887619 -0.66523693747410916899
C  -5.20475957224313479088 0.39731597485467984310 -1.42006973941786962534
C  -2.38127676782546915391 -3.25302065840269838404 -1.88850281771867911651
C  2.29083818924970739062 -4.03265794157949919452 -1.34196827120711925652
C  4.78374355357373559627 -0.07921556826066936119 -1.75652837800578920380
O  2.95978907701573756839 4.02999105522410960845 -3.02082727297879927164
O  -2.05802748860041750945 5.73612709045024526944 -1.15190620092513951178
O  -5.88058054611833469494 1.22747881263100988569 -2.32923887821376673912
O  -3.19127255102765827743 -3.04457554296714016928 -3.01769493583701819972
O  1.91775986910106821526 -5.08492791013237965814 -2.19872422703288883383
O  5.29532575127568527762 -1.00829228528355963057 -2.67980956684520821298
C  3.21669371315159757785 3.69387210059014980956 -0.69186082520354963421
C  -1.38795551033674868791 3.99685863851938982805 0.35420949320828976070
C  -5.16778178528489551269 1.11072336231340940138 -0.06149807731087994500
C  -3.29265555667351561553 -3.24033602237473994379 -0.65776494554374898005
C  1.38149539713368874061 -4.07715922342435987957 -0.10764441609134994815
C  4.77256626082026613744 -0.75675892258768917564 -0.38217592772181979699
C  2.55256396054111922567 3.77383000390614853359 0.69472730196528931224
C  -1.87658184279176842857 2.62959785738603990524 0.86959042675287956392
C  -4.66995162147994768986 0.17586095834351950229 1.06305633345943961743
C  -2.50721461222832919802 -3.60110911172643000100 0.61297497945516965512
C  1.85352377539312773713 -3.02051341305114995350 0.89710406424008881654
C  4.36577196934167766074 0.23022434129321070473 0.72517060885729955899
O  1.66907167957595858887 4.88692368085399930777 0.81124164518227925846
O  -3.08441362729646728624 2.81665904229748020882 1.56150817661108898271
O  -5.30102626309129565385 -1.10211608872167032835 0.99847272905182959946
O  -1.77848159054403920365 -4.80866574069801888669 0.42941785465123982757
O  3.21002454205557707922 -3.18580015958223006223 1.24237706618064924768
O  5.13256533557428618053 1.42782080075291051280 0.64399374126307928901
C  3.59066688938968736622 3.98044807994619054270 1.80950926664780875619
C  -0.89645500604576855430 1.89000615206742916818 1.74680470073063887071
C  -5.01952751177552602968 0.67278465397587872143 2.47922864883734828112
C  -3.43552903897644679176 -3.83876853711820009707 1.81094492657019912052
C  1.02780373685861881050 -3.05255631487953005276 2.17255950121327856550
C  4.63334413526010635564 -0.33982799439168964728 2.12582775292363868047
O  4.36587551677528651339 5.12623218609484077035 1.58164252684446804409
O  -1.34635178925135901018 1.75509148705510997779 2.99556395054215807150
O  -6.36137881605171440214 1.05950386521692951902 2.58358829301366776932
O  -4.39579169127993640842 -4.82015551998131019928 1.53892222940309930657
O  1.15961021883623871531 -1.88140208249342943958 2.80998166284474804044
O  5.97384117287688454212 -0.72056215651174970738 2.28104190831524888949
H  0.13224704601901035583 5.90028006910375868443 0.06179845111059995011
H  -5.02906546666553655456 3.26944512916705898320 1.32195973471651906372
H  -5.66005365569407548065 -2.74597562429162023179 -0.06617953327339991254
H  -0.37596333589037028711 -5.75629752710907105495 -0.61905323145201962554
H  5.07351651543867454563 -3.11302658157459832822 0.51127945807539909584
H  5.64867625842899290234 3.00541745320616016102 -0.46425305226986962603
H  2.01854436715261886803 6.06436711980527043409 -1.54656827692787923745
H  -3.84115196116301671481 5.32232493097132941529 0.73833328706388945406
H  -6.93123890356386596068 -0.87032777596413046783 -1.10908033325346933040
H  -2.33079476852577860413 -5.39901926729751036049 -2.10116728534805874418
H  3.97846078011181525369 -5.11278456573449080480 -0.51320329701895961438
H  6.65544385173537111910 0.99639818803564983440 -1.56359344794164911718
H  -0.44758121555990915130 5.54738430107657976009 -2.19514784185843891962
H  -4.99862717111371512857 4.04655674109809648797 -1.47877335682354948965
H  -4.87862214394077664537 -1.98151913903146037477 -2.69443521680572883881
H  0.17493009918405943992 -4.73959651674300985746 -2.77483024948440881730
H  4.66410798139857529776 -3.01874084232443751219 -2.26865624666724841063
H  4.64836089514038430792 2.34140600586418878848 -3.00041084851171824255
H  1.54098607645986906967 3.06283758725334953610 -1.87427115174566893963
H  -2.46085499425985743116 3.74585258222391859206 -1.49411825115310925582
H  -4.16019338913851743911 0.25205406388909978865 -1.74488235435312732946
H  -1.65150591338989927159 -2.43341514701178018854 -1.78743297510559906449
H  2.13072481812891645347 -3.06478741669444998408 -1.84269875172082908676
H  3.74246695990955480227 0.17505707611953005842 -2.01366769037927806352
H  2.36276715127818626172 4.34815172937626659433 -3.71377294779213817932
H  -2.81157367692486648281 6.10014489877917043259 -1.64421335474422902756
H  -6.09084081771053398313 0.69029656113981896493 -3.10886487380280840398
H  -2.66909052727224915813 -3.26592044166787065507 -3.80334705793696725706
H  2.58698386619235698447 -5.14749436802668913771 -2.89909019680832802379
H  5.49408568008983611008 -0.53311484335033920701 -3.50050276010526850712
H  4.02144260633307659702 4.43873977070721803528 -0.76158004326704964448
H  -1.33879622191689873212 4.69571097986318886086 1.19890805994787918998
H  -6.17413561112708553225 1.47410559342782954140 0.19007305348557004820
H  -4.09868189285289563628 -3.97092024710498758822 -0.80481580480895953400
H  1.40934724253084797674 -5.07071095687050732437 0.35457577458490985300
H  5.76955099277967686788 -1.16139533236291936369 -0.16672775541378001551
H  1.99677609145850842864 2.83976438078294002310 0.85744948004959942178
H  -2.03432580407637875197 1.97912333649938032565 -0.00933991151863993591
H  -3.58181057813990832983 0.04730107681938962305 0.97286818618691950356
H  -1.81875059986388909472 -2.77601408995254050893 0.84523606295103970165
H  1.70767087459974709063 -2.02632998237252959228 0.44167627387429975183
H  3.29684627784058648103 0.46242992506568020294 0.61428010446683900536
H  4.27684283934914866165 3.13377304722748029064 1.84096947029981894417
H  3.05499576615011703140 4.05618852724160117162 2.76325081195894650676
H  -4.79227452249524610295 -0.15173887546790032488 3.16617738075086840865
H  -4.40898511711660745505 1.53315883400238783807 2.74824849325204567663
H  -3.97170422031588721268 -2.91608560685773054999 2.03992773831826879061
H  -2.81226758138124921516 -4.12058300134711963381 2.66817818299924836012
H  4.35574918530906440850 0.42281946590956998033 2.86286040394648688689
H  4.02684838685082624465 -1.23311937246010971947 2.28407916476905814562
H  3.76320851633328734565 5.88246056441070930276 1.54085400740711886414
H  -6.90736717162538571557 0.28345440568049945496 2.39381796429284854355
H  -3.92388988794632753709 -5.64051884971686945391 1.33424427257381927880
H  6.51908788538571037918 0.06399434512467971903 2.12347478294185876280
C  0.26127497010885958328 -1.58912450335454979999 3.90285766255619792631
H  0.88951598116402896821 -1.18363696298226983572 4.68922404710705720277
H  -0.25570570590976021697 -2.48705044817073872565 4.23160082255163860765
O  0.34924840901390941106 -3.98334818409430990727 2.55358777221210875297
C  -0.58617522855173942453 0.84541176598609990567 3.79519962836908808512
H  -0.99939904616609909205 0.95260657278872973297 4.79784223568303769270
H  0.46887642779151966765 1.11663465419944030188 3.80502509435579794328
O  0.16237772092035962501 1.42572362705916000358 1.35186217851816903313
C  -0.72420064229639979914 -0.57561974826865003330 3.33162747555646809872
O  -1.53646263887656897573 -0.91508322368633943089 2.48476685153011844776
O  5.12016518841188084110 -3.80675011383641637153 3.06030596716629732512
H  4.25869305737139836054 -3.72293329273593265327 2.63580323223809243061
H  5.32062354544112547927 -2.90677049522949593197 3.34175791086644746741
O  -2.07739336173240829453 4.33352014407194108259 3.97883132084589563604
H  -2.35787845356035274946 3.79904446580360399821 3.22714925599252966393
H  -2.03711298227879344935 3.69888340896133804847 4.70338343691660476509
O  1.20861243434111176320 0.84716361011117102819 -2.45015501381522371460
H  1.47563441383520377315 -0.07837486559086279114 -2.48810045468183282935
H  0.38317580702480413812 0.86359757474617560025 -2.94789627442596335882
O  2.57954538705013813882 -5.94619569675729753300 2.93431070549187023033
H  2.65596581105262918854 -6.24703290143068468154 3.84700942856533290026
H  1.73718974537481085640 -5.47753390440847809373 2.92185435155271555629
O  7.29620667321037252862 3.05100343268505413974 1.44429872370218603805
H  7.01503845224758304511 2.20928903027048573193 1.06770429954158507790
H  6.76420353927246242876 3.12816771772275625807 2.24453643964550542123
O  -1.05493549403350583837 -0.20175112183925833498 -1.90578485440609046719
H  -1.23685437313731783071 -0.42092813198437378785 -0.98479135623696145707
H  -1.90977621469210645522 0.09335581160641551191 -2.23973290958756754421
O  0.40789638124594512769 4.85382894434815526097 3.72543848859718496058
H  0.01368879175008975990 4.49477322989597638525 2.92229377291796899030
H  0.03071683465176650030 4.30767446854185553917 4.42459007560179617968
O  1.21348797977724287556 -3.47827765770486418972 -4.92319011099401926401
H  1.25561636499323192595 -2.59985245536667353150 -4.52827692170230822200
H  0.26721009973673559568 -3.65151120294881614825 -4.98572311005507007309
O  -3.37744983416910171670 -0.80244443854341140909 5.02801316157645405980
H  -3.98342569205590901760 -0.66501468563138288470 5.76508058501425590947
H  -2.99943270180925969370 -1.67108239055839913334 5.20671184479757620522
O  -0.29409470751137145594 7.08250446257944599182 2.34081583065246645603
H  0.51752120379981159104 6.67959335556119793154 2.01171961923672348860
H  -0.39475462152669771321 6.69967646414601958327 3.21983367390093944138
O  -3.43295572661918013679 2.81287833768132600198 -3.73637328428637882638
H  -3.86438062166725604385 3.40821766400290560028 -4.35991615409412336390
H  -4.15948600299494675170 2.49865613529479757560 -3.18611859011283016230
O  1.35024310655608803522 2.97177396900470869312 -4.84512104697737200354
H  1.75484819780610545870 2.33269820340351374810 -4.24742635068489171601
H  0.40538034146273999037 2.85284786628234776629 -4.69527779335967210272
O  0.18322687505456614065 -6.60190669290909060152 2.15079632328284464649
H  -0.09082779438799913618 -5.87151553977062601319 1.58441759346140953468
H  -0.37141095595953899089 -7.33395350912017729428 1.85780076238388747178
O  2.56947934761413288030 -7.05085454762334773449 0.50028496151401569136
H  2.21567125483624716153 -7.92918499809157051317 0.31940511939356591720
H  2.62946282806246500741 -7.02634175534128413432 1.46213898812676346139
O  0.58627963217273637575 -7.34812615275521352487 -2.33549050516169032221
H  1.53648087109563014074 -7.23569529413239376225 -2.45312966360428363899
H  0.21408734174046861742 -6.97478527771062140062 -3.14261599316652207037
O  0.89019192326940954629 -0.81060957508683373351 -5.28435931750822174280
H  1.33739023672534007581 -0.02176180210095902262 -4.95710571016715118020
H  0.39779649937544075966 -0.48928159775481222526 -6.04833388575988006863
O  -7.04956873861824728777 -3.96410725474136516056 2.00995718922721300359
H  -7.15254410147000818654 -4.65493643898663123082 1.34549261014047272234
H  -6.11654403109737643263 -4.01710470963826971058 2.24663889184350029637
O  -2.39204768770303655145 0.15717982328363380717 -4.46632338538250728277
H  -1.53045049202667371446 0.00772474470296939664 -4.87212569674781104112
H  -3.01349931175671681416 -0.09387819900866259393 -5.15923738569354028982
O  3.14332620986744482039 -1.62109111580771458883 -4.37889695172932036371
H  3.95613356745356270494 -1.99669242749930186953 -4.73615024860673283769
H  3.41939840053587484903 -1.25197539084039011215 -3.53219760098863355680
O  -2.67562507398253446311 -2.72429854713833474733 -5.71877295514880223948
H  -2.04201429833394287883 -2.02689782699283638223 -5.51497971545993515008
H  -3.48775396947860238939 -2.24134700532619701718 -5.90999672141472753850
O  -5.16179463953493655737 1.22880828697755473122 5.39796580930602942772
H  -4.30623578081447266896 1.46134611394679203578 5.01940635253112343861
H  -5.78909550991919452656 1.71748339740495525874 4.85294074760039073624
O  7.47482153174193530987 -2.68927817501331345440 -0.05106943122605772656
H  8.13144470871629110320 -2.53901163294919740565 -0.74072734194451583800
H  7.93040395968893019329 -2.42164143292063815949 0.75526628610962387445
O  3.28308700329775504656 0.25360364509140098654 4.83243799257620310073
H  3.23293046070106671053 -0.70364738321965725198 4.72988627853632603859
H  4.06735062240857292437 0.38041984245367749251 5.37852433304727917118
O  -5.07534094216287634538 3.89321310787356278382 4.18836856975482074716
H  -4.61545125675281653344 4.72313013558524108504 4.01777763099195883711
H  -5.96276847180845059881 4.05379896144220630561 3.84771239898420525094
O  1.45025193988893930097 0.85417997595781436360 6.76870280392417633664
H  1.93168607196916974900 0.40658874102402198236 6.06354656102552258545
H  1.57211704817955344460 1.78876006609927284963 6.56604295611061861138
O  -3.44570730021408344612 6.77245127343282860011 2.84439293874128606987
H  -2.83813269621510055885 6.02427171225839241941 2.86542883274777748781
H  -3.25376718262646669189 7.19423259426640626657 1.99904001121358820825
O  1.11816444679303672594 -4.32565546146346058265 5.35386354484279181065
H  1.95414561632925742884 -4.77549682520086538062 5.52161423984008425947
H  1.09148599170977855799 -4.25173814587538156928 4.39303757000971195623
O  5.69783059855965134943 6.18101505111007654136 -0.46750319903466597271
H  5.65619013476971144172 5.71961212919333217286 -1.31292349654496254274
H  5.53829147136253219230 5.48279244561875067632 0.17778318970865775173
O  2.97214826822710387333 -2.54039818672827300006 4.88361746345918756873
H  3.41044717656149964924 -3.18502199179687339736 5.45081785213333347428
H  2.66417877776444944615 -3.06908794922679950545 4.13863156332634751777
O  -2.10927255164601490378 -7.62235687850030174673 0.24960413766669745095
H  -2.13965310933945929150 -6.83056022449032518296 0.79869169392088013026
H  -2.07196267734623429391 -7.27229058048671817005 -0.64784982978685135002
O  -5.95738119874374394414 -2.71946959444894975633 3.84506308661250484349
H  -5.96340446262175483128 -1.86313932192317133207 3.40231682895634879316
H  -6.78868546794184801740 -2.72604528790807476568 4.33317376636849971305
O  -3.06978445874264105342 -3.43806722092029648508 5.47737141699656771010
H  -3.67898439910825914012 -3.83318839658434562523 4.84324465268146386876
H  -3.01545803629152464609 -4.09790447024198378756 6.17810353960445901578
O  -2.10081379495279207958 8.35058361134574589357 0.53683197392943493576
H  -1.61379119656063196864 7.95027358434584385805 1.26616244426441015847
H  -1.73720053490439929611 7.91471854570989652444 -0.24237859138558603966
O  -8.42745239344178287411 -1.03324261877772083373 1.40939887423460175064
H  -8.74522024018301102899 -1.47272331779698451015 0.61237793675094354118
H  -8.15702876973042201314 -1.76432351012953780867 1.97663238652241024518
O  3.87943375610813978582 -4.37462418223442295329 -4.97668615011491155542
H  4.00479093303440514262 -4.03851172306594285999 -4.08188111157012123442
H  3.18345245043729851986 -3.81081113013313599325 -5.33317868560514263265
O  -5.02249802687488156039 -6.12198789954351330067 -1.41574994816551513743
H  -5.65086478382581613999 -6.04143046506416325769 -2.14240515012131105266
H  -5.56763899736979617217 -5.99082463791727271030 -0.63154360764616801482
241
Energy 1.177046
C  0.71130776615267965468 5.00482414727958069278 -0.19561568134503989902
C  -4.13784486848083687960 3.17739904325788646844 0.68958586950538958149
C  -5.17444863619361594687 -1.77393841750645009370 -0.21665732364067985527
C  -0.87384297371556018952 -4.77917785703500719308 -0.63719983279390968178
C  4.05339626216557658012 -3.03094590633414950887 0.11871533019796989827
C  5.04884681101444510176 2.09362244562296995198 -0.58404774284701976850
O  -0.12582766454131008582 3.86927617535052936759 -0.25997818896310981307
O  -4.31294268880552600365 2.22131748928795813569 -0.31126934222609969893
O  -3.82279935479500831974 -1.93070136534545921947 -0.57994872475585967919
O  0.05957377906125960187 -3.73642003081359996841 -0.49167570712067970584
O  3.83098722953195691687 -1.80990987403622982654 -0.51821454630126961849
O  3.72723448493223719069 2.39573122461048049203 -0.94081572077923947273
C  1.36673334302333859824 5.17738746353810963541 -1.57023401112807836633
C  -3.83082197195232687648 4.52142930134692022648 -0.00861440099554997007
C  -5.86696795055896558324 -0.98447702978594020529 -1.33884527976942946381
C  -1.61012054292363893104 -4.57805317038506043303 -1.97033050864001890723
C  3.77326160587263625956 -4.12352537948484876296 -0.93397915008777943058
C  5.59790018606635531029 1.22271087148065049632 -1.73017268935670931462
O  0.41249294889497961636 5.31215455814457548911 -2.59060683846512906925
O  -4.80930237402007687564 4.84002336366017882341 -0.95372222083172941698
O  -5.78582568311042511056 -1.64728677729911021643 -2.57023780092665665720
O  -0.73773614924839026052 -4.55082005612955775575 -3.06837569591808811964
O  4.60494108751403530277 -3.96622878976938064710 -2.04751294360803903771
O  5.51089034068398309074 1.89539249938175013988 -2.95590729180038813695
C  2.21877561653414900888 3.93091745157843019953 -1.83150699881148915082
C  -2.43703341709546794647 4.47105818176657887619 -0.66523693747410916899
C  -5.20475957224313479088 0.39731597485467984310 -1.42006973941786962534
C  -2.38127676782546915391 -3.25302065840269838404 -1.88850281771867911651
C  2.29083818924970739062 -4.03265794157949919452 -1.34196827120711925652
C  4.78374355357373559627 -0.07921556826066936119 -1.75652837800578920380
O  2.95978907701573756839 4.02999105522410960845 -3.02082727297879927164
O  -2.05802748860041750945 5.73612709045024526944 -1.15190620092513951178
O  -5.88058054611833469494 1.22747881263100988569 -2.32923887821376673912
O  -3.19127255102765827743 -3.04457554296714016928 -3.01769493583701819972
O  1.91775986910106821526 -5.08492791013237965814 -2.19872422703288883383
O  5.29532575127568527762 -1.00829228528355963057 -2.67980956684520821298
C  3.21669371315159757785 3.69387210059014980956 -0.69186082520354963421
C  -1.38795551033674868791 3.99685863851938982805 0.35420949320828976070
C  -5.16778178528489551269 1.11072336231340940138 -0.06149807731087994500
C  -3.29265555667351561553 -3.24033602237473994379 -0.65776494554374898005
C  1.38149539713368874061 -4.07715922342435987957 -0.10764441609134994815
C  4.77256626082026613744 -0.75675892258768917564 -0.38217592772181979699
C  2.55256396054111922567 3.77383000390614853359 0.69472730196528931224
C  -1.87658184279176842857 2.62959785738603990524 0.86959042675287956392
C  -4.66995162147994768986 0.17586095834351950229 1.06305633345943961743
C  -2.50721461222832919802 -3.60110911172643000100 0.61297497945516965512
C  1.85352377539312773713 -3.02051341305114995350 0.89710406424008881654
C  4.36577196934167766074 0.23022434129321070473 0.72517060885729955899
O  1.66907167957595858887 4.88692368085399930777 0.81124164518227925846
O  -3.08441362729646728624 2.81665904229748020882 1.56150817661108898271
O  -5.30102626309129565385 -1.10211608872167032835 0.99847272905182959946
O  -1.77848159054403920365 -4.80866574069801888669 0.42941785465123982757
O  3.21002454205557707922 -3.18580015958223006223 1.24237706618064924768
O  5.13256533557428618053 1.42782080075291051280 0.64399374126307928901
C  3.59066688938968736622 3.98044807994619054270 1.80950926664780875619
C  -0.89645500604576855430 1.89000615206742916818 1.74680470073063887071
C  -5.01952751177552602968 0.67278465397587872143 2.47922864883734828112
C  -3.43552903897644679176 -3.83876853711820009707 1.81094492657019912052
C  1.02780373685861881050 -3.05255631487953005276 2.17255950121327856550
C  4.63334413526010635564 -0.33982799439168964728 2.12582775292363868047
O  4.36587551677528651339 5.12623218609484077035 1.58164252684446804409
O  -1.34635178925135901018 1.75509148705510997779 2.99556395054215807150
O  -6.36137881605171440214 1.05950386521692951902 2.58358829301366776932
O  -4.39579169127993640842 -4.82015551998131019928 1.53892222940309930657
O  1.15961021883623871531 -1.88140208249342943958 2.80998166284474804044
O  5.97384117287688454212 -0.72056215651174970738 2.28104190831524888949
H  0.13224704601901035583 5.90028006910375868443 0.06179845111059995011
H  -5.02906546666553655456 3.26944512916705898320 1.32195973471651906372
H  -5.66005365569407548065 -2.74597562429162023179 -0.06617953327339991254
H  -0.37596333589037028711 -5.75629752710907105495 -0.61905323145201962554
H  5.07351651543867454563 -3.11302658157459832822 0.51127945807539909584
H  5.64867625842899290234 3.00541745320616016102 -0.46425305226986962603
H  2.01854436715261886803 6.06436711980527043409 -1.54656827692787923745
H  -3.84115196116301671481 5.32232493097132941529 0.73833328706388945406
H  -6.93123890356386596068 -0.87032777596413046783 -1.10908033325346933040
H  -2.33079476852577860413 -5.39901926729751036049 -2.10116728534805874418
H  3.97846078011181525369 -5.11278456573449080480 -0.51320329701895961438
H  6.65544385173537111910 0.99639818803564983440 -1.56359344794164911718
H  -0.44758121555990915130 5.54738430107657976009 -2.19514784185843891962
H  -4.99862717111371512857 4.04655674109809648797 -1.47877335682354948965
H  -4.87862214394077664537 -1.98151913903146037477 -2.69443521680572883881
H  0.17493009918405943992 -4.73959651674300985746 -2.77483024948440881730
H  4.66410798139857529776 -3.01874084232443751219 -2.26865624666724841063
H  4.64836089514038430792 2.34140600586418878848 -3.00041084851171824255
H  1.54098607645986906967 3.06283758725334953610 -1.87427115174566893963
H  -2.46085499425985743116 3.74585258222391859206 -1.49411825115310925582
H  -4.16019338913851743911 0.25205406388909978865 -1.74488235435312732946
H  -1.65150591338989927159 -2.43341514701178018854 -1.78743297510559906449
H  2.13072481812891645347 -3.06478741669444998408 -1.84269875172082908676
H  3.74246695990955480227 0.17505707611953005842 -2.01366769037927806352
H  2.36276715127818626172 4.34815172937626659433 -3.71377294779213817932
H  -2.81157367692486648281 6.10014489877917043259 -1.64421335474422902756
H  -6.09084081771053398313 0.69029656113981896493 -3.10886487380280840398
H  -2.66909052727224915813 -3.26592044166787065507 -3.80334705793696725706
H  2.58698386619235698447 -5.14749436802668913771 -2.89909019680832802379
H  5.49408568008983611008 -0.53311484335033920701 -3.50050276010526850712
H  4.02144260633307659702 4.43873977070721803528 -0.76158004326704964448
H  -1.33879622191689873212 4.69571097986318886086 1.19890805994787918998
H  -6.17413561112708553225 1.47410559342782954140 0.19007305348557004820
H  -4.09868189285289563628 -3.97092024710498758822 -0.80481580480895953400
H  1.40934724253084797674 -5.07071095687050732437 0.35457577458490985300
H  5.76955099277967686788 -1.16139533236291936369 -0.16672775541378001551
H  1.99677609145850842864 2.83976438078294002310 0.85744948004959942178
H  -2.03432580407637875197 1.97912333649938032565 -0.00933991151863993591
H  -3.58181057813990832983 0.04730107681938962305 0.97286818618691950356
H  -1.81875059986388909472 -2.77601408995254050893 0.84523606295103970165
H  1.70767087459974709063 -2.02632998237252959228 0.44167627387429975183
H  3.29684627784058648103 0.46242992506568020294 0.61428010446683900536
H  4.27684283934914866165 3.13377304722748029064 1.84096947029981894417
H  3.05499576615011703140 4.05618852724160117162 2.76325081195894650676
H  -4.79227452249524610295 -0.15173887546790032488 3.16617738075086840865
H  -4.40898511711660745505 1.53315883400238783807 2.74824849325204567663
H  -3.97170422031588721268 -2.91608560685773054999 2.03992773831826879061
H  -2.81226758138124921516 -4.12058300134711963381 2.66817818299924836012
H  4.35574918530906440850 0.42281946590956998033 2.86286040394648688689
H  4.02684838685082624465 -1.23311937246010971947 2.28407916476905814562
H  3.76320851633328734565 5.88246056441070930276 1.54085400740711886414
H  -6.90736717162538571557 0.28345440568049945496 2.39381796429284854355
H  -3.92388988794632753709 -5.64051884971686945391 1.33424427257381927880
H  6.51908788538571037918 0.06399434512467971903 2.12347478294185876280
C  0.26127497010885958328 -1.58912450335454979999 3.90285766255619792631
H  0.88951598116402896821 -1.18363696298226983572 4.68922404710705720277
H  -0.25570570590976021697 -2.48705044817073872565 4.23160082255163860765
O  0.34924840901390941106 -3.98334818409430990727 2.55358777221210875297
C  -0.58617522855173942453 0.84541176598609990567 3.79519962836908808512
H  -0.99939904616609909205 0.95260657278872973297 4.79784223568303769270
H  0.46887642779151966765 1.11663465419944030188 3.80502509435579794328
O  0.16237772092035962501 1.42572362705916000358 1.35186217851816903313
C  -0.72420064229639979914 -0.57561974826865003330 3.33162747555646809872
O  -1.53646263887656897573 -0.91508322368633943089 2.48476685153011844776
O  5.12016518841188084110 -3.80675011383641637153 3.06030596716629732512
H  4.25869305737139836054 -3.72293329273593265327 2.63580323223809243061
H  5.32062354544112547927 -2.90677049522949593197 3.34175791086644746741
O  -2.07739336173240829453 4.33352014407194108259 3.97883132084589563604
H  -2.35787845356035274946 3.79904446580360399821 3.22714925599252966393
H  -2.03711298227879344935 3.69888340896133804847 4.70338343691660476509
O  1.20861243434111176320 0.84716361011117102819 -2.45015501381522371460
H  1.47563441383520377315 -0.07837486559086279114 -2.48810045468183282935
H  0.38317580702480413812 0.86359757474617560025 -2.94789627442596335882
O  2.57954538705013813882 -5.94619569675729753300 2.93431070549187023033
H  2.65596581105262918854 -6.24703290143068468154 3.84700942856533290026
H  1.73718974537481085640 -5.47753390440847809373 2.92185435155271555629
O  7.29620667321037252862 3.05100343268505413974 1.44429872370218603805
H  7.01503845224758304511 2.20928903027048573193 1.06770429954158507790
H  6.76420353927246242876 3.12816771772275625807 2.24453643964550542123
O  -1.05493549403350583837 -0.20175112183925833498 -1.90578485440609046719
H  -1.23685437313731783071 -0.42092813198437378785 -0.98479135623696145707
H  -1.90977621469210645522 0.09335581160641551191 -2.23973290958756754421
O  0.40789638124594512769 4.85382894434815526097 3.72543848859718496058
H  0.01368879175008975990 4.49477322989597638525 2.92229377291796899030
H  0.03071683465176650030 4.30767446854185553917 4.42459007560179617968
O  1.21348797977724287556 -3.47827765770486418972 -4.92319011099401926401
H  1.25561636499323192595 -2.59985245536667353150 -4.52827692170230822200
H  0.26721009973673559568 -3.65151120294881614825 -4.98572311005507007309
O  -3.37744983416910171670 -0.80244443854341140909 5.02801316157645405980
H  -3.98342569205590901760 -0.66501468563138288470 5.76508058501425590947
H  -2.99943270180925969370 -1.67108239055839913334 5.20671184479757620522
O  -0.29409470751137145594 7.08250446257944599182 2.34081583065246645603
H  0.51752120379981159104 6.67959335556119793154 2.01171961923672348860
H  -0.39475462152669771321 6.69967646414601958327 3.21983367390093944138
O  -3.43295572661918013679 2.81287833768132600198 -3.73637328428637882638
H  -3.86438062166725604385 3.40821766400290560028 -4.35991615409412336390
H  -4.15948600299494675170 2.49865613529479757560 -3.18611859011283016230
O  1.35024310655608803522 2.97177396900470869312 -4.84512104697737200354
H  1.75484819780610545870 2.33269820340351374810 -4.24742635068489171601
H  0.40538034146273999037 2.85284786628234776629 -4.69527779335967210272
O  0.18322687505456614065 -6.60190669290909060152 2.15079632328284464649
H  -0.09082779438799913618 -5.87151553977062601319 1.58441759346140953468
H  -0.37141095595953899089 -7.33395350912017729428 1.85780076238388747178
O  2.56947934761413288030 -7.05085454762334773449 0.50028496151401569136
H  2.21567125483624716153 -7.92918499809157051317 0.31940511939356591720
H  2.62946282806246500741 -7.02634175534128413432 1.46213898812676346139
O  0.58627963217273637575 -7.34812615275521352487 -2.33549050516169032221
H  1.53648087109563014074 -7.23569529413239376225 -2.45312966360428363899
H  0.21408734174046861742 -6.97478527771062140062 -3.14261599316652207037
O  0.89019192326940954629 -0.81060957508683373351 -5.28435931750822174280
H  1.33739023672534007581 -0.02176180210095902262 -4.95710571016715118020
H  0.39779649937544075966 -0.48928159775481222526 -6.04833388575988006863
O  -7.04956873861824728777 -3.96410725474136516056 2.00995718922721300359
H  -7.15254410147000818654 -4.65493643898663123082 1.34549261014047272234
H  -6.11654403109737643263 -4.01710470963826971058 2.24663889184350029637
O  -2.39204768770303655145 0.15717982328363380717 -4.46632338538250728277
H  -1.53045049202667371446 0.00772474470296939664 -4.87212569674781104112
H  -3.01349931175671681416 -0.09387819900866259393 -5.15923738569354028982
O  3.14332620986744482039 -1.62109111580771458883 -4.37889695172932036371
H  3.95613356745356270494 -1.99669242749930186953 -4.73615024860673283769
H  3.41939840053587484903 -1.25197539084039011215 -3.53219760098863355680
O  -2.67562507398253446311 -2.72429854713833474733 -5.71877295514880223948
H  -2.04201429833394287883 -2.02689782699283638223 -5.51497971545993515008
H  -3.48775396947860238939 -2.24134700532619701718 -5.90999672141472753850
O  -5.16179463953493655737 1.22880828697755473122 5.39796580930602942772
H  -4.30623578081447266896 1.46134611394679203578 5.01940635253112343861
H  -5.78909550991919452656 1.71748339740495525874 4.85294074760039073624
O  7.47482153174193530987 -2.68927817501331345440 -0.05106943122605772656
H  8.13144470871629110320 -2.53901163294919740565 -0.74072734194451583800
H  7.93040395968893019329 -2.42164143292063815949 0.75526628610962387445
O  3.28308700329775504656 0.25360364509140098654 4.83243799257620310073
H  3.23293046070106671053 -0.70364738321965725198 4.72988627853632603859
H  4.06735062240857292437 0.38041984245367749251 5.37852433304727917118
O  -5.07534094216287634538 3.89321310787356278382 4.18836856975482074716
H  -4.61545125675281653344 4.72313013558524108504 4.01777763099195883711
H  -5.96276847180845059881 4.05379896144220630561 3.84771239898420525094
O  1.45025193988893930097 0.85417997595781436360 6.76870280392417633664
H  1.93168607196916974900 0.40658874102402198236 6.06354656102552258545
H  1.57211704817955344460 1.78876006609927284963 6.56604295611061861138
O  -3.44570730021408344612 6.77245127343282860011 2.84439293874128606987
H  -2.83813269621510055885 6.02427171225839241941 2.86542883274777748781
H  -3.25376718262646669189 7.19423259426640626657 1.99904001121358820825
O  1.11816444679303672594 -4.32565546146346058265 5.35386354484279181065
H  1.95414561632925742884 -4.77549682520086538062 5.52161423984008425947
H  1.09148599170977855799 -4.25173814587538156928 4.39303757000971195623
O  5.69783059855965134943 6.18101505111007654136 -0.46750319903466597271
H  5.65619013476971144172 5.71961212919333217286 -1.31292349654496254274
H  5.53829147136253219230 5.48279244561875067632 0.17778318970865775173
O  2.97214826822710387333 -2.54039818672827300006 4.88361746345918756873
H  3.41044717656149964924 -3.18502199179687339736 5.45081785213333347428
H  2.66417877776444944615 -3.06908794922679950545 4.13863156332634751777
O  -2.10927255164601490378 -7.62235687850030174673 0.24960413766669745095
H  -2.13965310933945929150 -6.83056022449032518296 0.79869169392088013026
H  -2.07196267734623429391 -7.27229058048671817005 -0.64784982978685135002
O  -5.95738119874374394414 -2.71946959444894975633 3.84506308661250484349
H  -5.96340446262175483128 -1.86313932192317133207 3.40231682895634879316
H  -6.78868546794184801740 -2.72604528790807476568 4.33317376636849971305
O  -3.06978445874264105342 -3.43806722092029648508 5.47737141699656771010
H  -3.67898439910825914012 -3.83318839658434562523 4.84324465268146386876
H  -3.01545803629152464609 -4.09790447024198378756 6.17810353960445901578
O  -2.10081379495279207958 8.35058361134574589357 0.53683197392943493576
H  -1.61379119656063196864 7.95027358434584385805 1.26616244426441015847
H  -1.73720053490439929611 7.91471854570989652444 -0.24237859138558603966
O  -8.42745239344178287411 -1.03324261877772083373 1.40939887423460175064
H  -8.74522024018301102899 -1.47272331779698451015 0.61237793675094354118
H  -8.15702876973042201314 -1.76432351012953780867 1.97663238652241024518
O  3.87943375610813978582 -4.37462418223442295329 -4.97668615011491155542
H  4.00479093303440514262 -4.03851172306594285999 -4.08188111157012123442
H  3.18345245043729851986 -3.81081113013313599325 -5.33317868560514263265
O  -5.02249802687488067221 -6.12198789954351330067 -1.41574994816551513743
H  -5.65086478382581525182 -6.04143046506416325769 -2.14240515012131149675
H  -5.56763899736979617217 -5.99082463791727271030 -0.63154360764616801482
O  6.76129068312599823543 -5.04345246071938468901 1.16298602563045272440
H  7.25013401468822760165 -4.45828877716016158672 1.75288239335184359291
H  5.85704305101521249810 -4.99120067318923510413 1.49308909127094979752
244
Energy 0.548546
C  0.71130776615267965468 5.00482414727958069278 -0.19561568134503989902
C  -4.13784486848083687960 3.17739904325788646844 0.68958586950538958149
C  -5.17444863619361594687 -1.77393841750645009370 -0.21665732364067985527
C  -0.87384297371556018952 -4.77917785703500719308 -0.63719983279390968178
C  4.05339626216557658012 -3.03094590633414950887 0.11871533019796989827
C  5.04884681101444510176 2.09362244562296995198 -0.58404774284701976850
O  -0.12582766454131008582 3.86927617535052936759 -0.25997818896310981307
O  -4.31294268880552600365 2.22131748928795813569 -0.31126934222609969893
O  -3.82279935479500831974 -1.93070136534545921947 -0.57994872475585967919
O  0.05957377906125960187 -3.73642003081359996841 -0.49167570712067970584
O  3.83098722953195691687 -1.80990987403622982654 -0.51821454630126961849
O  3.72723448493223719069 2.39573122461048049203 -0.94081572077923947273
C  1.36673334302333859824 5.17738746353810963541 -1.57023401112807836633
C  -3.83082197195232687648 4.52142930134692022648 -0.00861440099554997007
C  -5.86696795055896558324 -0.98447702978594020529 -1.33884527976942946381
C  -1.61012054292363893104 -4.57805317038506043303 -1.97033050864001890723
C  3.77326160587263625956 -4.12352537948484876296 -0.93397915008777943058
C  5.59790018606635531029 1.22271087148065049632 -1.73017268935670931462
O  0.41249294889497961636 5.31215455814457548911 -2.59060683846512906925
O  -4.80930237402007687564 4.84002336366017882341 -0.95372222083172941698
O  -5.78582568311042511056 -1.64728677729911021643 -2.57023780092665665720
O  -0.73773614924839026052 -4.55082005612955775575 -3.06837569591808811964
O  4.60494108751403530277 -3.96622878976938064710 -2.04751294360803903771
O  5.51089034068398309074 1.89539249938175013988 -2.95590729180038813695
C  2.21877561653414900888 3.93091745157843019953 -1.83150699881148915082
C  -2.43703341709546794647 4.47105818176657887619 -0.66523693747410916899
C  -5.20475957224313479088 0.39731597485467984310 -1.42006973941786962534
C  -2.38127676782546915391 -3.25302065840269838404 -1.88850281771867911651
C  2.29083818924970739062 -4.03265794157949919452 -1.34196827120711925652
C  4.78374355357373559627 -0.07921556826066936119 -1.75652837800578920380
O  2.95978907701573756839 4.02999105522410960845 -3.02082727297879927164
O  -2.05802748860041750945 5.73612709045024526944 -1.15190620092513951178
O  -5.88058054611833469494 1.22747881263100988569 -2.32923887821376673912
O  -3.19127255102765827743 -3.04457554296714016928 -3.01769493583701819972
O  1.91775986910106821526 -5.08492791013237965814 -2.19872422703288883383
O  5.29532575127568527762 -1.00829228528355963057 -2.67980956684520821298
C  3.21669371315159757785 3.69387210059014980956 -0.69186082520354963421
C  -1.38795551033674868791 3.99685863851938982805 0.35420949320828976070
C  -5.16778178528489551269 1.11072336231340940138 -0.06149807731087994500
C  -3.29265555667351561553 -3.24033602237473994379 -0.65776494554374898005
C  1.38149539713368874061 -4.07715922342435987957 -0.10764441609134994815
C  4.77256626082026613744 -0.75675892258768917564 -0.38217592772181979699
C  2.55256396054111922567 3.77383000390614853359 0.69472730196528931224
C  -1.87658184279176842857 2.62959785738603990524 0.86959042675287956392
C  -4.66995162147994768986 0.17586095834351950229 1.06305633345943961743
C  -2.50721461222832919802 -3.60110911172643000100 0.61297497945516965512
C  1.85352377539312773713 -3.02051341305114995350 0.89710406424008881654
C  4.36577196934167766074 0.23022434129321070473 0.72517060885729955899
O  1.66907167957595858887 4.88692368085399930777 0.81124164518227925846
O  -3.08441362729646728624 2.81665904229748020882 1.56150817661108898271
O  -5.30102626309129565385 -1.10211608872167032835 0.99847272905182959946
O  -1.77848159054403920365 -4.80866574069801888669 0.42941785465123982757
O  3.21002454205557707922 -3.18580015958223006223 1.24237706618064924768
O  5.13256533557428618053 1.42782080075291051280 0.64399374126307928901
C  3.59066688938968736622 3.98044807994619054270 1.80950926664780875619
C  -0.89645500604576855430 1.89000615206742916818 1.74680470073063887071
C  -5.01952751177552602968 0.67278465397587872143 2.47922864883734828112
C  -3.43552903897644679176 -3.83876853711820009707 1.81094492657019912052
C  1.02780373685861881050 -3.05255631487953005276 2.17255950121327856550
C  4.63334413526010635564 -0.33982799439168964728 2.12582775292363868047
O  4.36587551677528651339 5.12623218609484077035 1.58164252684446804409
O  -1.34635178925135901018 1.75509148705510997779 2.99556395054215807150
O  -6.36137881605171440214 1.05950386521692951902 2.58358829301366776932
O  -4.39579169127993640842 -4.82015551998131019928 1.53892222940309930657
O  1.15961021883623871531 -1.88140208249342943958 2.80998166284474804044
O  5.97384117287688454212 -0.72056215651174970738 2.28104190831524888949
H  0.13224704601901035583 5.90028006910375868443 0.06179845111059995011
H  -5.02906546666553655456 3.26944512916705898320 1.32195973471651906372
H  -5.66005365569407548065 -2.74597562429162023179 -0.06617953327339991254
H  -0.37596333589037028711 -5.75629752710907105495 -0.61905323145201962554
H  5.07351651543867454563 -3.11302658157459832822 0.51127945807539909584
H  5.64867625842899290234 3.00541745320616016102 -0.46425305226986962603
H  2.01854436715261886803 6.06436711980527043409 -1.54656827692787923745
H  -3.84115196116301671481 5.32232493097132941529 0.73833328706388945406
H  -6.93123890356386596068 -0.87032777596413046783 -1.10908033325346933040
H  -2.33079476852577860413 -5.39901926729751036049 -2.10116728534805874418
H  3.97846078011181525369 -5.11278456573449080480 -0.51320329701895961438
H  6.65544385173537111910 0.99639818803564983440 -1.56359344794164911718
H  -0.44758121555990915130 5.54738430107657976009 -2.19514784185843891962
H  -4.99862717111371512857 4.04655674109809648797 -1.47877335682354948965
H  -4.87862214394077664537 -1.98151913903146037477 -2.69443521680572883881
H  0.17493009918405943992 -4.73959651674300985746 -2.77483024948440881730
H  4.66410798139857529776 -3.01874084232443751219 -2.26865624666724841063
H  4.64836089514038430792 2.34140600586418878848 -3.00041084851171824255
H  1.54098607645986906967 3.06283758725334953610 -1.87427115174566893963
H  -2.46085499425985743116 3.74585258222391859206 -1.49411825115310925582
H  -4.16019338913851743911 0.25205406388909978865 -1.74488235435312732946
H  -1.65150591338989927159 -2.43341514701178018854 -1.78743297510559906449
H  2.13072481812891645347 -3.06478741669444998408 -1.84269875172082908676
H  3.74246695990955480227 0.17505707611953005842 -2.01366769037927806352
H  2.36276715127818626172 4.34815172937626659433 -3.71377294779213817932
H  -2.81157367692486648281 6.10014489877917043259 -1.64421335474422902756
H  -6.09084081771053398313 0.69029656113981896493 -3.10886487380280840398
H  -2.66909052727224915813 -3.26592044166787065507 -3.80334705793696725706
H  2.58698386619235698447 -5.14749436802668913771 -2.89909019680832802379
H  5.49408568008983611008 -0.53311484335033920701 -3.50050276010526850712
H  4.02144260633307659702 4.43873977070721803528 -0.76158004326704964448
H  -1.33879622191689873212 4.69571097986318886086 1.19890805994787918998
H  -6.17413561112708553225 1.47410559342782954140 0.19007305348557004820
H  -4.09868189285289563628 -3.97092024710498758822 -0.80481580480895953400
H  1.40934724253084797674 -5.07071095687050732437 0.35457577458490985300
H  5.76955099277967686788 -1.16139533236291936369 -0.16672775541378001551
H  1.99677609145850842864 2.83976438078294002310 0.85744948004959942178
H  -2.03432580407637875197 1.97912333649938032565 -0.00933991151863993591
H  -3.58181057813990832983 0.04730107681938962305 0.97286818618691950356
H  -1.81875059986388909472 -2.77601408995254050893 0.84523606295103970165
H  1.70767087459974709063 -2.02632998237252959228 0.44167627387429975183
H  3.29684627784058648103 0.46242992506568020294 0.61428010446683900536
H  4.27684283934914866165 3.13377304722748029064 1.84096947029981894417
H  3.05499576615011703140 4.05618852724160117162 2.76325081195894650676
H  -4.79227452249524610295 -0.15173887546790032488 3.16617738075086840865
H  -4.40898511711660745505 1.53315883400238783807 2.74824849325204567663
H  -3.97170422031588721268 -2.91608560685773054999 2.03992773831826879061
H  -2.81226758138124921516 -4.12058300134711963381 2.66817818299924836012
H  4.35574918530906440850 0.42281946590956998033 2.86286040394648688689
H  4.02684838685082624465 -1.23311937246010971947 2.28407916476905814562
H  3.76320851633328734565 5.88246056441070930276 1.54085400740711886414
H  -6.90736717162538571557 0.28345440568049945496 2.39381796429284854355
H  -3.92388988794632753709 -5.64051884971686945391 1.33424427257381927880
H  6.51908788538571037918 0.06399434512467971903 2.12347478294185876280
C  0.26127497010885958328 -1.58912450335454979999 3.90285766255619792631
H  0.88951598116402896821 -1.18363696298226983572 4.68922404710705720277
H  -0.25570570590976021697 -2.48705044817073872565 4.23160082255163860765
O  0.34924840901390941106 -3.98334818409430990727 2.55358777221210875297
C  -0.58617522855173942453 0.84541176598609990567 3.79519962836908808512
H  -0.99939904616609909205 0.95260657278872973297 4.79784223568303769270
H  0.46887642779151966765 1.11663465419944030188 3.80502509435579794328
O  0.16237772092035962501 1.42572362705916000358 1.35186217851816903313
C  -0.72420064229639979914 -0.57561974826865003330 3.33162747555646809872
O  -1.53646263887656897573 -0.91508322368633943089 2.48476685153011844776
O  5.12016518841188084110 -3.80675011383641637153 3.06030596716629732512
H  4.25869305737139836054 -3.72293329273593265327 2.63580323223809243061
H  5.32062354544112547927 -2.90677049522949593197 3.34175791086644746741
O  -2.07739336173240829453 4.33352014407194108259 3.97883132084589563604
H  -2.35787845356035274946 3.79904446580360399821 3.22714925599252966393
H  -2.03711298227879344935 3.69888340896133804847 4.70338343691660476509
O  1.20861243434111176320 0.84716361011117102819 -2.45015501381522371460
H  1.47563441383520377315 -0.07837486559086279114 -2.48810045468183282935
H  0.38317580702480413812 0.86359757474617560025 -2.94789627442596335882
O  2.57954538705013813882 -5.94619569675729753300 2.93431070549187023033
H  2.65596581105262918854 -6.24703290143068468154 3.84700942856533290026
H  1.73718974537481085640 -5.47753390440847809373 2.92185435155271555629
O  7.29620667321037252862 3.05100343268505413974 1.44429872370218603805
H  7.01503845224758304511 2.20928903027048573193 1.06770429954158507790
H  6.76420353927246242876 3.12816771772275625807 2.24453643964550542123
O  -1.05493549403350583837 -0.20175112183925833498 -1.90578485440609046719
H  -1.23685437313731783071 -0.42092813198437378785 -0.98479135623696145707
H  -1.90977621469210645522 0.09335581160641551191 -2.23973290958756754421
O  0.40789638124594512769 4.85382894434815526097 3.72543848859718496058
H  0.01368879175008975990 4.49477322989597638525 2.92229377291796899030
H  0.03071683465176650030 4.30767446854185553917 4.42459007560179617968
O  1.21348797977724287556 -3.47827765770486418972 -4.92319011099401926401
H  1.25561636499323192595 -2.59985245536667353150 -4.52827692170230822200
H  0.26721009973673559568 -3.65151120294881614825 -4.98572311005507007309
O  -3.37744983416910171670 -0.80244443854341140909 5.02801316157645405980
H  -3.98342569205590901760 -0.66501468563138288470 5.76508058501425590947
H  -2.99943270180925969370 -1.67108239055839913334 5.20671184479757620522
O  -0.29409470751137145594 7.08250446257944599182 2.34081583065246645603
H  0.51752120379981159104 6.67959335556119793154 2.01171961923672348860
H  -0.39475462152669771321 6.69967646414601958327 3.21983367390093944138
O  -3.43295572661918013679 2.81287833768132600198 -3.73637328428637882638
H  -3.86438062166725604385 3.40821766400290560028 -4.35991615409412336390
H  -4.15948600299494675170 2.49865613529479757560 -3.18611859011283016230
O  1.35024310655608803522 2.97177396900470869312 -4.84512104697737200354
H  1.75484819780610545870 2.33269820340351374810 -4.24742635068489171601
H  0.40538034146273999037 2.85284786628234776629 -4.69527779335967210272
O  0.18322687505456614065 -6.60190669290909060152 2.15079632328284464649
H  -0.09082779438799913618 -5.87151553977062601319 1.58441759346140953468
H  -0.37141095595953899089 -7.33395350912017729428 1.85780076238388747178
O  2.56947934761413288030 -7.05085454762334773449 0.50028496151401569136
H  2.21567125483624716153 -7.92918499809157051317 0.31940511939356591720
H  2.62946282806246500741 -7.02634175534128413432 1.46213898812676346139
O  0.58627963217273637575 -7.34812615275521352487 -2.33549050516169032221
H  1.53648087109563014074 -7.23569529413239376225 -2.45312966360428363899
H  0.21408734174046861742 -6.97478527771062140062 -3.14261599316652207037
O  0.89019192326940954629 -0.81060957508683373351 -5.28435931750822174280
H  1.33739023672534007581 -0.02176180210095902262 -4.95710571016715118020
H  0.39779649937544075966 -0.48928159775481222526 -6.04833388575988006863
O  -7.04956873861824728777 -3.96410725474136516056 2.00995718922721300359
H  -7.15254410147000818654 -4.65493643898663123082 1.34549261014047272234
H  -6.11654403109737643263 -4.01710470963826971058 2.24663889184350029637
O  -2.39204768770303655145 0.15717982328363380717 -4.46632338538250728277
H  -1.53045049202667371446 0.00772474470296939664 -4.87212569674781104112
H  -3.01349931175671681416 -0.09387819900866259393 -5.15923738569354028982
O  3.14332620986744482039 -1.62109111580771458883 -4.37889695172932036371
H  3.95613356745356270494 -1.99669242749930186953 -4.73615024860673283769
H  3.41939840053587484903 -1.25197539084039011215 -3.53219760098863355680
O  -2.67562507398253446311 -2.72429854713833474733 -5.71877295514880223948
H  -2.04201429833394287883 -2.02689782699283638223 -5.51497971545993515008
H  -3.48775396947860238939 -2.24134700532619701718 -5.90999672141472753850
O  -5.16179463953493655737 1.22880828697755473122 5.39796580930602942772
H  -4.30623578081447266896 1.46134611394679203578 5.01940635253112343861
H  -5.78909550991919452656 1.71748339740495525874 4.85294074760039073624
O  7.47482153174193530987 -2.68927817501331345440 -0.05106943122605772656
H  8.13144470871629110320 -2.53901163294919740565 -0.74072734194451583800
H  7.93040395968893019329 -2.42164143292063815949 0.75526628610962387445
O  3.28308700329775504656 0.25360364509140098654 4.83243799257620310073
H  3.23293046070106671053 -0.70364738321965725198 4.72988627853632603859
H  4.06735062240857292437 0.38041984245367749251 5.37852433304727917118
O  -5.07534094216287634538 3.89321310787356278382 4.18836856975482074716
H  -4.61545125675281653344 4.72313013558524108504 4.01777763099195883711
H  -5.96276847180845059881 4.05379896144220630561 3.84771239898420525094
O  1.45025193988893930097 0.85417997595781436360 6.76870280392417633664
H  1.93168607196916974900 0.40658874102402198236 6.06354656102552258545
H  1.57211704817955344460 1.78876006609927284963 6.56604295611061861138
O  -3.44570730021408344612 6.77245127343282860011 2.84439293874128606987
H  -2.83813269621510055885 6.02427171225839241941 2.86542883274777748781
H  -3.25376718262646669189 7.19423259426640626657 1.99904001121358820825
O  1.11816444679303672594 -4.32565546146346058265 5.35386354484279181065
H  1.95414561632925742884 -4.77549682520086538062 5.52161423984008425947
H  1.09148599170977855799 -4.25173814587538156928 4.39303757000971195623
O  5.69783059855965134943 6.18101505111007654136 -0.46750319903466597271
H  5.65619013476971144172 5.71961212919333217286 -1.31292349654496254274
H  5.53829147136253219230 5.48279244561875067632 0.17778318970865775173
O  2.97214826822710387333 -2.54039818672827300006 4.88361746345918756873
H  3.41044717656149964924 -3.18502199179687339736 5.45081785213333347428
H  2.66417877776444944615 -3.06908794922679950545 4.13863156332634751777
O  -2.10927255164601490378 -7.62235687850030174673 0.24960413766669745095
H  -2.13965310933945929150 -6.83056022449032518296 0.79869169392088013026
H  -2.07196267734623429391 -7.27229058048671817005 -0.64784982978685135002
O  -5.95738119874374394414 -2.71946959444894975633 3.84506308661250484349
H  -5.96340446262175483128 -1.86313932192317133207 3.40231682895634879316
H  -6.78868546794184801740 -2.72604528790807476568 4.33317376636849971305
O  -3.06978445874264105342 -3.43806722092029648508 5.47737141699656771010
H  -3.67898439910825914012 -3.83318839658434562523 4.84324465268146386876
H  -3.01545803629152464609 -4.09790447024198378756 6.17810353960445901578
O  -2.10081379495279207958 8.35058361134574589357 0.53683197392943493576
H  -1.61379119656063196864 7.95027358434584385805 1.26616244426441015847
H  -1.73720053490439929611 7.91471854570989652444 -0.24237859138558603966
O  -8.42745239344178287411 -1.03324261877772083373 1.40939887423460175064
H  -8.74522024018301102899 -1.47272331779698451015 0.61237793675094354118
H  -8.15702876973042201314 -1.76432351012953780867 1.97663238652241024518
O  3.87943375610813978582 -4.37462418223442295329 -4.97668615011491155542
H  4.00479093303440514262 -4.03851172306594285999 -4.08188111157012123442
H  3.18345245043729851986 -3.81081113013313599325 -5.33317868560514263265
O  -5.02249802687488067221 -6.12198789954351330067 -1.41574994816551513743
H  -5.65086478382581525182 -6.04143046506416325769 -2.14240515012131149675
H  -5.56763899736979617217 -5.99082463791727271030 -0.63154360764616801482
O  6.76129068312599823543 -5.04345246071938468901 1.16298602563045272440
H  7.25013401468822760165 -4.45828877716016158672 1.75288239335184359291
H  5.85704305101521160992 -4.99120067318923510413 1.49308909127094979752
O  -5.93556616484713650550 5.72530217161403776061 1.91205713122279252758
H  -5.52993297785360393704 6.23868639270711522471 2.62005460520308242067
H  -6.01387832027358637532 6.35993296048305722934 1.19061896231622310616
247
Energy 2.332675
C  0.71130776615267965468 5.00482414727958069278 -0.19561568134503989902
C  -4.13784486848083687960 3.17739904325788646844 0.68958586950538958149
C  -5.17444863619361594687 -1.77393841750645009370 -0.21665732364067985527
C  -0.87384297371556018952 -4.77917785703500719308 -0.63719983279390968178
C  4.05339626216557658012 -3.03094590633414950887 0.11871533019796989827
C  5.04884681101444510176 2.09362244562296995198 -0.58404774284701976850
O  -0.12582766454131008582 3.86927617535052936759 -0.25997818896310981307
O  -4.31294268880552600365 2.22131748928795813569 -0.31126934222609969893
O  -3.82279935479500831974 -1.93070136534545921947 -0.57994872475585967919
O  0.05957377906125960187 -3.73642003081359996841 -0.49167570712067970584
O  3.83098722953195691687 -1.80990987403622982654 -0.51821454630126961849
O  3.72723448493223719069 2.39573122461048049203 -0.94081572077923947273
C  1.36673334302333859824 5.17738746353810963541 -1.57023401112807836633
C  -3.83082197195232687648 4.52142930134692022648 -0.00861440099554997007
C  -5.86696795055896558324 -0.98447702978594020529 -1.33884527976942946381
C  -1.61012054292363893104 -4.57805317038506043303 -1.97033050864001890723
C  3.77326160587263625956 -4.12352537948484876296 -0.93397915008777943058
C  5.59790018606635531029 1.22271087148065049632 -1.73017268935670931462
O  0.41249294889497961636 5.31215455814457548911 -2.59060683846512906925
O  -4.80930237402007687564 4.84002336366017882341 -0.95372222083172941698
O  -5.78582568311042511056 -1.64728677729911021643 -2.57023780092665665720
O  -0.73773614924839026052 -4.55082005612955775575 -3.06837569591808811964
O  4.60494108751403530277 -3.96622878976938064710 -2.04751294360803903771
O  5.51089034068398309074 1.89539249938175013988 -2.95590729180038813695
C  2.21877561653414900888 3.93091745157843019953 -1.83150699881148915082
C  -2.43703341709546794647 4.47105818176657887619 -0.66523693747410916899
C  -5.20475957224313479088 0.39731597485467984310 -1.42006973941786962534
C  -2.38127676782546915391 -3.25302065840269838404 -1.88850281771867911651
C  2.29083818924970739062 -4.03265794157949919452 -1.34196827120711925652
C  4.78374355357373559627 -0.07921556826066936119 -1.75652837800578920380
O  2.95978907701573756839 4.02999105522410960845 -3.02082727297879927164
O  -2.05802748860041750945 5.73612709045024526944 -1.15190620092513951178
O  -5.88058054611833469494 1.22747881263100988569 -2.32923887821376673912
O  -3.19127255102765827743 -3.04457554296714016928 -3.01769493583701819972
O  1.91775986910106821526 -5.08492791013237965814 -2.19872422703288883383
O  5.29532575127568527762 -1.00829228528355963057 -2.67980956684520821298
C  3.21669371315159757785 3.69387210059014980956 -0.69186082520354963421
C  -1.38795551033674868791 3.99685863851938982805 0.35420949320828976070
C  -5.16778178528489551269 1.11072336231340940138 -0.06149807731087994500
C  -3.29265555667351561553 -3.24033602237473994379 -0.65776494554374898005
C  1.38149539713368874061 -4.07715922342435987957 -0.10764441609134994815
C  4.77256626082026613744 -0.75675892258768917564 -0.38217592772181979699
C  2.55256396054111922567 3.77383000390614853359 0.69472730196528931224
C  -1.87658184279176842857 2.62959785738603990524 0.86959042675287956392
C  -4.66995162147994768986 0.17586095834351950229 1.06305633345943961743
C  -2.50721461222832919802 -3.60110911172643000100 0.61297497945516965512
C  1.85352377539312773713 -3.02051341305114995350 0.89710406424008881654
C  4.36577196934167766074 0.23022434129321070473 0.72517060885729955899
O  1.66907167957595858887 4.88692368085399930777 0.81124164518227925846
O  -3.08441362729646728624 2.81665904229748020882 1.56150817661108898271
O  -5.30102626309129565385 -1.10211608872167032835 0.99847272905182959946
O  -1.77848159054403920365 -4.80866574069801888669 0.42941785465123982757
O  3.21002454205557707922 -3.18580015958223006223 1.24237706618064924768
O  5.13256533557428618053 1.42782080075291051280 0.64399374126307928901
C  3.59066688938968736622 3.98044807994619054270 1.80950926664780875619
C  -0.89645500604576855430 1.89000615206742916818 1.74680470073063887071
C  -5.01952751177552602968 0.67278465397587872143 2.47922864883734828112
C  -3.43552903897644679176 -3.83876853711820009707 1.81094492657019912052
C  1.02780373685861881050 -3.05255631487953005276 2.17255950121327856550
C  4.63334413526010635564 -0.33982799439168964728 2.12582775292363868047
O  4.36587551677528651339 5.12623218609484077035 1.58164252684446804409
O  -1.34635178925135901018 1.75509148705510997779 2.99556395054215807150
O  -6.36137881605171440214 1.05950386521692951902 2.58358829301366776932
O  -4.39579169127993640842 -4.82015551998131019928 1.53892222940309930657
O  1.15961021883623871531 -1.88140208249342943958 2.80998166284474804044
O  5.97384117287688454212 -0.72056215651174970738 2.28104190831524888949
H  0.13224704601901035583 5.90028006910375868443 0.06179845111059995011
H  -5.02906546666553655456 3.26944512916705898320 1.32195973471651906372
H  -5.66005365569407548065 -2.74597562429162023179 -0.06617953327339991254
H  -0.37596333589037028711 -5.75629752710907105495 -0.61905323145201962554
H  5.07351651543867454563 -3.11302658157459832822 0.51127945807539909584
H  5.64867625842899290234 3.00541745320616016102 -0.46425305226986962603
H  2.01854436715261886803 6.06436711980527043409 -1.54656827692787923745
H  -3.84115196116301671481 5.32232493097132941529 0.73833328706388945406
H  -6.93123890356386596068 -0.87032777596413046783 -1.10908033325346933040
H  -2.33079476852577860413 -5.39901926729751036049 -2.10116728534805874418
H  3.97846078011181525369 -5.11278456573449080480 -0.51320329701895961438
H  6.65544385173537111910 0.99639818803564983440 -1.56359344794164911718
H  -0.44758121555990915130 5.54738430107657976009 -2.19514784185843891962
H  -4.99862717111371512857 4.04655674109809648797 -1.47877335682354948965
H  -4.87862214394077664537 -1.98151913903146037477 -2.69443521680572883881
H  0.17493009918405943992 -4.73959651674300985746 -2.77483024948440881730
H  4.66410798139857529776 -3.01874084232443751219 -2.26865624666724841063
H  4.64836089514038430792 2.34140600586418878848 -3.00041084851171824255
H  1.54098607645986906967 3.06283758725334953610 -1.87427115174566893963
H  -2.46085499425985743116 3.74585258222391859206 -1.49411825115310925582
H  -4.16019338913851743911 0.25205406388909978865 -1.74488235435312732946
H  -1.65150591338989927159 -2.43341514701178018854 -1.78743297510559906449
H  2.13072481812891645347 -3.06478741669444998408 -1.84269875172082908676
H  3.74246695990955480227 0.17505707611953005842 -2.01366769037927806352
H  2.36276715127818626172 4.34815172937626659433 -3.71377294779213817932
H  -2.81157367692486648281 6.10014489877917043259 -1.64421335474422902756
H  -6.09084081771053398313 0.69029656113981896493 -3.10886487380280840398
H  -2.66909052727224915813 -3.26592044166787065507 -3.80334705793696725706
H  2.58698386619235698447 -5.14749436802668913771 -2.89909019680832802379
H  5.49408568008983611008 -0.53311484335033920701 -3.50050276010526850712
H  4.02144260633307659702 4.43873977070721803528 -0.76158004326704964448
H  -1.33879622191689873212 4.69571097986318886086 1.19890805994787918998
H  -6.17413561112708553225 1.47410559342782954140 0.19007305348557004820
H  -4.09868189285289563628 -3.97092024710498758822 -0.80481580480895953400
H  1.40934724253084797674 -5.07071095687050732437 0.35457577458490985300
H  5.76955099277967686788 -1.16139533236291936369 -0.16672775541378001551
H  1.99677609145850842864 2.83976438078294002310 0.85744948004959942178
H  -2.03432580407637875197 1.97912333649938032565 -0.00933991151863993591
H  -3.58181057813990832983 0.04730107681938962305 0.97286818618691950356
H  -1.81875059986388909472 -2.77601408995254050893 0.84523606295103970165
H  1.70767087459974709063 -2.02632998237252959228 0.44167627387429975183
H  3.29684627784058648103 0.46242992506568020294 0.61428010446683900536
H  4.27684283934914866165 3.13377304722748029064 1.84096947029981894417
H  3.05499576615011703140 4.05618852724160117162 2.76325081195894650676
H  -4.79227452249524610295 -0.15173887546790032488 3.16617738075086840865
H  -4.40898511711660745505 1.53315883400238783807 2.74824849325204567663
H  -3.97170422031588721268 -2.91608560685773054999 2.03992773831826879061
H  -2.81226758138124921516 -4.12058300134711963381 2.66817818299924836012
H  4.35574918530906440850 0.42281946590956998033 2.86286040394648688689
H  4.02684838685082624465 -1.23311937246010971947 2.28407916476905814562
H  3.76320851633328734565 5.88246056441070930276 1.54085400740711886414
H  -6.90736717162538571557 0.28345440568049945496 2.39381796429284854355
H  -3.92388988794632753709 -5.64051884971686945391 1.33424427257381927880
H  6.51908788538571037918 0.06399434512467971903 2.12347478294185876280
C  0.26127497010885958328 -1.58912450335454979999 3.90285766255619792631
H  0.88951598116402896821 -1.18363696298226983572 4.68922404710705720277
H  -0.25570570590976021697 -2.48705044817073872565 4.23160082255163860765
O  0.34924840901390941106 -3.98334818409430990727 2.55358777221210875297
C  -0.58617522855173942453 0.84541176598609990567 3.79519962836908808512
H  -0.99939904616609909205 0.95260657278872973297 4.79784223568303769270
H  0.46887642779151966765 1.11663465419944030188 3.80502509435579794328
O  0.16237772092035962501 1.42572362705916000358 1.35186217851816903313
C  -0.72420064229639979914 -0.57561974826865003330 3.33162747555646809872
O  -1.53646263887656897573 -0.91508322368633943089 2.48476685153011844776
O  5.12016518841188084110 -3.80675011383641637153 3.06030596716629732512
H  4.25869305737139836054 -3.72293329273593265327 2.63580323223809243061
H  5.32062354544112547927 -2.90677049522949593197 3.34175791086644746741
O  -2.07739336173240829453 4.33352014407194108259 3.97883132084589563604
H  -2.35787845356035274946 3.79904446580360399821 3.22714925599252966393
H  -2.03711298227879344935 3.69888340896133804847 4.70338343691660476509
O  1.20861243434111176320 0.84716361011117102819 -2.45015501381522371460
H  1.47563441383520377315 -0.07837486559086279114 -2.48810045468183282935
H  0.38317580702480413812 0.86359757474617560025 -2.94789627442596335882
O  2.57954538705013813882 -5.94619569675729753300 2.93431070549187023033
H  2.65596581105262918854 -6.24703290143068468154 3.84700942856533290026
H  1.73718974537481085640 -5.47753390440847809373 2.92185435155271555629
O  7.29620667321037252862 3.05100343268505413974 1.44429872370218603805
H  7.01503845224758304511 2.20928903027048573193 1.06770429954158507790
H  6.76420353927246242876 3.12816771772275625807 2.24453643964550542123
O  -1.05493549403350583837 -0.20175112183925833498 -1.90578485440609046719
H  -1.23685437313731783071 -0.42092813198437378785 -0.98479135623696145707
H  -1.90977621469210645522 0.09335581160641551191 -2.23973290958756754421
O  0.40789638124594512769 4.85382894434815526097 3.72543848859718496058
H  0.01368879175008975990 4.49477322989597638525 2.92229377291796899030
H  0.03071683465176650030 4.30767446854185553917 4.42459007560179617968
O  1.21348797977724287556 -3.47827765770486418972 -4.92319011099401926401
H  1.25561636499323192595 -2.59985245536667353150 -4.52827692170230822200
H  0.26721009973673559568 -3.65151120294881614825 -4.98572311005507007309
O  -3.37744983416910171670 -0.80244443854341140909 5.02801316157645405980
H  -3.98342569205590901760 -0.66501468563138288470 5.76508058501425590947
H  -2.99943270180925969370 -1.67108239055839913334 5.20671184479757620522
O  -0.29409470751137145594 7.08250446257944599182 2.34081583065246645603
H  0.51752120379981159104 6.67959335556119793154 2.01171961923672348860
H  -0.39475462152669771321 6.69967646414601958327 3.21983367390093944138
O  -3.43295572661918013679 2.81287833768132600198 -3.73637328428637882638
H  -3.86438062166725604385 3.40821766400290560028 -4.35991615409412336390
H  -4.15948600299494675170 2.49865613529479757560 -3.18611859011283016230
O  1.35024310655608803522 2.97177396900470869312 -4.84512104697737200354
H  1.75484819780610545870 2.33269820340351374810 -4.24742635068489171601
H  0.40538034146273999037 2.85284786628234776629 -4.69527779335967210272
O  0.18322687505456614065 -6.60190669290909060152 2.15079632328284464649
H  -0.09082779438799913618 -5.87151553977062601319 1.58441759346140953468
H  -0.37141095595953899089 -7.33395350912017729428 1.85780076238388747178
O  2.56947934761413288030 -7.05085454762334773449 0.50028496151401569136
H  2.21567125483624716153 -7.92918499809157051317 0.31940511939356591720
H  2.62946282806246500741 -7.02634175534128413432 1.46213898812676346139
O  0.58627963217273637575 -7.34812615275521352487 -2.33549050516169032221
H  1.53648087109563014074 -7.23569529413239376225 -2.45312966360428363899
H  0.21408734174046861742 -6.97478527771062140062 -3.14261599316652207037
O  0.89019192326940954629 -0.81060957508683373351 -5.28435931750822174280
H  1.33739023672534007581 -0.02176180210095902262 -4.95710571016715118020
H  0.39779649937544075966 -0.48928159775481222526 -6.04833388575988006863
O  -7.04956873861824728777 -3.96410725474136516056 2.00995718922721300359
H  -7.15254410147000818654 -4.65493643898663123082 1.34549261014047272234
H  -6.11654403109737643263 -4.01710470963826971058 2.24663889184350029637
O  -2.39204768770303655145 0.15717982328363380717 -4.46632338538250728277
H  -1.53045049202667371446 0.00772474470296939664 -4.87212569674781104112
H  -3.01349931175671681416 -0.09387819900866259393 -5.15923738569354028982
O  3.14332620986744482039 -1.62109111580771458883 -4.37889695172932036371
H  3.95613356745356270494 -1.99669242749930186953 -4.73615024860673283769
H  3.41939840053587484903 -1.25197539084039011215 -3.53219760098863355680
O  -2.67562507398253446311 -2.72429854713833474733 -5.71877295514880223948
H  -2.04201429833394287883 -2.02689782699283638223 -5.51497971545993515008
H  -3.48775396947860238939 -2.24134700532619701718 -5.90999672141472753850
O  -5.16179463953493655737 1.22880828697755473122 5.39796580930602942772
H  -4.30623578081447266896 1.46134611394679203578 5.01940635253112343861
H  -5.78909550991919452656 1.71748339740495525874 4.85294074760039073624
O  7.47482153174193530987 -2.68927817501331345440 -0.05106943122605772656
H  8.13144470871629110320 -2.53901163294919740565 -0.74072734194451583800
H  7.93040395968893019329 -2.42164143292063815949 0.75526628610962387445
O  3.28308700329775504656 0.25360364509140098654 4.83243799257620310073
H  3.23293046070106671053 -0.70364738321965725198 4.72988627853632603859
H  4.06735062240857292437 0.38041984245367749251 5.37852433304727917118
O  -5.07534094216287634538 3.89321310787356278382 4.18836856975482074716
H  -4.61545125675281653344 4.72313013558524108504 4.01777763099195883711
H  -5.96276847180845059881 4.05379896144220630561 3.84771239898420525094
O  1.45025193988893930097 0.85417997595781436360 6.76870280392417633664
H  1.93168607196916974900 0.40658874102402198236 6.06354656102552258545
H  1.57211704817955344460 1.78876006609927284963 6.56604295611061861138
O  -3.44570730021408344612 6.77245127343282860011 2.84439293874128606987
H  -2.83813269621510055885 6.02427171225839241941 2.86542883274777748781
H  -3.25376718262646669189 7.19423259426640626657 1.99904001121358820825
O  1.11816444679303672594 -4.32565546146346058265 5.35386354484279181065
H  1.95414561632925742884 -4.77549682520086538062 5.52161423984008425947
H  1.09148599170977855799 -4.25173814587538156928 4.39303757000971195623
O  5.69783059855965134943 6.18101505111007654136 -0.46750319903466597271
H  5.65619013476971144172 5.71961212919333217286 -1.31292349654496254274
H  5.53829147136253219230 5.48279244561875067632 0.17778318970865775173
O  2.97214826822710387333 -2.54039818672827300006 4.88361746345918756873
H  3.41044717656149964924 -3.18502199179687339736 5.45081785213333347428
H  2.66417877776444944615 -3.06908794922679950545 4.13863156332634751777
O  -2.10927255164601490378 -7.62235687850030174673 0.24960413766669745095
H  -2.13965310933945929150 -6.83056022449032518296 0.79869169392088013026
H  -2.07196267734623429391 -7.27229058048671817005 -0.64784982978685135002
O  -5.95738119874374394414 -2.71946959444894975633 3.84506308661250484349
H  -5.96340446262175483128 -1.86313932192317133207 3.40231682895634879316
H  -6.78868546794184801740 -2.72604528790807476568 4.33317376636849971305
O  -3.06978445874264105342 -3.43806722092029648508 5.47737141699656771010
H  -3.67898439910825914012 -3.83318839658434562523 4.84324465268146386876
H  -3.01545803629152464609 -4.09790447024198378756 6.17810353960445901578
O  -2.10081379495279207958 8.35058361134574589357 0.53683197392943493576
H  -1.61379119656063196864 7.95027358434584385805 1.26616244426441015847
H  -1.73720053490439929611 7.91471854570989652444 -0.24237859138558603966
O  -8.42745239344178287411 -1.03324261877772083373 1.40939887423460175064
H  -8.74522024018301102899 -1.47272331779698451015 0.61237793675094354118
H  -8.15702876973042201314 -1.76432351012953780867 1.97663238652241024518
O  3.87943375610813978582 -4.37462418223442295329 -4.97668615011491155542
H  4.00479093303440514262 -4.03851172306594285999 -4.08188111157012123442
H  3.18345245043729851986 -3.81081113013313599325 -5.33317868560514263265
O  -5.02249802687488067221 -6.12198789954351330067 -1.41574994816551513743
H  -5.65086478382581525182 -6.04143046506416325769 -2.14240515012131149675
H  -5.56763899736979617217 -5.99082463791727271030 -0.63154360764616801482
O  6.76129068312599823543 -5.04345246071938468901 1.16298602563045272440
H  7.25013401468822760165 -4.45828877716016158672 1.75288239335184359291
H  5.85704305101521160992 -4.99120067318923510413 1.49308909127094979752
O  -5.93556616484713650550 5.72530217161403776061 1.91205713122279252758
H  -5.52993297785360393704 6.23868639270711522471 2.62005460520308197658
H  -6.01387832027358637532 6.35993296048305722934 1.19061896231622310616
O  -7.58983910848945075855 3.48574222598179783716 2.59254318740139710897
H  -8.20366369774588299890 3.02710500611880206634 2.00753606077740265334
H  -7.51395259842904561509 4.36152180863303229330 2.19679904830974015439
250
Energy 2.039367
C  0.71130776615267965468 5.00482414727958069278 -0.19561568134503989902
C  -4.13784486848083687960 3.17739904325788646844 0.68958586950538958149
C  -5.17444863619361594687 -1.77393841750645009370 -0.21665732364067985527
C  -0.87384297371556018952 -4.77917785703500719308 -0.63719983279390968178
C  4.05339626216557658012 -3.03094590633414950887 0.11871533019796989827
C  5.04884681101444510176 2.09362244562296995198 -0.58404774284701976850
O  -0.12582766454131008582 3.86927617535052936759 -0.25997818896310981307
O  -4.31294268880552600365 2.22131748928795813569 -0.31126934222609969893
O  -3.82279935479500831974 -1.93070136534545921947 -0.57994872475585967919
O  0.05957377906125960187 -3.73642003081359996841 -0.49167570712067970584
O  3.83098722953195691687 -1.80990987403622982654 -0.51821454630126961849
O  3.72723448493223719069 2.39573122461048049203 -0.94081572077923947273
C  1.36673334302333859824 5.17738746353810963541 -1.57023401112807836633
C  -3.83082197195232687648 4.52142930134692022648 -0.00861440099554997007
C  -5.86696795055896558324 -0.98447702978594020529 -1.33884527976942946381
C  -1.61012054292363893104 -4.57805317038506043303 -1.97033050864001890723
C  3.77326160587263625956 -4.12352537948484876296 -0.93397915008777943058
C  5.59790018606635531029 1.22271087148065049632 -1.73017268935670931462
O  0.41249294889497961636 5.31215455814457548911 -2.59060683846512906925
O  -4.80930237402007687564 4.84002336366017882341 -0.95372222083172941698
O  -5.78582568311042511056 -1.64728677729911021643 -2.57023780092665665720
O  -0.73773614924839026052 -4.55082005612955775575 -3.06837569591808811964
O  4.60494108751403530277 -3.96622878976938064710 -2.04751294360803903771
O  5.51089034068398309074 1.89539249938175013988 -2.95590729180038813695
C  2.21877561653414900888 3.93091745157843019953 -1.83150699881148915082
C  -2.43703341709546794647 4.47105818176657887619 -0.66523693747410916899
C  -5.20475957224313479088 0.39731597485467984310 -1.42006973941786962534
C  -2.38127676782546915391 -3.25302065840269838404 -1.88850281771867911651
C  2.29083818924970739062 -4.03265794157949919452 -1.34196827120711925652
C  4.78374355357373559627 -0.07921556826066936119 -1.75652837800578920380
O  2.95978907701573756839 4.02999105522410960845 -3.02082727297879927164
O  -2.05802748860041750945 5.73612709045024526944 -1.15190620092513951178
O  -5.88058054611833469494 1.22747881263100988569 -2.32923887821376673912
O  -3.19127255102765827743 -3.04457554296714016928 -3.01769493583701819972
O  1.91775986910106821526 -5.08492791013237965814 -2.19872422703288883383
O  5.29532575127568527762 -1.00829228528355963057 -2.67980956684520821298
C  3.21669371315159757785 3.69387210059014980956 -0.69186082520354963421
C  -1.38795551033674868791 3.99685863851938982805 0.35420949320828976070
C  -5.16778178528489551269 1.11072336231340940138 -0.06149807731087994500
C  -3.29265555667351561553 -3.24033602237473994379 -0.65776494554374898005
C  1.38149539713368874061 -4.07715922342435987957 -0.10764441609134994815
C  4.77256626082026613744 -0.75675892258768917564 -0.38217592772181979699
C  2.55256396054111922567 3.77383000390614853359 0.69472730196528931224
C  -1.87658184279176842857 2.62959785738603990524 0.86959042675287956392
C  -4.66995162147994768986 0.17586095834351950229 1.06305633345943961743
C  -2.50721461222832919802 -3.60110911172643000100 0.61297497945516965512
C  1.85352377539312773713 -3.02051341305114995350 0.89710406424008881654
C  4.36577196934167766074 0.23022434129321070473 0.72517060885729955899
O  1.66907167957595858887 4.88692368085399930777 0.81124164518227925846
O  -3.08441362729646728624 2.81665904229748020882 1.56150817661108898271
O  -5.30102626309129565385 -1.10211608872167032835 0.99847272905182959946
O  -1.77848159054403920365 -4.80866574069801888669 0.42941785465123982757
O  3.21002454205557707922 -3.18580015958223006223 1.24237706618064924768
O  5.13256533557428618053 1.42782080075291051280 0.64399374126307928901
C  3.59066688938968736622 3.98044807994619054270 1.80950926664780875619
C  -0.89645500604576855430 1.89000615206742916818 1.74680470073063887071
C  -5.01952751177552602968 0.67278465397587872143 2.47922864883734828112
C  -3.43552903897644679176 -3.83876853711820009707 1.81094492657019912052
C  1.02780373685861881050 -3.05255631487953005276 2.17255950121327856550
C  4.63334413526010635564 -0.33982799439168964728 2.12582775292363868047
O  4.36587551677528651339 5.12623218609484077035 1.58164252684446804409
O  -1.34635178925135901018 1.75509148705510997779 2.99556395054215807150
O  -6.36137881605171440214 1.05950386521692951902 2.58358829301366776932
O  -4.39579169127993640842 -4.82015551998131019928 1.53892222940309930657
O  1.15961021883623871531 -1.88140208249342943958 2.80998166284474804044
O  5.97384117287688454212 -0.72056215651174970738 2.28104190831524888949
H  0.13224704601901035583 5.90028006910375868443 0.06179845111059995011
H  -5.02906546666553655456 3.26944512916705898320 1.32195973471651906372
H  -5.66005365569407548065 -2.74597562429162023179 -0.06617953327339991254
H  -0.37596333589037028711 -5.75629752710907105495 -0.61905323145201962554
H  5.07351651543867454563 -3.11302658157459832822 0.51127945807539909584
H  5.64867625842899290234 3.00541745320616016102 -0.46425305226986962603
H  2.01854436715261886803 6.06436711980527043409 -1.54656827692787923745
H  -3.84115196116301671481 5.32232493097132941529 0.73833328706388945406
H  -6.93123890356386596068 -0.87032777596413046783 -1.10908033325346933040
H  -2.33079476852577860413 -5.39901926729751036049 -2.10116728534805874418
H  3.97846078011181525369 -5.11278456573449080480 -0.51320329701895961438
H  6.65544385173537111910 0.99639818803564983440 -1.56359344794164911718
H  -0.44758121555990915130 5.54738430107657976009 -2.19514784185843891962
H  -4.99862717111371512857 4.04655674109809648797 -1.47877335682354948965
H  -4.87862214394077664537 -1.98151913903146037477 -2.69443521680572883881
H  0.17493009918405943992 -4.73959651674300985746 -2.77483024948440881730
H  4.66410798139857529776 -3.01874084232443751219 -2.26865624666724841063
H  4.64836089514038430792 2.34140600586418878848 -3.00041084851171824255
H  1.54098607645986906967 3.06283758725334953610 -1.87427115174566893963
H  -2.46085499425985743116 3.74585258222391859206 -1.49411825115310925582
H  -4.16019338913851743911 0.25205406388909978865 -1.74488235435312732946
H  -1.65150591338989927159 -2.43341514701178018854 -1.78743297510559906449
H  2.13072481812891645347 -3.06478741669444998408 -1.84269875172082908676
H  3.74246695990955480227 0.17505707611953005842 -2.01366769037927806352
H  2.36276715127818626172 4.34815172937626659433 -3.71377294779213817932
H  -2.81157367692486648281 6.10014489877917043259 -1.64421335474422902756
H  -6.09084081771053398313 0.69029656113981896493 -3.10886487380280840398
H  -2.66909052727224915813 -3.26592044166787065507 -3.80334705793696725706
H  2.58698386619235698447 -5.14749436802668913771 -2.89909019680832802379
H  5.49408568008983611008 -0.53311484335033920701 -3.50050276010526850712
H  4.02144260633307659702 4.43873977070721803528 -0.76158004326704964448
H  -1.33879622191689873212 4.69571097986318886086 1.19890805994787918998
H  -6.17413561112708553225 1.47410559342782954140 0.19007305348557004820
H  -4.09868189285289563628 -3.97092024710498758822 -0.80481580480895953400
H  1.40934724253084797674 -5.07071095687050732437 0.35457577458490985300
H  5.76955099277967686788 -1.16139533236291936369 -0.16672775541378001551
H  1.99677609145850842864 2.83976438078294002310 0.85744948004959942178
H  -2.03432580407637875197 1.97912333649938032565 -0.00933991151863993591
H  -3.58181057813990832983 0.04730107681938962305 0.97286818618691950356
H  -1.81875059986388909472 -2.77601408995254050893 0.84523606295103970165
H  1.70767087459974709063 -2.02632998237252959228 0.44167627387429975183
H  3.29684627784058648103 0.46242992506568020294 0.61428010446683900536
H  4.27684283934914866165 3.13377304722748029064 1.84096947029981894417
H  3.05499576615011703140 4.05618852724160117162 2.76325081195894650676
H  -4.79227452249524610295 -0.15173887546790032488 3.16617738075086840865
H  -4.40898511711660745505 1.53315883400238783807 2.74824849325204567663
H  -3.97170422031588721268 -2.91608560685773054999 2.03992773831826879061
H  -2.81226758138124921516 -4.12058300134711963381 2.66817818299924836012
H  4.35574918530906440850 0.42281946590956998033 2.86286040394648688689
H  4.02684838685082624465 -1.23311937246010971947 2.28407916476905814562
H  3.76320851633328734565 5.88246056441070930276 1.54085400740711886414
H  -6.90736717162538571557 0.28345440568049945496 2.39381796429284854355
H  -3.92388988794632753709 -5.64051884971686945391 1.33424427257381927880
H  6.51908788538571037918 0.06399434512467971903 2.12347478294185876280
C  0.26127497010885958328 -1.58912450335454979999 3.90285766255619792631
H  0.88951598116402896821 -1.18363696298226983572 4.68922404710705720277
H  -0.25570570590976021697 -2.48705044817073872565 4.23160082255163860765
O  0.34924840901390941106 -3.98334818409430990727 2.55358777221210875297
C  -0.58617522855173942453 0.84541176598609990567 3.79519962836908808512
H  -0.99939904616609909205 0.95260657278872973297 4.79784223568303769270
H  0.46887642779151966765 1.11663465419944030188 3.80502509435579794328
O  0.16237772092035962501 1.42572362705916000358 1.35186217851816903313
C  -0.72420064229639979914 -0.57561974826865003330 3.33162747555646809872
O  -1.53646263887656897573 -0.91508322368633943089 2.48476685153011844776
O  5.12016518841188084110 -3.80675011383641637153 3.06030596716629732512
H  4.25869305737139836054 -3.72293329273593265327 2.63580323223809243061
H  5.32062354544112547927 -2.90677049522949593197 3.34175791086644746741
O  -2.07739336173240829453 4.33352014407194108259 3.97883132084589563604
H  -2.35787845356035274946 3.79904446580360399821 3.22714925599252966393
H  -2.03711298227879344935 3.69888340896133804847 4.70338343691660476509
O  1.20861243434111176320 0.84716361011117102819 -2.45015501381522371460
H  1.47563441383520377315 -0.07837486559086279114 -2.48810045468183282935
H  0.38317580702480413812 0.86359757474617560025 -2.94789627442596335882
O  2.57954538705013813882 -5.94619569675729753300 2.93431070549187023033
H  2.65596581105262918854 -6.24703290143068468154 3.84700942856533290026
H  1.73718974537481085640 -5.47753390440847809373 2.92185435155271555629
O  7.29620667321037252862 3.05100343268505413974 1.44429872370218603805
H  7.01503845224758304511 2.20928903027048573193 1.06770429954158507790
H  6.76420353927246242876 3.12816771772275625807 2.24453643964550542123
O  -1.05493549403350583837 -0.20175112183925833498 -1.90578485440609046719
H  -1.23685437313731783071 -0.42092813198437378785 -0.98479135623696145707
H  -1.90977621469210645522 0.09335581160641551191 -2.23973290958756754421
O  0.40789638124594512769 4.85382894434815526097 3.72543848859718496058
H  0.01368879175008975990 4.49477322989597638525 2.92229377291796899030
H  0.03071683465176650030 4.30767446854185553917 4.42459007560179617968
O  1.21348797977724287556 -3.47827765770486418972 -4.92319011099401926401
H  1.25561636499323192595 -2.59985245536667353150 -4.52827692170230822200
H  0.26721009973673559568 -3.65151120294881614825 -4.98572311005507007309
O  -3.37744983416910171670 -0.80244443854341140909 5.02801316157645405980
H  -3.98342569205590901760 -0.66501468563138288470 5.76508058501425590947
H  -2.99943270180925969370 -1.67108239055839913334 5.20671184479757620522
O  -0.29409470751137145594 7.08250446257944599182 2.34081583065246645603
H  0.51752120379981159104 6.67959335556119793154 2.01171961923672348860
H  -0.39475462152669771321 6.69967646414601958327 3.21983367390093944138
O  -3.43295572661918013679 2.81287833768132600198 -3.73637328428637882638
H  -3.86438062166725604385 3.40821766400290560028 -4.35991615409412336390
H  -4.15948600299494675170 2.49865613529479757560 -3.18611859011283016230
O  1.35024310655608803522 2.97177396900470869312 -4.84512104697737200354
H  1.75484819780610545870 2.33269820340351374810 -4.24742635068489171601
H  0.40538034146273999037 2.85284786628234776629 -4.69527779335967210272
O  0.18322687505456614065 -6.60190669290909060152 2.15079632328284464649
H  -0.09082779438799913618 -5.87151553977062601319 1.58441759346140953468
H  -0.37141095595953899089 -7.33395350912017729428 1.85780076238388747178
O  2.56947934761413288030 -7.05085454762334773449 0.50028496151401569136
H  2.21567125483624716153 -7.92918499809157051317 0.31940511939356591720
H  2.62946282806246500741 -7.02634175534128413432 1.46213898812676346139
O  0.58627963217273637575 -7.34812615275521352487 -2.33549050516169032221
H  1.53648087109563014074 -7.23569529413239376225 -2.45312966360428363899
H  0.21408734174046861742 -6.97478527771062140062 -3.14261599316652207037
O  0.89019192326940954629 -0.81060957508683373351 -5.28435931750822174280
H  1.33739023672534007581 -0.02176180210095902262 -4.95710571016715118020
H  0.39779649937544075966 -0.48928159775481222526 -6.04833388575988006863
O  -7.04956873861824728777 -3.96410725474136516056 2.00995718922721300359
H  -7.15254410147000818654 -4.65493643898663123082 1.34549261014047272234
H  -6.11654403109737643263 -4.01710470963826971058 2.24663889184350029637
O  -2.39204768770303655145 0.15717982328363380717 -4.46632338538250728277
H  -1.53045049202667371446 0.00772474470296939664 -4.87212569674781104112
H  -3.01349931175671681416 -0.09387819900866259393 -5.15923738569354028982
O  3.14332620986744482039 -1.62109111580771458883 -4.37889695172932036371
H  3.95613356745356270494 -1.99669242749930186953 -4.73615024860673283769
H  3.41939840053587484903 -1.25197539084039011215 -3.53219760098863355680
O  -2.67562507398253446311 -2.72429854713833474733 -5.71877295514880223948
H  -2.04201429833394287883 -2.02689782699283638223 -5.51497971545993515008
H  -3.48775396947860238939 -2.24134700532619701718 -5.90999672141472753850
O  -5.16179463953493655737 1.22880828697755473122 5.39796580930602942772
H  -4.30623578081447266896 1.46134611394679203578 5.01940635253112343861
H  -5.78909550991919452656 1.71748339740495525874 4.85294074760039073624
O  7.47482153174193530987 -2.68927817501331345440 -0.05106943122605772656
H  8.13144470871629110320 -2.53901163294919740565 -0.74072734194451583800
H  7.93040395968893019329 -2.42164143292063815949 0.75526628610962387445
O  3.28308700329775504656 0.25360364509140098654 4.83243799257620310073
H  3.23293046070106671053 -0.70364738321965725198 4.72988627853632603859
H  4.06735062240857292437 0.38041984245367749251 5.37852433304727917118
O  -5.07534094216287634538 3.89321310787356278382 4.18836856975482074716
H  -4.61545125675281653344 4.72313013558524108504 4.01777763099195883711
H  -5.96276847180845059881 4.05379896144220630561 3.84771239898420525094
O  1.45025193988893930097 0.85417997595781436360 6.76870280392417633664
H  1.93168607196916974900 0.40658874102402198236 6.06354656102552258545
H  1.57211704817955344460 1.78876006609927284963 6.56604295611061861138
O  -3.44570730021408344612 6.77245127343282860011 2.84439293874128606987
H  -2.83813269621510055885 6.02427171225839241941 2.86542883274777748781
H  -3.25376718262646669189 7.19423259426640626657 1.99904001121358820825
O  1.11816444679303672594 -4.32565546146346058265 5.35386354484279181065
H  1.95414561632925742884 -4.77549682520086538062 5.52161423984008425947
H  1.09148599170977855799 -4.25173814587538156928 4.39303757000971195623
O  5.69783059855965134943 6.18101505111007654136 -0.46750319903466597271
H  5.65619013476971144172 5.71961212919333217286 -1.31292349654496254274
H  5.53829147136253219230 5.48279244561875067632 0.17778318970865775173
O  2.97214826822710387333 -2.54039818672827300006 4.88361746345918756873
H  3.41044717656149964924 -3.18502199179687339736 5.45081785213333347428
H  2.66417877776444944615 -3.06908794922679950545 4.13863156332634751777
O  -2.10927255164601490378 -7.62235687850030174673 0.24960413766669745095
H  -2.13965310933945929150 -6.83056022449032518296 0.79869169392088013026
H  -2.07196267734623429391 -7.27229058048671817005 -0.64784982978685135002
O  -5.95738119874374394414 -2.71946959444894975633 3.84506308661250484349
H  -5.96340446262175483128 -1.86313932192317133207 3.40231682895634879316
H  -6.78868546794184801740 -2.72604528790807476568 4.33317376636849971305
O  -3.06978445874264105342 -3.43806722092029648508 5.47737141699656771010
H  -3.67898439910825914012 -3.83318839658434562523 4.84324465268146386876
H  -3.01545803629152464609 -4.09790447024198378756 6.17810353960445901578
O  -2.10081379495279207958 8.35058361134574589357 0.53683197392943493576
H  -1.61379119656063196864 7.95027358434584385805 1.26616244426441015847
H  -1.73720053490439929611 7.91471854570989652444 -0.24237859138558603966
O  -8.42745239344178287411 -1.03324261877772083373 1.40939887423460175064
H  -8.74522024018301102899 -1.47272331779698451015 0.61237793675094354118
H  -8.15702876973042201314 -1.76432351012953780867 1.97663238652241024518
O  3.87943375610813978582 -4.37462418223442295329 -4.97668615011491155542
H  4.00479093303440514262 -4.03851172306594285999 -4.08188111157012123442
H  3.18345245043729851986 -3.81081113013313599325 -5.33317868560514263265
O  -5.02249802687488067221 -6.12198789954351330067 -1.41574994816551513743
H  -5.65086478382581525182 -6.04143046506416325769 -2.14240515012131149675
H  -5.56763899736979617217 -5.99082463791727271030 -0.63154360764616801482
O  6.76129068312599823543 -5.04345246071938468901 1.16298602563045272440
H  7.25013401468822760165 -4.45828877716016158672 1.75288239335184359291
H  5.85704305101521160992 -4.99120067318923510413 1.49308909127094979752
O  -5.93556616484713650550 5.72530217161403776061 1.91205713122279252758
H  -5.52993297785360393704 6.23868639270711522471 2.62005460520308197658
H  -6.01387832027358637532 6.35993296048305722934 1.19061896231622310616
O  -7.58983910848944809402 3.48574222598179828125 2.59254318740139710897
H  -8.20366369774587944619 3.02710500611880206634 2.00753606077740265334
H  -7.51395259842904561509 4.36152180863303229330 2.19679904830974015439
O  -2.87802867744106549708 -6.53147625635682960166 2.66862854605135479957
H  -2.23219968800951429344 -6.11662975841340283978 3.25186894552162586436
H  -3.01741911092758474666 -7.39791238204446433002 3.06765337056627407364
253
Energy 2.984160
C  0.71130776615267965468 5.00482414727958069278 -0.19561568134503989902
C  -4.13784486848083687960 3.17739904325788646844 0.68958586950538958149
C  -5.17444863619361594687 -1.77393841750645009370 -0.21665732364067985527
C  -0.87384297371556018952 -4.77917785703500719308 -0.63719983279390968178
C  4.05339626216557658012 -3.03094590633414950887 0.11871533019796989827
C  5.04884681101444510176 2.09362244562296995198 -0.58404774284701976850
O  -0.12582766454131008582 3.86927617535052936759 -0.25997818896310981307
O  -4.31294268880552600365 2.22131748928795813569 -0.31126934222609969893
O  -3.82279935479500831974 -1.93070136534545921947 -0.57994872475585967919
O  0.05957377906125960187 -3.73642003081359996841 -0.49167570712067970584
O  3.83098722953195691687 -1.80990987403622982654 -0.51821454630126961849
O  3.72723448493223719069 2.39573122461048049203 -0.94081572077923947273
C  1.36673334302333859824 5.17738746353810963541 -1.57023401112807836633
C  -3.83082197195232687648 4.52142930134692022648 -0.00861440099554997007
C  -5.86696795055896558324 -0.98447702978594020529 -1.33884527976942946381
C  -1.61012054292363893104 -4.57805317038506043303 -1.97033050864001890723
C  3.77326160587263625956 -4.12352537948484876296 -0.93397915008777943058
C  5.59790018606635531029 1.22271087148065049632 -1.73017268935670931462
O  0.41249294889497961636 5.31215455814457548911 -2.59060683846512906925
O  -4.80930237402007687564 4.84002336366017882341 -0.95372222083172941698
O  -5.78582568311042511056 -1.64728677729911021643 -2.57023780092665665720
O  -0.73773614924839026052 -4.55082005612955775575 -3.06837569591808811964
O  4.60494108751403530277 -3.96622878976938064710 -2.04751294360803903771
O  5.51089034068398309074 1.89539249938175013988 -2.95590729180038813695
C  2.21877561653414900888 3.93091745157843019953 -1.83150699881148915082
C  -2.43703341709546794647 4.47105818176657887619 -0.66523693747410916899
C  -5.20475957224313479088 0.39731597485467984310 -1.42006973941786962534
C  -2.38127676782546915391 -3.25302065840269838404 -1.88850281771867911651
C  2.29083818924970739062 -4.03265794157949919452 -1.34196827120711925652
C  4.78374355357373559627 -0.07921556826066936119 -1.75652837800578920380
O  2.95978907701573756839 4.02999105522410960845 -3.02082727297879927164
O  -2.05802748860041750945 5.73612709045024526944 -1.15190620092513951178
O  -5.88058054611833469494 1.22747881263100988569 -2.32923887821376673912
O  -3.19127255102765827743 -3.04457554296714016928 -3.01769493583701819972
O  1.91775986910106821526 -5.08492791013237965814 -2.19872422703288883383
O  5.29532575127568527762 -1.00829228528355963057 -2.67980956684520821298
C  3.21669371315159757785 3.69387210059014980956 -0.69186082520354963421
C  -1.38795551033674868791 3.99685863851938982805 0.35420949320828976070
C  -5.16778178528489551269 1.11072336231340940138 -0.06149807731087994500
C  -3.29265555667351561553 -3.24033602237473994379 -0.65776494554374898005
C  1.38149539713368874061 -4.07715922342435987957 -0.10764441609134994815
C  4.77256626082026613744 -0.75675892258768917564 -0.38217592772181979699
C  2.55256396054111922567 3.77383000390614853359 0.69472730196528931224
C  -1.87658184279176842857 2.62959785738603990524 0.86959042675287956392
C  -4.66995162147994768986 0.17586095834351950229 1.06305633345943961743
C  -2.50721461222832919802 -3.60110911172643000100 0.61297497945516965512
C  1.85352377539312773713 -3.02051341305114995350 0.89710406424008881654
C  4.36577196934167766074 0.23022434129321070473 0.72517060885729955899
O  1.66907167957595858887 4.88692368085399930777 0.81124164518227925846
O  -3.08441362729646728624 2.81665904229748020882 1.56150817661108898271
O  -5.30102626309129565385 -1.10211608872167032835 0.99847272905182959946
O  -1.77848159054403920365 -4.80866574069801888669 0.42941785465123982757
O  3.21002454205557707922 -3.18580015958223006223 1.24237706618064924768
O  5.13256533557428618053 1.42782080075291051280 0.64399374126307928901
C  3.59066688938968736622 3.98044807994619054270 1.80950926664780875619
C  -0.89645500604576855430 1.89000615206742916818 1.74680470073063887071
C  -5.01952751177552602968 0.67278465397587872143 2.47922864883734828112
C  -3.43552903897644679176 -3.83876853711820009707 1.81094492657019912052
C  1.02780373685861881050 -3.05255631487953005276 2.17255950121327856550
C  4.63334413526010635564 -0.33982799439168964728 2.12582775292363868047
O  4.36587551677528651339 5.12623218609484077035 1.58164252684446804409
O  -1.34635178925135901018 1.75509148705510997779 2.99556395054215807150
O  -6.36137881605171440214 1.05950386521692951902 2.58358829301366776932
O  -4.39579169127993640842 -4.82015551998131019928 1.53892222940309930657
O  1.15961021883623871531 -1.88140208249342943958 2.80998166284474804044
O  5.97384117287688454212 -0.72056215651174970738 2.28104190831524888949
H  0.13224704601901035583 5.90028006910375868443 0.06179845111059995011
H  -5.02906546666553655456 3.26944512916705898320 1.32195973471651906372
H  -5.66005365569407548065 -2.74597562429162023179 -0.06617953327339991254
H  -0.37596333589037028711 -5.75629752710907105495 -0.61905323145201962554
H  5.07351651543867454563 -3.11302658157459832822 0.51127945807539909584
H  5.64867625842899290234 3.00541745320616016102 -0.46425305226986962603
H  2.01854436715261886803 6.06436711980527043409 -1.54656827692787923745
H  -3.84115196116301671481 5.32232493097132941529 0.73833328706388945406
H  -6.93123890356386596068 -0.87032777596413046783 -1.10908033325346933040
H  -2.33079476852577860413 -5.39901926729751036049 -2.10116728534805874418
H  3.97846078011181525369 -5.11278456573449080480 -0.51320329701895961438
H  6.65544385173537111910 0.99639818803564983440 -1.56359344794164911718
H  -0.44758121555990915130 5.54738430107657976009 -2.19514784185843891962
H  -4.99862717111371512857 4.04655674109809648797 -1.47877335682354948965
H  -4.87862214394077664537 -1.98151913903146037477 -2.69443521680572883881
H  0.17493009918405943992 -4.73959651674300985746 -2.77483024948440881730
H  4.66410798139857529776 -3.01874084232443751219 -2.26865624666724841063
H  4.64836089514038430792 2.34140600586418878848 -3.00041084851171824255
H  1.54098607645986906967 3.06283758725334953610 -1.87427115174566893963
H  -2.46085499425985743116 3.74585258222391859206 -1.49411825115310925582
H  -4.16019338913851743911 0.25205406388909978865 -1.74488235435312732946
H  -1.65150591338989927159 -2.43341514701178018854 -1.78743297510559906449
H  2.13072481812891645347 -3.06478741669444998408 -1.84269875172082908676
H  3.74246695990955480227 0.17505707611953005842 -2.01366769037927806352
H  2.36276715127818626172 4.34815172937626659433 -3.71377294779213817932
H  -2.81157367692486648281 6.10014489877917043259 -1.64421335474422902756
H  -6.09084081771053398313 0.69029656113981896493 -3.10886487380280840398
H  -2.66909052727224915813 -3.26592044166787065507 -3.80334705793696725706
H  2.58698386619235698447 -5.14749436802668913771 -2.89909019680832802379
H  5.49408568008983611008 -0.53311484335033920701 -3.50050276010526850712
H  4.02144260633307659702 4.43873977070721803528 -0.76158004326704964448
H  -1.33879622191689873212 4.69571097986318886086 1.19890805994787918998
H  -6.17413561112708553225 1.47410559342782954140 0.19007305348557004820
H  -4.09868189285289563628 -3.97092024710498758822 -0.80481580480895953400
H  1.40934724253084797674 -5.07071095687050732437 0.35457577458490985300
H  5.76955099277967686788 -1.16139533236291936369 -0.16672775541378001551
H  1.99677609145850842864 2.83976438078294002310 0.85744948004959942178
H  -2.03432580407637875197 1.97912333649938032565 -0.00933991151863993591
H  -3.58181057813990832983 0.04730107681938962305 0.97286818618691950356
H  -1.81875059986388909472 -2.77601408995254050893 0.84523606295103970165
H  1.70767087459974709063 -2.02632998237252959228 0.44167627387429975183
H  3.29684627784058648103 0.46242992506568020294 0.61428010446683900536
H  4.27684283934914866165 3.13377304722748029064 1.84096947029981894417
H  3.05499576615011703140 4.05618852724160117162 2.76325081195894650676
H  -4.79227452249524610295 -0.15173887546790032488 3.16617738075086840865
H  -4.40898511711660745505 1.53315883400238783807 2.74824849325204567663
H  -3.97170422031588721268 -2.91608560685773054999 2.03992773831826879061
H  -2.81226758138124921516 -4.12058300134711963381 2.66817818299924836012
H  4.35574918530906440850 0.42281946590956998033 2.86286040394648688689
H  4.02684838685082624465 -1.23311937246010971947 2.28407916476905814562
H  3.76320851633328734565 5.88246056441070930276 1.54085400740711886414
H  -6.90736717162538571557 0.28345440568049945496 2.39381796429284854355
H  -3.92388988794632753709 -5.64051884971686945391 1.33424427257381927880
H  6.51908788538571037918 0.06399434512467971903 2.12347478294185876280
C  0.26127497010885958328 -1.58912450335454979999 3.90285766255619792631
H  0.88951598116402896821 -1.18363696298226983572 4.68922404710705720277
H  -0.25570570590976021697 -2.48705044817073872565 4.23160082255163860765
O  0.34924840901390941106 -3.98334818409430990727 2.55358777221210875297
C  -0.58617522855173942453 0.84541176598609990567 3.79519962836908808512
H  -0.99939904616609909205 0.95260657278872973297 4.79784223568303769270
H  0.46887642779151966765 1.11663465419944030188 3.80502509435579794328
O  0.16237772092035962501 1.42572362705916000358 1.35186217851816903313
C  -0.72420064229639979914 -0.57561974826865003330 3.33162747555646809872
O  -1.53646263887656897573 -0.91508322368633943089 2.48476685153011844776
O  5.12016518841188084110 -3.80675011383641637153 3.06030596716629732512
H  4.25869305737139836054 -3.72293329273593265327 2.63580323223809243061
H  5.32062354544112547927 -2.90677049522949593197 3.34175791086644746741
O  -2.07739336173240829453 4.33352014407194108259 3.97883132084589563604
H  -2.35787845356035274946 3.79904446580360399821 3.22714925599252966393
H  -2.03711298227879344935 3.69888340896133804847 4.70338343691660476509
O  1.20861243434111176320 0.84716361011117102819 -2.45015501381522371460
H  1.47563441383520377315 -0.07837486559086279114 -2.48810045468183282935
H  0.38317580702480413812 0.86359757474617560025 -2.94789627442596335882
O  2.57954538705013813882 -5.94619569675729753300 2.93431070549187023033
H  2.65596581105262918854 -6.24703290143068468154 3.84700942856533290026
H  1.73718974537481085640 -5.47753390440847809373 2.92185435155271555629
O  7.29620667321037252862 3.05100343268505413974 1.44429872370218603805
H  7.01503845224758304511 2.20928903027048573193 1.06770429954158507790
H  6.76420353927246242876 3.12816771772275625807 2.24453643964550542123
O  -1.05493549403350583837 -0.20175112183925833498 -1.90578485440609046719
H  -1.23685437313731783071 -0.42092813198437378785 -0.98479135623696145707
H  -1.90977621469210645522 0.09335581160641551191 -2.23973290958756754421
O  0.40789638124594512769 4.85382894434815526097 3.72543848859718496058
H  0.01368879175008975990 4.49477322989597638525 2.92229377291796899030
H  0.03071683465176650030 4.30767446854185553917 4.42459007560179617968
O  1.21348797977724287556 -3.47827765770486418972 -4.92319011099401926401
H  1.25561636499323192595 -2.59985245536667353150 -4.52827692170230822200
H  0.26721009973673559568 -3.65151120294881614825 -4.98572311005507007309
O  -3.37744983416910171670 -0.80244443854341140909 5.02801316157645405980
H  -3.98342569205590901760 -0.66501468563138288470 5.76508058501425590947
H  -2.99943270180925969370 -1.67108239055839913334 5.20671184479757620522
O  -0.29409470751137145594 7.08250446257944599182 2.34081583065246645603
H  0.51752120379981159104 6.67959335556119793154 2.01171961923672348860
H  -0.39475462152669771321 6.69967646414601958327 3.21983367390093944138
O  -3.43295572661918013679 2.81287833768132600198 -3.73637328428637882638
H  -3.86438062166725604385 3.40821766400290560028 -4.35991615409412336390
H  -4.15948600299494675170 2.49865613529479757560 -3.18611859011283016230
O  1.35024310655608803522 2.97177396900470869312 -4.84512104697737200354
H  1.75484819780610545870 2.33269820340351374810 -4.24742635068489171601
H  0.40538034146273999037 2.85284786628234776629 -4.69527779335967210272
O  0.18322687505456614065 -6.60190669290909060152 2.15079632328284464649
H  -0.09082779438799913618 -5.87151553977062601319 1.58441759346140953468
H  -0.37141095595953899089 -7.33395350912017729428 1.85780076238388747178
O  2.56947934761413288030 -7.05085454762334773449 0.50028496151401569136
H  2.21567125483624716153 -7.92918499809157051317 0.31940511939356591720
H  2.62946282806246500741 -7.02634175534128413432 1.46213898812676346139
O  0.58627963217273637575 -7.34812615275521352487 -2.33549050516169032221
H  1.53648087109563014074 -7.23569529413239376225 -2.45312966360428363899
H  0.21408734174046861742 -6.97478527771062140062 -3.14261599316652207037
O  0.89019192326940954629 -0.81060957508683373351 -5.28435931750822174280
H  1.33739023672534007581 -0.02176180210095902262 -4.95710571016715118020
H  0.39779649937544075966 -0.48928159775481222526 -6.04833388575988006863
O  -7.04956873861824728777 -3.96410725474136516056 2.00995718922721300359
H  -7.15254410147000818654 -4.65493643898663123082 1.34549261014047272234
H  -6.11654403109737643263 -4.01710470963826971058 2.24663889184350029637
O  -2.39204768770303655145 0.15717982328363380717 -4.46632338538250728277
H  -1.53045049202667371446 0.00772474470296939664 -4.87212569674781104112
H  -3.01349931175671681416 -0.09387819900866259393 -5.15923738569354028982
O  3.14332620986744482039 -1.62109111580771458883 -4.37889695172932036371
H  3.95613356745356270494 -1.99669242749930186953 -4.73615024860673283769
H  3.41939840053587484903 -1.25197539084039011215 -3.53219760098863355680
O  -2.67562507398253446311 -2.72429854713833474733 -5.71877295514880223948
H  -2.04201429833394287883 -2.02689782699283638223 -5.51497971545993515008
H  -3.48775396947860238939 -2.24134700532619701718 -5.90999672141472753850
O  -5.16179463953493655737 1.22880828697755473122 5.39796580930602942772
H  -4.30623578081447266896 1.46134611394679203578 5.01940635253112343861
H  -5.78909550991919452656 1.71748339740495525874 4.85294074760039073624
O  7.47482153174193530987 -2.68927817501331345440 -0.05106943122605772656
H  8.13144470871629110320 -2.53901163294919740565 -0.74072734194451583800
H  7.93040395968893019329 -2.42164143292063815949 0.75526628610962387445
O  3.28308700329775504656 0.25360364509140098654 4.83243799257620310073
H  3.23293046070106671053 -0.70364738321965725198 4.72988627853632603859
H  4.06735062240857292437 0.38041984245367749251 5.37852433304727917118
O  -5.07534094216287634538 3.89321310787356278382 4.18836856975482074716
H  -4.61545125675281653344 4.72313013558524108504 4.01777763099195883711
H  -5.96276847180845059881 4.05379896144220630561 3.84771239898420525094
O  1.45025193988893930097 0.85417997595781436360 6.76870280392417633664
H  1.93168607196916974900 0.40658874102402198236 6.06354656102552258545
H  1.57211704817955344460 1.78876006609927284963 6.56604295611061861138
O  -3.44570730021408344612 6.77245127343282860011 2.84439293874128606987
H  -2.83813269621510055885 6.02427171225839241941 2.86542883274777748781
H  -3.25376718262646669189 7.19423259426640626657 1.99904001121358820825
O  1.11816444679303672594 -4.32565546146346058265 5.35386354484279181065
H  1.95414561632925742884 -4.77549682520086538062 5.52161423984008425947
H  1.09148599170977855799 -4.25173814587538156928 4.39303757000971195623
O  5.69783059855965134943 6.18101505111007654136 -0.46750319903466597271
H  5.65619013476971144172 5.71961212919333217286 -1.31292349654496254274
H  5.53829147136253219230 5.48279244561875067632 0.17778318970865775173
O  2.97214826822710387333 -2.54039818672827300006 4.88361746345918756873
H  3.41044717656149964924 -3.18502199179687339736 5.45081785213333347428
H  2.66417877776444944615 -3.06908794922679950545 4.13863156332634751777
O  -2.10927255164601490378 -7.62235687850030174673 0.24960413766669745095
H  -2.13965310933945929150 -6.83056022449032518296 0.79869169392088013026
H  -2.07196267734623429391 -7.27229058048671817005 -0.64784982978685135002
O  -5.95738119874374394414 -2.71946959444894975633 3.84506308661250484349
H  -5.96340446262175483128 -1.86313932192317133207 3.40231682895634879316
H  -6.78868546794184801740 -2.72604528790807476568 4.33317376636849971305
O  -3.06978445874264105342 -3.43806722092029648508 5.47737141699656771010
H  -3.67898439910825914012 -3.83318839658434562523 4.84324465268146386876
H  -3.01545803629152464609 -4.09790447024198378756 6.17810353960445901578
O  -2.10081379495279207958 8.35058361134574589357 0.53683197392943493576
H  -1.61379119656063196864 7.95027358434584385805 1.26616244426441015847
H  -1.73720053490439929611 7.91471854570989652444 -0.24237859138558603966
O  -8.42745239344178287411 -1.03324261877772083373 1.40939887423460175064
H  -8.74522024018301102899 -1.47272331779698451015 0.61237793675094354118
H  -8.15702876973042201314 -1.76432351012953780867 1.97663238652241024518
O  3.87943375610813978582 -4.37462418223442295329 -4.97668615011491155542
H  4.00479093303440514262 -4.03851172306594285999 -4.08188111157012123442
H  3.18345245043729851986 -3.81081113013313599325 -5.33317868560514263265
O  -5.02249802687488067221 -6.12198789954351330067 -1.41574994816551513743
H  -5.65086478382581525182 -6.04143046506416325769 -2.14240515012131149675
H  -5.56763899736979617217 -5.99082463791727271030 -0.63154360764616801482
O  6.76129068312599823543 -5.04345246071938468901 1.16298602563045272440
H  7.25013401468822760165 -4.45828877716016158672 1.75288239335184359291
H  5.85704305101521160992 -4.99120067318923510413 1.49308909127094979752
O  -5.93556616484713650550 5.72530217161403776061 1.91205713122279252758
H  -5.52993297785360393704 6.23868639270711522471 2.62005460520308197658
H  -6.01387832027358637532 6.35993296048305722934 1.19061896231622310616
O  -7.58983910848944809402 3.48574222598179828125 2.59254318740139710897
H  -8.20366369774587944619 3.02710500611880206634 2.00753606077740265334
H  -7.51395259842904561509 4.36152180863303229330 2.19679904830974015439
O  -2.87802867744106549708 -6.53147625635682782530 2.66862854605135479957
H  -2.23219968800951429344 -6.11662975841340283978 3.25186894552162586436
H  -3.01741911092758474666 -7.39791238204446433002 3.06765337056627407364
O  -7.14524688633804139215 3.28628260574892161472 -0.50934066589381155055
H  -8.06177910814559339769 3.47365469286326167264 -0.27648351788397435014
H  -7.21930038840080712248 2.79129766374570564835 -1.33327515931281248562
256
Energy 2.774130
C  0.71130776615267965468 5.00482414727958069278 -0.19561568134503989902
C  -4.13784486848083687960 3.17739904325788646844 0.68958586950538958149
C  -5.17444863619361594687 -1.77393841750645009370 -0.21665732364067985527
C  -0.87384297371556018952 -4.77917785703500719308 -0.63719983279390968178
C  4.05339626216557658012 -3.03094590633414950887 0.11871533019796989827
C  5.04884681101444510176 2.09362244562296995198 -0.58404774284701976850
O  -0.12582766454131008582 3.86927617535052936759 -0.25997818896310981307
O  -4.31294268880552600365 2.22131748928795813569 -0.31126934222609969893
O  -3.82279935479500831974 -1.93070136534545921947 -0.57994872475585967919
O  0.05957377906125960187 -3.73642003081359996841 -0.49167570712067970584
O  3.83098722953195691687 -1.80990987403622982654 -0.51821454630126961849
O  3.72723448493223719069 2.39573122461048049203 -0.94081572077923947273
C  1.36673334302333859824 5.17738746353810963541 -1.57023401112807836633
C  -3.83082197195232687648 4.52142930134692022648 -0.00861440099554997007
C  -5.86696795055896558324 -0.98447702978594020529 -1.33884527976942946381
C  -1.61012054292363893104 -4.57805317038506043303 -1.97033050864001890723
C  3.77326160587263625956 -4.12352537948484876296 -0.93397915008777943058
C  5.59790018606635531029 1.22271087148065049632 -1.73017268935670931462
O  0.41249294889497961636 5.31215455814457548911 -2.59060683846512906925
O  -4.80930237402007687564 4.84002336366017882341 -0.95372222083172941698
O  -5.78582568311042511056 -1.64728677729911021643 -2.57023780092665665720
O  -0.73773614924839026052 -4.55082005612955775575 -3.06837569591808811964
O  4.60494108751403530277 -3.96622878976938064710 -2.04751294360803903771
O  5.51089034068398309074 1.89539249938175013988 -2.95590729180038813695
C  2.21877561653414900888 3.93091745157843019953 -1.83150699881148915082
C  -2.43703341709546794647 4.47105818176657887619 -0.66523693747410916899
C  -5.20475957224313479088 0.39731597485467984310 -1.42006973941786962534
C  -2.38127676782546915391 -3.25302065840269838404 -1.88850281771867911651
C  2.29083818924970739062 -4.03265794157949919452 -1.34196827120711925652
C  4.78374355357373559627 -0.07921556826066936119 -1.75652837800578920380
O  2.95978907701573756839 4.02999105522410960845 -3.02082727297879927164
O  -2.05802748860041750945 5.73612709045024526944 -1.15190620092513951178
O  -5.88058054611833469494 1.22747881263100988569 -2.32923887821376673912
O  -3.19127255102765827743 -3.04457554296714016928 -3.01769493583701819972
O  1.91775986910106821526 -5.08492791013237965814 -2.19872422703288883383
O  5.29532575127568527762 -1.00829228528355963057 -2.67980956684520821298
C  3.21669371315159757785 3.69387210059014980956 -0.69186082520354963421
C  -1.38795551033674868791 3.99685863851938982805 0.35420949320828976070
C  -5.16778178528489551269 1.11072336231340940138 -0.06149807731087994500
C  -3.29265555667351561553 -3.24033602237473994379 -0.65776494554374898005
C  1.38149539713368874061 -4.07715922342435987957 -0.10764441609134994815
C  4.77256626082026613744 -0.75675892258768917564 -0.38217592772181979699
C  2.55256396054111922567 3.77383000390614853359 0.69472730196528931224
C  -1.87658184279176842857 2.62959785738603990524 0.86959042675287956392
C  -4.66995162147994768986 0.17586095834351950229 1.06305633345943961743
C  -2.50721461222832919802 -3.60110911172643000100 0.61297497945516965512
C  1.85352377539312773713 -3.02051341305114995350 0.89710406424008881654
C  4.36577196934167766074 0.23022434129321070473 0.72517060885729955899
O  1.66907167957595858887 4.88692368085399930777 0.81124164518227925846
O  -3.08441362729646728624 2.81665904229748020882 1.56150817661108898271
O  -5.30102626309129565385 -1.10211608872167032835 0.99847272905182959946
O  -1.77848159054403920365 -4.80866574069801888669 0.42941785465123982757
O  3.21002454205557707922 -3.18580015958223006223 1.24237706618064924768
O  5.13256533557428618053 1.42782080075291051280 0.64399374126307928901
C  3.59066688938968736622 3.98044807994619054270 1.80950926664780875619
C  -0.89645500604576855430 1.89000615206742916818 1.74680470073063887071
C  -5.01952751177552602968 0.67278465397587872143 2.47922864883734828112
C  -3.43552903897644679176 -3.83876853711820009707 1.81094492657019912052
C  1.02780373685861881050 -3.05255631487953005276 2.17255950121327856550
C  4.63334413526010635564 -0.33982799439168964728 2.12582775292363868047
O  4.36587551677528651339 5.12623218609484077035 1.58164252684446804409
O  -1.34635178925135901018 1.75509148705510997779 2.99556395054215807150
O  -6.36137881605171440214 1.05950386521692951902 2.58358829301366776932
O  -4.39579169127993640842 -4.82015551998131019928 1.53892222940309930657
O  1.15961021883623871531 -1.88140208249342943958 2.80998166284474804044
O  5.97384117287688454212 -0.72056215651174970738 2.28104190831524888949
H  0.13224704601901035583 5.90028006910375868443 0.06179845111059995011
H  -5.02906546666553655456 3.26944512916705898320 1.32195973471651906372
H  -5.66005365569407548065 -2.74597562429162023179 -0.06617953327339991254
H  -0.37596333589037028711 -5.75629752710907105495 -0.61905323145201962554
H  5.07351651543867454563 -3.11302658157459832822 0.51127945807539909584
H  5.64867625842899290234 3.00541745320616016102 -0.46425305226986962603
H  2.01854436715261886803 6.06436711980527043409 -1.54656827692787923745
H  -3.84115196116301671481 5.32232493097132941529 0.73833328706388945406
H  -6.93123890356386596068 -0.87032777596413046783 -1.10908033325346933040
H  -2.33079476852577860413 -5.39901926729751036049 -2.10116728534805874418
H  3.97846078011181525369 -5.11278456573449080480 -0.51320329701895961438
H  6.65544385173537111910 0.99639818803564983440 -1.56359344794164911718
H  -0.44758121555990915130 5.54738430107657976009 -2.19514784185843891962
H  -4.99862717111371512857 4.04655674109809648797 -1.47877335682354948965
H  -4.87862214394077664537 -1.98151913903146037477 -2.69443521680572883881
H  0.17493009918405943992 -4.73959651674300985746 -2.77483024948440881730
H  4.66410798139857529776 -3.01874084232443751219 -2.26865624666724841063
H  4.64836089514038430792 2.34140600586418878848 -3.00041084851171824255
H  1.54098607645986906967 3.06283758725334953610 -1.87427115174566893963
H  -2.46085499425985743116 3.74585258222391859206 -1.49411825115310925582
H  -4.16019338913851743911 0.25205406388909978865 -1.74488235435312732946
H  -1.65150591338989927159 -2.43341514701178018854 -1.78743297510559906449
H  2.13072481812891645347 -3.06478741669444998408 -1.84269875172082908676
H  3.74246695990955480227 0.17505707611953005842 -2.01366769037927806352
H  2.36276715127818626172 4.34815172937626659433 -3.71377294779213817932
H  -2.81157367692486648281 6.10014489877917043259 -1.64421335474422902756
H  -6.09084081771053398313 0.69029656113981896493 -3.10886487380280840398
H  -2.66909052727224915813 -3.26592044166787065507 -3.80334705793696725706
H  2.58698386619235698447 -5.14749436802668913771 -2.89909019680832802379
H  5.49408568008983611008 -0.53311484335033920701 -3.50050276010526850712
H  4.02144260633307659702 4.43873977070721803528 -0.76158004326704964448
H  -1.33879622191689873212 4.69571097986318886086 1.19890805994787918998
H  -6.17413561112708553225 1.47410559342782954140 0.19007305348557004820
H  -4.09868189285289563628 -3.97092024710498758822 -0.80481580480895953400
H  1.40934724253084797674 -5.07071095687050732437 0.35457577458490985300
H  5.76955099277967686788 -1.16139533236291936369 -0.16672775541378001551
H  1.99677609145850842864 2.83976438078294002310 0.85744948004959942178
H  -2.03432580407637875197 1.97912333649938032565 -0.00933991151863993591
H  -3.58181057813990832983 0.04730107681938962305 0.97286818618691950356
H  -1.81875059986388909472 -2.77601408995254050893 0.84523606295103970165
H  1.70767087459974709063 -2.02632998237252959228 0.44167627387429975183
H  3.29684627784058648103 0.46242992506568020294 0.61428010446683900536
H  4.27684283934914866165 3.13377304722748029064 1.84096947029981894417
H  3.05499576615011703140 4.05618852724160117162 2.76325081195894650676
H  -4.79227452249524610295 -0.15173887546790032488 3.16617738075086840865
H  -4.40898511711660745505 1.53315883400238783807 2.74824849325204567663
H  -3.97170422031588721268 -2.91608560685773054999 2.03992773831826879061
H  -2.81226758138124921516 -4.12058300134711963381 2.66817818299924836012
H  4.35574918530906440850 0.42281946590956998033 2.86286040394648688689
H  4.02684838685082624465 -1.23311937246010971947 2.28407916476905814562
H  3.76320851633328734565 5.88246056441070930276 1.54085400740711886414
H  -6.90736717162538571557 0.28345440568049945496 2.39381796429284854355
H  -3.92388988794632753709 -5.64051884971686945391 1.33424427257381927880
H  6.51908788538571037918 0.06399434512467971903 2.12347478294185876280
C  0.26127497010885958328 -1.58912450335454979999 3.90285766255619792631
H  0.88951598116402896821 -1.18363696298226983572 4.68922404710705720277
H  -0.25570570590976021697 -2.48705044817073872565 4.23160082255163860765
O  0.34924840901390941106 -3.98334818409430990727 2.55358777221210875297
C  -0.58617522855173942453 0.84541176598609990567 3.79519962836908808512
H  -0.99939904616609909205 0.95260657278872973297 4.79784223568303769270
H  0.46887642779151966765 1.11663465419944030188 3.80502509435579794328
O  0.16237772092035962501 1.42572362705916000358 1.35186217851816903313
C  -0.72420064229639979914 -0.57561974826865003330 3.33162747555646809872
O  -1.53646263887656897573 -0.91508322368633943089 2.48476685153011844776
O  5.12016518841188084110 -3.80675011383641637153 3.06030596716629732512
H  4.25869305737139836054 -3.72293329273593265327 2.63580323223809243061
H  5.32062354544112547927 -2.90677049522949593197 3.34175791086644746741
O  -2.07739336173240829453 4.33352014407194108259 3.97883132084589563604
H  -2.35787845356035274946 3.79904446580360399821 3.22714925599252966393
H  -2.03711298227879344935 3.69888340896133804847 4.70338343691660476509
O  1.20861243434111176320 0.84716361011117102819 -2.45015501381522371460
H  1.47563441383520377315 -0.07837486559086279114 -2.48810045468183282935
H  0.38317580702480413812 0.86359757474617560025 -2.94789627442596335882
O  2.57954538705013813882 -5.94619569675729753300 2.93431070549187023033
H  2.65596581105262918854 -6.24703290143068468154 3.84700942856533290026
H  1.73718974537481085640 -5.47753390440847809373 2.92185435155271555629
O  7.29620667321037252862 3.05100343268505413974 1.44429872370218603805
H  7.01503845224758304511 2.20928903027048573193 1.06770429954158507790
H  6.76420353927246242876 3.12816771772275625807 2.24453643964550542123
O  -1.05493549403350583837 -0.20175112183925833498 -1.90578485440609046719
H  -1.23685437313731783071 -0.42092813198437378785 -0.98479135623696145707
H  -1.90977621469210645522 0.09335581160641551191 -2.23973290958756754421
O  0.40789638124594512769 4.85382894434815526097 3.72543848859718496058
H  0.01368879175008975990 4.49477322989597638525 2.92229377291796899030
H  0.03071683465176650030 4.30767446854185553917 4.42459007560179617968
O  1.21348797977724287556 -3.47827765770486418972 -4.92319011099401926401
H  1.25561636499323192595 -2.59985245536667353150 -4.52827692170230822200
H  0.26721009973673559568 -3.65151120294881614825 -4.98572311005507007309
O  -3.37744983416910171670 -0.80244443854341140909 5.02801316157645405980
H  -3.98342569205590901760 -0.66501468563138288470 5.76508058501425590947
H  -2.99943270180925969370 -1.67108239055839913334 5.20671184479757620522
O  -0.29409470751137145594 7.08250446257944599182 2.34081583065246645603
H  0.51752120379981159104 6.67959335556119793154 2.01171961923672348860
H  -0.39475462152669771321 6.69967646414601958327 3.21983367390093944138
O  -3.43295572661918013679 2.81287833768132600198 -3.73637328428637882638
H  -3.86438062166725604385 3.40821766400290560028 -4.35991615409412336390
H  -4.15948600299494675170 2.49865613529479757560 -3.18611859011283016230
O  1.35024310655608803522 2.97177396900470869312 -4.84512104697737200354
H  1.75484819780610545870 2.33269820340351374810 -4.24742635068489171601
H  0.40538034146273999037 2.85284786628234776629 -4.69527779335967210272
O  0.18322687505456614065 -6.60190669290909060152 2.15079632328284464649
H  -0.09082779438799913618 -5.87151553977062601319 1.58441759346140953468
H  -0.37141095595953899089 -7.33395350912017729428 1.85780076238388747178
O  2.56947934761413288030 -7.05085454762334773449 0.50028496151401569136
H  2.21567125483624716153 -7.92918499809157051317 0.31940511939356591720
H  2.62946282806246500741 -7.02634175534128413432 1.46213898812676346139
O  0.58627963217273637575 -7.34812615275521352487 -2.33549050516169032221
H  1.53648087109563014074 -7.23569529413239376225 -2.45312966360428363899
H  0.21408734174046861742 -6.97478527771062140062 -3.14261599316652207037
O  0.89019192326940954629 -0.81060957508683373351 -5.28435931750822174280
H  1.33739023672534007581 -0.02176180210095902262 -4.95710571016715118020
H  0.39779649937544075966 -0.48928159775481222526 -6.04833388575988006863
O  -7.04956873861824728777 -3.96410725474136516056 2.00995718922721300359
H  -7.15254410147000818654 -4.65493643898663123082 1.34549261014047272234
H  -6.11654403109737643263 -4.01710470963826971058 2.24663889184350029637
O  -2.39204768770303655145 0.15717982328363380717 -4.46632338538250728277
H  -1.53045049202667371446 0.00772474470296939664 -4.87212569674781104112
H  -3.01349931175671681416 -0.09387819900866259393 -5.15923738569354028982
O  3.14332620986744482039 -1.62109111580771458883 -4.37889695172932036371
H  3.95613356745356270494 -1.99669242749930186953 -4.73615024860673283769
H  3.41939840053587484903 -1.25197539084039011215 -3.53219760098863355680
O  -2.67562507398253446311 -2.72429854713833474733 -5.71877295514880223948
H  -2.04201429833394287883 -2.02689782699283638223 -5.51497971545993515008
H  -3.48775396947860238939 -2.24134700532619701718 -5.90999672141472753850
O  -5.16179463953493655737 1.22880828697755473122 5.39796580930602942772
H  -4.30623578081447266896 1.46134611394679203578 5.01940635253112343861
H  -5.78909550991919452656 1.71748339740495525874 4.85294074760039073624
O  7.47482153174193530987 -2.68927817501331345440 -0.05106943122605772656
H  8.13144470871629110320 -2.53901163294919740565 -0.74072734194451583800
H  7.93040395968893019329 -2.42164143292063815949 0.75526628610962387445
O  3.28308700329775504656 0.25360364509140098654 4.83243799257620310073
H  3.23293046070106671053 -0.70364738321965725198 4.72988627853632603859
H  4.06735062240857292437 0.38041984245367749251 5.37852433304727917118
O  -5.07534094216287634538 3.89321310787356278382 4.18836856975482074716
H  -4.61545125675281653344 4.72313013558524108504 4.01777763099195883711
H  -5.96276847180845059881 4.05379896144220630561 3.84771239898420525094
O  1.45025193988893930097 0.85417997595781436360 6.76870280392417633664
H  1.93168607196916974900 0.40658874102402198236 6.06354656102552258545
H  1.57211704817955344460 1.78876006609927284963 6.56604295611061861138
O  -3.44570730021408344612 6.77245127343282860011 2.84439293874128606987
H  -2.83813269621510055885 6.02427171225839241941 2.86542883274777748781
H  -3.25376718262646669189 7.19423259426640626657 1.99904001121358820825
O  1.11816444679303672594 -4.32565546146346058265 5.35386354484279181065
H  1.95414561632925742884 -4.77549682520086538062 5.52161423984008425947
H  1.09148599170977855799 -4.25173814587538156928 4.39303757000971195623
O  5.69783059855965134943 6.18101505111007654136 -0.46750319903466597271
H  5.65619013476971144172 5.71961212919333217286 -1.31292349654496254274
H  5.53829147136253219230 5.48279244561875067632 0.17778318970865775173
O  2.97214826822710387333 -2.54039818672827300006 4.88361746345918756873
H  3.41044717656149964924 -3.18502199179687339736 5.45081785213333347428
H  2.66417877776444944615 -3.06908794922679950545 4.13863156332634751777
O  -2.10927255164601490378 -7.62235687850030174673 0.24960413766669745095
H  -2.13965310933945929150 -6.83056022449032518296 0.79869169392088013026
H  -2.07196267734623429391 -7.27229058048671817005 -0.64784982978685135002
O  -5.95738119874374394414 -2.71946959444894975633 3.84506308661250484349
H  -5.96340446262175483128 -1.86313932192317133207 3.40231682895634879316
H  -6.78868546794184801740 -2.72604528790807476568 4.33317376636849971305
O  -3.06978445874264105342 -3.43806722092029648508 5.47737141699656771010
H  -3.67898439910825914012 -3.83318839658434562523 4.84324465268146386876
H  -3.01545803629152464609 -4.09790447024198378756 6.17810353960445901578
O  -2.10081379495279207958 8.35058361134574589357 0.53683197392943493576
H  -1.61379119656063196864 7.95027358434584385805 1.26616244426441015847
H  -1.73720053490439929611 7.91471854570989652444 -0.24237859138558603966
O  -8.42745239344178287411 -1.03324261877772083373 1.40939887423460175064
H  -8.74522024018301102899 -1.47272331779698451015 0.61237793675094354118
H  -8.15702876973042201314 -1.76432351012953780867 1.97663238652241024518
O  3.87943375610813978582 -4.37462418223442295329 -4.97668615011491155542
H  4.00479093303440514262 -4.03851172306594285999 -4.08188111157012123442
H  3.18345245043729851986 -3.81081113013313599325 -5.33317868560514263265
O  -5.02249802687488067221 -6.12198789954351330067 -1.41574994816551513743
H  -5.65086478382581525182 -6.04143046506416325769 -2.14240515012131149675
H  -5.56763899736979617217 -5.99082463791727271030 -0.63154360764616801482
O  6.76129068312599823543 -5.04345246071938468901 1.16298602563045272440
H  7.25013401468822760165 -4.45828877716016158672 1.75288239335184359291
H  5.85704305101521160992 -4.99120067318923510413 1.49308909127094979752
O  -5.93556616484713650550 5.72530217161403776061 1.91205713122279252758
H  -5.52993297785360393704 6.23868639270711522471 2.62005460520308197658
H  -6.01387832027358637532 6.35993296048305722934 1.19061896231622310616
O  -7.58983910848944809402 3.48574222598179828125 2.59254318740139710897
H  -8.20366369774587944619 3.02710500611880206634 2.00753606077740265334
H  -7.51395259842904561509 4.36152180863303229330 2.19679904830974015439
O  -2.87802867744106549708 -6.53147625635682782530 2.66862854605135479957
H  -2.23219968800951429344 -6.11662975841340283978 3.25186894552162586436
H  -3.01741911092758474666 -7.39791238204446433002 3.06765337056627407364
O  -7.14524688633803872762 3.28628260574892161472 -0.50934066589381166157
H  -8.06177910814559162134 3.47365469286326211673 -0.27648351788397451667
H  -7.21930038840080445794 2.79129766374570609244 -1.33327515931281270767
O  -6.19240362477143335695 -4.47217520273540003473 -2.89771325554427638949
H  -5.30720373305576220702 -4.23367920312511181180 -2.59954740589545529872
H  -6.64307943807165557359 -3.62271757790817305889 -2.96608809267302664381
259
Energy 2.649504
C  0.71130776615267965468 5.00482414727958069278 -0.19561568134503989902
C  -4.13784486848083687960 3.17739904325788646844 0.68958586950538958149
C  -5.17444863619361594687 -1.77393841750645009370 -0.21665732364067985527
C  -0.87384297371556018952 -4.77917785703500719308 -0.63719983279390968178
C  4.05339626216557658012 -3.03094590633414950887 0.11871533019796989827
C  5.04884681101444510176 2.09362244562296995198 -0.58404774284701976850
O  -0.12582766454131008582 3.86927617535052936759 -0.25997818896310981307
O  -4.31294268880552600365 2.22131748928795813569 -0.31126934222609969893
O  -3.82279935479500831974 -1.93070136534545921947 -0.57994872475585967919
O  0.05957377906125960187 -3.73642003081359996841 -0.49167570712067970584
O  3.83098722953195691687 -1.80990987403622982654 -0.51821454630126961849
O  3.72723448493223719069 2.39573122461048049203 -0.94081572077923947273
C  1.36673334302333859824 5.17738746353810963541 -1.57023401112807836633
C  -3.83082197195232687648 4.52142930134692022648 -0.00861440099554997007
C  -5.86696795055896558324 -0.98447702978594020529 -1.33884527976942946381
C  -1.61012054292363893104 -4.57805317038506043303 -1.97033050864001890723
C  3.77326160587263625956 -4.12352537948484876296 -0.93397915008777943058
C  5.59790018606635531029 1.22271087148065049632 -1.73017268935670931462
O  0.41249294889497961636 5.31215455814457548911 -2.59060683846512906925
O  -4.80930237402007687564 4.84002336366017882341 -0.95372222083172941698
O  -5.78582568311042511056 -1.64728677729911021643 -2.57023780092665665720
O  -0.73773614924839026052 -4.55082005612955775575 -3.06837569591808811964
O  4.60494108751403530277 -3.96622878976938064710 -2.04751294360803903771
O  5.51089034068398309074 1.89539249938175013988 -2.95590729180038813695
C  2.21877561653414900888 3.93091745157843019953 -1.83150699881148915082
C  -2.43703341709546794647 4.47105818176657887619 -0.66523693747410916899
C  -5.20475957224313479088 0.39731597485467984310 -1.42006973941786962534
C  -2.38127676782546915391 -3.25302065840269838404 -1.88850281771867911651
C  2.29083818924970739062 -4.03265794157949919452 -1.34196827120711925652
C  4.78374355357373559627 -0.07921556826066936119 -1.75652837800578920380
O  2.95978907701573756839 4.02999105522410960845 -3.02082727297879927164
O  -2.05802748860041750945 5.73612709045024526944 -1.15190620092513951178
O  -5.88058054611833469494 1.22747881263100988569 -2.32923887821376673912
O  -3.19127255102765827743 -3.04457554296714016928 -3.01769493583701819972
O  1.91775986910106821526 -5.08492791013237965814 -2.19872422703288883383
O  5.29532575127568527762 -1.00829228528355963057 -2.67980956684520821298
C  3.21669371315159757785 3.69387210059014980956 -0.69186082520354963421
C  -1.38795551033674868791 3.99685863851938982805 0.35420949320828976070
C  -5.16778178528489551269 1.11072336231340940138 -0.06149807731087994500
C  -3.29265555667351561553 -3.24033602237473994379 -0.65776494554374898005
C  1.38149539713368874061 -4.07715922342435987957 -0.10764441609134994815
C  4.77256626082026613744 -0.75675892258768917564 -0.38217592772181979699
C  2.55256396054111922567 3.77383000390614853359 0.69472730196528931224
C  -1.87658184279176842857 2.62959785738603990524 0.86959042675287956392
C  -4.66995162147994768986 0.17586095834351950229 1.06305633345943961743
C  -2.50721461222832919802 -3.60110911172643000100 0.61297497945516965512
C  1.85352377539312773713 -3.02051341305114995350 0.89710406424008881654
C  4.36577196934167766074 0.23022434129321070473 0.72517060885729955899
O  1.66907167957595858887 4.88692368085399930777 0.81124164518227925846
O  -3.08441362729646728624 2.81665904229748020882 1.56150817661108898271
O  -5.30102626309129565385 -1.10211608872167032835 0.99847272905182959946
O  -1.77848159054403920365 -4.80866574069801888669 0.42941785465123982757
O  3.21002454205557707922 -3.18580015958223006223 1.24237706618064924768
O  5.13256533557428618053 1.42782080075291051280 0.64399374126307928901
C  3.59066688938968736622 3.98044807994619054270 1.80950926664780875619
C  -0.89645500604576855430 1.89000615206742916818 1.74680470073063887071
C  -5.01952751177552602968 0.67278465397587872143 2.47922864883734828112
C  -3.43552903897644679176 -3.83876853711820009707 1.81094492657019912052
C  1.02780373685861881050 -3.05255631487953005276 2.17255950121327856550
C  4.63334413526010635564 -0.33982799439168964728 2.12582775292363868047
O  4.36587551677528651339 5.12623218609484077035 1.58164252684446804409
O  -1.34635178925135901018 1.75509148705510997779 2.99556395054215807150
O  -6.36137881605171440214 1.05950386521692951902 2.58358829301366776932
O  -4.39579169127993640842 -4.82015551998131019928 1.53892222940309930657
O  1.15961021883623871531 -1.88140208249342943958 2.80998166284474804044
O  5.97384117287688454212 -0.72056215651174970738 2.28104190831524888949
H  0.13224704601901035583 5.90028006910375868443 0.06179845111059995011
H  -5.02906546666553655456 3.26944512916705898320 1.32195973471651906372
H  -5.66005365569407548065 -2.74597562429162023179 -0.06617953327339991254
H  -0.37596333589037028711 -5.75629752710907105495 -0.61905323145201962554
H  5.07351651543867454563 -3.11302658157459832822 0.51127945807539909584
H  5.64867625842899290234 3.00541745320616016102 -0.46425305226986962603
H  2.01854436715261886803 6.06436711980527043409 -1.54656827692787923745
H  -3.84115196116301671481 5.32232493097132941529 0.73833328706388945406
H  -6.93123890356386596068 -0.87032777596413046783 -1.10908033325346933040
H  -2.33079476852577860413 -5.39901926729751036049 -2.10116728534805874418
H  3.97846078011181525369 -5.11278456573449080480 -0.51320329701895961438
H  6.65544385173537111910 0.99639818803564983440 -1.56359344794164911718
H  -0.44758121555990915130 5.54738430107657976009 -2.19514784185843891962
H  -4.99862717111371512857 4.04655674109809648797 -1.47877335682354948965
H  -4.87862214394077664537 -1.98151913903146037477 -2.69443521680572883881
H  0.17493009918405943992 -4.73959651674300985746 -2.77483024948440881730
H  4.66410798139857529776 -3.01874084232443751219 -2.26865624666724841063
H  4.64836089514038430792 2.34140600586418878848 -3.00041084851171824255
H  1.54098607645986906967 3.06283758725334953610 -1.87427115174566893963
H  -2.46085499425985743116 3.74585258222391859206 -1.49411825115310925582
H  -4.16019338913851743911 0.25205406388909978865 -1.74488235435312732946
H  -1.65150591338989927159 -2.43341514701178018854 -1.78743297510559906449
H  2.13072481812891645347 -3.06478741669444998408 -1.84269875172082908676
H  3.74246695990955480227 0.17505707611953005842 -2.01366769037927806352
H  2.36276715127818626172 4.34815172937626659433 -3.71377294779213817932
H  -2.81157367692486648281 6.10014489877917043259 -1.64421335474422902756
H  -6.09084081771053398313 0.69029656113981896493 -3.10886487380280840398
H  -2.66909052727224915813 -3.26592044166787065507 -3.80334705793696725706
H  2.58698386619235698447 -5.14749436802668913771 -2.89909019680832802379
H  5.49408568008983611008 -0.53311484335033920701 -3.50050276010526850712
H  4.02144260633307659702 4.43873977070721803528 -0.76158004326704964448
H  -1.33879622191689873212 4.69571097986318886086 1.19890805994787918998
H  -6.17413561112708553225 1.47410559342782954140 0.19007305348557004820
H  -4.09868189285289563628 -3.97092024710498758822 -0.80481580480895953400
H  1.40934724253084797674 -5.07071095687050732437 0.35457577458490985300
H  5.76955099277967686788 -1.16139533236291936369 -0.16672775541378001551
H  1.99677609145850842864 2.83976438078294002310 0.85744948004959942178
H  -2.03432580407637875197 1.97912333649938032565 -0.00933991151863993591
H  -3.58181057813990832983 0.04730107681938962305 0.97286818618691950356
H  -1.81875059986388909472 -2.77601408995254050893 0.84523606295103970165
H  1.70767087459974709063 -2.02632998237252959228 0.44167627387429975183
H  3.29684627784058648103 0.46242992506568020294 0.61428010446683900536
H  4.27684283934914866165 3.13377304722748029064 1.84096947029981894417
H  3.05499576615011703140 4.05618852724160117162 2.76325081195894650676
H  -4.79227452249524610295 -0.15173887546790032488 3.16617738075086840865
H  -4.40898511711660745505 1.53315883400238783807 2.74824849325204567663
H  -3.97170422031588721268 -2.91608560685773054999 2.03992773831826879061
H  -2.81226758138124921516 -4.12058300134711963381 2.66817818299924836012
H  4.35574918530906440850 0.42281946590956998033 2.86286040394648688689
H  4.02684838685082624465 -1.23311937246010971947 2.28407916476905814562
H  3.76320851633328734565 5.88246056441070930276 1.54085400740711886414
H  -6.90736717162538571557 0.28345440568049945496 2.39381796429284854355
H  -3.92388988794632753709 -5.64051884971686945391 1.33424427257381927880
H  6.51908788538571037918 0.06399434512467971903 2.12347478294185876280
C  0.26127497010885958328 -1.58912450335454979999 3.90285766255619792631
H  0.88951598116402896821 -1.18363696298226983572 4.68922404710705720277
H  -0.25570570590976021697 -2.48705044817073872565 4.23160082255163860765
O  0.34924840901390941106 -3.98334818409430990727 2.55358777221210875297
C  -0.58617522855173942453 0.84541176598609990567 3.79519962836908808512
H  -0.99939904616609909205 0.95260657278872973297 4.79784223568303769270
H  0.46887642779151966765 1.11663465419944030188 3.80502509435579794328
O  0.16237772092035962501 1.42572362705916000358 1.35186217851816903313
C  -0.72420064229639979914 -0.57561974826865003330 3.33162747555646809872
O  -1.53646263887656897573 -0.91508322368633943089 2.48476685153011844776
O  5.12016518841188084110 -3.80675011383641637153 3.06030596716629732512
H  4.25869305737139836054 -3.72293329273593265327 2.63580323223809243061
H  5.32062354544112547927 -2.90677049522949593197 3.34175791086644746741
O  -2.07739336173240829453 4.33352014407194108259 3.97883132084589563604
H  -2.35787845356035274946 3.79904446580360399821 3.22714925599252966393
H  -2.03711298227879344935 3.69888340896133804847 4.70338343691660476509
O  1.20861243434111176320 0.84716361011117102819 -2.45015501381522371460
H  1.47563441383520377315 -0.07837486559086279114 -2.48810045468183282935
H  0.38317580702480413812 0.86359757474617560025 -2.94789627442596335882
O  2.57954538705013813882 -5.94619569675729753300 2.93431070549187023033
H  2.65596581105262918854 -6.24703290143068468154 3.84700942856533290026
H  1.73718974537481085640 -5.47753390440847809373 2.92185435155271555629
O  7.29620667321037252862 3.05100343268505413974 1.44429872370218603805
H  7.01503845224758304511 2.20928903027048573193 1.06770429954158507790
H  6.76420353927246242876 3.12816771772275625807 2.24453643964550542123
O  -1.05493549403350583837 -0.20175112183925833498 -1.90578485440609046719
H  -1.23685437313731783071 -0.42092813198437378785 -0.98479135623696145707
H  -1.90977621469210645522 0.09335581160641551191 -2.23973290958756754421
O  0.40789638124594512769 4.85382894434815526097 3.72543848859718496058
H  0.01368879175008975990 4.49477322989597638525 2.92229377291796899030
H  0.03071683465176650030 4.30767446854185553917 4.42459007560179617968
O  1.21348797977724287556 -3.47827765770486418972 -4.92319011099401926401
H  1.25561636499323192595 -2.59985245536667353150 -4.52827692170230822200
H  0.26721009973673559568 -3.65151120294881614825 -4.98572311005507007309
O  -3.37744983416910171670 -0.80244443854341140909 5.02801316157645405980
H  -3.98342569205590901760 -0.66501468563138288470 5.76508058501425590947
H  -2.99943270180925969370 -1.67108239055839913334 5.20671184479757620522
O  -0.29409470751137145594 7.08250446257944599182 2.34081583065246645603
H  0.51752120379981159104 6.67959335556119793154 2.01171961923672348860
H  -0.39475462152669771321 6.69967646414601958327 3.21983367390093944138
O  -3.43295572661918013679 2.81287833768132600198 -3.73637328428637882638
H  -3.86438062166725604385 3.40821766400290560028 -4.35991615409412336390
H  -4.15948600299494675170 2.49865613529479757560 -3.18611859011283016230
O  1.35024310655608803522 2.97177396900470869312 -4.84512104697737200354
H  1.75484819780610545870 2.33269820340351374810 -4.24742635068489171601
H  0.40538034146273999037 2.85284786628234776629 -4.69527779335967210272
O  0.18322687505456614065 -6.60190669290909060152 2.15079632328284464649
H  -0.09082779438799913618 -5.87151553977062601319 1.58441759346140953468
H  -0.37141095595953899089 -7.33395350912017729428 1.85780076238388747178
O  2.56947934761413288030 -7.05085454762334773449 0.50028496151401569136
H  2.21567125483624716153 -7.92918499809157051317 0.31940511939356591720
H  2.62946282806246500741 -7.02634175534128413432 1.46213898812676346139
O  0.58627963217273637575 -7.34812615275521352487 -2.33549050516169032221
H  1.53648087109563014074 -7.23569529413239376225 -2.45312966360428363899
H  0.21408734174046861742 -6.97478527771062140062 -3.14261599316652207037
O  0.89019192326940954629 -0.81060957508683373351 -5.28435931750822174280
H  1.33739023672534007581 -0.02176180210095902262 -4.95710571016715118020
H  0.39779649937544075966 -0.48928159775481222526 -6.04833388575988006863
O  -7.04956873861824728777 -3.96410725474136516056 2.00995718922721300359
H  -7.15254410147000818654 -4.65493643898663123082 1.34549261014047272234
H  -6.11654403109737643263 -4.01710470963826971058 2.24663889184350029637
O  -2.39204768770303655145 0.15717982328363380717 -4.46632338538250728277
H  -1.53045049202667371446 0.00772474470296939664 -4.87212569674781104112
H  -3.01349931175671681416 -0.09387819900866259393 -5.15923738569354028982
O  3.14332620986744482039 -1.62109111580771458883 -4.37889695172932036371
H  3.95613356745356270494 -1.99669242749930186953 -4.73615024860673283769
H  3.41939840053587484903 -1.25197539084039011215 -3.53219760098863355680
O  -2.67562507398253446311 -2.72429854713833474733 -5.71877295514880223948
H  -2.04201429833394287883 -2.02689782699283638223 -5.51497971545993515008
H  -3.48775396947860238939 -2.24134700532619701718 -5.90999672141472753850
O  -5.16179463953493655737 1.22880828697755473122 5.39796580930602942772
H  -4.30623578081447266896 1.46134611394679203578 5.01940635253112343861
H  -5.78909550991919452656 1.71748339740495525874 4.85294074760039073624
O  7.47482153174193530987 -2.68927817501331345440 -0.05106943122605772656
H  8.13144470871629110320 -2.53901163294919740565 -0.74072734194451583800
H  7.93040395968893019329 -2.42164143292063815949 0.75526628610962387445
O  3.28308700329775504656 0.25360364509140098654 4.83243799257620310073
H  3.23293046070106671053 -0.70364738321965725198 4.72988627853632603859
H  4.06735062240857292437 0.38041984245367749251 5.37852433304727917118
O  -5.07534094216287634538 3.89321310787356278382 4.18836856975482074716
H  -4.61545125675281653344 4.72313013558524108504 4.01777763099195883711
H  -5.96276847180845059881 4.05379896144220630561 3.84771239898420525094
O  1.45025193988893930097 0.85417997595781436360 6.76870280392417633664
H  1.93168607196916974900 0.40658874102402198236 6.06354656102552258545
H  1.57211704817955344460 1.78876006609927284963 6.56604295611061861138
O  -3.44570730021408344612 6.77245127343282860011 2.84439293874128606987
H  -2.83813269621510055885 6.02427171225839241941 2.86542883274777748781
H  -3.25376718262646669189 7.19423259426640626657 1.99904001121358820825
O  1.11816444679303672594 -4.32565546146346058265 5.35386354484279181065
H  1.95414561632925742884 -4.77549682520086538062 5.52161423984008425947
H  1.09148599170977855799 -4.25173814587538156928 4.39303757000971195623
O  5.69783059855965134943 6.18101505111007654136 -0.46750319903466597271
H  5.65619013476971144172 5.71961212919333217286 -1.31292349654496254274
H  5.53829147136253219230 5.48279244561875067632 0.17778318970865775173
O  2.97214826822710387333 -2.54039818672827300006 4.88361746345918756873
H  3.41044717656149964924 -3.18502199179687339736 5.45081785213333347428
H  2.66417877776444944615 -3.06908794922679950545 4.13863156332634751777
O  -2.10927255164601490378 -7.62235687850030174673 0.24960413766669745095
H  -2.13965310933945929150 -6.83056022449032518296 0.79869169392088013026
H  -2.07196267734623429391 -7.27229058048671817005 -0.64784982978685135002
O  -5.95738119874374394414 -2.71946959444894975633 3.84506308661250484349
H  -5.96340446262175483128 -1.86313932192317133207 3.40231682895634879316
H  -6.78868546794184801740 -2.72604528790807476568 4.33317376636849971305
O  -3.06978445874264105342 -3.43806722092029648508 5.47737141699656771010
H  -3.67898439910825914012 -3.83318839658434562523 4.84324465268146386876
H  -3.01545803629152464609 -4.09790447024198378756 6.17810353960445901578
O  -2.10081379495279207958 8.35058361134574589357 0.53683197392943493576
H  -1.61379119656063196864 7.95027358434584385805 1.26616244426441015847
H  -1.73720053490439929611 7.91471854570989652444 -0.24237859138558603966
O  -8.42745239344178287411 -1.03324261877772083373 1.40939887423460175064
H  -8.74522024018301102899 -1.47272331779698451015 0.61237793675094354118
H  -8.15702876973042201314 -1.76432351012953780867 1.97663238652241024518
O  3.87943375610813978582 -4.37462418223442295329 -4.97668615011491155542
H  4.00479093303440514262 -4.03851172306594285999 -4.08188111157012123442
H  3.18345245043729851986 -3.81081113013313599325 -5.33317868560514263265
O  -5.02249802687488067221 -6.12198789954351330067 -1.41574994816551513743
H  -5.65086478382581525182 -6.04143046506416325769 -2.14240515012131149675
H  -5.56763899736979617217 -5.99082463791727271030 -0.63154360764616801482
O  6.76129068312599823543 -5.04345246071938468901 1.16298602563045272440
H  7.25013401468822760165 -4.45828877716016158672 1.75288239335184359291
H  5.85704305101521160992 -4.99120067318923510413 1.49308909127094979752
O  -5.93556616484713650550 5.72530217161403776061 1.91205713122279252758
H  -5.52993297785360393704 6.23868639270711522471 2.62005460520308197658
H  -6.01387832027358637532 6.35993296048305722934 1.19061896231622310616
O  -7.58983910848944809402 3.48574222598179828125 2.59254318740139710897
H  -8.20366369774587944619 3.02710500611880206634 2.00753606077740265334
H  -7.51395259842904561509 4.36152180863303229330 2.19679904830974015439
O  -2.87802867744106549708 -6.53147625635682782530 2.66862854605135479957
H  -2.23219968800951429344 -6.11662975841340283978 3.25186894552162586436
H  -3.01741911092758474666 -7.39791238204446433002 3.06765337056627407364
O  -7.14524688633803872762 3.28628260574892161472 -0.50934066589381166157
H  -8.06177910814559162134 3.47365469286326211673 -0.27648351788397457218
H  -7.21930038840080445794 2.79129766374570609244 -1.33327515931281270767
O  -6.19240362477143335695 -4.47217520273540003473 -2.89771325554427638949
H  -5.30720373305576220702 -4.23367920312511181180 -2.59954740589545529872
H  -6.64307943807165379724 -3.62271757790817261480 -2.96608809267302708790
O  6.99056995333367048318 -5.03185626525437434964 -1.56372911048516605170
H  6.61045157324263144005 -4.70672788610952608224 -0.73961527234630908278
H  6.51467674869402735283 -4.53785520475224757320 -2.24111428409313617749
262
Energy 3.751133
C  0.71130776615267965468 5.00482414727958069278 -0.19561568134503989902
C  -4.13784486848083687960 3.17739904325788646844 0.68958586950538958149
C  -5.17444863619361594687 -1.77393841750645009370 -0.21665732364067985527
C  -0.87384297371556018952 -4.77917785703500719308 -0.63719983279390968178
C  4.05339626216557658012 -3.03094590633414950887 0.11871533019796989827
C  5.04884681101444510176 2.09362244562296995198 -0.58404774284701976850
O  -0.12582766454131008582 3.86927617535052936759 -0.25997818896310981307
O  -4.31294268880552600365 2.22131748928795813569 -0.31126934222609969893
O  -3.82279935479500831974 -1.93070136534545921947 -0.57994872475585967919
O  0.05957377906125960187 -3.73642003081359996841 -0.49167570712067970584
O  3.83098722953195691687 -1.80990987403622982654 -0.51821454630126961849
O  3.72723448493223719069 2.39573122461048049203 -0.94081572077923947273
C  1.36673334302333859824 5.17738746353810963541 -1.57023401112807836633
C  -3.83082197195232687648 4.52142930134692022648 -0.00861440099554997007
C  -5.86696795055896558324 -0.98447702978594020529 -1.33884527976942946381
C  -1.61012054292363893104 -4.57805317038506043303 -1.97033050864001890723
C  3.77326160587263625956 -4.12352537948484876296 -0.93397915008777943058
C  5.59790018606635531029 1.22271087148065049632 -1.73017268935670931462
O  0.41249294889497961636 5.31215455814457548911 -2.59060683846512906925
O  -4.80930237402007687564 4.84002336366017882341 -0.95372222083172941698
O  -5.78582568311042511056 -1.64728677729911021643 -2.57023780092665665720
O  -0.73773614924839026052 -4.55082005612955775575 -3.06837569591808811964
O  4.60494108751403530277 -3.96622878976938064710 -2.04751294360803903771
O  5.51089034068398309074 1.89539249938175013988 -2.95590729180038813695
C  2.21877561653414900888 3.93091745157843019953 -1.83150699881148915082
C  -2.43703341709546794647 4.47105818176657887619 -0.66523693747410916899
C  -5.20475957224313479088 0.39731597485467984310 -1.42006973941786962534
C  -2.38127676782546915391 -3.25302065840269838404 -1.88850281771867911651
C  2.29083818924970739062 -4.03265794157949919452 -1.34196827120711925652
C  4.78374355357373559627 -0.07921556826066936119 -1.75652837800578920380
O  2.95978907701573756839 4.02999105522410960845 -3.02082727297879927164
O  -2.05802748860041750945 5.73612709045024526944 -1.15190620092513951178
O  -5.88058054611833469494 1.22747881263100988569 -2.32923887821376673912
O  -3.19127255102765827743 -3.04457554296714016928 -3.01769493583701819972
O  1.91775986910106821526 -5.08492791013237965814 -2.19872422703288883383
O  5.29532575127568527762 -1.00829228528355963057 -2.67980956684520821298
C  3.21669371315159757785 3.69387210059014980956 -0.69186082520354963421
C  -1.38795551033674868791 3.99685863851938982805 0.35420949320828976070
C  -5.16778178528489551269 1.11072336231340940138 -0.06149807731087994500
C  -3.29265555667351561553 -3.24033602237473994379 -0.65776494554374898005
C  1.38149539713368874061 -4.07715922342435987957 -0.10764441609134994815
C  4.77256626082026613744 -0.75675892258768917564 -0.38217592772181979699
C  2.55256396054111922567 3.77383000390614853359 0.69472730196528931224
C  -1.87658184279176842857 2.62959785738603990524 0.86959042675287956392
C  -4.66995162147994768986 0.17586095834351950229 1.06305633345943961743
C  -2.50721461222832919802 -3.60110911172643000100 0.61297497945516965512
C  1.85352377539312773713 -3.02051341305114995350 0.89710406424008881654
C  4.36577196934167766074 0.23022434129321070473 0.72517060885729955899
O  1.66907167957595858887 4.88692368085399930777 0.81124164518227925846
O  -3.08441362729646728624 2.81665904229748020882 1.56150817661108898271
O  -5.30102626309129565385 -1.10211608872167032835 0.99847272905182959946
O  -1.77848159054403920365 -4.80866574069801888669 0.42941785465123982757
O  3.21002454205557707922 -3.18580015958223006223 1.24237706618064924768
O  5.13256533557428618053 1.42782080075291051280 0.64399374126307928901
C  3.59066688938968736622 3.98044807994619054270 1.80950926664780875619
C  -0.89645500604576855430 1.89000615206742916818 1.74680470073063887071
C  -5.01952751177552602968 0.67278465397587872143 2.47922864883734828112
C  -3.43552903897644679176 -3.83876853711820009707 1.81094492657019912052
C  1.02780373685861881050 -3.05255631487953005276 2.17255950121327856550
C  4.63334413526010635564 -0.33982799439168964728 2.12582775292363868047
O  4.36587551677528651339 5.12623218609484077035 1.58164252684446804409
O  -1.34635178925135901018 1.75509148705510997779 2.99556395054215807150
O  -6.36137881605171440214 1.05950386521692951902 2.58358829301366776932
O  -4.39579169127993640842 -4.82015551998131019928 1.53892222940309930657
O  1.15961021883623871531 -1.88140208249342943958 2.80998166284474804044
O  5.97384117287688454212 -0.72056215651174970738 2.28104190831524888949
H  0.13224704601901035583 5.90028006910375868443 0.06179845111059995011
H  -5.02906546666553655456 3.26944512916705898320 1.32195973471651906372
H  -5.66005365569407548065 -2.74597562429162023179 -0.06617953327339991254
H  -0.37596333589037028711 -5.75629752710907105495 -0.61905323145201962554
H  5.07351651543867454563 -3.11302658157459832822 0.51127945807539909584
H  5.64867625842899290234 3.00541745320616016102 -0.46425305226986962603
H  2.01854436715261886803 6.06436711980527043409 -1.54656827692787923745
H  -3.84115196116301671481 5.32232493097132941529 0.73833328706388945406
H  -6.93123890356386596068 -0.87032777596413046783 -1.10908033325346933040
H  -2.33079476852577860413 -5.39901926729751036049 -2.10116728534805874418
H  3.97846078011181525369 -5.11278456573449080480 -0.51320329701895961438
H  6.65544385173537111910 0.99639818803564983440 -1.56359344794164911718
H  -0.44758121555990915130 5.54738430107657976009 -2.19514784185843891962
H  -4.99862717111371512857 4.04655674109809648797 -1.47877335682354948965
H  -4.87862214394077664537 -1.98151913903146037477 -2.69443521680572883881
H  0.17493009918405943992 -4.73959651674300985746 -2.77483024948440881730
H  4.66410798139857529776 -3.01874084232443751219 -2.26865624666724841063
H  4.64836089514038430792 2.34140600586418878848 -3.00041084851171824255
H  1.54098607645986906967 3.06283758725334953610 -1.87427115174566893963
H  -2.46085499425985743116 3.74585258222391859206 -1.49411825115310925582
H  -4.16019338913851743911 0.25205406388909978865 -1.74488235435312732946
H  -1.65150591338989927159 -2.43341514701178018854 -1.78743297510559906449
H  2.13072481812891645347 -3.06478741669444998408 -1.84269875172082908676
H  3.74246695990955480227 0.17505707611953005842 -2.01366769037927806352
H  2.36276715127818626172 4.34815172937626659433 -3.71377294779213817932
H  -2.81157367692486648281 6.10014489877917043259 -1.64421335474422902756
H  -6.09084081771053398313 0.69029656113981896493 -3.10886487380280840398
H  -2.66909052727224915813 -3.26592044166787065507 -3.80334705793696725706
H  2.58698386619235698447 -5.14749436802668913771 -2.89909019680832802379
H  5.49408568008983611008 -0.53311484335033920701 -3.50050276010526850712
H  4.02144260633307659702 4.43873977070721803528 -0.76158004326704964448
H  -1.33879622191689873212 4.69571097986318886086 1.19890805994787918998
H  -6.17413561112708553225 1.47410559342782954140 0.19007305348557004820
H  -4.09868189285289563628 -3.97092024710498758822 -0.80481580480895953400
H  1.40934724253084797674 -5.07071095687050732437 0.35457577458490985300
H  5.76955099277967686788 -1.16139533236291936369 -0.16672775541378001551
H  1.99677609145850842864 2.83976438078294002310 0.85744948004959942178
H  -2.03432580407637875197 1.97912333649938032565 -0.00933991151863993591
H  -3.58181057813990832983 0.04730107681938962305 0.97286818618691950356
H  -1.81875059986388909472 -2.77601408995254050893 0.84523606295103970165
H  1.70767087459974709063 -2.02632998237252959228 0.44167627387429975183
H  3.29684627784058648103 0.46242992506568020294 0.61428010446683900536
H  4.27684283934914866165 3.13377304722748029064 1.84096947029981894417
H  3.05499576615011703140 4.05618852724160117162 2.76325081195894650676
H  -4.79227452249524610295 -0.15173887546790032488 3.16617738075086840865
H  -4.40898511711660745505 1.53315883400238783807 2.74824849325204567663
H  -3.97170422031588721268 -2.91608560685773054999 2.03992773831826879061
H  -2.81226758138124921516 -4.12058300134711963381 2.66817818299924836012
H  4.35574918530906440850 0.42281946590956998033 2.86286040394648688689
H  4.02684838685082624465 -1.23311937246010971947 2.28407916476905814562
H  3.76320851633328734565 5.88246056441070930276 1.54085400740711886414
H  -6.90736717162538571557 0.28345440568049945496 2.39381796429284854355
H  -3.92388988794632753709 -5.64051884971686945391 1.33424427257381927880
H  6.51908788538571037918 0.06399434512467971903 2.12347478294185876280
C  0.26127497010885958328 -1.58912450335454979999 3.90285766255619792631
H  0.88951598116402896821 -1.18363696298226983572 4.68922404710705720277
H  -0.25570570590976021697 -2.48705044817073872565 4.23160082255163860765
O  0.34924840901390941106 -3.98334818409430990727 2.55358777221210875297
C  -0.58617522855173942453 0.84541176598609990567 3.79519962836908808512
H  -0.99939904616609909205 0.95260657278872973297 4.79784223568303769270
H  0.46887642779151966765 1.11663465419944030188 3.80502509435579794328
O  0.16237772092035962501 1.42572362705916000358 1.35186217851816903313
C  -0.72420064229639979914 -0.57561974826865003330 3.33162747555646809872
O  -1.53646263887656897573 -0.91508322368633943089 2.48476685153011844776
O  5.12016518841188084110 -3.80675011383641637153 3.06030596716629732512
H  4.25869305737139836054 -3.72293329273593265327 2.63580323223809243061
H  5.32062354544112547927 -2.90677049522949593197 3.34175791086644746741
O  -2.07739336173240829453 4.33352014407194108259 3.97883132084589563604
H  -2.35787845356035274946 3.79904446580360399821 3.22714925599252966393
H  -2.03711298227879344935 3.69888340896133804847 4.70338343691660476509
O  1.20861243434111176320 0.84716361011117102819 -2.45015501381522371460
H  1.47563441383520377315 -0.07837486559086279114 -2.48810045468183282935
H  0.38317580702480413812 0.86359757474617560025 -2.94789627442596335882
O  2.57954538705013813882 -5.94619569675729753300 2.93431070549187023033
H  2.65596581105262918854 -6.24703290143068468154 3.84700942856533290026
H  1.73718974537481085640 -5.47753390440847809373 2.92185435155271555629
O  7.29620667321037252862 3.05100343268505413974 1.44429872370218603805
H  7.01503845224758304511 2.20928903027048573193 1.06770429954158507790
H  6.76420353927246242876 3.12816771772275625807 2.24453643964550542123
O  -1.05493549403350583837 -0.20175112183925833498 -1.90578485440609046719
H  -1.23685437313731783071 -0.42092813198437378785 -0.98479135623696145707
H  -1.90977621469210645522 0.09335581160641551191 -2.23973290958756754421
O  0.40789638124594512769 4.85382894434815526097 3.72543848859718496058
H  0.01368879175008975990 4.49477322989597638525 2.92229377291796899030
H  0.03071683465176650030 4.30767446854185553917 4.42459007560179617968
O  1.21348797977724287556 -3.47827765770486418972 -4.92319011099401926401
H  1.25561636499323192595 -2.59985245536667353150 -4.52827692170230822200
H  0.26721009973673559568 -3.65151120294881614825 -4.98572311005507007309
O  -3.37744983416910171670 -0.80244443854341140909 5.02801316157645405980
H  -3.98342569205590901760 -0.66501468563138288470 5.76508058501425590947
H  -2.99943270180925969370 -1.67108239055839913334 5.20671184479757620522
O  -0.29409470751137145594 7.08250446257944599182 2.34081583065246645603
H  0.51752120379981159104 6.67959335556119793154 2.01171961923672348860
H  -0.39475462152669771321 6.69967646414601958327 3.21983367390093944138
O  -3.43295572661918013679 2.81287833768132600198 -3.73637328428637882638
H  -3.86438062166725604385 3.40821766400290560028 -4.35991615409412336390
H  -4.15948600299494675170 2.49865613529479757560 -3.18611859011283016230
O  1.35024310655608803522 2.97177396900470869312 -4.84512104697737200354
H  1.75484819780610545870 2.33269820340351374810 -4.24742635068489171601
H  0.40538034146273999037 2.85284786628234776629 -4.69527779335967210272
O  0.18322687505456614065 -6.60190669290909060152 2.15079632328284464649
H  -0.09082779438799913618 -5.87151553977062601319 1.58441759346140953468
H  -0.37141095595953899089 -7.33395350912017729428 1.85780076238388747178
O  2.56947934761413288030 -7.05085454762334773449 0.50028496151401569136
H  2.21567125483624716153 -7.92918499809157051317 0.31940511939356591720
H  2.62946282806246500741 -7.02634175534128413432 1.46213898812676346139
O  0.58627963217273637575 -7.34812615275521352487 -2.33549050516169032221
H  1.53648087109563014074 -7.23569529413239376225 -2.45312966360428363899
H  0.21408734174046861742 -6.97478527771062140062 -3.14261599316652207037
O  0.89019192326940954629 -0.81060957508683373351 -5.28435931750822174280
H  1.33739023672534007581 -0.02176180210095902262 -4.95710571016715118020
H  0.39779649937544075966 -0.48928159775481222526 -6.04833388575988006863
O  -7.04956873861824728777 -3.96410725474136516056 2.00995718922721300359
H  -7.15254410147000818654 -4.65493643898663123082 1.34549261014047272234
H  -6.11654403109737643263 -4.01710470963826971058 2.24663889184350029637
O  -2.39204768770303655145 0.15717982328363380717 -4.46632338538250728277
H  -1.53045049202667371446 0.00772474470296939664 -4.87212569674781104112
H  -3.01349931175671681416 -0.09387819900866259393 -5.15923738569354028982
O  3.14332620986744482039 -1.62109111580771458883 -4.37889695172932036371
H  3.95613356745356270494 -1.99669242749930186953 -4.73615024860673283769
H  3.41939840053587484903 -1.25197539084039011215 -3.53219760098863355680
O  -2.67562507398253446311 -2.72429854713833474733 -5.71877295514880223948
H  -2.04201429833394287883 -2.02689782699283638223 -5.51497971545993515008
H  -3.48775396947860238939 -2.24134700532619701718 -5.90999672141472753850
O  -5.16179463953493655737 1.22880828697755473122 5.39796580930602942772
H  -4.30623578081447266896 1.46134611394679203578 5.01940635253112343861
H  -5.78909550991919452656 1.71748339740495525874 4.85294074760039073624
O  7.47482153174193530987 -2.68927817501331345440 -0.05106943122605772656
H  8.13144470871629110320 -2.53901163294919740565 -0.74072734194451583800
H  7.93040395968893019329 -2.42164143292063815949 0.75526628610962387445
O  3.28308700329775504656 0.25360364509140098654 4.83243799257620310073
H  3.23293046070106671053 -0.70364738321965725198 4.72988627853632603859
H  4.06735062240857292437 0.38041984245367749251 5.37852433304727917118
O  -5.07534094216287634538 3.89321310787356278382 4.18836856975482074716
H  -4.61545125675281653344 4.72313013558524108504 4.01777763099195883711
H  -5.96276847180845059881 4.05379896144220630561 3.84771239898420525094
O  1.45025193988893930097 0.85417997595781436360 6.76870280392417633664
H  1.93168607196916974900 0.40658874102402198236 6.06354656102552258545
H  1.57211704817955344460 1.78876006609927284963 6.56604295611061861138
O  -3.44570730021408344612 6.77245127343282860011 2.84439293874128606987
H  -2.83813269621510055885 6.02427171225839241941 2.86542883274777748781
H  -3.25376718262646669189 7.19423259426640626657 1.99904001121358820825
O  1.11816444679303672594 -4.32565546146346058265 5.35386354484279181065
H  1.95414561632925742884 -4.77549682520086538062 5.52161423984008425947
H  1.09148599170977855799 -4.25173814587538156928 4.39303757000971195623
O  5.69783059855965134943 6.18101505111007654136 -0.46750319903466597271
H  5.65619013476971144172 5.71961212919333217286 -1.31292349654496254274
H  5.53829147136253219230 5.48279244561875067632 0.17778318970865775173
O  2.97214826822710387333 -2.54039818672827300006 4.88361746345918756873
H  3.41044717656149964924 -3.18502199179687339736 5.45081785213333347428
H  2.66417877776444944615 -3.06908794922679950545 4.13863156332634751777
O  -2.10927255164601490378 -7.62235687850030174673 0.24960413766669745095
H  -2.13965310933945929150 -6.83056022449032518296 0.79869169392088013026
H  -2.07196267734623429391 -7.27229058048671817005 -0.64784982978685135002
O  -5.95738119874374394414 -2.71946959444894975633 3.84506308661250484349
H  -5.96340446262175483128 -1.86313932192317133207 3.40231682895634879316
H  -6.78868546794184801740 -2.72604528790807476568 4.33317376636849971305
O  -3.06978445874264105342 -3.43806722092029648508 5.47737141699656771010
H  -3.67898439910825914012 -3.83318839658434562523 4.84324465268146386876
H  -3.01545803629152464609 -4.09790447024198378756 6.17810353960445901578
O  -2.10081379495279207958 8.35058361134574589357 0.53683197392943493576
H  -1.61379119656063196864 7.95027358434584385805 1.26616244426441015847
H  -1.73720053490439929611 7.91471854570989652444 -0.24237859138558603966
O  -8.42745239344178287411 -1.03324261877772083373 1.40939887423460175064
H  -8.74522024018301102899 -1.47272331779698451015 0.61237793675094354118
H  -8.15702876973042201314 -1.76432351012953780867 1.97663238652241024518
O  3.87943375610813978582 -4.37462418223442295329 -4.97668615011491155542
H  4.00479093303440514262 -4.03851172306594285999 -4.08188111157012123442
H  3.18345245043729851986 -3.81081113013313599325 -5.33317868560514263265
O  -5.02249802687488067221 -6.12198789954351330067 -1.41574994816551513743
H  -5.65086478382581525182 -6.04143046506416325769 -2.14240515012131149675
H  -5.56763899736979617217 -5.99082463791727271030 -0.63154360764616801482
O  6.76129068312599823543 -5.04345246071938468901 1.16298602563045272440
H  7.25013401468822760165 -4.45828877716016158672 1.75288239335184359291
H  5.85704305101521160992 -4.99120067318923510413 1.49308909127094979752
O  -5.93556616484713650550 5.72530217161403776061 1.91205713122279252758
H  -5.52993297785360393704 6.23868639270711522471 2.62005460520308197658
H  -6.01387832027358637532 6.35993296048305722934 1.19061896231622310616
O  -7.58983910848944809402 3.48574222598179828125 2.59254318740139710897
H  -8.20366369774587944619 3.02710500611880206634 2.00753606077740265334
H  -7.51395259842904561509 4.36152180863303229330 2.19679904830974015439
O  -2.87802867744106549708 -6.53147625635682782530 2.66862854605135479957
H  -2.23219968800951429344 -6.11662975841340283978 3.25186894552162586436
H  -3.01741911092758474666 -7.39791238204446433002 3.06765337056627407364
O  -7.14524688633803872762 3.28628260574892161472 -0.50934066589381166157
H  -8.06177910814559162134 3.47365469286326211673 -0.27648351788397457218
H  -7.21930038840080445794 2.79129766374570609244 -1.33327515931281270767
O  -6.19240362477143335695 -4.47217520273540003473 -2.89771325554427638949
H  -5.30720373305576220702 -4.23367920312511181180 -2.59954740589545529872
H  -6.64307943807165379724 -3.62271757790817261480 -2.96608809267302708790
O  6.99056995333366781864 -5.03185626525437434964 -1.56372911048516605170
H  6.61045157324263144005 -4.70672788610952430588 -0.73961527234630908278
H  6.51467674869402735283 -4.53785520475224757320 -2.24111428409313528931
O  5.58485755783591386603 1.97024397524292615991 4.85733526103835178134
H  5.19241740412905361524 2.31370531945544133379 4.04654114733832148687
H  5.07269484753479638073 2.39737119610832483119 5.55347731464244809274
265
Energy 4.488803
C  0.71130776615267965468 5.00482414727958069278 -0.19561568134503989902
C  -4.13784486848083687960 3.17739904325788646844 0.68958586950538958149
C  -5.17444863619361594687 -1.77393841750645009370 -0.21665732364067985527
C  -0.87384297371556018952 -4.77917785703500719308 -0.63719983279390968178
C  4.05339626216557658012 -3.03094590633414950887 0.11871533019796989827
C  5.04884681101444510176 2.09362244562296995198 -0.58404774284701976850
O  -0.12582766454131008582 3.86927617535052936759 -0.25997818896310981307
O  -4.31294268880552600365 2.22131748928795813569 -0.31126934222609969893
O  -3.82279935479500831974 -1.93070136534545921947 -0.57994872475585967919
O  0.05957377906125960187 -3.73642003081359996841 -0.49167570712067970584
O  3.83098722953195691687 -1.80990987403622982654 -0.51821454630126961849
O  3.72723448493223719069 2.39573122461048049203 -0.94081572077923947273
C  1.36673334302333859824 5.17738746353810963541 -1.57023401112807836633
C  -3.83082197195232687648 4.52142930134692022648 -0.00861440099554997007
C  -5.86696795055896558324 -0.98447702978594020529 -1.33884527976942946381
C  -1.61012054292363893104 -4.57805317038506043303 -1.97033050864001890723
C  3.77326160587263625956 -4.12352537948484876296 -0.93397915008777943058
C  5.59790018606635531029 1.22271087148065049632 -1.73017268935670931462
O  0.41249294889497961636 5.31215455814457548911 -2.59060683846512906925
O  -4.80930237402007687564 4.84002336366017882341 -0.95372222083172941698
O  -5.78582568311042511056 -1.64728677729911021643 -2.57023780092665665720
O  -0.73773614924839026052 -4.55082005612955775575 -3.06837569591808811964
O  4.60494108751403530277 -3.96622878976938064710 -2.04751294360803903771
O  5.51089034068398309074 1.89539249938175013988 -2.95590729180038813695
C  2.21877561653414900888 3.93091745157843019953 -1.83150699881148915082
C  -2.43703341709546794647 4.47105818176657887619 -0.66523693747410916899
C  -5.20475957224313479088 0.39731597485467984310 -1.42006973941786962534
C  -2.38127676782546915391 -3.25302065840269838404 -1.88850281771867911651
C  2.29083818924970739062 -4.03265794157949919452 -1.34196827120711925652
C  4.78374355357373559627 -0.07921556826066936119 -1.75652837800578920380
O  2.95978907701573756839 4.02999105522410960845 -3.02082727297879927164
O  -2.05802748860041750945 5.73612709045024526944 -1.15190620092513951178
O  -5.88058054611833469494 1.22747881263100988569 -2.32923887821376673912
O  -3.19127255102765827743 -3.04457554296714016928 -3.01769493583701819972
O  1.91775986910106821526 -5.08492791013237965814 -2.19872422703288883383
O  5.29532575127568527762 -1.00829228528355963057 -2.67980956684520821298
C  3.21669371315159757785 3.69387210059014980956 -0.69186082520354963421
C  -1.38795551033674868791 3.99685863851938982805 0.35420949320828976070
C  -5.16778178528489551269 1.11072336231340940138 -0.06149807731087994500
C  -3.29265555667351561553 -3.24033602237473994379 -0.65776494554374898005
C  1.38149539713368874061 -4.07715922342435987957 -0.10764441609134994815
C  4.77256626082026613744 -0.75675892258768917564 -0.38217592772181979699
C  2.55256396054111922567 3.77383000390614853359 0.69472730196528931224
C  -1.87658184279176842857 2.62959785738603990524 0.86959042675287956392
C  -4.66995162147994768986 0.17586095834351950229 1.06305633345943961743
C  -2.50721461222832919802 -3.60110911172643000100 0.61297497945516965512
C  1.85352377539312773713 -3.02051341305114995350 0.89710406424008881654
C  4.36577196934167766074 0.23022434129321070473 0.72517060885729955899
O  1.66907167957595858887 4.88692368085399930777 0.81124164518227925846
O  -3.08441362729646728624 2.81665904229748020882 1.56150817661108898271
O  -5.30102626309129565385 -1.10211608872167032835 0.99847272905182959946
O  -1.77848159054403920365 -4.80866574069801888669 0.42941785465123982757
O  3.21002454205557707922 -3.18580015958223006223 1.24237706618064924768
O  5.13256533557428618053 1.42782080075291051280 0.64399374126307928901
C  3.59066688938968736622 3.98044807994619054270 1.80950926664780875619
C  -0.89645500604576855430 1.89000615206742916818 1.74680470073063887071
C  -5.01952751177552602968 0.67278465397587872143 2.47922864883734828112
C  -3.43552903897644679176 -3.83876853711820009707 1.81094492657019912052
C  1.02780373685861881050 -3.05255631487953005276 2.17255950121327856550
C  4.63334413526010635564 -0.33982799439168964728 2.12582775292363868047
O  4.36587551677528651339 5.12623218609484077035 1.58164252684446804409
O  -1.34635178925135901018 1.75509148705510997779 2.99556395054215807150
O  -6.36137881605171440214 1.05950386521692951902 2.58358829301366776932
O  -4.39579169127993640842 -4.82015551998131019928 1.53892222940309930657
O  1.15961021883623871531 -1.88140208249342943958 2.80998166284474804044
O  5.97384117287688454212 -0.72056215651174970738 2.28104190831524888949
H  0.13224704601901035583 5.90028006910375868443 0.06179845111059995011
H  -5.02906546666553655456 3.26944512916705898320 1.32195973471651906372
H  -5.66005365569407548065 -2.74597562429162023179 -0.06617953327339991254
H  -0.37596333589037028711 -5.75629752710907105495 -0.61905323145201962554
H  5.07351651543867454563 -3.11302658157459832822 0.51127945807539909584
H  5.64867625842899290234 3.00541745320616016102 -0.46425305226986962603
H  2.01854436715261886803 6.06436711980527043409 -1.54656827692787923745
H  -3.84115196116301671481 5.32232493097132941529 0.73833328706388945406
H  -6.93123890356386596068 -0.87032777596413046783 -1.10908033325346933040
H  -2.33079476852577860413 -5.39901926729751036049 -2.10116728534805874418
H  3.97846078011181525369 -5.11278456573449080480 -0.51320329701895961438
H  6.65544385173537111910 0.99639818803564983440 -1.56359344794164911718
H  -0.44758121555990915130 5.54738430107657976009 -2.19514784185843891962
H  -4.99862717111371512857 4.04655674109809648797 -1.47877335682354948965
H  -4.87862214394077664537 -1.98151913903146037477 -2.69443521680572883881
H  0.17493009918405943992 -4.73959651674300985746 -2.77483024948440881730
H  4.66410798139857529776 -3.01874084232443751219 -2.26865624666724841063
H  4.64836089514038430792 2.34140600586418878848 -3.00041084851171824255
H  1.54098607645986906967 3.06283758725334953610 -1.87427115174566893963
H  -2.46085499425985743116 3.74585258222391859206 -1.49411825115310925582
H  -4.16019338913851743911 0.25205406388909978865 -1.74488235435312732946
H  -1.65150591338989927159 -2.43341514701178018854 -1.78743297510559906449
H  2.13072481812891645347 -3.06478741669444998408 -1.84269875172082908676
H  3.74246695990955480227 0.17505707611953005842 -2.01366769037927806352
H  2.36276715127818626172 4.34815172937626659433 -3.71377294779213817932
H  -2.81157367692486648281 6.10014489877917043259 -1.64421335474422902756
H  -6.09084081771053398313 0.69029656113981896493 -3.10886487380280840398
H  -2.66909052727224915813 -3.26592044166787065507 -3.80334705793696725706
H  2.58698386619235698447 -5.14749436802668913771 -2.89909019680832802379
H  5.49408568008983611008 -0.53311484335033920701 -3.50050276010526850712
H  4.02144260633307659702 4.43873977070721803528 -0.76158004326704964448
H  -1.33879622191689873212 4.69571097986318886086 1.19890805994787918998
H  -6.17413561112708553225 1.47410559342782954140 0.19007305348557004820
H  -4.09868189285289563628 -3.97092024710498758822 -0.80481580480895953400
H  1.40934724253084797674 -5.07071095687050732437 0.35457577458490985300
H  5.76955099277967686788 -1.16139533236291936369 -0.16672775541378001551
H  1.99677609145850842864 2.83976438078294002310 0.85744948004959942178
H  -2.03432580407637875197 1.97912333649938032565 -0.00933991151863993591
H  -3.58181057813990832983 0.04730107681938962305 0.97286818618691950356
H  -1.81875059986388909472 -2.77601408995254050893 0.84523606295103970165
H  1.70767087459974709063 -2.02632998237252959228 0.44167627387429975183
H  3.29684627784058648103 0.46242992506568020294 0.61428010446683900536
H  4.27684283934914866165 3.13377304722748029064 1.84096947029981894417
H  3.05499576615011703140 4.05618852724160117162 2.76325081195894650676
H  -4.79227452249524610295 -0.15173887546790032488 3.16617738075086840865
H  -4.40898511711660745505 1.53315883400238783807 2.74824849325204567663
H  -3.97170422031588721268 -2.91608560685773054999 2.03992773831826879061
H  -2.81226758138124921516 -4.12058300134711963381 2.66817818299924836012
H  4.35574918530906440850 0.42281946590956998033 2.86286040394648688689
H  4.02684838685082624465 -1.23311937246010971947 2.28407916476905814562
H  3.76320851633328734565 5.88246056441070930276 1.54085400740711886414
H  -6.90736717162538571557 0.28345440568049945496 2.39381796429284854355
H  -3.92388988794632753709 -5.64051884971686945391 1.33424427257381927880
H  6.51908788538571037918 0.06399434512467971903 2.12347478294185876280
C  0.26127497010885958328 -1.58912450335454979999 3.90285766255619792631
H  0.88951598116402896821 -1.18363696298226983572 4.68922404710705720277
H  -0.25570570590976021697 -2.48705044817073872565 4.23160082255163860765
O  0.34924840901390941106 -3.98334818409430990727 2.55358777221210875297
C  -0.58617522855173942453 0.84541176598609990567 3.79519962836908808512
H  -0.99939904616609909205 0.95260657278872973297 4.79784223568303769270
H  0.46887642779151966765 1.11663465419944030188 3.80502509435579794328
O  0.16237772092035962501 1.42572362705916000358 1.35186217851816903313
C  -0.72420064229639979914 -0.57561974826865003330 3.33162747555646809872
O  -1.53646263887656897573 -0.91508322368633943089 2.48476685153011844776
O  5.12016518841188084110 -3.80675011383641637153 3.06030596716629732512
H  4.25869305737139836054 -3.72293329273593265327 2.63580323223809243061
H  5.32062354544112547927 -2.90677049522949593197 3.34175791086644746741
O  -2.07739336173240829453 4.33352014407194108259 3.97883132084589563604
H  -2.35787845356035274946 3.79904446580360399821 3.22714925599252966393
H  -2.03711298227879344935 3.69888340896133804847 4.70338343691660476509
O  1.20861243434111176320 0.84716361011117102819 -2.45015501381522371460
H  1.47563441383520377315 -0.07837486559086279114 -2.48810045468183282935
H  0.38317580702480413812 0.86359757474617560025 -2.94789627442596335882
O  2.57954538705013813882 -5.94619569675729753300 2.93431070549187023033
H  2.65596581105262918854 -6.24703290143068468154 3.84700942856533290026
H  1.73718974537481085640 -5.47753390440847809373 2.92185435155271555629
O  7.29620667321037252862 3.05100343268505413974 1.44429872370218603805
H  7.01503845224758304511 2.20928903027048573193 1.06770429954158507790
H  6.76420353927246242876 3.12816771772275625807 2.24453643964550542123
O  -1.05493549403350583837 -0.20175112183925833498 -1.90578485440609046719
H  -1.23685437313731783071 -0.42092813198437378785 -0.98479135623696145707
H  -1.90977621469210645522 0.09335581160641551191 -2.23973290958756754421
O  0.40789638124594512769 4.85382894434815526097 3.72543848859718496058
H  0.01368879175008975990 4.49477322989597638525 2.92229377291796899030
H  0.03071683465176650030 4.30767446854185553917 4.42459007560179617968
O  1.21348797977724287556 -3.47827765770486418972 -4.92319011099401926401
H  1.25561636499323192595 -2.59985245536667353150 -4.52827692170230822200
H  0.26721009973673559568 -3.65151120294881614825 -4.98572311005507007309
O  -3.37744983416910171670 -0.80244443854341140909 5.02801316157645405980
H  -3.98342569205590901760 -0.66501468563138288470 5.76508058501425590947
H  -2.99943270180925969370 -1.67108239055839913334 5.20671184479757620522
O  -0.29409470751137145594 7.08250446257944599182 2.34081583065246645603
H  0.51752120379981159104 6.67959335556119793154 2.01171961923672348860
H  -0.39475462152669771321 6.69967646414601958327 3.21983367390093944138
O  -3.43295572661918013679 2.81287833768132600198 -3.73637328428637882638
H  -3.86438062166725604385 3.40821766400290560028 -4.35991615409412336390
H  -4.15948600299494675170 2.49865613529479757560 -3.18611859011283016230
O  1.35024310655608803522 2.97177396900470869312 -4.84512104697737200354
H  1.75484819780610545870 2.33269820340351374810 -4.24742635068489171601
H  0.40538034146273999037 2.85284786628234776629 -4.69527779335967210272
O  0.18322687505456614065 -6.60190669290909060152 2.15079632328284464649
H  -0.09082779438799913618 -5.87151553977062601319 1.58441759346140953468
H  -0.37141095595953899089 -7.33395350912017729428 1.85780076238388747178
O  2.56947934761413288030 -7.05085454762334773449 0.50028496151401569136
H  2.21567125483624716153 -7.92918499809157051317 0.31940511939356591720
H  2.62946282806246500741 -7.02634175534128413432 1.46213898812676346139
O  0.58627963217273637575 -7.34812615275521352487 -2.33549050516169032221
H  1.53648087109563014074 -7.23569529413239376225 -2.45312966360428363899
H  0.21408734174046861742 -6.97478527771062140062 -3.14261599316652207037
O  0.89019192326940954629 -0.81060957508683373351 -5.28435931750822174280
H  1.33739023672534007581 -0.02176180210095902262 -4.95710571016715118020
H  0.39779649937544075966 -0.48928159775481222526 -6.04833388575988006863
O  -7.04956873861824728777 -3.96410725474136516056 2.00995718922721300359
H  -7.15254410147000818654 -4.65493643898663123082 1.34549261014047272234
H  -6.11654403109737643263 -4.01710470963826971058 2.24663889184350029637
O  -2.39204768770303655145 0.15717982328363380717 -4.46632338538250728277
H  -1.53045049202667371446 0.00772474470296939664 -4.87212569674781104112
H  -3.01349931175671681416 -0.09387819900866259393 -5.15923738569354028982
O  3.14332620986744482039 -1.62109111580771458883 -4.37889695172932036371
H  3.95613356745356270494 -1.99669242749930186953 -4.73615024860673283769
H  3.41939840053587484903 -1.25197539084039011215 -3.53219760098863355680
O  -2.67562507398253446311 -2.72429854713833474733 -5.71877295514880223948
H  -2.04201429833394287883 -2.02689782699283638223 -5.51497971545993515008
H  -3.48775396947860238939 -2.24134700532619701718 -5.90999672141472753850
O  -5.16179463953493655737 1.22880828697755473122 5.39796580930602942772
H  -4.30623578081447266896 1.46134611394679203578 5.01940635253112343861
H  -5.78909550991919452656 1.71748339740495525874 4.85294074760039073624
O  7.47482153174193530987 -2.68927817501331345440 -0.05106943122605772656
H  8.13144470871629110320 -2.53901163294919740565 -0.74072734194451583800
H  7.93040395968893019329 -2.42164143292063815949 0.75526628610962387445
O  3.28308700329775504656 0.25360364509140098654 4.83243799257620310073
H  3.23293046070106671053 -0.70364738321965725198 4.72988627853632603859
H  4.06735062240857292437 0.38041984245367749251 5.37852433304727917118
O  -5.07534094216287634538 3.89321310787356278382 4.18836856975482074716
H  -4.61545125675281653344 4.72313013558524108504 4.01777763099195883711
H  -5.96276847180845059881 4.05379896144220630561 3.84771239898420525094
O  1.45025193988893930097 0.85417997595781436360 6.76870280392417633664
H  1.93168607196916974900 0.40658874102402198236 6.06354656102552258545
H  1.57211704817955344460 1.78876006609927284963 6.56604295611061861138
O  -3.44570730021408344612 6.77245127343282860011 2.84439293874128606987
H  -2.83813269621510055885 6.02427171225839241941 2.86542883274777748781
H  -3.25376718262646669189 7.19423259426640626657 1.99904001121358820825
O  1.11816444679303672594 -4.32565546146346058265 5.35386354484279181065
H  1.95414561632925742884 -4.77549682520086538062 5.52161423984008425947
H  1.09148599170977855799 -4.25173814587538156928 4.39303757000971195623
O  5.69783059855965134943 6.18101505111007654136 -0.46750319903466597271
H  5.65619013476971144172 5.71961212919333217286 -1.31292349654496254274
H  5.53829147136253219230 5.48279244561875067632 0.17778318970865775173
O  2.97214826822710387333 -2.54039818672827300006 4.88361746345918756873
H  3.41044717656149964924 -3.18502199179687339736 5.45081785213333347428
H  2.66417877776444944615 -3.06908794922679950545 4.13863156332634751777
O  -2.10927255164601490378 -7.62235687850030174673 0.24960413766669745095
H  -2.13965310933945929150 -6.83056022449032518296 0.79869169392088013026
H  -2.07196267734623429391 -7.27229058048671817005 -0.64784982978685135002
O  -5.95738119874374394414 -2.71946959444894975633 3.84506308661250484349
H  -5.96340446262175483128 -1.86313932192317133207 3.40231682895634879316
H  -6.78868546794184801740 -2.72604528790807476568 4.33317376636849971305
O  -3.06978445874264105342 -3.43806722092029648508 5.47737141699656771010
H  -3.67898439910825914012 -3.83318839658434562523 4.84324465268146386876
H  -3.01545803629152464609 -4.09790447024198378756 6.17810353960445901578
O  -2.10081379495279207958 8.35058361134574589357 0.53683197392943493576
H  -1.61379119656063196864 7.95027358434584385805 1.26616244426441015847
H  -1.73720053490439929611 7.91471854570989652444 -0.24237859138558603966
O  -8.42745239344178287411 -1.03324261877772083373 1.40939887423460175064
H  -8.74522024018301102899 -1.47272331779698451015 0.61237793675094354118
H  -8.15702876973042201314 -1.76432351012953780867 1.97663238652241024518
O  3.87943375610813978582 -4.37462418223442295329 -4.97668615011491155542
H  4.00479093303440514262 -4.03851172306594285999 -4.08188111157012123442
H  3.18345245043729851986 -3.81081113013313599325 -5.33317868560514263265
O  -5.02249802687488067221 -6.12198789954351330067 -1.41574994816551513743
H  -5.65086478382581525182 -6.04143046506416325769 -2.14240515012131149675
H  -5.56763899736979617217 -5.99082463791727271030 -0.63154360764616801482
O  6.76129068312599823543 -5.04345246071938468901 1.16298602563045272440
H  7.25013401468822760165 -4.45828877716016158672 1.75288239335184359291
H  5.85704305101521160992 -4.99120067318923510413 1.49308909127094979752
O  -5.93556616484713650550 5.72530217161403776061 1.91205713122279252758
H  -5.52993297785360393704 6.23868639270711522471 2.62005460520308197658
H  -6.01387832027358637532 6.35993296048305722934 1.19061896231622310616
O  -7.58983910848944809402 3.48574222598179828125 2.59254318740139710897
H  -8.20366369774587944619 3.02710500611880206634 2.00753606077740265334
H  -7.51395259842904561509 4.36152180863303229330 2.19679904830974015439
O  -2.87802867744106549708 -6.53147625635682782530 2.66862854605135479957
H  -2.23219968800951429344 -6.11662975841340283978 3.25186894552162586436
H  -3.01741911092758474666 -7.39791238204446433002 3.06765337056627407364
O  -7.14524688633803872762 3.28628260574892161472 -0.50934066589381166157
H  -8.06177910814559162134 3.47365469286326211673 -0.27648351788397457218
H  -7.21930038840080445794 2.79129766374570609244 -1.33327515931281270767
O  -6.19240362477143335695 -4.47217520273540003473 -2.89771325554427638949
H  -5.30720373305576220702 -4.23367920312511181180 -2.59954740589545529872
H  -6.64307943807165379724 -3.62271757790817261480 -2.96608809267302708790
O  6.99056995333366693046 -5.03185626525437434964 -1.56372911048516605170
H  6.61045157324263144005 -4.70672788610952430588 -0.73961527234630908278
H  6.51467674869402735283 -4.53785520475224757320 -2.24111428409313528931
O  5.58485755783591386603 1.97024397524292615991 4.85733526103835178134
H  5.19241740412905361524 2.31370531945544133379 4.04654114733832148687
H  5.07269484753479638073 2.39737119610832483119 5.55347731464244809274
O  -7.91931055924990801032 -3.95497925755247514701 -0.27860804894142771060
H  -7.71667614642881005693 -3.03242574951592036570 -0.08574440910633064628
H  -7.43726153871128392581 -4.12490898867411637241 -1.09599087950614992870
268
Energy 4.389881
C  0.71130776615267965468 5.00482414727958069278 -0.19561568134503989902
C  -4.13784486848083687960 3.17739904325788646844 0.68958586950538958149
C  -5.17444863619361594687 -1.77393841750645009370 -0.21665732364067985527
C  -0.87384297371556018952 -4.77917785703500719308 -0.63719983279390968178
C  4.05339626216557658012 -3.03094590633414950887 0.11871533019796989827
C  5.04884681101444510176 2.09362244562296995198 -0.58404774284701976850
O  -0.12582766454131008582 3.86927617535052936759 -0.25997818896310981307
O  -4.31294268880552600365 2.22131748928795813569 -0.31126934222609969893
O  -3.82279935479500831974 -1.93070136534545921947 -0.57994872475585967919
O  0.05957377906125960187 -3.73642003081359996841 -0.49167570712067970584
O  3.83098722953195691687 -1.80990987403622982654 -0.51821454630126961849
O  3.72723448493223719069 2.39573122461048049203 -0.94081572077923947273
C  1.36673334302333859824 5.17738746353810963541 -1.57023401112807836633
C  -3.83082197195232687648 4.52142930134692022648 -0.00861440099554997007
C  -5.86696795055896558324 -0.98447702978594020529 -1.33884527976942946381
C  -1.61012054292363893104 -4.57805317038506043303 -1.97033050864001890723
C  3.77326160587263625956 -4.12352537948484876296 -0.93397915008777943058
C  5.59790018606635531029 1.22271087148065049632 -1.73017268935670931462
O  0.41249294889497961636 5.31215455814457548911 -2.59060683846512906925
O  -4.80930237402007687564 4.84002336366017882341 -0.95372222083172941698
O  -5.78582568311042511056 -1.64728677729911021643 -2.57023780092665665720
O  -0.73773614924839026052 -4.55082005612955775575 -3.06837569591808811964
O  4.60494108751403530277 -3.96622878976938064710 -2.04751294360803903771
O  5.51089034068398309074 1.89539249938175013988 -2.95590729180038813695
C  2.21877561653414900888 3.93091745157843019953 -1.83150699881148915082
C  -2.43703341709546794647 4.47105818176657887619 -0.66523693747410916899
C  -5.20475957224313479088 0.39731597485467984310 -1.42006973941786962534
C  -2.38127676782546915391 -3.25302065840269838404 -1.88850281771867911651
C  2.29083818924970739062 -4.03265794157949919452 -1.34196827120711925652
C  4.78374355357373559627 -0.07921556826066936119 -1.75652837800578920380
O  2.95978907701573756839 4.02999105522410960845 -3.02082727297879927164
O  -2.05802748860041750945 5.73612709045024526944 -1.15190620092513951178
O  -5.88058054611833469494 1.22747881263100988569 -2.32923887821376673912
O  -3.19127255102765827743 -3.04457554296714016928 -3.01769493583701819972
O  1.91775986910106821526 -5.08492791013237965814 -2.19872422703288883383
O  5.29532575127568527762 -1.00829228528355963057 -2.67980956684520821298
C  3.21669371315159757785 3.69387210059014980956 -0.69186082520354963421
C  -1.38795551033674868791 3.99685863851938982805 0.35420949320828976070
C  -5.16778178528489551269 1.11072336231340940138 -0.06149807731087994500
C  -3.29265555667351561553 -3.24033602237473994379 -0.65776494554374898005
C  1.38149539713368874061 -4.07715922342435987957 -0.10764441609134994815
C  4.77256626082026613744 -0.75675892258768917564 -0.38217592772181979699
C  2.55256396054111922567 3.77383000390614853359 0.69472730196528931224
C  -1.87658184279176842857 2.62959785738603990524 0.86959042675287956392
C  -4.66995162147994768986 0.17586095834351950229 1.06305633345943961743
C  -2.50721461222832919802 -3.60110911172643000100 0.61297497945516965512
C  1.85352377539312773713 -3.02051341305114995350 0.89710406424008881654
C  4.36577196934167766074 0.23022434129321070473 0.72517060885729955899
O  1.66907167957595858887 4.88692368085399930777 0.81124164518227925846
O  -3.08441362729646728624 2.81665904229748020882 1.56150817661108898271
O  -5.30102626309129565385 -1.10211608872167032835 0.99847272905182959946
O  -1.77848159054403920365 -4.80866574069801888669 0.42941785465123982757
O  3.21002454205557707922 -3.18580015958223006223 1.24237706618064924768
O  5.13256533557428618053 1.42782080075291051280 0.64399374126307928901
C  3.59066688938968736622 3.98044807994619054270 1.80950926664780875619
C  -0.89645500604576855430 1.89000615206742916818 1.74680470073063887071
C  -5.01952751177552602968 0.67278465397587872143 2.47922864883734828112
C  -3.43552903897644679176 -3.83876853711820009707 1.81094492657019912052
C  1.02780373685861881050 -3.05255631487953005276 2.17255950121327856550
C  4.63334413526010635564 -0.33982799439168964728 2.12582775292363868047
O  4.36587551677528651339 5.12623218609484077035 1.58164252684446804409
O  -1.34635178925135901018 1.75509148705510997779 2.99556395054215807150
O  -6.36137881605171440214 1.05950386521692951902 2.58358829301366776932
O  -4.39579169127993640842 -4.82015551998131019928 1.53892222940309930657
O  1.15961021883623871531 -1.88140208249342943958 2.80998166284474804044
O  5.97384117287688454212 -0.72056215651174970738 2.28104190831524888949
H  0.13224704601901035583 5.90028006910375868443 0.06179845111059995011
H  -5.02906546666553655456 3.26944512916705898320 1.32195973471651906372
H  -5.66005365569407548065 -2.74597562429162023179 -0.06617953327339991254
H  -0.37596333589037028711 -5.75629752710907105495 -0.61905323145201962554
H  5.07351651543867454563 -3.11302658157459832822 0.51127945807539909584
H  5.64867625842899290234 3.00541745320616016102 -0.46425305226986962603
H  2.01854436715261886803 6.06436711980527043409 -1.54656827692787923745
H  -3.84115196116301671481 5.32232493097132941529 0.73833328706388945406
H  -6.93123890356386596068 -0.87032777596413046783 -1.10908033325346933040
H  -2.33079476852577860413 -5.39901926729751036049 -2.10116728534805874418
H  3.97846078011181525369 -5.11278456573449080480 -0.51320329701895961438
H  6.65544385173537111910 0.99639818803564983440 -1.56359344794164911718
H  -0.44758121555990915130 5.54738430107657976009 -2.19514784185843891962
H  -4.99862717111371512857 4.04655674109809648797 -1.47877335682354948965
H  -4.87862214394077664537 -1.98151913903146037477 -2.69443521680572883881
H  0.17493009918405943992 -4.73959651674300985746 -2.77483024948440881730
H  4.66410798139857529776 -3.01874084232443751219 -2.26865624666724841063
H  4.64836089514038430792 2.34140600586418878848 -3.00041084851171824255
H  1.54098607645986906967 3.06283758725334953610 -1.87427115174566893963
H  -2.46085499425985743116 3.74585258222391859206 -1.49411825115310925582
H  -4.16019338913851743911 0.25205406388909978865 -1.74488235435312732946
H  -1.65150591338989927159 -2.43341514701178018854 -1.78743297510559906449
H  2.13072481812891645347 -3.06478741669444998408 -1.84269875172082908676
H  3.74246695990955480227 0.17505707611953005842 -2.01366769037927806352
H  2.36276715127818626172 4.34815172937626659433 -3.71377294779213817932
H  -2.81157367692486648281 6.10014489877917043259 -1.64421335474422902756
H  -6.09084081771053398313 0.69029656113981896493 -3.10886487380280840398
H  -2.66909052727224915813 -3.26592044166787065507 -3.80334705793696725706
H  2.58698386619235698447 -5.14749436802668913771 -2.89909019680832802379
H  5.49408568008983611008 -0.53311484335033920701 -3.50050276010526850712
H  4.02144260633307659702 4.43873977070721803528 -0.76158004326704964448
H  -1.33879622191689873212 4.69571097986318886086 1.19890805994787918998
H  -6.17413561112708553225 1.47410559342782954140 0.19007305348557004820
H  -4.09868189285289563628 -3.97092024710498758822 -0.80481580480895953400
H  1.40934724253084797674 -5.07071095687050732437 0.35457577458490985300
H  5.76955099277967686788 -1.16139533236291936369 -0.16672775541378001551
H  1.99677609145850842864 2.83976438078294002310 0.85744948004959942178
H  -2.03432580407637875197 1.97912333649938032565 -0.00933991151863993591
H  -3.58181057813990832983 0.04730107681938962305 0.97286818618691950356
H  -1.81875059986388909472 -2.77601408995254050893 0.84523606295103970165
H  1.70767087459974709063 -2.02632998237252959228 0.44167627387429975183
H  3.29684627784058648103 0.46242992506568020294 0.61428010446683900536
H  4.27684283934914866165 3.13377304722748029064 1.84096947029981894417
H  3.05499576615011703140 4.05618852724160117162 2.76325081195894650676
H  -4.79227452249524610295 -0.15173887546790032488 3.16617738075086840865
H  -4.40898511711660745505 1.53315883400238783807 2.74824849325204567663
H  -3.97170422031588721268 -2.91608560685773054999 2.03992773831826879061
H  -2.81226758138124921516 -4.12058300134711963381 2.66817818299924836012
H  4.35574918530906440850 0.42281946590956998033 2.86286040394648688689
H  4.02684838685082624465 -1.23311937246010971947 2.28407916476905814562
H  3.76320851633328734565 5.88246056441070930276 1.54085400740711886414
H  -6.90736717162538571557 0.28345440568049945496 2.39381796429284854355
H  -3.92388988794632753709 -5.64051884971686945391 1.33424427257381927880
H  6.51908788538571037918 0.06399434512467971903 2.12347478294185876280
C  0.26127497010885958328 -1.58912450335454979999 3.90285766255619792631
H  0.88951598116402896821 -1.18363696298226983572 4.68922404710705720277
H  -0.25570570590976021697 -2.48705044817073872565 4.23160082255163860765
O  0.34924840901390941106 -3.98334818409430990727 2.55358777221210875297
C  -0.58617522855173942453 0.84541176598609990567 3.79519962836908808512
H  -0.99939904616609909205 0.95260657278872973297 4.79784223568303769270
H  0.46887642779151966765 1.11663465419944030188 3.80502509435579794328
O  0.16237772092035962501 1.42572362705916000358 1.35186217851816903313
C  -0.72420064229639979914 -0.57561974826865003330 3.33162747555646809872
O  -1.53646263887656897573 -0.91508322368633943089 2.48476685153011844776
O  5.12016518841188084110 -3.80675011383641637153 3.06030596716629732512
H  4.25869305737139836054 -3.72293329273593265327 2.63580323223809243061
H  5.32062354544112547927 -2.90677049522949593197 3.34175791086644746741
O  -2.07739336173240829453 4.33352014407194108259 3.97883132084589563604
H  -2.35787845356035274946 3.79904446580360399821 3.22714925599252966393
H  -2.03711298227879344935 3.69888340896133804847 4.70338343691660476509
O  1.20861243434111176320 0.84716361011117102819 -2.45015501381522371460
H  1.47563441383520377315 -0.07837486559086279114 -2.48810045468183282935
H  0.38317580702480413812 0.86359757474617560025 -2.94789627442596335882
O  2.57954538705013813882 -5.94619569675729753300 2.93431070549187023033
H  2.65596581105262918854 -6.24703290143068468154 3.84700942856533290026
H  1.73718974537481085640 -5.47753390440847809373 2.92185435155271555629
O  7.29620667321037252862 3.05100343268505413974 1.44429872370218603805
H  7.01503845224758304511 2.20928903027048573193 1.06770429954158507790
H  6.76420353927246242876 3.12816771772275625807 2.24453643964550542123
O  -1.05493549403350583837 -0.20175112183925833498 -1.90578485440609046719
H  -1.23685437313731783071 -0.42092813198437378785 -0.98479135623696145707
H  -1.90977621469210645522 0.09335581160641551191 -2.23973290958756754421
O  0.40789638124594512769 4.85382894434815526097 3.72543848859718496058
H  0.01368879175008975990 4.49477322989597638525 2.92229377291796899030
H  0.03071683465176650030 4.30767446854185553917 4.42459007560179617968
O  1.21348797977724287556 -3.47827765770486418972 -4.92319011099401926401
H  1.25561636499323192595 -2.59985245536667353150 -4.52827692170230822200
H  0.26721009973673559568 -3.65151120294881614825 -4.98572311005507007309
O  -3.37744983416910171670 -0.80244443854341140909 5.02801316157645405980
H  -3.98342569205590901760 -0.66501468563138288470 5.76508058501425590947
H  -2.99943270180925969370 -1.67108239055839913334 5.20671184479757620522
O  -0.29409470751137145594 7.08250446257944599182 2.34081583065246645603
H  0.51752120379981159104 6.67959335556119793154 2.01171961923672348860
H  -0.39475462152669771321 6.69967646414601958327 3.21983367390093944138
O  -3.43295572661918013679 2.81287833768132600198 -3.73637328428637882638
H  -3.86438062166725604385 3.40821766400290560028 -4.35991615409412336390
H  -4.15948600299494675170 2.49865613529479757560 -3.18611859011283016230
O  1.35024310655608803522 2.97177396900470869312 -4.84512104697737200354
H  1.75484819780610545870 2.33269820340351374810 -4.24742635068489171601
H  0.40538034146273999037 2.85284786628234776629 -4.69527779335967210272
O  0.18322687505456614065 -6.60190669290909060152 2.15079632328284464649
H  -0.09082779438799913618 -5.87151553977062601319 1.58441759346140953468
H  -0.37141095595953899089 -7.33395350912017729428 1.85780076238388747178
O  2.56947934761413288030 -7.05085454762334773449 0.50028496151401569136
H  2.21567125483624716153 -7.92918499809157051317 0.31940511939356591720
H  2.62946282806246500741 -7.02634175534128413432 1.46213898812676346139
O  0.58627963217273637575 -7.34812615275521352487 -2.33549050516169032221
H  1.53648087109563014074 -7.23569529413239376225 -2.45312966360428363899
H  0.21408734174046861742 -6.97478527771062140062 -3.14261599316652207037
O  0.89019192326940954629 -0.81060957508683373351 -5.28435931750822174280
H  1.33739023672534007581 -0.02176180210095902262 -4.95710571016715118020
H  0.39779649937544075966 -0.48928159775481222526 -6.04833388575988006863
O  -7.04956873861824728777 -3.96410725474136516056 2.00995718922721300359
H  -7.15254410147000818654 -4.65493643898663123082 1.34549261014047272234
H  -6.11654403109737643263 -4.01710470963826971058 2.24663889184350029637
O  -2.39204768770303655145 0.15717982328363380717 -4.46632338538250728277
H  -1.53045049202667371446 0.00772474470296939664 -4.87212569674781104112
H  -3.01349931175671681416 -0.09387819900866259393 -5.15923738569354028982
O  3.14332620986744482039 -1.62109111580771458883 -4.37889695172932036371
H  3.95613356745356270494 -1.99669242749930186953 -4.73615024860673283769
H  3.41939840053587484903 -1.25197539084039011215 -3.53219760098863355680
O  -2.67562507398253446311 -2.72429854713833474733 -5.71877295514880223948
H  -2.04201429833394287883 -2.02689782699283638223 -5.51497971545993515008
H  -3.48775396947860238939 -2.24134700532619701718 -5.90999672141472753850
O  -5.16179463953493655737 1.22880828697755473122 5.39796580930602942772
H  -4.30623578081447266896 1.46134611394679203578 5.01940635253112343861
H  -5.78909550991919452656 1.71748339740495525874 4.85294074760039073624
O  7.47482153174193530987 -2.68927817501331345440 -0.05106943122605772656
H  8.13144470871629110320 -2.53901163294919740565 -0.74072734194451583800
H  7.93040395968893019329 -2.42164143292063815949 0.75526628610962387445
O  3.28308700329775504656 0.25360364509140098654 4.83243799257620310073
H  3.23293046070106671053 -0.70364738321965725198 4.72988627853632603859
H  4.06735062240857292437 0.38041984245367749251 5.37852433304727917118
O  -5.07534094216287634538 3.89321310787356278382 4.18836856975482074716
H  -4.61545125675281653344 4.72313013558524108504 4.01777763099195883711
H  -5.96276847180845059881 4.05379896144220630561 3.84771239898420525094
O  1.45025193988893930097 0.85417997595781436360 6.76870280392417633664
H  1.93168607196916974900 0.40658874102402198236 6.06354656102552258545
H  1.57211704817955344460 1.78876006609927284963 6.56604295611061861138
O  -3.44570730021408344612 6.77245127343282860011 2.84439293874128606987
H  -2.83813269621510055885 6.02427171225839241941 2.86542883274777748781
H  -3.25376718262646669189 7.19423259426640626657 1.99904001121358820825
O  1.11816444679303672594 -4.32565546146346058265 5.35386354484279181065
H  1.95414561632925742884 -4.77549682520086538062 5.52161423984008425947
H  1.09148599170977855799 -4.25173814587538156928 4.39303757000971195623
O  5.69783059855965134943 6.18101505111007654136 -0.46750319903466597271
H  5.65619013476971144172 5.71961212919333217286 -1.31292349654496254274
H  5.53829147136253219230 5.48279244561875067632 0.17778318970865775173
O  2.97214826822710387333 -2.54039818672827300006 4.88361746345918756873
H  3.41044717656149964924 -3.18502199179687339736 5.45081785213333347428
H  2.66417877776444944615 -3.06908794922679950545 4.13863156332634751777
O  -2.10927255164601490378 -7.62235687850030174673 0.24960413766669745095
H  -2.13965310933945929150 -6.83056022449032518296 0.79869169392088013026
H  -2.07196267734623429391 -7.27229058048671817005 -0.64784982978685135002
O  -5.95738119874374394414 -2.71946959444894975633 3.84506308661250484349
H  -5.96340446262175483128 -1.86313932192317133207 3.40231682895634879316
H  -6.78868546794184801740 -2.72604528790807476568 4.33317376636849971305
O  -3.06978445874264105342 -3.43806722092029648508 5.47737141699656771010
H  -3.67898439910825914012 -3.83318839658434562523 4.84324465268146386876
H  -3.01545803629152464609 -4.09790447024198378756 6.17810353960445901578
O  -2.10081379495279207958 8.35058361134574589357 0.53683197392943493576
H  -1.61379119656063196864 7.95027358434584385805 1.26616244426441015847
H  -1.73720053490439929611 7.91471854570989652444 -0.24237859138558603966
O  -8.42745239344178287411 -1.03324261877772083373 1.40939887423460175064
H  -8.74522024018301102899 -1.47272331779698451015 0.61237793675094354118
H  -8.15702876973042201314 -1.76432351012953780867 1.97663238652241024518
O  3.87943375610813978582 -4.37462418223442295329 -4.97668615011491155542
H  4.00479093303440514262 -4.03851172306594285999 -4.08188111157012123442
H  3.18345245043729851986 -3.81081113013313599325 -5.33317868560514263265
O  -5.02249802687488067221 -6.12198789954351330067 -1.41574994816551513743
H  -5.65086478382581525182 -6.04143046506416325769 -2.14240515012131149675
H  -5.56763899736979617217 -5.99082463791727271030 -0.63154360764616801482
O  6.76129068312599823543 -5.04345246071938468901 1.16298602563045272440
H  7.25013401468822760165 -4.45828877716016158672 1.75288239335184359291
H  5.85704305101521160992 -4.99120067318923510413 1.49308909127094979752
O  -5.93556616484713650550 5.72530217161403776061 1.91205713122279252758
H  -5.52993297785360393704 6.23868639270711522471 2.62005460520308197658
H  -6.01387832027358637532 6.35993296048305722934 1.19061896231622310616
O  -7.58983910848944809402 3.48574222598179828125 2.59254318740139710897
H  -8.20366369774587944619 3.02710500611880206634 2.00753606077740265334
H  -7.51395259842904561509 4.36152180863303229330 2.19679904830974015439
O  -2.87802867744106549708 -6.53147625635682782530 2.66862854605135479957
H  -2.23219968800951429344 -6.11662975841340283978 3.25186894552162586436
H  -3.01741911092758474666 -7.39791238204446433002 3.06765337056627407364
O  -7.14524688633803872762 3.28628260574892161472 -0.50934066589381166157
H  -8.06177910814559162134 3.47365469286326211673 -0.27648351788397457218
H  -7.21930038840080445794 2.79129766374570609244 -1.33327515931281270767
O  -6.19240362477143335695 -4.47217520273540003473 -2.89771325554427638949
H  -5.30720373305576220702 -4.23367920312511181180 -2.59954740589545529872
H  -6.64307943807165379724 -3.62271757790817261480 -2.96608809267302708790
O  6.99056995333366693046 -5.03185626525437434964 -1.56372911048516605170
H  6.61045157324263144005 -4.70672788610952430588 -0.73961527234630908278
H  6.51467674869402735283 -4.53785520475224757320 -2.24111428409313528931
O  5.58485755783591386603 1.97024397524292615991 4.85733526103835178134
H  5.19241740412905361524 2.31370531945544133379 4.04654114733832148687
H  5.07269484753479638073 2.39737119610832483119 5.55347731464244809274
O  -7.91931055924990801032 -3.95497925755247425883 -0.27860804894142748855
H  -7.71667614642881005693 -3.03242574951592036570 -0.08574440910633047974
H  -7.43726153871128392581 -4.12490898867411637241 -1.09599087950614992870
O  6.77438342558111195046 -2.31992601339811566064 -4.45525075620930621767
H  6.04679109419994009755 -2.88591987113623993366 -4.73742519930855987553
H  6.79631764784246428235 -2.44183084055093724274 -3.49920673712130092525
271
Energy 4.540411
C  0.71130776615267965468 5.00482414727958069278 -0.19561568134503989902
C  -4.13784486848083687960 3.17739904325788646844 0.68958586950538958149
C  -5.17444863619361594687 -1.77393841750645009370 -0.21665732364067985527
C  -0.87384297371556018952 -4.77917785703500719308 -0.63719983279390968178
C  4.05339626216557658012 -3.03094590633414950887 0.11871533019796989827
C  5.04884681101444510176 2.09362244562296995198 -0.58404774284701976850
O  -0.12582766454131008582 3.86927617535052936759 -0.25997818896310981307
O  -4.31294268880552600365 2.22131748928795813569 -0.31126934222609969893
O  -3.82279935479500831974 -1.93070136534545921947 -0.57994872475585967919
O  0.05957377906125960187 -3.73642003081359996841 -0.49167570712067970584
O  3.83098722953195691687 -1.80990987403622982654 -0.51821454630126961849
O  3.72723448493223719069 2.39573122461048049203 -0.94081572077923947273
C  1.36673334302333859824 5.17738746353810963541 -1.57023401112807836633
C  -3.83082197195232687648 4.52142930134692022648 -0.00861440099554997007
C  -5.86696795055896558324 -0.98447702978594020529 -1.33884527976942946381
C  -1.61012054292363893104 -4.57805317038506043303 -1.97033050864001890723
C  3.77326160587263625956 -4.12352537948484876296 -0.93397915008777943058
C  5.59790018606635531029 1.22271087148065049632 -1.73017268935670931462
O  0.41249294889497961636 5.31215455814457548911 -2.59060683846512906925
O  -4.80930237402007687564 4.84002336366017882341 -0.95372222083172941698
O  -5.78582568311042511056 -1.64728677729911021643 -2.57023780092665665720
O  -0.73773614924839026052 -4.55082005612955775575 -3.06837569591808811964
O  4.60494108751403530277 -3.96622878976938064710 -2.04751294360803903771
O  5.51089034068398309074 1.89539249938175013988 -2.95590729180038813695
C  2.21877561653414900888 3.93091745157843019953 -1.83150699881148915082
C  -2.43703341709546794647 4.47105818176657887619 -0.66523693747410916899
C  -5.20475957224313479088 0.39731597485467984310 -1.42006973941786962534
C  -2.38127676782546915391 -3.25302065840269838404 -1.88850281771867911651
C  2.29083818924970739062 -4.03265794157949919452 -1.34196827120711925652
C  4.78374355357373559627 -0.07921556826066936119 -1.75652837800578920380
O  2.95978907701573756839 4.02999105522410960845 -3.02082727297879927164
O  -2.05802748860041750945 5.73612709045024526944 -1.15190620092513951178
O  -5.88058054611833469494 1.22747881263100988569 -2.32923887821376673912
O  -3.19127255102765827743 -3.04457554296714016928 -3.01769493583701819972
O  1.91775986910106821526 -5.08492791013237965814 -2.19872422703288883383
O  5.29532575127568527762 -1.00829228528355963057 -2.67980956684520821298
C  3.21669371315159757785 3.69387210059014980956 -0.69186082520354963421
C  -1.38795551033674868791 3.99685863851938982805 0.35420949320828976070
C  -5.16778178528489551269 1.11072336231340940138 -0.06149807731087994500
C  -3.29265555667351561553 -3.24033602237473994379 -0.65776494554374898005
C  1.38149539713368874061 -4.07715922342435987957 -0.10764441609134994815
C  4.77256626082026613744 -0.75675892258768917564 -0.38217592772181979699
C  2.55256396054111922567 3.77383000390614853359 0.69472730196528931224
C  -1.87658184279176842857 2.62959785738603990524 0.86959042675287956392
C  -4.66995162147994768986 0.17586095834351950229 1.06305633345943961743
C  -2.50721461222832919802 -3.60110911172643000100 0.61297497945516965512
C  1.85352377539312773713 -3.02051341305114995350 0.89710406424008881654
C  4.36577196934167766074 0.23022434129321070473 0.72517060885729955899
O  1.66907167957595858887 4.88692368085399930777 0.81124164518227925846
O  -3.08441362729646728624 2.81665904229748020882 1.56150817661108898271
O  -5.30102626309129565385 -1.10211608872167032835 0.99847272905182959946
O  -1.77848159054403920365 -4.80866574069801888669 0.42941785465123982757
O  3.21002454205557707922 -3.18580015958223006223 1.24237706618064924768
O  5.13256533557428618053 1.42782080075291051280 0.64399374126307928901
C  3.59066688938968736622 3.98044807994619054270 1.80950926664780875619
C  -0.89645500604576855430 1.89000615206742916818 1.74680470073063887071
C  -5.01952751177552602968 0.67278465397587872143 2.47922864883734828112
C  -3.43552903897644679176 -3.83876853711820009707 1.81094492657019912052
C  1.02780373685861881050 -3.05255631487953005276 2.17255950121327856550
C  4.63334413526010635564 -0.33982799439168964728 2.12582775292363868047
O  4.36587551677528651339 5.12623218609484077035 1.58164252684446804409
O  -1.34635178925135901018 1.75509148705510997779 2.99556395054215807150
O  -6.36137881605171440214 1.05950386521692951902 2.58358829301366776932
O  -4.39579169127993640842 -4.82015551998131019928 1.53892222940309930657
O  1.15961021883623871531 -1.88140208249342943958 2.80998166284474804044
O  5.97384117287688454212 -0.72056215651174970738 2.28104190831524888949
H  0.13224704601901035583 5.90028006910375868443 0.06179845111059995011
H  -5.02906546666553655456 3.26944512916705898320 1.32195973471651906372
H  -5.66005365569407548065 -2.74597562429162023179 -0.06617953327339991254
H  -0.37596333589037028711 -5.75629752710907105495 -0.61905323145201962554
H  5.07351651543867454563 -3.11302658157459832822 0.51127945807539909584
H  5.64867625842899290234 3.00541745320616016102 -0.46425305226986962603
H  2.01854436715261886803 6.06436711980527043409 -1.54656827692787923745
H  -3.84115196116301671481 5.32232493097132941529 0.73833328706388945406
H  -6.93123890356386596068 -0.87032777596413046783 -1.10908033325346933040
H  -2.33079476852577860413 -5.39901926729751036049 -2.10116728534805874418
H  3.97846078011181525369 -5.11278456573449080480 -0.51320329701895961438
H  6.65544385173537111910 0.99639818803564983440 -1.56359344794164911718
H  -0.44758121555990915130 5.54738430107657976009 -2.19514784185843891962
H  -4.99862717111371512857 4.04655674109809648797 -1.47877335682354948965
H  -4.87862214394077664537 -1.98151913903146037477 -2.69443521680572883881
H  0.17493009918405943992 -4.73959651674300985746 -2.77483024948440881730
H  4.66410798139857529776 -3.01874084232443751219 -2.26865624666724841063
H  4.64836089514038430792 2.34140600586418878848 -3.00041084851171824255
H  1.54098607645986906967 3.06283758725334953610 -1.87427115174566893963
H  -2.46085499425985743116 3.74585258222391859206 -1.49411825115310925582
H  -4.16019338913851743911 0.25205406388909978865 -1.74488235435312732946
H  -1.65150591338989927159 -2.43341514701178018854 -1.78743297510559906449
H  2.13072481812891645347 -3.06478741669444998408 -1.84269875172082908676
H  3.74246695990955480227 0.17505707611953005842 -2.01366769037927806352
H  2.36276715127818626172 4.34815172937626659433 -3.71377294779213817932
H  -2.81157367692486648281 6.10014489877917043259 -1.64421335474422902756
H  -6.09084081771053398313 0.69029656113981896493 -3.10886487380280840398
H  -2.66909052727224915813 -3.26592044166787065507 -3.80334705793696725706
H  2.58698386619235698447 -5.14749436802668913771 -2.89909019680832802379
H  5.49408568008983611008 -0.53311484335033920701 -3.50050276010526850712
H  4.02144260633307659702 4.43873977070721803528 -0.76158004326704964448
H  -1.33879622191689873212 4.69571097986318886086 1.19890805994787918998
H  -6.17413561112708553225 1.47410559342782954140 0.19007305348557004820
H  -4.09868189285289563628 -3.97092024710498758822 -0.80481580480895953400
H  1.40934724253084797674 -5.07071095687050732437 0.35457577458490985300
H  5.76955099277967686788 -1.16139533236291936369 -0.16672775541378001551
H  1.99677609145850842864 2.83976438078294002310 0.85744948004959942178
H  -2.03432580407637875197 1.97912333649938032565 -0.00933991151863993591
H  -3.58181057813990832983 0.04730107681938962305 0.97286818618691950356
H  -1.81875059986388909472 -2.77601408995254050893 0.84523606295103970165
H  1.70767087459974709063 -2.02632998237252959228 0.44167627387429975183
H  3.29684627784058648103 0.46242992506568020294 0.61428010446683900536
H  4.27684283934914866165 3.13377304722748029064 1.84096947029981894417
H  3.05499576615011703140 4.05618852724160117162 2.76325081195894650676
H  -4.79227452249524610295 -0.15173887546790032488 3.16617738075086840865
H  -4.40898511711660745505 1.53315883400238783807 2.74824849325204567663
H  -3.97170422031588721268 -2.91608560685773054999 2.03992773831826879061
H  -2.81226758138124921516 -4.12058300134711963381 2.66817818299924836012
H  4.35574918530906440850 0.42281946590956998033 2.86286040394648688689
H  4.02684838685082624465 -1.23311937246010971947 2.28407916476905814562
H  3.76320851633328734565 5.88246056441070930276 1.54085400740711886414
H  -6.90736717162538571557 0.28345440568049945496 2.39381796429284854355
H  -3.92388988794632753709 -5.64051884971686945391 1.33424427257381927880
H  6.51908788538571037918 0.06399434512467971903 2.12347478294185876280
C  0.26127497010885958328 -1.58912450335454979999 3.90285766255619792631
H  0.88951598116402896821 -1.18363696298226983572 4.68922404710705720277
H  -0.25570570590976021697 -2.48705044817073872565 4.23160082255163860765
O  0.34924840901390941106 -3.98334818409430990727 2.55358777221210875297
C  -0.58617522855173942453 0.84541176598609990567 3.79519962836908808512
H  -0.99939904616609909205 0.95260657278872973297 4.79784223568303769270
H  0.46887642779151966765 1.11663465419944030188 3.80502509435579794328
O  0.16237772092035962501 1.42572362705916000358 1.35186217851816903313
C  -0.72420064229639979914 -0.57561974826865003330 3.33162747555646809872
O  -1.53646263887656897573 -0.91508322368633943089 2.48476685153011844776
O  5.12016518841188084110 -3.80675011383641637153 3.06030596716629732512
H  4.25869305737139836054 -3.72293329273593265327 2.63580323223809243061
H  5.32062354544112547927 -2.90677049522949593197 3.34175791086644746741
O  -2.07739336173240829453 4.33352014407194108259 3.97883132084589563604
H  -2.35787845356035274946 3.79904446580360399821 3.22714925599252966393
H  -2.03711298227879344935 3.69888340896133804847 4.70338343691660476509
O  1.20861243434111176320 0.84716361011117102819 -2.45015501381522371460
H  1.47563441383520377315 -0.07837486559086279114 -2.48810045468183282935
H  0.38317580702480413812 0.86359757474617560025 -2.94789627442596335882
O  2.57954538705013813882 -5.94619569675729753300 2.93431070549187023033
H  2.65596581105262918854 -6.24703290143068468154 3.84700942856533290026
H  1.73718974537481085640 -5.47753390440847809373 2.92185435155271555629
O  7.29620667321037252862 3.05100343268505413974 1.44429872370218603805
H  7.01503845224758304511 2.20928903027048573193 1.06770429954158507790
H  6.76420353927246242876 3.12816771772275625807 2.24453643964550542123
O  -1.05493549403350583837 -0.20175112183925833498 -1.90578485440609046719
H  -1.23685437313731783071 -0.42092813198437378785 -0.98479135623696145707
H  -1.90977621469210645522 0.09335581160641551191 -2.23973290958756754421
O  0.40789638124594512769 4.85382894434815526097 3.72543848859718496058
H  0.01368879175008975990 4.49477322989597638525 2.92229377291796899030
H  0.03071683465176650030 4.30767446854185553917 4.42459007560179617968
O  1.21348797977724287556 -3.47827765770486418972 -4.92319011099401926401
H  1.25561636499323192595 -2.59985245536667353150 -4.52827692170230822200
H  0.26721009973673559568 -3.65151120294881614825 -4.98572311005507007309
O  -3.37744983416910171670 -0.80244443854341140909 5.02801316157645405980
H  -3.98342569205590901760 -0.66501468563138288470 5.76508058501425590947
H  -2.99943270180925969370 -1.67108239055839913334 5.20671184479757620522
O  -0.29409470751137145594 7.08250446257944599182 2.34081583065246645603
H  0.51752120379981159104 6.67959335556119793154 2.01171961923672348860
H  -0.39475462152669771321 6.69967646414601958327 3.21983367390093944138
O  -3.43295572661918013679 2.81287833768132600198 -3.73637328428637882638
H  -3.86438062166725604385 3.40821766400290560028 -4.35991615409412336390
H  -4.15948600299494675170 2.49865613529479757560 -3.18611859011283016230
O  1.35024310655608803522 2.97177396900470869312 -4.84512104697737200354
H  1.75484819780610545870 2.33269820340351374810 -4.24742635068489171601
H  0.40538034146273999037 2.85284786628234776629 -4.69527779335967210272
O  0.18322687505456614065 -6.60190669290909060152 2.15079632328284464649
H  -0.09082779438799913618 -5.87151553977062601319 1.58441759346140953468
H  -0.37141095595953899089 -7.33395350912017729428 1.85780076238388747178
O  2.56947934761413288030 -7.05085454762334773449 0.50028496151401569136
H  2.21567125483624716153 -7.92918499809157051317 0.31940511939356591720
H  2.62946282806246500741 -7.02634175534128413432 1.46213898812676346139
O  0.58627963217273637575 -7.34812615275521352487 -2.33549050516169032221
H  1.53648087109563014074 -7.23569529413239376225 -2.45312966360428363899
H  0.21408734174046861742 -6.97478527771062140062 -3.14261599316652207037
O  0.89019192326940954629 -0.81060957508683373351 -5.28435931750822174280
H  1.33739023672534007581 -0.02176180210095902262 -4.95710571016715118020
H  0.39779649937544075966 -0.48928159775481222526 -6.04833388575988006863
O  -7.04956873861824728777 -3.96410725474136516056 2.00995718922721300359
H  -7.15254410147000818654 -4.65493643898663123082 1.34549261014047272234
H  -6.11654403109737643263 -4.01710470963826971058 2.24663889184350029637
O  -2.39204768770303655145 0.15717982328363380717 -4.46632338538250728277
H  -1.53045049202667371446 0.00772474470296939664 -4.87212569674781104112
H  -3.01349931175671681416 -0.09387819900866259393 -5.15923738569354028982
O  3.14332620986744482039 -1.62109111580771458883 -4.37889695172932036371
H  3.95613356745356270494 -1.99669242749930186953 -4.73615024860673283769
H  3.41939840053587484903 -1.25197539084039011215 -3.53219760098863355680
O  -2.67562507398253446311 -2.72429854713833474733 -5.71877295514880223948
H  -2.04201429833394287883 -2.02689782699283638223 -5.51497971545993515008
H  -3.48775396947860238939 -2.24134700532619701718 -5.90999672141472753850
O  -5.16179463953493655737 1.22880828697755473122 5.39796580930602942772
H  -4.30623578081447266896 1.46134611394679203578 5.01940635253112343861
H  -5.78909550991919452656 1.71748339740495525874 4.85294074760039073624
O  7.47482153174193530987 -2.68927817501331345440 -0.05106943122605772656
H  8.13144470871629110320 -2.53901163294919740565 -0.74072734194451583800
H  7.93040395968893019329 -2.42164143292063815949 0.75526628610962387445
O  3.28308700329775504656 0.25360364509140098654 4.83243799257620310073
H  3.23293046070106671053 -0.70364738321965725198 4.72988627853632603859
H  4.06735062240857292437 0.38041984245367749251 5.37852433304727917118
O  -5.07534094216287634538 3.89321310787356278382 4.18836856975482074716
H  -4.61545125675281653344 4.72313013558524108504 4.01777763099195883711
H  -5.96276847180845059881 4.05379896144220630561 3.84771239898420525094
O  1.45025193988893930097 0.85417997595781436360 6.76870280392417633664
H  1.93168607196916974900 0.40658874102402198236 6.06354656102552258545
H  1.57211704817955344460 1.78876006609927284963 6.56604295611061861138
O  -3.44570730021408344612 6.77245127343282860011 2.84439293874128606987
H  -2.83813269621510055885 6.02427171225839241941 2.86542883274777748781
H  -3.25376718262646669189 7.19423259426640626657 1.99904001121358820825
O  1.11816444679303672594 -4.32565546146346058265 5.35386354484279181065
H  1.95414561632925742884 -4.77549682520086538062 5.52161423984008425947
H  1.09148599170977855799 -4.25173814587538156928 4.39303757000971195623
O  5.69783059855965134943 6.18101505111007654136 -0.46750319903466597271
H  5.65619013476971144172 5.71961212919333217286 -1.31292349654496254274
H  5.53829147136253219230 5.48279244561875067632 0.17778318970865775173
O  2.97214826822710387333 -2.54039818672827300006 4.88361746345918756873
H  3.41044717656149964924 -3.18502199179687339736 5.45081785213333347428
H  2.66417877776444944615 -3.06908794922679950545 4.13863156332634751777
O  -2.10927255164601490378 -7.62235687850030174673 0.24960413766669745095
H  -2.13965310933945929150 -6.83056022449032518296 0.79869169392088013026
H  -2.07196267734623429391 -7.27229058048671817005 -0.64784982978685135002
O  -5.95738119874374394414 -2.71946959444894975633 3.84506308661250484349
H  -5.96340446262175483128 -1.86313932192317133207 3.40231682895634879316
H  -6.78868546794184801740 -2.72604528790807476568 4.33317376636849971305
O  -3.06978445874264105342 -3.43806722092029648508 5.47737141699656771010
H  -3.67898439910825914012 -3.83318839658434562523 4.84324465268146386876
H  -3.01545803629152464609 -4.09790447024198378756 6.17810353960445901578
O  -2.10081379495279207958 8.35058361134574589357 0.53683197392943493576
H  -1.61379119656063196864 7.95027358434584385805 1.26616244426441015847
H  -1.73720053490439929611 7.91471854570989652444 -0.24237859138558603966
O  -8.42745239344178287411 -1.03324261877772083373 1.40939887423460175064
H  -8.74522024018301102899 -1.47272331779698451015 0.61237793675094354118
H  -8.15702876973042201314 -1.76432351012953780867 1.97663238652241024518
O  3.87943375610813978582 -4.37462418223442295329 -4.97668615011491155542
H  4.00479093303440514262 -4.03851172306594285999 -4.08188111157012123442
H  3.18345245043729851986 -3.81081113013313599325 -5.33317868560514263265
O  -5.02249802687488067221 -6.12198789954351330067 -1.41574994816551513743
H  -5.65086478382581525182 -6.04143046506416325769 -2.14240515012131149675
H  -5.56763899736979617217 -5.99082463791727271030 -0.63154360764616801482
O  6.76129068312599823543 -5.04345246071938468901 1.16298602563045272440
H  7.25013401468822760165 -4.45828877716016158672 1.75288239335184359291
H  5.85704305101521160992 -4.99120067318923510413 1.49308909127094979752
O  -5.93556616484713650550 5.72530217161403776061 1.91205713122279252758
H  -5.52993297785360393704 6.23868639270711522471 2.62005460520308197658
H  -6.01387832027358637532 6.35993296048305722934 1.19061896231622310616
O  -7.58983910848944809402 3.48574222598179828125 2.59254318740139710897
H  -8.20366369774587944619 3.02710500611880206634 2.00753606077740265334
H  -7.51395259842904561509 4.36152180863303229330 2.19679904830974015439
O  -2.87802867744106549708 -6.53147625635682782530 2.66862854605135479957
H  -2.23219968800951429344 -6.11662975841340283978 3.25186894552162586436
H  -3.01741911092758474666 -7.39791238204446433002 3.06765337056627407364
O  -7.14524688633803872762 3.28628260574892161472 -0.50934066589381166157
H  -8.06177910814559162134 3.47365469286326211673 -0.27648351788397457218
H  -7.21930038840080445794 2.79129766374570609244 -1.33327515931281270767
O  -6.19240362477143335695 -4.47217520273540003473 -2.89771325554427638949
H  -5.30720373305576220702 -4.23367920312511181180 -2.59954740589545529872
H  -6.64307943807165379724 -3.62271757790817261480 -2.96608809267302708790
O  6.99056995333366693046 -5.03185626525437434964 -1.56372911048516605170
H  6.61045157324263144005 -4.70672788610952430588 -0.73961527234630908278
H  6.51467674869402735283 -4.53785520475224757320 -2.24111428409313528931
O  5.58485755783591386603 1.97024397524292615991 4.85733526103835178134
H  5.19241740412905361524 2.31370531945544133379 4.04654114733832148687
H  5.07269484753479638073 2.39737119610832483119 5.55347731464244809274
O  -7.91931055924990801032 -3.95497925755247425883 -0.27860804894142748855
H  -7.71667614642881005693 -3.03242574951592036570 -0.08574440910633042423
H  -7.43726153871128392581 -4.12490898867411637241 -1.09599087950614992870
O  6.77438342558111195046 -2.31992601339811566064 -4.45525075620930621767
H  6.04679109419994009755 -2.88591987113623993366 -4.73742519930855987553
H  6.79631764784246428235 -2.44183084055093724274 -3.49920673712130092525
O  0.27086032674957372102 8.26349679518305357817 -0.50598999410627643059
H  0.86653079610726080340 7.84466934945695193449 -1.13775128340951559025
H  0.76100079384360341805 8.22709153508924373455 0.32334651357782684400
274
Energy 4.652787
C  0.71130776615267965468 5.00482414727958069278 -0.19561568134503989902
C  -4.13784486848083687960 3.17739904325788646844 0.68958586950538958149
C  -5.17444863619361594687 -1.77393841750645009370 -0.21665732364067985527
C  -0.87384297371556018952 -4.77917785703500719308 -0.63719983279390968178
C  4.05339626216557658012 -3.03094590633414950887 0.11871533019796989827
C  5.04884681101444510176 2.09362244562296995198 -0.58404774284701976850
O  -0.12582766454131008582 3.86927617535052936759 -0.25997818896310981307
O  -4.31294268880552600365 2.22131748928795813569 -0.31126934222609969893
O  -3.82279935479500831974 -1.93070136534545921947 -0.57994872475585967919
O  0.05957377906125960187 -3.73642003081359996841 -0.49167570712067970584
O  3.83098722953195691687 -1.80990987403622982654 -0.51821454630126961849
O  3.72723448493223719069 2.39573122461048049203 -0.94081572077923947273
C  1.36673334302333859824 5.17738746353810963541 -1.57023401112807836633
C  -3.83082197195232687648 4.52142930134692022648 -0.00861440099554997007
C  -5.86696795055896558324 -0.98447702978594020529 -1.33884527976942946381
C  -1.61012054292363893104 -4.57805317038506043303 -1.97033050864001890723
C  3.77326160587263625956 -4.12352537948484876296 -0.93397915008777943058
C  5.59790018606635531029 1.22271087148065049632 -1.73017268935670931462
O  0.41249294889497961636 5.31215455814457548911 -2.59060683846512906925
O  -4.80930237402007687564 4.84002336366017882341 -0.95372222083172941698
O  -5.78582568311042511056 -1.64728677729911021643 -2.57023780092665665720
O  -0.73773614924839026052 -4.55082005612955775575 -3.06837569591808811964
O  4.60494108751403530277 -3.96622878976938064710 -2.04751294360803903771
O  5.51089034068398309074 1.89539249938175013988 -2.95590729180038813695
C  2.21877561653414900888 3.93091745157843019953 -1.83150699881148915082
C  -2.43703341709546794647 4.47105818176657887619 -0.66523693747410916899
C  -5.20475957224313479088 0.39731597485467984310 -1.42006973941786962534
C  -2.38127676782546915391 -3.25302065840269838404 -1.88850281771867911651
C  2.29083818924970739062 -4.03265794157949919452 -1.34196827120711925652
C  4.78374355357373559627 -0.07921556826066936119 -1.75652837800578920380
O  2.95978907701573756839 4.02999105522410960845 -3.02082727297879927164
O  -2.05802748860041750945 5.73612709045024526944 -1.15190620092513951178
O  -5.88058054611833469494 1.22747881263100988569 -2.32923887821376673912
O  -3.19127255102765827743 -3.04457554296714016928 -3.01769493583701819972
O  1.91775986910106821526 -5.08492791013237965814 -2.19872422703288883383
O  5.29532575127568527762 -1.00829228528355963057 -2.67980956684520821298
C  3.21669371315159757785 3.69387210059014980956 -0.69186082520354963421
C  -1.38795551033674868791 3.99685863851938982805 0.35420949320828976070
C  -5.16778178528489551269 1.11072336231340940138 -0.06149807731087994500
C  -3.29265555667351561553 -3.24033602237473994379 -0.65776494554374898005
C  1.38149539713368874061 -4.07715922342435987957 -0.10764441609134994815
C  4.77256626082026613744 -0.75675892258768917564 -0.38217592772181979699
C  2.55256396054111922567 3.77383000390614853359 0.69472730196528931224
C  -1.87658184279176842857 2.62959785738603990524 0.86959042675287956392
C  -4.66995162147994768986 0.17586095834351950229 1.06305633345943961743
C  -2.50721461222832919802 -3.60110911172643000100 0.61297497945516965512
C  1.85352377539312773713 -3.02051341305114995350 0.89710406424008881654
C  4.36577196934167766074 0.23022434129321070473 0.72517060885729955899
O  1.66907167957595858887 4.88692368085399930777 0.81124164518227925846
O  -3.08441362729646728624 2.81665904229748020882 1.56150817661108898271
O  -5.30102626309129565385 -1.10211608872167032835 0.99847272905182959946
O  -1.77848159054403920365 -4.80866574069801888669 0.42941785465123982757
O  3.21002454205557707922 -3.18580015958223006223 1.24237706618064924768
O  5.13256533557428618053 1.42782080075291051280 0.64399374126307928901
C  3.59066688938968736622 3.98044807994619054270 1.80950926664780875619
C  -0.89645500604576855430 1.89000615206742916818 1.74680470073063887071
C  -5.01952751177552602968 0.67278465397587872143 2.47922864883734828112
C  -3.43552903897644679176 -3.83876853711820009707 1.81094492657019912052
C  1.02780373685861881050 -3.05255631487953005276 2.17255950121327856550
C  4.63334413526010635564 -0.33982799439168964728 2.12582775292363868047
O  4.36587551677528651339 5.12623218609484077035 1.58164252684446804409
O  -1.34635178925135901018 1.75509148705510997779 2.99556395054215807150
O  -6.36137881605171440214 1.05950386521692951902 2.58358829301366776932
O  -4.39579169127993640842 -4.82015551998131019928 1.53892222940309930657
O  1.15961021883623871531 -1.88140208249342943958 2.80998166284474804044
O  5.97384117287688454212 -0.72056215651174970738 2.28104190831524888949
H  0.13224704601901035583 5.90028006910375868443 0.06179845111059995011
H  -5.02906546666553655456 3.26944512916705898320 1.32195973471651906372
H  -5.66005365569407548065 -2.74597562429162023179 -0.06617953327339991254
H  -0.37596333589037028711 -5.75629752710907105495 -0.61905323145201962554
H  5.07351651543867454563 -3.11302658157459832822 0.51127945807539909584
H  5.64867625842899290234 3.00541745320616016102 -0.46425305226986962603
H  2.01854436715261886803 6.06436711980527043409 -1.54656827692787923745
H  -3.84115196116301671481 5.32232493097132941529 0.73833328706388945406
H  -6.93123890356386596068 -0.87032777596413046783 -1.10908033325346933040
H  -2.33079476852577860413 -5.39901926729751036049 -2.10116728534805874418
H  3.97846078011181525369 -5.11278456573449080480 -0.51320329701895961438
H  6.65544385173537111910 0.99639818803564983440 -1.56359344794164911718
H  -0.44758121555990915130 5.54738430107657976009 -2.19514784185843891962
H  -4.99862717111371512857 4.04655674109809648797 -1.47877335682354948965
H  -4.87862214394077664537 -1.98151913903146037477 -2.69443521680572883881
H  0.17493009918405943992 -4.73959651674300985746 -2.77483024948440881730
H  4.66410798139857529776 -3.01874084232443751219 -2.26865624666724841063
H  4.64836089514038430792 2.34140600586418878848 -3.00041084851171824255
H  1.54098607645986906967 3.06283758725334953610 -1.87427115174566893963
H  -2.46085499425985743116 3.74585258222391859206 -1.49411825115310925582
H  -4.16019338913851743911 0.25205406388909978865 -1.74488235435312732946
H  -1.65150591338989927159 -2.43341514701178018854 -1.78743297510559906449
H  2.13072481812891645347 -3.06478741669444998408 -1.84269875172082908676
H  3.74246695990955480227 0.17505707611953005842 -2.01366769037927806352
H  2.36276715127818626172 4.34815172937626659433 -3.71377294779213817932
H  -2.81157367692486648281 6.10014489877917043259 -1.64421335474422902756
H  -6.09084081771053398313 0.69029656113981896493 -3.10886487380280840398
H  -2.66909052727224915813 -3.26592044166787065507 -3.80334705793696725706
H  2.58698386619235698447 -5.14749436802668913771 -2.89909019680832802379
H  5.49408568008983611008 -0.53311484335033920701 -3.50050276010526850712
H  4.02144260633307659702 4.43873977070721803528 -0.76158004326704964448
H  -1.33879622191689873212 4.69571097986318886086 1.19890805994787918998
H  -6.17413561112708553225 1.47410559342782954140 0.19007305348557004820
H  -4.09868189285289563628 -3.97092024710498758822 -0.80481580480895953400
H  1.40934724253084797674 -5.07071095687050732437 0.35457577458490985300
H  5.76955099277967686788 -1.16139533236291936369 -0.16672775541378001551
H  1.99677609145850842864 2.83976438078294002310 0.85744948004959942178
H  -2.03432580407637875197 1.97912333649938032565 -0.00933991151863993591
H  -3.58181057813990832983 0.04730107681938962305 0.97286818618691950356
H  -1.81875059986388909472 -2.77601408995254050893 0.84523606295103970165
H  1.70767087459974709063 -2.02632998237252959228 0.44167627387429975183
H  3.29684627784058648103 0.46242992506568020294 0.61428010446683900536
H  4.27684283934914866165 3.13377304722748029064 1.84096947029981894417
H  3.05499576615011703140 4.05618852724160117162 2.76325081195894650676
H  -4.79227452249524610295 -0.15173887546790032488 3.16617738075086840865
H  -4.40898511711660745505 1.53315883400238783807 2.74824849325204567663
H  -3.97170422031588721268 -2.91608560685773054999 2.03992773831826879061
H  -2.81226758138124921516 -4.12058300134711963381 2.66817818299924836012
H  4.35574918530906440850 0.42281946590956998033 2.86286040394648688689
H  4.02684838685082624465 -1.23311937246010971947 2.28407916476905814562
H  3.76320851633328734565 5.88246056441070930276 1.54085400740711886414
H  -6.90736717162538571557 0.28345440568049945496 2.39381796429284854355
H  -3.92388988794632753709 -5.64051884971686945391 1.33424427257381927880
H  6.51908788538571037918 0.06399434512467971903 2.12347478294185876280
C  0.26127497010885958328 -1.58912450335454979999 3.90285766255619792631
H  0.88951598116402896821 -1.18363696298226983572 4.68922404710705720277
H  -0.25570570590976021697 -2.48705044817073872565 4.23160082255163860765
O  0.34924840901390941106 -3.98334818409430990727 2.55358777221210875297
C  -0.58617522855173942453 0.84541176598609990567 3.79519962836908808512
H  -0.99939904616609909205 0.95260657278872973297 4.79784223568303769270
H  0.46887642779151966765 1.11663465419944030188 3.80502509435579794328
O  0.16237772092035962501 1.42572362705916000358 1.35186217851816903313
C  -0.72420064229639979914 -0.57561974826865003330 3.33162747555646809872
O  -1.53646263887656897573 -0.91508322368633943089 2.48476685153011844776
O  5.12016518841188084110 -3.80675011383641637153 3.06030596716629732512
H  4.25869305737139836054 -3.72293329273593265327 2.63580323223809243061
H  5.32062354544112547927 -2.90677049522949593197 3.34175791086644746741
O  -2.07739336173240829453 4.33352014407194108259 3.97883132084589563604
H  -2.35787845356035274946 3.79904446580360399821 3.22714925599252966393
H  -2.03711298227879344935 3.69888340896133804847 4.70338343691660476509
O  1.20861243434111176320 0.84716361011117102819 -2.45015501381522371460
H  1.47563441383520377315 -0.07837486559086279114 -2.48810045468183282935
H  0.38317580702480413812 0.86359757474617560025 -2.94789627442596335882
O  2.57954538705013813882 -5.94619569675729753300 2.93431070549187023033
H  2.65596581105262918854 -6.24703290143068468154 3.84700942856533290026
H  1.73718974537481085640 -5.47753390440847809373 2.92185435155271555629
O  7.29620667321037252862 3.05100343268505413974 1.44429872370218603805
H  7.01503845224758304511 2.20928903027048573193 1.06770429954158507790
H  6.76420353927246242876 3.12816771772275625807 2.24453643964550542123
O  -1.05493549403350583837 -0.20175112183925833498 -1.90578485440609046719
H  -1.23685437313731783071 -0.42092813198437378785 -0.98479135623696145707
H  -1.90977621469210645522 0.09335581160641551191 -2.23973290958756754421
O  0.40789638124594512769 4.85382894434815526097 3.72543848859718496058
H  0.01368879175008975990 4.49477322989597638525 2.92229377291796899030
H  0.03071683465176650030 4.30767446854185553917 4.42459007560179617968
O  1.21348797977724287556 -3.47827765770486418972 -4.92319011099401926401
H  1.25561636499323192595 -2.59985245536667353150 -4.52827692170230822200
H  0.26721009973673559568 -3.65151120294881614825 -4.98572311005507007309
O  -3.37744983416910171670 -0.80244443854341140909 5.02801316157645405980
H  -3.98342569205590901760 -0.66501468563138288470 5.76508058501425590947
H  -2.99943270180925969370 -1.67108239055839913334 5.20671184479757620522
O  -0.29409470751137145594 7.08250446257944599182 2.34081583065246645603
H  0.51752120379981159104 6.67959335556119793154 2.01171961923672348860
H  -0.39475462152669771321 6.69967646414601958327 3.21983367390093944138
O  -3.43295572661918013679 2.81287833768132600198 -3.73637328428637882638
H  -3.86438062166725604385 3.40821766400290560028 -4.35991615409412336390
H  -4.15948600299494675170 2.49865613529479757560 -3.18611859011283016230
O  1.35024310655608803522 2.97177396900470869312 -4.84512104697737200354
H  1.75484819780610545870 2.33269820340351374810 -4.24742635068489171601
H  0.40538034146273999037 2.85284786628234776629 -4.69527779335967210272
O  0.18322687505456614065 -6.60190669290909060152 2.15079632328284464649
H  -0.09082779438799913618 -5.87151553977062601319 1.58441759346140953468
H  -0.37141095595953899089 -7.33395350912017729428 1.85780076238388747178
O  2.56947934761413288030 -7.05085454762334773449 0.50028496151401569136
H  2.21567125483624716153 -7.92918499809157051317 0.31940511939356591720
H  2.62946282806246500741 -7.02634175534128413432 1.46213898812676346139
O  0.58627963217273637575 -7.34812615275521352487 -2.33549050516169032221
H  1.53648087109563014074 -7.23569529413239376225 -2.45312966360428363899
H  0.21408734174046861742 -6.97478527771062140062 -3.14261599316652207037
O  0.89019192326940954629 -0.81060957508683373351 -5.28435931750822174280
H  1.33739023672534007581 -0.02176180210095902262 -4.95710571016715118020
H  0.39779649937544075966 -0.48928159775481222526 -6.04833388575988006863
O  -7.04956873861824728777 -3.96410725474136516056 2.00995718922721300359
H  -7.15254410147000818654 -4.65493643898663123082 1.34549261014047272234
H  -6.11654403109737643263 -4.01710470963826971058 2.24663889184350029637
O  -2.39204768770303655145 0.15717982328363380717 -4.46632338538250728277
H  -1.53045049202667371446 0.00772474470296939664 -4.87212569674781104112
H  -3.01349931175671681416 -0.09387819900866259393 -5.15923738569354028982
O  3.14332620986744482039 -1.62109111580771458883 -4.37889695172932036371
H  3.95613356745356270494 -1.99669242749930186953 -4.73615024860673283769
H  3.41939840053587484903 -1.25197539084039011215 -3.53219760098863355680
O  -2.67562507398253446311 -2.72429854713833474733 -5.71877295514880223948
H  -2.04201429833394287883 -2.02689782699283638223 -5.51497971545993515008
H  -3.48775396947860238939 -2.24134700532619701718 -5.90999672141472753850
O  -5.16179463953493655737 1.22880828697755473122 5.39796580930602942772
H  -4.30623578081447266896 1.46134611394679203578 5.01940635253112343861
H  -5.78909550991919452656 1.71748339740495525874 4.85294074760039073624
O  7.47482153174193530987 -2.68927817501331345440 -0.05106943122605772656
H  8.13144470871629110320 -2.53901163294919740565 -0.74072734194451583800
H  7.93040395968893019329 -2.42164143292063815949 0.75526628610962387445
O  3.28308700329775504656 0.25360364509140098654 4.83243799257620310073
H  3.23293046070106671053 -0.70364738321965725198 4.72988627853632603859
H  4.06735062240857292437 0.38041984245367749251 5.37852433304727917118
O  -5.07534094216287634538 3.89321310787356278382 4.18836856975482074716
H  -4.61545125675281653344 4.72313013558524108504 4.01777763099195883711
H  -5.96276847180845059881 4.05379896144220630561 3.84771239898420525094
O  1.45025193988893930097 0.85417997595781436360 6.76870280392417633664
H  1.93168607196916974900 0.40658874102402198236 6.06354656102552258545
H  1.57211704817955344460 1.78876006609927284963 6.56604295611061861138
O  -3.44570730021408344612 6.77245127343282860011 2.84439293874128606987
H  -2.83813269621510055885 6.02427171225839241941 2.86542883274777748781
H  -3.25376718262646669189 7.19423259426640626657 1.99904001121358820825
O  1.11816444679303672594 -4.32565546146346058265 5.35386354484279181065
H  1.95414561632925742884 -4.77549682520086538062 5.52161423984008425947
H  1.09148599170977855799 -4.25173814587538156928 4.39303757000971195623
O  5.69783059855965134943 6.18101505111007654136 -0.46750319903466597271
H  5.65619013476971144172 5.71961212919333217286 -1.31292349654496254274
H  5.53829147136253219230 5.48279244561875067632 0.17778318970865775173
O  2.97214826822710387333 -2.54039818672827300006 4.88361746345918756873
H  3.41044717656149964924 -3.18502199179687339736 5.45081785213333347428
H  2.66417877776444944615 -3.06908794922679950545 4.13863156332634751777
O  -2.10927255164601490378 -7.62235687850030174673 0.24960413766669745095
H  -2.13965310933945929150 -6.83056022449032518296 0.79869169392088013026
H  -2.07196267734623429391 -7.27229058048671817005 -0.64784982978685135002
O  -5.95738119874374394414 -2.71946959444894975633 3.84506308661250484349
H  -5.96340446262175483128 -1.86313932192317133207 3.40231682895634879316
H  -6.78868546794184801740 -2.72604528790807476568 4.33317376636849971305
O  -3.06978445874264105342 -3.43806722092029648508 5.47737141699656771010
H  -3.67898439910825914012 -3.83318839658434562523 4.84324465268146386876
H  -3.01545803629152464609 -4.09790447024198378756 6.17810353960445901578
O  -2.10081379495279207958 8.35058361134574589357 0.53683197392943493576
H  -1.61379119656063196864 7.95027358434584385805 1.26616244426441015847
H  -1.73720053490439929611 7.91471854570989652444 -0.24237859138558603966
O  -8.42745239344178287411 -1.03324261877772083373 1.40939887423460175064
H  -8.74522024018301102899 -1.47272331779698451015 0.61237793675094354118
H  -8.15702876973042201314 -1.76432351012953780867 1.97663238652241024518
O  3.87943375610813978582 -4.37462418223442295329 -4.97668615011491155542
H  4.00479093303440514262 -4.03851172306594285999 -4.08188111157012123442
H  3.18345245043729851986 -3.81081113013313599325 -5.33317868560514263265
O  -5.02249802687488067221 -6.12198789954351330067 -1.41574994816551513743
H  -5.65086478382581525182 -6.04143046506416325769 -2.14240515012131149675
H  -5.56763899736979617217 -5.99082463791727271030 -0.63154360764616801482
O  6.76129068312599823543 -5.04345246071938468901 1.16298602563045272440
H  7.25013401468822760165 -4.45828877716016158672 1.75288239335184359291
H  5.85704305101521160992 -4.99120067318923510413 1.49308909127094979752
O  -5.93556616484713650550 5.72530217161403776061 1.91205713122279252758
H  -5.52993297785360393704 6.23868639270711522471 2.62005460520308197658
H  -6.01387832027358637532 6.35993296048305722934 1.19061896231622310616
O  -7.58983910848944809402 3.48574222598179828125 2.59254318740139710897
H  -8.20366369774587944619 3.02710500611880206634 2.00753606077740265334
H  -7.51395259842904561509 4.36152180863303229330 2.19679904830974015439
O  -2.87802867744106549708 -6.53147625635682782530 2.66862854605135479957
H  -2.23219968800951429344 -6.11662975841340283978 3.25186894552162586436
H  -3.01741911092758474666 -7.39791238204446433002 3.06765337056627407364
O  -7.14524688633803872762 3.28628260574892161472 -0.50934066589381166157
H  -8.06177910814559162134 3.47365469286326211673 -0.27648351788397457218
H  -7.21930038840080445794 2.79129766374570609244 -1.33327515931281270767
O  -6.19240362477143335695 -4.47217520273540003473 -2.89771325554427638949
H  -5.30720373305576220702 -4.23367920312511181180 -2.59954740589545529872
H  -6.64307943807165379724 -3.62271757790817261480 -2.96608809267302708790
O  6.99056995333366693046 -5.03185626525437434964 -1.56372911048516605170
H  6.61045157324263144005 -4.70672788610952430588 -0.73961527234630908278
H  6.51467674869402735283 -4.53785520475224757320 -2.24111428409313528931
O  5.58485755783591386603 1.97024397524292615991 4.85733526103835178134
H  5.19241740412905361524 2.31370531945544133379 4.04654114733832148687
H  5.07269484753479638073 2.39737119610832483119 5.55347731464244809274
O  -7.91931055924990801032 -3.95497925755247425883 -0.27860804894142748855
H  -7.71667614642881005693 -3.03242574951592036570 -0.08574440910633042423
H  -7.43726153871128392581 -4.12490898867411637241 -1.09599087950614992870
O  6.77438342558111195046 -2.31992601339811566064 -4.45525075620930621767
H  6.04679109419994009755 -2.88591987113623993366 -4.73742519930855987553
H  6.79631764784246428235 -2.44183084055093724274 -3.49920673712130092525
O  0.27086032674957372102 8.26349679518305357817 -0.50598999410627643059
H  0.86653079610726080340 7.84466934945695193449 -1.13775128340951559025
H  0.76100079384360341805 8.22709153508924373455 0.32334651357782684400
O  -1.16011977365985718968 -5.51499940297661694899 5.21911427844564901335
H  -0.51018403986349603052 -6.20433453087627029277 5.39733517340048241095
H  -0.68182555066095407170 -4.70015495871589727983 5.41049147491018800338
277
Energy 4.948030
C  0.71130776615267965468 5.00482414727958069278 -0.19561568134503989902
C  -4.13784486848083687960 3.17739904325788646844 0.68958586950538958149
C  -5.17444863619361594687 -1.77393841750645009370 -0.21665732364067985527
C  -0.87384297371556018952 -4.77917785703500719308 -0.63719983279390968178
C  4.05339626216557658012 -3.03094590633414950887 0.11871533019796989827
C  5.04884681101444510176 2.09362244562296995198 -0.58404774284701976850
O  -0.12582766454131008582 3.86927617535052936759 -0.25997818896310981307
O  -4.31294268880552600365 2.22131748928795813569 -0.31126934222609969893
O  -3.82279935479500831974 -1.93070136534545921947 -0.57994872475585967919
O  0.05957377906125960187 -3.73642003081359996841 -0.49167570712067970584
O  3.83098722953195691687 -1.80990987403622982654 -0.51821454630126961849
O  3.72723448493223719069 2.39573122461048049203 -0.94081572077923947273
C  1.36673334302333859824 5.17738746353810963541 -1.57023401112807836633
C  -3.83082197195232687648 4.52142930134692022648 -0.00861440099554997007
C  -5.86696795055896558324 -0.98447702978594020529 -1.33884527976942946381
C  -1.61012054292363893104 -4.57805317038506043303 -1.97033050864001890723
C  3.77326160587263625956 -4.12352537948484876296 -0.93397915008777943058
C  5.59790018606635531029 1.22271087148065049632 -1.73017268935670931462
O  0.41249294889497961636 5.31215455814457548911 -2.59060683846512906925
O  -4.80930237402007687564 4.84002336366017882341 -0.95372222083172941698
O  -5.78582568311042511056 -1.64728677729911021643 -2.57023780092665665720
O  -0.73773614924839026052 -4.55082005612955775575 -3.06837569591808811964
O  4.60494108751403530277 -3.96622878976938064710 -2.04751294360803903771
O  5.51089034068398309074 1.89539249938175013988 -2.95590729180038813695
C  2.21877561653414900888 3.93091745157843019953 -1.83150699881148915082
C  -2.43703341709546794647 4.47105818176657887619 -0.66523693747410916899
C  -5.20475957224313479088 0.39731597485467984310 -1.42006973941786962534
C  -2.38127676782546915391 -3.25302065840269838404 -1.88850281771867911651
C  2.29083818924970739062 -4.03265794157949919452 -1.34196827120711925652
C  4.78374355357373559627 -0.07921556826066936119 -1.75652837800578920380
O  2.95978907701573756839 4.02999105522410960845 -3.02082727297879927164
O  -2.05802748860041750945 5.73612709045024526944 -1.15190620092513951178
O  -5.88058054611833469494 1.22747881263100988569 -2.32923887821376673912
O  -3.19127255102765827743 -3.04457554296714016928 -3.01769493583701819972
O  1.91775986910106821526 -5.08492791013237965814 -2.19872422703288883383
O  5.29532575127568527762 -1.00829228528355963057 -2.67980956684520821298
C  3.21669371315159757785 3.69387210059014980956 -0.69186082520354963421
C  -1.38795551033674868791 3.99685863851938982805 0.35420949320828976070
C  -5.16778178528489551269 1.11072336231340940138 -0.06149807731087994500
C  -3.29265555667351561553 -3.24033602237473994379 -0.65776494554374898005
C  1.38149539713368874061 -4.07715922342435987957 -0.10764441609134994815
C  4.77256626082026613744 -0.75675892258768917564 -0.38217592772181979699
C  2.55256396054111922567 3.77383000390614853359 0.69472730196528931224
C  -1.87658184279176842857 2.62959785738603990524 0.86959042675287956392
C  -4.66995162147994768986 0.17586095834351950229 1.06305633345943961743
C  -2.50721461222832919802 -3.60110911172643000100 0.61297497945516965512
C  1.85352377539312773713 -3.02051341305114995350 0.89710406424008881654
C  4.36577196934167766074 0.23022434129321070473 0.72517060885729955899
O  1.66907167957595858887 4.88692368085399930777 0.81124164518227925846
O  -3.08441362729646728624 2.81665904229748020882 1.56150817661108898271
O  -5.30102626309129565385 -1.10211608872167032835 0.99847272905182959946
O  -1.77848159054403920365 -4.80866574069801888669 0.42941785465123982757
O  3.21002454205557707922 -3.18580015958223006223 1.24237706618064924768
O  5.13256533557428618053 1.42782080075291051280 0.64399374126307928901
C  3.59066688938968736622 3.98044807994619054270 1.80950926664780875619
C  -0.89645500604576855430 1.89000615206742916818 1.74680470073063887071
C  -5.01952751177552602968 0.67278465397587872143 2.47922864883734828112
C  -3.43552903897644679176 -3.83876853711820009707 1.81094492657019912052
C  1.02780373685861881050 -3.05255631487953005276 2.17255950121327856550
C  4.63334413526010635564 -0.33982799439168964728 2.12582775292363868047
O  4.36587551677528651339 5.12623218609484077035 1.58164252684446804409
O  -1.34635178925135901018 1.75509148705510997779 2.99556395054215807150
O  -6.36137881605171440214 1.05950386521692951902 2.58358829301366776932
O  -4.39579169127993640842 -4.82015551998131019928 1.53892222940309930657
O  1.15961021883623871531 -1.88140208249342943958 2.80998166284474804044
O  5.97384117287688454212 -0.72056215651174970738 2.28104190831524888949
H  0.13224704601901035583 5.90028006910375868443 0.06179845111059995011
H  -5.02906546666553655456 3.26944512916705898320 1.32195973471651906372
H  -5.66005365569407548065 -2.74597562429162023179 -0.06617953327339991254
H  -0.37596333589037028711 -5.75629752710907105495 -0.61905323145201962554
H  5.07351651543867454563 -3.11302658157459832822 0.51127945807539909584
H  5.64867625842899290234 3.00541745320616016102 -0.46425305226986962603
H  2.01854436715261886803 6.06436711980527043409 -1.54656827692787923745
H  -3.84115196116301671481 5.32232493097132941529 0.73833328706388945406
H  -6.93123890356386596068 -0.87032777596413046783 -1.10908033325346933040
H  -2.33079476852577860413 -5.39901926729751036049 -2.10116728534805874418
H  3.97846078011181525369 -5.11278456573449080480 -0.51320329701895961438
H  6.65544385173537111910 0.99639818803564983440 -1.56359344794164911718
H  -0.44758121555990915130 5.54738430107657976009 -2.19514784185843891962
H  -4.99862717111371512857 4.04655674109809648797 -1.47877335682354948965
H  -4.87862214394077664537 -1.98151913903146037477 -2.69443521680572883881
H  0.17493009918405943992 -4.73959651674300985746 -2.77483024948440881730
H  4.66410798139857529776 -3.01874084232443751219 -2.26865624666724841063
H  4.64836089514038430792 2.34140600586418878848 -3.00041084851171824255
H  1.54098607645986906967 3.06283758725334953610 -1.87427115174566893963
H  -2.46085499425985743116 3.74585258222391859206 -1.49411825115310925582
H  -4.16019338913851743911 0.25205406388909978865 -1.74488235435312732946
H  -1.65150591338989927159 -2.43341514701178018854 -1.78743297510559906449
H  2.13072481812891645347 -3.06478741669444998408 -1.84269875172082908676
H  3.74246695990955480227 0.17505707611953005842 -2.01366769037927806352
H  2.36276715127818626172 4.34815172937626659433 -3.71377294779213817932
H  -2.81157367692486648281 6.10014489877917043259 -1.64421335474422902756
H  -6.09084081771053398313 0.69029656113981896493 -3.10886487380280840398
H  -2.66909052727224915813 -3.26592044166787065507 -3.80334705793696725706
H  2.58698386619235698447 -5.14749436802668913771 -2.89909019680832802379
H  5.49408568008983611008 -0.53311484335033920701 -3.50050276010526850712
H  4.02144260633307659702 4.43873977070721803528 -0.76158004326704964448
H  -1.33879622191689873212 4.69571097986318886086 1.19890805994787918998
H  -6.17413561112708553225 1.47410559342782954140 0.19007305348557004820
H  -4.09868189285289563628 -3.97092024710498758822 -0.80481580480895953400
H  1.40934724253084797674 -5.07071095687050732437 0.35457577458490985300
H  5.76955099277967686788 -1.16139533236291936369 -0.16672775541378001551
H  1.99677609145850842864 2.83976438078294002310 0.85744948004959942178
H  -2.03432580407637875197 1.97912333649938032565 -0.00933991151863993591
H  -3.58181057813990832983 0.04730107681938962305 0.97286818618691950356
H  -1.81875059986388909472 -2.77601408995254050893 0.84523606295103970165
H  1.70767087459974709063 -2.02632998237252959228 0.44167627387429975183
H  3.29684627784058648103 0.46242992506568020294 0.61428010446683900536
H  4.27684283934914866165 3.13377304722748029064 1.84096947029981894417
H  3.05499576615011703140 4.05618852724160117162 2.76325081195894650676
H  -4.79227452249524610295 -0.15173887546790032488 3.16617738075086840865
H  -4.40898511711660745505 1.53315883400238783807 2.74824849325204567663
H  -3.97170422031588721268 -2.91608560685773054999 2.03992773831826879061
H  -2.81226758138124921516 -4.12058300134711963381 2.66817818299924836012
H  4.35574918530906440850 0.42281946590956998033 2.86286040394648688689
H  4.02684838685082624465 -1.23311937246010971947 2.28407916476905814562
H  3.76320851633328734565 5.88246056441070930276 1.54085400740711886414
H  -6.90736717162538571557 0.28345440568049945496 2.39381796429284854355
H  -3.92388988794632753709 -5.64051884971686945391 1.33424427257381927880
H  6.51908788538571037918 0.06399434512467971903 2.12347478294185876280
C  0.26127497010885958328 -1.58912450335454979999 3.90285766255619792631
H  0.88951598116402896821 -1.18363696298226983572 4.68922404710705720277
H  -0.25570570590976021697 -2.48705044817073872565 4.23160082255163860765
O  0.34924840901390941106 -3.98334818409430990727 2.55358777221210875297
C  -0.58617522855173942453 0.84541176598609990567 3.79519962836908808512
H  -0.99939904616609909205 0.95260657278872973297 4.79784223568303769270
H  0.46887642779151966765 1.11663465419944030188 3.80502509435579794328
O  0.16237772092035962501 1.42572362705916000358 1.35186217851816903313
C  -0.72420064229639979914 -0.57561974826865003330 3.33162747555646809872
O  -1.53646263887656897573 -0.91508322368633943089 2.48476685153011844776
O  5.12016518841188084110 -3.80675011383641637153 3.06030596716629732512
H  4.25869305737139836054 -3.72293329273593265327 2.63580323223809243061
H  5.32062354544112547927 -2.90677049522949593197 3.34175791086644746741
O  -2.07739336173240829453 4.33352014407194108259 3.97883132084589563604
H  -2.35787845356035274946 3.79904446580360399821 3.22714925599252966393
H  -2.03711298227879344935 3.69888340896133804847 4.70338343691660476509
O  1.20861243434111176320 0.84716361011117102819 -2.45015501381522371460
H  1.47563441383520377315 -0.07837486559086279114 -2.48810045468183282935
H  0.38317580702480413812 0.86359757474617560025 -2.94789627442596335882
O  2.57954538705013813882 -5.94619569675729753300 2.93431070549187023033
H  2.65596581105262918854 -6.24703290143068468154 3.84700942856533290026
H  1.73718974537481085640 -5.47753390440847809373 2.92185435155271555629
O  7.29620667321037252862 3.05100343268505413974 1.44429872370218603805
H  7.01503845224758304511 2.20928903027048573193 1.06770429954158507790
H  6.76420353927246242876 3.12816771772275625807 2.24453643964550542123
O  -1.05493549403350583837 -0.20175112183925833498 -1.90578485440609046719
H  -1.23685437313731783071 -0.42092813198437378785 -0.98479135623696145707
H  -1.90977621469210645522 0.09335581160641551191 -2.23973290958756754421
O  0.40789638124594512769 4.85382894434815526097 3.72543848859718496058
H  0.01368879175008975990 4.49477322989597638525 2.92229377291796899030
H  0.03071683465176650030 4.30767446854185553917 4.42459007560179617968
O  1.21348797977724287556 -3.47827765770486418972 -4.92319011099401926401
H  1.25561636499323192595 -2.59985245536667353150 -4.52827692170230822200
H  0.26721009973673559568 -3.65151120294881614825 -4.98572311005507007309
O  -3.37744983416910171670 -0.80244443854341140909 5.02801316157645405980
H  -3.98342569205590901760 -0.66501468563138288470 5.76508058501425590947
H  -2.99943270180925969370 -1.67108239055839913334 5.20671184479757620522
O  -0.29409470751137145594 7.08250446257944599182 2.34081583065246645603
H  0.51752120379981159104 6.67959335556119793154 2.01171961923672348860
H  -0.39475462152669771321 6.69967646414601958327 3.21983367390093944138
O  -3.43295572661918013679 2.81287833768132600198 -3.73637328428637882638
H  -3.86438062166725604385 3.40821766400290560028 -4.35991615409412336390
H  -4.15948600299494675170 2.49865613529479757560 -3.18611859011283016230
O  1.35024310655608803522 2.97177396900470869312 -4.84512104697737200354
H  1.75484819780610545870 2.33269820340351374810 -4.24742635068489171601
H  0.40538034146273999037 2.85284786628234776629 -4.69527779335967210272
O  0.18322687505456614065 -6.60190669290909060152 2.15079632328284464649
H  -0.09082779438799913618 -5.87151553977062601319 1.58441759346140953468
H  -0.37141095595953899089 -7.33395350912017729428 1.85780076238388747178
O  2.56947934761413288030 -7.05085454762334773449 0.50028496151401569136
H  2.21567125483624716153 -7.92918499809157051317 0.31940511939356591720
H  2.62946282806246500741 -7.02634175534128413432 1.46213898812676346139
O  0.58627963217273637575 -7.34812615275521352487 -2.33549050516169032221
H  1.53648087109563014074 -7.23569529413239376225 -2.45312966360428363899
H  0.21408734174046861742 -6.97478527771062140062 -3.14261599316652207037
O  0.89019192326940954629 -0.81060957508683373351 -5.28435931750822174280
H  1.33739023672534007581 -0.02176180210095902262 -4.95710571016715118020
H  0.39779649937544075966 -0.48928159775481222526 -6.04833388575988006863
O  -7.04956873861824728777 -3.96410725474136516056 2.00995718922721300359
H  -7.15254410147000818654 -4.65493643898663123082 1.34549261014047272234
H  -6.11654403109737643263 -4.01710470963826971058 2.24663889184350029637
O  -2.39204768770303655145 0.15717982328363380717 -4.46632338538250728277
H  -1.53045049202667371446 0.00772474470296939664 -4.87212569674781104112
H  -3.01349931175671681416 -0.09387819900866259393 -5.15923738569354028982
O  3.14332620986744482039 -1.62109111580771458883 -4.37889695172932036371
H  3.95613356745356270494 -1.99669242749930186953 -4.73615024860673283769
H  3.41939840053587484903 -1.25197539084039011215 -3.53219760098863355680
O  -2.67562507398253446311 -2.72429854713833474733 -5.71877295514880223948
H  -2.04201429833394287883 -2.02689782699283638223 -5.51497971545993515008
H  -3.48775396947860238939 -2.24134700532619701718 -5.90999672141472753850
O  -5.16179463953493655737 1.22880828697755473122 5.39796580930602942772
H  -4.30623578081447266896 1.46134611394679203578 5.01940635253112343861
H  -5.78909550991919452656 1.71748339740495525874 4.85294074760039073624
O  7.47482153174193530987 -2.68927817501331345440 -0.05106943122605772656
H  8.13144470871629110320 -2.53901163294919740565 -0.74072734194451583800
H  7.93040395968893019329 -2.42164143292063815949 0.75526628610962387445
O  3.28308700329775504656 0.25360364509140098654 4.83243799257620310073
H  3.23293046070106671053 -0.70364738321965725198 4.72988627853632603859
H  4.06735062240857292437 0.38041984245367749251 5.37852433304727917118
O  -5.07534094216287634538 3.89321310787356278382 4.18836856975482074716
H  -4.61545125675281653344 4.72313013558524108504 4.01777763099195883711
H  -5.96276847180845059881 4.05379896144220630561 3.84771239898420525094
O  1.45025193988893930097 0.85417997595781436360 6.76870280392417633664
H  1.93168607196916974900 0.40658874102402198236 6.06354656102552258545
H  1.57211704817955344460 1.78876006609927284963 6.56604295611061861138
O  -3.44570730021408344612 6.77245127343282860011 2.84439293874128606987
H  -2.83813269621510055885 6.02427171225839241941 2.86542883274777748781
H  -3.25376718262646669189 7.19423259426640626657 1.99904001121358820825
O  1.11816444679303672594 -4.32565546146346058265 5.35386354484279181065
H  1.95414561632925742884 -4.77549682520086538062 5.52161423984008425947
H  1.09148599170977855799 -4.25173814587538156928 4.39303757000971195623
O  5.69783059855965134943 6.18101505111007654136 -0.46750319903466597271
H  5.65619013476971144172 5.71961212919333217286 -1.31292349654496254274
H  5.53829147136253219230 5.48279244561875067632 0.17778318970865775173
O  2.97214826822710387333 -2.54039818672827300006 4.88361746345918756873
H  3.41044717656149964924 -3.18502199179687339736 5.45081785213333347428
H  2.66417877776444944615 -3.06908794922679950545 4.13863156332634751777
O  -2.10927255164601490378 -7.62235687850030174673 0.24960413766669745095
H  -2.13965310933945929150 -6.83056022449032518296 0.79869169392088013026
H  -2.07196267734623429391 -7.27229058048671817005 -0.64784982978685135002
O  -5.95738119874374394414 -2.71946959444894975633 3.84506308661250484349
H  -5.96340446262175483128 -1.86313932192317133207 3.40231682895634879316
H  -6.78868546794184801740 -2.72604528790807476568 4.33317376636849971305
O  -3.06978445874264105342 -3.43806722092029648508 5.47737141699656771010
H  -3.67898439910825914012 -3.83318839658434562523 4.84324465268146386876
H  -3.01545803629152464609 -4.09790447024198378756 6.17810353960445901578
O  -2.10081379495279207958 8.35058361134574589357 0.53683197392943493576
H  -1.61379119656063196864 7.95027358434584385805 1.26616244426441015847
H  -1.73720053490439929611 7.91471854570989652444 -0.24237859138558603966
O  -8.42745239344178287411 -1.03324261877772083373 1.40939887423460175064
H  -8.74522024018301102899 -1.47272331779698451015 0.61237793675094354118
H  -8.15702876973042201314 -1.76432351012953780867 1.97663238652241024518
O  3.87943375610813978582 -4.37462418223442295329 -4.97668615011491155542
H  4.00479093303440514262 -4.03851172306594285999 -4.08188111157012123442
H  3.18345245043729851986 -3.81081113013313599325 -5.33317868560514263265
O  -5.02249802687488067221 -6.12198789954351330067 -1.41574994816551513743
H  -5.65086478382581525182 -6.04143046506416325769 -2.14240515012131149675
H  -5.56763899736979617217 -5.99082463791727271030 -0.63154360764616801482
O  6.76129068312599823543 -5.04345246071938468901 1.16298602563045272440
H  7.25013401468822760165 -4.45828877716016158672 1.75288239335184359291
H  5.85704305101521160992 -4.99120067318923510413 1.49308909127094979752
O  -5.93556616484713650550 5.72530217161403776061 1.91205713122279252758
H  -5.52993297785360393704 6.23868639270711522471 2.62005460520308197658
H  -6.01387832027358637532 6.35993296048305722934 1.19061896231622310616
O  -7.58983910848944809402 3.48574222598179828125 2.59254318740139710897
H  -8.20366369774587944619 3.02710500611880206634 2.00753606077740265334
H  -7.51395259842904561509 4.36152180863303229330 2.19679904830974015439
O  -2.87802867744106549708 -6.53147625635682782530 2.66862854605135479957
H  -2.23219968800951429344 -6.11662975841340283978 3.25186894552162586436
H  -3.01741911092758474666 -7.39791238204446433002 3.06765337056627407364
O  -7.14524688633803872762 3.28628260574892161472 -0.50934066589381166157
H  -8.06177910814559162134 3.47365469286326211673 -0.27648351788397457218
H  -7.21930038840080445794 2.79129766374570609244 -1.33327515931281270767
O  -6.19240362477143335695 -4.47217520273540003473 -2.89771325554427638949
H  -5.30720373305576220702 -4.23367920312511181180 -2.59954740589545529872
H  -6.64307943807165379724 -3.62271757790817261480 -2.96608809267302708790
O  6.99056995333366693046 -5.03185626525437434964 -1.56372911048516605170
H  6.61045157324263144005 -4.70672788610952430588 -0.73961527234630908278
H  6.51467674869402735283 -4.53785520475224757320 -2.24111428409313528931
O  5.58485755783591386603 1.97024397524292615991 4.85733526103835178134
H  5.19241740412905361524 2.31370531945544133379 4.04654114733832148687
H  5.07269484753479638073 2.39737119610832483119 5.55347731464244809274
O  -7.91931055924990801032 -3.95497925755247425883 -0.27860804894142748855
H  -7.71667614642881005693 -3.03242574951592036570 -0.08574440910633042423
H  -7.43726153871128392581 -4.12490898867411637241 -1.09599087950614992870
O  6.77438342558111195046 -2.31992601339811566064 -4.45525075620930621767
H  6.04679109419994009755 -2.88591987113623993366 -4.73742519930855987553
H  6.79631764784246428235 -2.44183084055093724274 -3.49920673712130092525
O  0.27086032674957372102 8.26349679518305357817 -0.50598999410627643059
H  0.86653079610726080340 7.84466934945695193449 -1.13775128340951559025
H  0.76100079384360341805 8.22709153508924373455 0.32334651357782684400
O  -1.16011977365985718968 -5.51499940297661694899 5.21911427844564901335
H  -0.51018403986349603052 -6.20433453087627029277 5.39733517340048241095
H  -0.68182555066095407170 -4.70015495871589727983 5.41049147491018622702
O  -4.95333962679264416806 -1.18995218349778086875 -5.36050054626852379158
H  -5.70526347202124028968 -1.75674114883550935851 -5.56719564482767914626
H  -5.11765481083037876431 -0.92191906796120171030 -4.44917138910646148275
280
Energy 5.947155
C  0.71130776615267965468 5.00482414727958069278 -0.19561568134503989902
C  -4.13784486848083687960 3.17739904325788646844 0.68958586950538958149
C  -5.17444863619361594687 -1.77393841750645009370 -0.21665732364067985527
C  -0.87384297371556018952 -4.77917785703500719308 -0.63719983279390968178
C  4.05339626216557658012 -3.03094590633414950887 0.11871533019796989827
C  5.04884681101444510176 2.09362244562296995198 -0.58404774284701976850
O  -0.12582766454131008582 3.86927617535052936759 -0.25997818896310981307
O  -4.31294268880552600365 2.22131748928795813569 -0.31126934222609969893
O  -3.82279935479500831974 -1.93070136534545921947 -0.57994872475585967919
O  0.05957377906125960187 -3.73642003081359996841 -0.49167570712067970584
O  3.83098722953195691687 -1.80990987403622982654 -0.51821454630126961849
O  3.72723448493223719069 2.39573122461048049203 -0.94081572077923947273
C  1.36673334302333859824 5.17738746353810963541 -1.57023401112807836633
C  -3.83082197195232687648 4.52142930134692022648 -0.00861440099554997007
C  -5.86696795055896558324 -0.98447702978594020529 -1.33884527976942946381
C  -1.61012054292363893104 -4.57805317038506043303 -1.97033050864001890723
C  3.77326160587263625956 -4.12352537948484876296 -0.93397915008777943058
C  5.59790018606635531029 1.22271087148065049632 -1.73017268935670931462
O  0.41249294889497961636 5.31215455814457548911 -2.59060683846512906925
O  -4.80930237402007687564 4.84002336366017882341 -0.95372222083172941698
O  -5.78582568311042511056 -1.64728677729911021643 -2.57023780092665665720
O  -0.73773614924839026052 -4.55082005612955775575 -3.06837569591808811964
O  4.60494108751403530277 -3.96622878976938064710 -2.04751294360803903771
O  5.51089034068398309074 1.89539249938175013988 -2.95590729180038813695
C  2.21877561653414900888 3.93091745157843019953 -1.83150699881148915082
C  -2.43703341709546794647 4.47105818176657887619 -0.66523693747410916899
C  -5.20475957224313479088 0.39731597485467984310 -1.42006973941786962534
C  -2.38127676782546915391 -3.25302065840269838404 -1.88850281771867911651
C  2.29083818924970739062 -4.03265794157949919452 -1.34196827120711925652
C  4.78374355357373559627 -0.07921556826066936119 -1.75652837800578920380
O  2.95978907701573756839 4.02999105522410960845 -3.02082727297879927164
O  -2.05802748860041750945 5.73612709045024526944 -1.15190620092513951178
O  -5.88058054611833469494 1.22747881263100988569 -2.32923887821376673912
O  -3.19127255102765827743 -3.04457554296714016928 -3.01769493583701819972
O  1.91775986910106821526 -5.08492791013237965814 -2.19872422703288883383
O  5.29532575127568527762 -1.00829228528355963057 -2.67980956684520821298
C  3.21669371315159757785 3.69387210059014980956 -0.69186082520354963421
C  -1.38795551033674868791 3.99685863851938982805 0.35420949320828976070
C  -5.16778178528489551269 1.11072336231340940138 -0.06149807731087994500
C  -3.29265555667351561553 -3.24033602237473994379 -0.65776494554374898005
C  1.38149539713368874061 -4.07715922342435987957 -0.10764441609134994815
C  4.77256626082026613744 -0.75675892258768917564 -0.38217592772181979699
C  2.55256396054111922567 3.77383000390614853359 0.69472730196528931224
C  -1.87658184279176842857 2.62959785738603990524 0.86959042675287956392
C  -4.66995162147994768986 0.17586095834351950229 1.06305633345943961743
C  -2.50721461222832919802 -3.60110911172643000100 0.61297497945516965512
C  1.85352377539312773713 -3.02051341305114995350 0.89710406424008881654
C  4.36577196934167766074 0.23022434129321070473 0.72517060885729955899
O  1.66907167957595858887 4.88692368085399930777 0.81124164518227925846
O  -3.08441362729646728624 2.81665904229748020882 1.56150817661108898271
O  -5.30102626309129565385 -1.10211608872167032835 0.99847272905182959946
O  -1.77848159054403920365 -4.80866574069801888669 0.42941785465123982757
O  3.21002454205557707922 -3.18580015958223006223 1.24237706618064924768
O  5.13256533557428618053 1.42782080075291051280 0.64399374126307928901
C  3.59066688938968736622 3.98044807994619054270 1.80950926664780875619
C  -0.89645500604576855430 1.89000615206742916818 1.74680470073063887071
C  -5.01952751177552602968 0.67278465397587872143 2.47922864883734828112
C  -3.43552903897644679176 -3.83876853711820009707 1.81094492657019912052
C  1.02780373685861881050 -3.05255631487953005276 2.17255950121327856550
C  4.63334413526010635564 -0.33982799439168964728 2.12582775292363868047
O  4.36587551677528651339 5.12623218609484077035 1.58164252684446804409
O  -1.34635178925135901018 1.75509148705510997779 2.99556395054215807150
O  -6.36137881605171440214 1.05950386521692951902 2.58358829301366776932
O  -4.39579169127993640842 -4.82015551998131019928 1.53892222940309930657
O  1.15961021883623871531 -1.88140208249342943958 2.80998166284474804044
O  5.97384117287688454212 -0.72056215651174970738 2.28104190831524888949
H  0.13224704601901035583 5.90028006910375868443 0.06179845111059995011
H  -5.02906546666553655456 3.26944512916705898320 1.32195973471651906372
H  -5.66005365569407548065 -2.74597562429162023179 -0.06617953327339991254
H  -0.37596333589037028711 -5.75629752710907105495 -0.61905323145201962554
H  5.07351651543867454563 -3.11302658157459832822 0.51127945807539909584
H  5.64867625842899290234 3.00541745320616016102 -0.46425305226986962603
H  2.01854436715261886803 6.06436711980527043409 -1.54656827692787923745
H  -3.84115196116301671481 5.32232493097132941529 0.73833328706388945406
H  -6.93123890356386596068 -0.87032777596413046783 -1.10908033325346933040
H  -2.33079476852577860413 -5.39901926729751036049 -2.10116728534805874418
H  3.97846078011181525369 -5.11278456573449080480 -0.51320329701895961438
H  6.65544385173537111910 0.99639818803564983440 -1.56359344794164911718
H  -0.44758121555990915130 5.54738430107657976009 -2.19514784185843891962
H  -4.99862717111371512857 4.04655674109809648797 -1.47877335682354948965
H  -4.87862214394077664537 -1.98151913903146037477 -2.69443521680572883881
H  0.17493009918405943992 -4.73959651674300985746 -2.77483024948440881730
H  4.66410798139857529776 -3.01874084232443751219 -2.26865624666724841063
H  4.64836089514038430792 2.34140600586418878848 -3.00041084851171824255
H  1.54098607645986906967 3.06283758725334953610 -1.87427115174566893963
H  -2.46085499425985743116 3.74585258222391859206 -1.49411825115310925582
H  -4.16019338913851743911 0.25205406388909978865 -1.74488235435312732946
H  -1.65150591338989927159 -2.43341514701178018854 -1.78743297510559906449
H  2.13072481812891645347 -3.06478741669444998408 -1.84269875172082908676
H  3.74246695990955480227 0.17505707611953005842 -2.01366769037927806352
H  2.36276715127818626172 4.34815172937626659433 -3.71377294779213817932
H  -2.81157367692486648281 6.10014489877917043259 -1.64421335474422902756
H  -6.09084081771053398313 0.69029656113981896493 -3.10886487380280840398
H  -2.66909052727224915813 -3.26592044166787065507 -3.80334705793696725706
H  2.58698386619235698447 -5.14749436802668913771 -2.89909019680832802379
H  5.49408568008983611008 -0.53311484335033920701 -3.50050276010526850712
H  4.02144260633307659702 4.43873977070721803528 -0.76158004326704964448
H  -1.33879622191689873212 4.69571097986318886086 1.19890805994787918998
H  -6.17413561112708553225 1.47410559342782954140 0.19007305348557004820
H  -4.09868189285289563628 -3.97092024710498758822 -0.80481580480895953400
H  1.40934724253084797674 -5.07071095687050732437 0.35457577458490985300
H  5.76955099277967686788 -1.16139533236291936369 -0.16672775541378001551
H  1.99677609145850842864 2.83976438078294002310 0.85744948004959942178
H  -2.03432580407637875197 1.97912333649938032565 -0.00933991151863993591
H  -3.58181057813990832983 0.04730107681938962305 0.97286818618691950356
H  -1.81875059986388909472 -2.77601408995254050893 0.84523606295103970165
H  1.70767087459974709063 -2.02632998237252959228 0.44167627387429975183
H  3.29684627784058648103 0.46242992506568020294 0.61428010446683900536
H  4.27684283934914866165 3.13377304722748029064 1.84096947029981894417
H  3.05499576615011703140 4.05618852724160117162 2.76325081195894650676
H  -4.79227452249524610295 -0.15173887546790032488 3.16617738075086840865
H  -4.40898511711660745505 1.53315883400238783807 2.74824849325204567663
H  -3.97170422031588721268 -2.91608560685773054999 2.03992773831826879061
H  -2.81226758138124921516 -4.12058300134711963381 2.66817818299924836012
H  4.35574918530906440850 0.42281946590956998033 2.86286040394648688689
H  4.02684838685082624465 -1.23311937246010971947 2.28407916476905814562
H  3.76320851633328734565 5.88246056441070930276 1.54085400740711886414
H  -6.90736717162538571557 0.28345440568049945496 2.39381796429284854355
H  -3.92388988794632753709 -5.64051884971686945391 1.33424427257381927880
H  6.51908788538571037918 0.06399434512467971903 2.12347478294185876280
C  0.26127497010885958328 -1.58912450335454979999 3.90285766255619792631
H  0.88951598116402896821 -1.18363696298226983572 4.68922404710705720277
H  -0.25570570590976021697 -2.48705044817073872565 4.23160082255163860765
O  0.34924840901390941106 -3.98334818409430990727 2.55358777221210875297
C  -0.58617522855173942453 0.84541176598609990567 3.79519962836908808512
H  -0.99939904616609909205 0.95260657278872973297 4.79784223568303769270
H  0.46887642779151966765 1.11663465419944030188 3.80502509435579794328
O  0.16237772092035962501 1.42572362705916000358 1.35186217851816903313
C  -0.72420064229639979914 -0.57561974826865003330 3.33162747555646809872
O  -1.53646263887656897573 -0.91508322368633943089 2.48476685153011844776
O  5.12016518841188084110 -3.80675011383641637153 3.06030596716629732512
H  4.25869305737139836054 -3.72293329273593265327 2.63580323223809243061
H  5.32062354544112547927 -2.90677049522949593197 3.34175791086644746741
O  -2.07739336173240829453 4.33352014407194108259 3.97883132084589563604
H  -2.35787845356035274946 3.79904446580360399821 3.22714925599252966393
H  -2.03711298227879344935 3.69888340896133804847 4.70338343691660476509
O  1.20861243434111176320 0.84716361011117102819 -2.45015501381522371460
H  1.47563441383520377315 -0.07837486559086279114 -2.48810045468183282935
H  0.38317580702480413812 0.86359757474617560025 -2.94789627442596335882
O  2.57954538705013813882 -5.94619569675729753300 2.93431070549187023033
H  2.65596581105262918854 -6.24703290143068468154 3.84700942856533290026
H  1.73718974537481085640 -5.47753390440847809373 2.92185435155271555629
O  7.29620667321037252862 3.05100343268505413974 1.44429872370218603805
H  7.01503845224758304511 2.20928903027048573193 1.06770429954158507790
H  6.76420353927246242876 3.12816771772275625807 2.24453643964550542123
O  -1.05493549403350583837 -0.20175112183925833498 -1.90578485440609046719
H  -1.23685437313731783071 -0.42092813198437378785 -0.98479135623696145707
H  -1.90977621469210645522 0.09335581160641551191 -2.23973290958756754421
O  0.40789638124594512769 4.85382894434815526097 3.72543848859718496058
H  0.01368879175008975990 4.49477322989597638525 2.92229377291796899030
H  0.03071683465176650030 4.30767446854185553917 4.42459007560179617968
O  1.21348797977724287556 -3.47827765770486418972 -4.92319011099401926401
H  1.25561636499323192595 -2.59985245536667353150 -4.52827692170230822200
H  0.26721009973673559568 -3.65151120294881614825 -4.98572311005507007309
O  -3.37744983416910171670 -0.80244443854341140909 5.02801316157645405980
H  -3.98342569205590901760 -0.66501468563138288470 5.76508058501425590947
H  -2.99943270180925969370 -1.67108239055839913334 5.20671184479757620522
O  -0.29409470751137145594 7.08250446257944599182 2.34081583065246645603
H  0.51752120379981159104 6.67959335556119793154 2.01171961923672348860
H  -0.39475462152669771321 6.69967646414601958327 3.21983367390093944138
O  -3.43295572661918013679 2.81287833768132600198 -3.73637328428637882638
H  -3.86438062166725604385 3.40821766400290560028 -4.35991615409412336390
H  -4.15948600299494675170 2.49865613529479757560 -3.18611859011283016230
O  1.35024310655608803522 2.97177396900470869312 -4.84512104697737200354
H  1.75484819780610545870 2.33269820340351374810 -4.24742635068489171601
H  0.40538034146273999037 2.85284786628234776629 -4.69527779335967210272
O  0.18322687505456614065 -6.60190669290909060152 2.15079632328284464649
H  -0.09082779438799913618 -5.87151553977062601319 1.58441759346140953468
H  -0.37141095595953899089 -7.33395350912017729428 1.85780076238388747178
O  2.56947934761413288030 -7.05085454762334773449 0.50028496151401569136
H  2.21567125483624716153 -7.92918499809157051317 0.31940511939356591720
H  2.62946282806246500741 -7.02634175534128413432 1.46213898812676346139
O  0.58627963217273637575 -7.34812615275521352487 -2.33549050516169032221
H  1.53648087109563014074 -7.23569529413239376225 -2.45312966360428363899
H  0.21408734174046861742 -6.97478527771062140062 -3.14261599316652207037
O  0.89019192326940954629 -0.81060957508683373351 -5.28435931750822174280
H  1.33739023672534007581 -0.02176180210095902262 -4.95710571016715118020
H  0.39779649937544075966 -0.48928159775481222526 -6.04833388575988006863
O  -7.04956873861824728777 -3.96410725474136516056 2.00995718922721300359
H  -7.15254410147000818654 -4.65493643898663123082 1.34549261014047272234
H  -6.11654403109737643263 -4.01710470963826971058 2.24663889184350029637
O  -2.39204768770303655145 0.15717982328363380717 -4.46632338538250728277
H  -1.53045049202667371446 0.00772474470296939664 -4.87212569674781104112
H  -3.01349931175671681416 -0.09387819900866259393 -5.15923738569354028982
O  3.14332620986744482039 -1.62109111580771458883 -4.37889695172932036371
H  3.95613356745356270494 -1.99669242749930186953 -4.73615024860673283769
H  3.41939840053587484903 -1.25197539084039011215 -3.53219760098863355680
O  -2.67562507398253446311 -2.72429854713833474733 -5.71877295514880223948
H  -2.04201429833394287883 -2.02689782699283638223 -5.51497971545993515008
H  -3.48775396947860238939 -2.24134700532619701718 -5.90999672141472753850
O  -5.16179463953493655737 1.22880828697755473122 5.39796580930602942772
H  -4.30623578081447266896 1.46134611394679203578 5.01940635253112343861
H  -5.78909550991919452656 1.71748339740495525874 4.85294074760039073624
O  7.47482153174193530987 -2.68927817501331345440 -0.05106943122605772656
H  8.13144470871629110320 -2.53901163294919740565 -0.74072734194451583800
H  7.93040395968893019329 -2.42164143292063815949 0.75526628610962387445
O  3.28308700329775504656 0.25360364509140098654 4.83243799257620310073
H  3.23293046070106671053 -0.70364738321965725198 4.72988627853632603859
H  4.06735062240857292437 0.38041984245367749251 5.37852433304727917118
O  -5.07534094216287634538 3.89321310787356278382 4.18836856975482074716
H  -4.61545125675281653344 4.72313013558524108504 4.01777763099195883711
H  -5.96276847180845059881 4.05379896144220630561 3.84771239898420525094
O  1.45025193988893930097 0.85417997595781436360 6.76870280392417633664
H  1.93168607196916974900 0.40658874102402198236 6.06354656102552258545
H  1.57211704817955344460 1.78876006609927284963 6.56604295611061861138
O  -3.44570730021408344612 6.77245127343282860011 2.84439293874128606987
H  -2.83813269621510055885 6.02427171225839241941 2.86542883274777748781
H  -3.25376718262646669189 7.19423259426640626657 1.99904001121358820825
O  1.11816444679303672594 -4.32565546146346058265 5.35386354484279181065
H  1.95414561632925742884 -4.77549682520086538062 5.52161423984008425947
H  1.09148599170977855799 -4.25173814587538156928 4.39303757000971195623
O  5.69783059855965134943 6.18101505111007654136 -0.46750319903466597271
H  5.65619013476971144172 5.71961212919333217286 -1.31292349654496254274
H  5.53829147136253219230 5.48279244561875067632 0.17778318970865775173
O  2.97214826822710387333 -2.54039818672827300006 4.88361746345918756873
H  3.41044717656149964924 -3.18502199179687339736 5.45081785213333347428
H  2.66417877776444944615 -3.06908794922679950545 4.13863156332634751777
O  -2.10927255164601490378 -7.62235687850030174673 0.24960413766669745095
H  -2.13965310933945929150 -6.83056022449032518296 0.79869169392088013026
H  -2.07196267734623429391 -7.27229058048671817005 -0.64784982978685135002
O  -5.95738119874374394414 -2.71946959444894975633 3.84506308661250484349
H  -5.96340446262175483128 -1.86313932192317133207 3.40231682895634879316
H  -6.78868546794184801740 -2.72604528790807476568 4.33317376636849971305
O  -3.06978445874264105342 -3.43806722092029648508 5.47737141699656771010
H  -3.67898439910825914012 -3.83318839658434562523 4.84324465268146386876
H  -3.01545803629152464609 -4.09790447024198378756 6.17810353960445901578
O  -2.10081379495279207958 8.35058361134574589357 0.53683197392943493576
H  -1.61379119656063196864 7.95027358434584385805 1.26616244426441015847
H  -1.73720053490439929611 7.91471854570989652444 -0.24237859138558603966
O  -8.42745239344178287411 -1.03324261877772083373 1.40939887423460175064
H  -8.74522024018301102899 -1.47272331779698451015 0.61237793675094354118
H  -8.15702876973042201314 -1.76432351012953780867 1.97663238652241024518
O  3.87943375610813978582 -4.37462418223442295329 -4.97668615011491155542
H  4.00479093303440514262 -4.03851172306594285999 -4.08188111157012123442
H  3.18345245043729851986 -3.81081113013313599325 -5.33317868560514263265
O  -5.02249802687488067221 -6.12198789954351330067 -1.41574994816551513743
H  -5.65086478382581525182 -6.04143046506416325769 -2.14240515012131149675
H  -5.56763899736979617217 -5.99082463791727271030 -0.63154360764616801482
O  6.76129068312599823543 -5.04345246071938468901 1.16298602563045272440
H  7.25013401468822760165 -4.45828877716016158672 1.75288239335184359291
H  5.85704305101521160992 -4.99120067318923510413 1.49308909127094979752
O  -5.93556616484713650550 5.72530217161403776061 1.91205713122279252758
H  -5.52993297785360393704 6.23868639270711522471 2.62005460520308197658
H  -6.01387832027358637532 6.35993296048305722934 1.19061896231622310616
O  -7.58983910848944809402 3.48574222598179828125 2.59254318740139710897
H  -8.20366369774587944619 3.02710500611880206634 2.00753606077740265334
H  -7.51395259842904561509 4.36152180863303229330 2.19679904830974015439
O  -2.87802867744106549708 -6.53147625635682782530 2.66862854605135479957
H  -2.23219968800951429344 -6.11662975841340283978 3.25186894552162586436
H  -3.01741911092758474666 -7.39791238204446433002 3.06765337056627407364
O  -7.14524688633803872762 3.28628260574892161472 -0.50934066589381166157
H  -8.06177910814559162134 3.47365469286326211673 -0.27648351788397457218
H  -7.21930038840080445794 2.79129766374570609244 -1.33327515931281270767
O  -6.19240362477143335695 -4.47217520273540003473 -2.89771325554427638949
H  -5.30720373305576220702 -4.23367920312511181180 -2.59954740589545529872
H  -6.64307943807165379724 -3.62271757790817261480 -2.96608809267302708790
O  6.99056995333366693046 -5.03185626525437434964 -1.56372911048516605170
H  6.61045157324263144005 -4.70672788610952430588 -0.73961527234630908278
H  6.51467674869402735283 -4.53785520475224757320 -2.24111428409313528931
O  5.58485755783591386603 1.97024397524292615991 4.85733526103835178134
H  5.19241740412905361524 2.31370531945544133379 4.04654114733832148687
H  5.07269484753479638073 2.39737119610832483119 5.55347731464244809274
O  -7.91931055924990801032 -3.95497925755247425883 -0.27860804894142748855
H  -7.71667614642881005693 -3.03242574951592036570 -0.08574440910633042423
H  -7.43726153871128392581 -4.12490898867411637241 -1.09599087950614992870
O  6.77438342558111195046 -2.31992601339811566064 -4.45525075620930621767
H  6.04679109419994009755 -2.88591987113623993366 -4.73742519930855987553
H  6.79631764784246428235 -2.44183084055093724274 -3.49920673712130092525
O  0.27086032674957372102 8.26349679518305357817 -0.50598999410627643059
H  0.86653079610726080340 7.84466934945695193449 -1.13775128340951559025
H  0.76100079384360341805 8.22709153508924373455 0.32334651357782684400
O  -1.16011977365985718968 -5.51499940297661694899 5.21911427844564901335
H  -0.51018403986349603052 -6.20433453087627029277 5.39733517340048241095
H  -0.68182555066095407170 -4.70015495871589727983 5.41049147491018622702
O  -4.95333962679264416806 -1.18995218349778086875 -5.36050054626852379158
H  -5.70526347202123940150 -1.75674114883550913646 -5.56719564482767914626
H  -5.11765481083037876431 -0.92191906796120159928 -4.44917138910646148275
O  4.46950281906405688659 5.85139800334738158227 -2.80362870442761735745
H  4.80681602134852603569 5.06830945729581205939 -3.25346667150885826558
H  3.80726176235056312791 6.19395273257545220247 -3.41473843574417390556
