147
Coordinates from ORCA-job job E -274.684327123700
  C          -3.33301635392575      2.61828984473025     -1.67571090382244
  O          -3.06300701632194      1.43077891819111     -0.96023676002626
  C          -3.01382340878860      2.39680691273337     -3.16661638556976
  O          -2.61898956791008      3.71905642647815     -1.19918289333569
  C          -4.08036215618410      0.99194508452661     -0.07028840459356
  O          -3.65572207864747      1.26462838614702     -3.68721124860397
  C          -1.50820824982946      2.19191357590660     -3.35224873983005
  C          -1.19877574416566      3.57280341828678     -1.21542458345072
  C          -5.10179528646340      0.15229313013504     -0.85616401616244
  C          -3.43440608210340      0.14093635788668      1.03128136555307
  O          -1.13787924437651      2.22677167762244     -4.70401986082515
  C          -0.66502131762668      3.24894932676452     -2.62457172546652
  C          -0.65950206008223      4.91038800286121     -0.68539912526742
  C          -6.06277918737356     -0.56600276292223      0.09795694229208
  O          -5.80480058465562      0.96312658399292     -1.77165881586071
  O          -4.39149338173616     -0.51451500726199      1.83421794478417
  C          -2.58099921908096      1.03573044127625      1.98725949393922
  O           0.63311528585988      2.67126979661485     -2.59160348119813
  O          -0.93837511811966      5.97686000009948     -1.55423566261654
  C          -5.21578731009121     -1.38298933284974      1.08736772862258
  O          -6.96494107721110     -1.36181717304227     -0.61718191216221
  O          -1.41119671475088      1.43159452356199      1.14191501571367
  O          -3.14858427303265      1.99492797674649      2.55983071601220
  C           1.76138560701083      3.49698852109795     -2.49774471007612
  O          -4.47388104342606     -2.29299351495327      0.32749603062772
  C          -0.27221385125855      1.27177289696601      1.94762889919767
  C           2.86472873937649      2.83818170685663     -3.34904306592098
  O           2.21040351318493      3.65579728887171     -1.17587995863191
  C          -4.33945526497973     -3.63826931843499      0.76471564840922
  C          -0.60146629172159     -0.06897074948717      2.61144944938279
  O           2.48962056584334      2.71712668103447     -4.69178768149444
  C           3.18198419901653      1.46304584394433     -2.74130340785037
  C           2.47212380194396      2.42665419303666     -0.50454598561693
  C          -4.14680911142610     -4.42980086220798     -0.53555942979159
  C          -3.14222386652519     -3.83416330704555      1.71054967950048
  C           0.37714080129514     -0.39571272257969      3.75560093630248
  O          -0.47180700880141     -1.05915493139131      1.60414679590847
  O          -1.93150191952467      0.06993311752101      2.96334492199734
  O           4.26931076250640      0.83786150781630     -3.37500996294113
  C           3.52087059314573      1.58552798283301     -1.25086609691515
  C           2.94177322376167      2.79662113372021      0.91115777531709
  C          -3.75892889893853     -5.88830847520241     -0.25349862986943
  O          -5.33787261612766     -4.33462811081395     -1.27270346586597
  O          -2.85460898498062     -5.21621257640894      1.88763115261969
  C          -3.40397234303606     -3.27190717167191      3.11609620834009
  O           1.63949987115517     -0.47445615659299      3.09140726727965
  O           3.55170338194806      0.24798639079849     -0.77185225893617
  O           4.20057122323412      3.41703639516740      0.90557959258793
  C          -2.54466499268688     -5.89628410714385      0.69505466287251
  O          -3.48285087068359     -6.56913493555984     -1.44341742696672
  O          -4.58723547856402     -3.77967173512220      3.67157440714370
  C           1.92098783110510     -1.63814201045952      2.50281227405552
  C           4.41675021875843     -0.08605579548231      0.27753479055980
  O          -1.48371100211639     -5.30300609354187      0.00269470354013
  C           2.76788906671490     -1.44532844527661      1.25001122520291
  O           1.50853123403411     -2.70565134897454      2.88445386539446
  C           5.25465935650334     -1.29610855089643     -0.17933410156850
  O           3.70434680369438     -0.40958034717619      1.45445359878066
  C          -0.17100998723796     -5.83254869423663      0.14716303740297
  C           3.39772455684358     -2.75489616274149      0.74387491131235
  O           6.02691970406582     -1.00180677991428     -1.30865558623475
  C           4.29924946271158     -2.46248285208785     -0.46896568457510
  C           0.56399748268227     -5.30008966452743     -1.10435730713666
  C           0.51465564852050     -5.38744594729594      1.45324817939922
  O           2.32613579458396     -3.58709984987170      0.33465486083962
  O           5.00656048474015     -3.63101033881121     -0.82164493318792
  C           2.07183518006474     -5.55791407606744     -1.00172874115975
  O          -0.00968728885444     -5.81631777991065     -2.27133643608267
  O           1.92007812546797     -5.61527420158010      1.39996259820451
  C           0.03571336801153     -6.17521165360883      2.68224078069308
  C           2.56258651920632     -4.97346146490210      0.33556223275113
  O           2.72311708130595     -4.98142010865160     -2.09662081327484
  O           0.15300319562946     -7.56270908364075      2.50030663303399
  C          -1.00119202486840     -0.78991125498903     -1.64908695740023
  O          -0.32853853940971     -0.10046128364588     -0.81837063659593
  C          -0.39130791309568     -1.65030704568142     -2.58596870376328
  C           1.01660598902492     -1.77073543015802     -2.66085621730258
  C          -1.20317174560641     -2.43225478180210     -3.43935092403434
  C           1.58096901201010     -2.64166997724860     -3.56223632537481
  C          -0.61981408592384     -3.31135356894473     -4.32199293618993
  C           0.76705497310614     -3.41838569882700     -4.38319081680087
  H          -4.38674909820247      2.89755986504214     -1.55841892589326
  H          -3.32184353258673      3.30660798070397     -3.70590047155129
  H          -4.56688355927380      1.84687258508659      0.41640629690453
  H          -4.56305394932164      1.22141281613778     -3.33739956805775
  H          -1.25680747601543      1.20937166948322     -2.92232778533963
  H          -0.91754283557898      2.77172516368154     -0.52412491451954
  H          -4.54387280874864     -0.61630382030836     -1.41419712763280
  H          -2.77972445099990     -0.61440555343986      0.57716094777629
  H          -1.75722053198526      1.67937157495793     -5.21224684121863
  H          -0.65196605079180      4.16965620939653     -3.22455834805380
  H           0.42514690762089      4.86102685981972     -0.58743987519571
  H          -1.10468313383052      5.07635756840746      0.30281638508763
  H          -6.64939020919706      0.16907532576645      0.65787161403092
  H          -6.66124098423840      0.53327015492775     -1.94485698328424
  H          -1.89834133879831      6.09376214957593     -1.59463984883300
  H          -5.84624900942968     -1.88838023395996      1.82869141545833
  H          -6.51513254561216     -2.17124699271605     -0.92001295986394
  H           1.54550187343299      4.51157789514455     -2.85658685968649
  H           0.62288239891472      1.24352050688850      1.33390492249429
  H          -0.21740490761948      2.05818638343134      2.70602679456761
  H           3.75903487612610      3.46918453299379     -3.32794591776522
  H          -5.25858676796993     -3.96456299346639      1.26755501450152
  H           1.56966700049174      2.40864852763690     -4.74161561307801
  H           2.28051897606712      0.83974590026631     -2.83719773404830
  H           1.54339724244147      1.84386096540919     -0.44859507000836
  H          -3.31930761155879     -3.95737342691682     -1.08941873970636
  H          -2.26855169524743     -3.33452312929421      1.26773720821691
  H           0.42561621326880      0.41181950350267      4.48085725454040
  H           0.12420141384020     -1.34359724308419      4.23671238927400
  H           4.21318627892387      1.01354043655936     -4.32802552061004
  H           4.50849000268465      2.05054665550661     -1.14065220851813
  H           2.18333625248447      3.44469074612543      1.36568926229048
  H           3.04106935724085      1.89227983524897      1.51589153441719
  H          -4.59536688768697     -6.40819763268718      0.22308249428234
  H          -5.32396820092177     -5.01174816556055     -1.96940725994746
  H          -2.54067616724395     -3.51603697411104      3.74824630024126
  H          -3.51167054851434     -2.18493932529823      3.07469432482888
  H           4.11945640105398      4.28365945943295      0.48093621838799
  H          -2.30139982115411     -6.92138918261807      1.00286682506790
  H          -2.63238519335736     -6.25288945758430     -1.79402104220043
  H          -4.47441166731754     -4.73089667511218      3.82286009465250
  H           5.06555948890360      0.75260911911070      0.55420416002978
  H           2.03090110282391     -1.13273446389718      0.48920070697462
  H           5.95170492755894     -1.57171484211284      0.61859203307203
  H          -0.21249365815034     -6.93130828702104      0.12809141277971
  H           3.97681766264231     -3.23189207376501      1.54426629450301
  H           5.48159543281223     -0.53471506903703     -1.96813865532421
  H           3.64464705292255     -2.17036614913970     -1.30289682070245
  H           0.40399495861799     -4.21758581624416     -1.14215815106814
  H           0.32941256491088     -4.31771492997888      1.60990105555671
  H           5.80239944210960     -3.35600044051582     -1.30900693322813
  H           2.25521426806924     -6.64598650643286     -0.97344096374887
  H           0.34707352564558     -6.69979088104279     -2.44971303239355
  H          -1.01713654259109     -5.96882039431136      2.87240761515069
  H           0.62695392385943     -5.83547359293016      3.53981303239645
  H           3.62878852510681     -5.18917462024860      0.47459920058033
  H           3.63726577082788     -4.76060868099636     -1.84361585214951
  H           1.09407817351694     -7.78396690399350      2.44443201264750
  H          -0.84961005769679     -1.88286871783535      1.94742718285276
  H           1.62198188372459     -1.16919637111837     -1.99991599961293
  H          -2.27524130417314     -2.32515740542753     -3.38586818111543
  H           2.65113894474649     -2.73936176247252     -3.62933065990767
  H          -1.23302394361605     -3.91790964774887     -4.96782486431943
  H           1.22041958582641     -4.11075764605452     -5.07394019583148
  H          -2.09063261169288     -0.73948969950827     -1.63261618968583
  H          -0.86424242389150      0.39975251516427     -0.13638649468798
