147
Coordinates from ORCA-job job E -274.667730473660
  C          -3.37173930181555      2.58015214639579     -1.66955792099980
  O          -3.12056022210423      1.49921279621565     -0.79987468602780
  C          -2.97351456641455      2.17187078449219     -3.10133067850148
  O          -2.66861582348417      3.73411237358310     -1.30788132275114
  C          -4.19367454311179      1.08140755850175      0.03382459731690
  O          -3.63587124490972      1.01971464629946     -3.54698969965248
  C          -1.47275050446211      1.88017412112081     -3.11886155453535
  C          -1.25491740908052      3.55641477967676     -1.21619032456660
  C          -5.13318004751688      0.18316825783569     -0.78895302934866
  C          -3.56344126666208      0.28975797333411      1.18826019975960
  O          -0.99839826687202      1.62166399356703     -4.41469142457717
  C          -0.66430255678029      3.05093519129427     -2.54675504455958
  C          -0.68957568574636      4.92204168864579     -0.80073547753077
  C          -6.07870135550095     -0.60541070254811      0.11991007304252
  O          -5.85338263699237      0.94864735156328     -1.73172505952418
  O          -4.48457165550571     -0.48566260766419      1.92398537480342
  C          -2.89697170204743      1.27009085192037      2.22330907141021
  O           0.64160331665630      2.51687835646171     -2.39825788466109
  O          -0.82600783026611      5.88967972981088     -1.80847128685134
  C          -5.21524191719391     -1.38436744891956      1.12441115333996
  O          -6.90467309290817     -1.44391466720978     -0.63945023841066
  O          -1.81595125598524      1.96642169872501      1.56504622865548
  O          -3.66927303637391      2.01879822918616      2.86036946899471
  C           1.74174583368456      3.38971129156610     -2.38519826556424
  O          -4.37184101364893     -2.22723666157012      0.38644385480102
  C          -0.72066072175987      1.11128581789099      1.40024892068177
  C           2.81424153118413      2.78835581622896     -3.31268929170025
  O           2.25639632890390      3.55750795293085     -1.09186530634043
  C          -4.29139081609746     -3.60557982202984      0.72744612489951
  C          -0.89676373562349      0.04462464800409      2.52099963487972
  O           2.33997049928780      2.63080667879803     -4.62113073813999
  C           3.27029803963243      1.44350247563306     -2.72978499976878
  C           2.62080161921949      2.33810789355517     -0.44579721286241
  C          -3.98030019747874     -4.30739012930248     -0.60058477654769
  C          -3.19504713587577     -3.87247490465741      1.77169990123137
  C           0.32895955198239      0.02567661839537      3.45613540294450
  O          -1.01138265679017     -1.29709692805449      1.90335138802411
  O          -2.06053504843699      0.34169396859439      3.14646768696436
  O           4.36443372564398      0.91564893162828     -3.43444070064587
  C           3.68506599861738      1.57618706217468     -1.25819285953071
  C           3.11878957515142      2.74375202046378      0.95119023128759
  C          -3.61455983769335     -5.78285357534601     -0.38081280675437
  O          -5.10164933186058     -4.15684207216913     -1.43311600830542
  O          -2.91326248332333     -5.26502136227124      1.87964462429467
  C          -3.60467949330529     -3.39489900134689      3.17276020421508
  O           1.49881193352064     -0.12424892017845      2.64706094218670
  O           3.84482422511662      0.22995809417461     -0.83544637129928
  O           4.35737133717238      3.40191164123727      0.90519894935158
  C          -2.49335739164141     -5.85158997057819      0.67478989773252
  O          -3.22200204213661     -6.38630391727978     -1.58152412365647
  O          -4.84532786521580     -3.92010641582322      3.56826637740629
  C           1.87569594513574     -1.35509797128348      2.31747688959114
  C           4.63255794809299     -0.06625322065145      0.27936339256630
  O          -1.38499743384955     -5.19532500430375      0.12593132587238
  C           2.87496177521139     -1.31929546387146      1.17612595346783
  O           1.39660603408951     -2.35694566553834      2.79261629528746
  C           5.44668354615148     -1.32957579168561     -0.06316725203352
  O           3.84005054092745     -0.32027818434956      1.42366864469784
  C          -0.08610516917652     -5.75503359545663      0.27858534700467
  C           3.49558654414159     -2.68424144699178      0.83497137021520
  O           6.28966010902678     -1.13112339822239     -1.16180455061761
  C           4.47119530574851     -2.48570093505555     -0.34097169871440
  C           0.66441067334200     -5.25395480953968     -0.97374850357714
  C           0.59052092266939     -5.28879766357315      1.58044955889573
  O           2.42507045146642     -3.52155434432736      0.43618977824903
  O           5.16741565566528     -3.68501355306114     -0.59411088374637
  C           2.16750503806626     -5.51788740005974     -0.85823848286857
  O           0.07994692526682     -5.78168580258642     -2.13446261041163
  O           1.99685731439346     -5.51861311440366      1.54967849283053
  C           0.07321942319427     -6.05138351517398      2.80901662182310
  C           2.65204335603334     -4.91035207920020      0.47366130949229
  O           2.82169128133553     -4.94912378968147     -1.95677490691000
  O           0.22520446636731     -7.44111135311284      2.66925267375389
  C          -0.89016954051778     -1.63780514000003     -1.30046250996920
  O          -0.11094908026346     -1.65641554236273     -0.32150935968820
  C          -0.48005974075967     -1.91627745127324     -2.63308864422413
  C           0.84883076007102     -2.29878280131719     -2.90690431711415
  C          -1.41765118275748     -1.84925543564202     -3.68145293758693
  C           1.21455045688222     -2.63792497430256     -4.18933377059521
  C          -1.03224068391537     -2.18280478390571     -4.96093456388755
  C           0.27556999706589     -2.58525200798226     -5.21385358173608
  H          -4.42870766468840      2.86740831193559     -1.63121259654323
  H          -3.18940312574471      3.02608787972765     -3.76252532000070
  H          -4.73299662878042      1.94330021309144      0.44704356339326
  H          -4.56442503954950      1.05503544522713     -3.25622915452044
  H          -1.29558241061621      1.00577125173326     -2.47299388804450
  H          -1.04270242421577      2.83278730048546     -0.42466140008042
  H          -4.50131572511048     -0.54119982875449     -1.32792446200184
  H          -2.81272724211771     -0.37523961232038      0.74846881256981
  H          -1.68439130430734      1.13328810785529     -4.89560205363977
  H          -0.65398987698531      3.87486465936634     -3.27348106196228
  H           0.37757320973172      4.82923773329974     -0.59518253533541
  H          -1.20636567172505      5.22447598451526      0.11698011404782
  H          -6.72875159390220      0.08138890695746      0.67071944296714
  H          -6.69253343069831      0.48518168568521     -1.90352472165742
  H          -1.76850751899883      6.07187391233921     -1.93227068591731
  H          -5.84216017678532     -1.94993514923379      1.82360522932641
  H          -6.38705171695367     -2.20330034641348     -0.96468512260524
  H           1.45948503164532      4.39309485374047     -2.72654130366117
  H          -0.72691836264321      0.66247883792370      0.40099349537191
  H           0.19118237144029      1.69440177777687      1.54657512478990
  H           3.66633015774238      3.47334961771003     -3.36856277418011
  H          -5.25768691254347     -3.95701891002183      1.10976143863525
  H           1.45359070345357      2.23182608801219     -4.59622764586571
  H           2.41879336737412      0.74531621926965     -2.77373247791996
  H           1.73147261754079      1.70154646810552     -0.34735663145371
  H          -3.10803758835722     -3.80543224584122     -1.04959200938642
  H          -2.28769591390094     -3.34512197487741      1.45459554247338
  H           0.40528493961492      0.98522126851719      3.96472535945825
  H           0.24737285653371     -0.78235922653740      4.18798076858525
  H           4.21556226112093      1.05651329048916     -4.38318948035996
  H           4.64331887259389      2.10707252943607     -1.19193009479772
  H           2.35159084246916      3.38083859224268      1.40715404987328
  H           3.25580728092586      1.85517613823200      1.56918608468296
  H          -4.49033152318245     -6.33188673086121     -0.02229667568264
  H          -5.01781004781487     -4.77536776850865     -2.17710394274665
  H          -2.81961393914451     -3.68532605474635      3.88021142031885
  H          -3.70357399853102     -2.30629601227410      3.17726126914878
  H           4.23960921619572      4.25869265194288      0.46993145368573
  H          -2.26150729987417     -6.89460155092122      0.92509840393275
  H          -2.33597864781356     -6.06337286151247     -1.82504458449720
  H          -4.74968802890184     -4.87744363752484      3.68670391407487
  H           5.29033215141565      0.76600776255999      0.55406930331417
  H           2.26901806944119     -1.02758748918248      0.29950908398787
  H           6.08935645903428     -1.58120554745212      0.78670674195197
  H          -0.14665643123298     -6.85187727633162      0.27607510585132
  H           4.01841551819571     -3.10463821716053      1.70254684848120
  H           5.79309482848741     -0.69000595777747     -1.87251922332496
  H           3.87259398023933     -2.21800870029345     -1.22554002779513
  H           0.51463009034787     -4.17212844320686     -1.02470818132946
  H           0.40764241857300     -4.21553075285101      1.70747494582766
  H           5.99893032251523     -3.45213205595318     -1.04157506059150
  H           2.34934103611288     -6.60532802686727     -0.81547058350757
  H           0.51808518401122     -6.60958159068688     -2.38059241544995
  H          -0.99388659077992     -5.86509941561841      2.93664984543469
  H           0.61325018867198     -5.68327016961776      3.68822689920175
  H           3.71542128413480     -5.12939113763670      0.62444880314984
  H           3.76070238018268     -4.82416946356701     -1.73763337692076
  H           1.17193669115395     -7.64239179701662      2.64587239069291
  H          -0.63435029012219     -1.96909876554714      2.51396513575382
  H           1.55877647214195     -2.34210985841048     -2.09526363433902
  H          -2.42644118051072     -1.52630539190851     -3.47261093139982
  H           2.22406225758790     -2.95527864247330     -4.39203621974670
  H          -1.74673814449167     -2.14099374200685     -5.76699447224718
  H           0.56438882857888     -2.85711984665021     -6.21701909693597
  H          -1.95161978979605     -1.40957823169132     -1.14495525204145
  H          -0.56485211064447     -1.46093515196261      0.80164021283025
