147
Coordinates from ORCA-job job E -274.685553719060
  C          -3.32114972665905      2.65101675415651     -1.65109737244210
  O          -3.04210413129306      1.45081810109720     -0.95811542715011
  C          -3.02218817357295      2.45845511978518     -3.15056453088567
  O          -2.60604359062625      3.74557062264150     -1.16338761331933
  C          -4.05351317636357      0.99429738276362     -0.06891857024987
  O          -3.65745354525693      1.32629186592154     -3.67927676944617
  C          -1.51815413699790      2.27599796529018     -3.37139946621984
  C          -1.18532763058526      3.61307645966174     -1.20248334434874
  C          -5.07990170567979      0.16550600395327     -0.85926687642194
  C          -3.40301643996486      0.12923307227080      1.01898427955199
  O          -1.17563464176663      2.36713510256542     -4.72865504017114
  C          -0.66383725539820      3.30844646407212     -2.62108367433491
  C          -0.65056077006467      4.95215011559930     -0.67019113451268
  C          -6.03958078684267     -0.55798275124208      0.09234208227495
  O          -5.78522748607122      0.98648572622724     -1.76379149113633
  O          -4.35946374443260     -0.52905160328951      1.82074441230860
  C          -2.54340959246079      1.01794714672420      1.97820326861892
  O           0.62843334818945      2.71550776308157     -2.60355837590675
  O          -0.95427080639700      6.02261160820122     -1.52531107911429
  C          -5.19350084956210     -1.38695231740470      1.07237224299217
  O          -6.94672733418295     -1.34415369117012     -0.62707438932927
  O          -1.37060655014453      1.39999704487645      1.12723590508332
  O          -3.10601993946489      1.98666619357975      2.54044937536769
  C           1.76805901616231      3.52453601896386     -2.50760886516338
  O          -4.46303275777368     -2.29936942983278      0.30394561293927
  C          -0.21355819106980      1.15990502824916      1.88164614886224
  C           2.86448312435615      2.84229283257685     -3.34992254390636
  O           2.21414433661654      3.68554456612628     -1.18472332420943
  C          -4.33354947018419     -3.64609664430761      0.73883162124782
  C          -0.58872231128798     -0.13935551616285      2.60323170746683
  O           2.49399221064458      2.71963902024561     -4.69362539655894
  C           3.15615008479076      1.46574707509665     -2.73168428268940
  C           2.45379998201727      2.45611767070140     -0.50619341706194
  C          -4.12339826862941     -4.43419829691997     -0.56099583732817
  C          -3.14897193812583     -3.84595576752167      1.69961825553637
  C           0.38440887921711     -0.42685654273779      3.76472446459201
  O          -0.48167876457405     -1.19025805588210      1.65880586195316
  O          -1.91055187383285      0.05742883327730      2.95767238713437
  O           4.23380586319867      0.81624887413510     -3.35742228665042
  C           3.49471044573643      1.59646169711093     -1.24220622669692
  C           2.91912774808952      2.82051598770750      0.91173201470500
  C          -3.74008872347452     -5.89395634585105     -0.27760703445156
  O          -5.30408151801144     -4.33760341175438     -1.31434965013509
  O          -2.86407494897854     -5.22886396046055      1.87644084786072
  C          -3.42765836504273     -3.28992320012813      3.10457440350115
  O           1.65260872448167     -0.49994874034303      3.11149480756311
  O           3.50802332047263      0.26398945573532     -0.74790509782625
  O           4.18167750598375      3.43305393856272      0.91312024314084
  C          -2.53839382801358     -5.90598216545159      0.68672175947762
  O          -3.44938375550966     -6.57169519964965     -1.46579060466011
  O          -4.62258316740044     -3.79212938706717      3.63994358908743
  C           1.95266531136094     -1.66474928199297      2.53314729786197
  C           4.39755996467679     -0.07652211123541      0.27958744757728
  O          -1.46795405048414     -5.31302352307413      0.00906638103273
  C           2.77845130481486     -1.45990828296323      1.26762614111283
  O           1.57389136174365     -2.73753859329183      2.93264465782250
  C           5.23837490221327     -1.27486784384349     -0.20343289561559
  O           3.70839037028319     -0.41672232003256      1.46484485901923
  C          -0.15717654109863     -5.84254477232139      0.16972131381470
  C           3.41210330389082     -2.75944790407360      0.74318046107356
  O           5.98618798563622     -0.96490962066991     -1.34492713555136
  C           4.29024690596789     -2.44975115338880     -0.48227052850459
  C           0.58734401186727     -5.32842131213735     -1.08353041356246
  C           0.52122019063317     -5.37784997384235      1.47276959763272
  O           2.34350613673147     -3.59957849947107      0.34236900694452
  O           5.00199768003926     -3.61032145050087     -0.85135757959606
  C           2.09437935967011     -5.58845760330934     -0.96802754158110
  O           0.02037987426606     -5.85790521391486     -2.24788605000332
  O           1.92611109422946     -5.61128476626398      1.43233941633900
  C           0.03149949106550     -6.14374500013829      2.71103664590526
  C           2.57763770376507     -4.98578343692534      0.36364804238927
  O           2.75489147476598     -5.03287504733979     -2.06830881183486
  O           0.15977905293795     -7.53360754416765      2.55710158210479
  C          -1.07037283969275     -0.76318769411641     -1.73457837422387
  O          -0.41316349479002     -0.02688466678078     -0.93168190978824
  C          -0.44582151629722     -1.67512608263562     -2.60949055275291
  C           0.96313769558202     -1.80251903765501     -2.65360048187171
  C          -1.24497225599014     -2.48951000040585     -3.44514576180794
  C           1.54015364115807     -2.70997668955381     -3.50972327747920
  C          -0.64916597302632     -3.40579798132461     -4.28017963825167
  C           0.73835567128229     -3.51871118809578     -4.31188023328281
  H          -4.37415365654323      2.92458404252053     -1.51610067748254
  H          -3.35168427157673      3.37324274701577     -3.66803287019112
  H          -4.53734663812295      1.84127867337014      0.43411399628321
  H          -4.56381123622115      1.27328643399504     -3.32779581158155
  H          -1.25052551342682      1.27967386041978     -2.98915898416450
  H          -0.88441945588090      2.81211972255520     -0.51884377272974
  H          -4.52810615676872     -0.60094690803006     -1.42618179288877
  H          -2.75024618587466     -0.62425655463777      0.55846864441806
  H          -1.78040432383775      1.80818286224136     -5.24197052456981
  H          -0.64255216857474      4.24082961945958     -3.20258445875973
  H           0.43616005482789      4.91198394971262     -0.59176030907189
  H          -1.08018711260150      5.10588034953284      0.32681804275592
  H          -6.62167859679429      0.17436013176409      0.66050356697870
  H          -6.64315362694668      0.55988641617620     -1.93780876001174
  H          -1.91574651237424      6.13153369171237     -1.54785731811107
  H          -5.82473019928484     -1.89156139326898      1.81368711910611
  H          -6.50032309447711     -2.15238012170801     -0.93770045374705
  H           1.56950228225553      4.54017752408281     -2.87370059134051
  H           0.64387901150335      1.04435128944838      1.22520949064643
  H          -0.05134605154669      1.95593854857087      2.61458716035028
  H           3.76947765467071      3.45787085639665     -3.32778054053160
  H          -5.25964332611577     -3.97373645629938      1.22811132376606
  H           1.56651590477715      2.43557722482998     -4.74610015977261
  H           2.24432835494764      0.85702222419578     -2.82309447391024
  H           1.51618392392525      1.88829369540599     -0.45390297147713
  H          -3.28827415262650     -3.96067693514389     -1.10243475051931
  H          -2.27005310589174     -3.34557108010552      1.26869957620585
  H           0.41537217787319      0.39588462496436      4.47366080067341
  H           0.14172542982027     -1.36841883620813      4.26321839578140
  H           4.18022240585187      0.97940937474306     -4.31289333733701
  H           4.48706383741869      2.05147048400253     -1.13447830683483
  H           2.16223385158583      3.47107094524859      1.36509073040826
  H           3.00984939878288      1.91362918759843      1.51407114974940
  H          -4.58327443899986     -6.41418760702352      0.18665243774766
  H          -5.28544947801863     -5.02021549828556     -2.00560859400724
  H          -2.57578016437430     -3.54473768885249      3.74796685490282
  H          -3.52647762541107     -2.20204013431308      3.06824363068869
  H           4.10839725052652      4.29913738101790      0.48580551280694
  H          -2.30019623664667     -6.93191200724211      0.99610080317183
  H          -2.59127587027679     -6.25974282139310     -1.80144649383570
  H          -4.51802172982132     -4.74445881505920      3.79023366740597
  H           5.04435881875944      0.76453503163501      0.55358525130747
  H           2.02698733562551     -1.15012401298356      0.52003269492295
  H           5.95329828063493     -1.54834896551181      0.57936665871237
  H          -0.19982592604082     -6.94140954317826      0.16697139749310
  H           4.00833402564000     -3.23611087809745      1.53083139606540
  H           5.42437839031208     -0.50148156920489     -1.99396409647943
  H           3.61836568229846     -2.15953205694541     -1.30313642019715
  H           0.42973802303542     -4.24613258234489     -1.13502276685274
  H           0.33835577618217     -4.30475979978027      1.60906743713814
  H           5.78393680892143     -3.32738499040691     -1.35638228853302
  H           2.27460247650093     -6.67649213777641     -0.92236900127228
  H           0.37599959087681     -6.74459847414499     -2.41179471955597
  H          -1.02529110182650     -5.94119770470552      2.88321771694829
  H           0.60979806570989     -5.78372145147854      3.56925877383499
  H           3.64262991565063     -5.20161639918178      0.51294893779634
  H           3.65395469378983     -4.76678292717645     -1.80298538320339
  H           1.10286306377349     -7.74837042199150      2.51010163684109
  H          -0.87837278547943     -1.98250574320059      2.05077245496669
  H           1.55876707897048     -1.17581149566402     -2.00707749252815
  H          -2.31734251192009     -2.37643789740088     -3.41567191976120
  H           2.61087432821706     -2.81356921614968     -3.55528574747833
  H          -1.25237010807869     -4.03695895337012     -4.91166260332064
  H           1.20240824097498     -4.24084148342019     -4.96384133064860
  H          -2.15903206782222     -0.69992866005314     -1.75124025151122
  H          -0.96425621589933      0.54149744080745     -0.31934251951713
