147
Coordinates from ORCA-job job E -274.680449447320
  C          -3.30797165012624      2.53873309582196     -1.75329854180004
  O          -3.05115938703833      1.36758182812548     -1.01000862911530
  C          -2.92294494635162      2.27354511145870     -3.22165002628128
  O          -2.62086512754673      3.65744461810461     -1.27612784485719
  C          -4.06915427917327      0.94780478076126     -0.11472902575042
  O          -3.53849959741995      1.11959022849375     -3.72791277948167
  C          -1.40963721370567      2.07071190888621     -3.31963905461595
  C          -1.20155463047810      3.51004220269525     -1.22461065224454
  C          -5.08943771559949      0.09505275107948     -0.88753041128499
  C          -3.42287439839810      0.10569282062080      0.99306061077382
  O          -0.96655288219288      2.01505801772829     -4.64692436950146
  C          -0.61312532467805      3.17254482761565     -2.60799666866383
  C          -0.67817056071596      4.84894507039124     -0.68595230733545
  C          -6.06000925789402     -0.58964230817059      0.08173597535774
  O          -5.77548546560103      0.88193158655317     -1.83539793411566
  O          -4.38208109824782     -0.52033820403528      1.81557103866639
  C          -2.52653910472747      1.00249997019081      1.90498075378530
  O           0.69255433234538      2.61994452008953     -2.51787509954008
  O          -0.94882474803613      5.91224986004783     -1.56141273509272
  C          -5.21852670594985     -1.39508494564396      1.08675189723857
  O          -6.96987257785004     -1.39192283515237     -0.61594480024356
  O          -1.34704798176477      1.28583394829258      1.05927170184298
  O          -3.04652952804131      2.00984251347964      2.44251990817982
  C           1.81381993650982      3.45787621331986     -2.47583251924272
  O          -4.48822166761367     -2.32204594374556      0.33734141592716
  C          -0.23442487924235      1.19531606761275      1.90875273938141
  C           2.91296764868414      2.74814442688183     -3.29215421665345
  O           2.26439665727552      3.69669133059152     -1.16576437596676
  C          -4.33876812214541     -3.65913913119205      0.79425958141661
  C          -0.58337433724425     -0.10376326587796      2.64461304974189
  O           2.52532753572371      2.54658968130680     -4.62152549345231
  C           3.23365017981666      1.41290696688758     -2.60120388252277
  C           2.51237907529444      2.50472117813436     -0.42770824920691
  C          -4.11993645453616     -4.45320594591823     -0.50077490929152
  C          -3.14795700621461     -3.82653660342764      1.75335558819402
  C           0.36141199126524     -0.36901597965763      3.83093985951438
  O          -0.41489102705081     -1.14191617206051      1.68815021301916
  O          -1.92347271399923      0.04121282750150      2.93731837761731
  O           4.33149613951455      0.75929065396121     -3.18595095967216
  C           3.56343796523826      1.62122005908568     -1.11894971969836
  C           2.96754583662117      2.93184261193279      0.97527462965359
  C          -3.67936743349683     -5.89697143733803     -0.22117102276602
  O          -5.31519141324801     -4.40086363709105     -1.23514805916447
  O          -2.82935214912176     -5.20120263258226      1.93573212826077
  C          -3.43461228729846     -3.26491205758328      3.15420302103445
  O           1.64866874141440     -0.43174647200683      3.21473496777497
  O           3.57187421615038      0.31254169914885     -0.57049956968125
  O           4.22113758730620      3.56099389801151      0.95614799505627
  C          -2.48094245178683     -5.86970974890813      0.74731008536957
  O          -3.35746797311581     -6.55642957721875     -1.41216265637733
  O          -4.62075531746284     -3.78114141723730      3.69549293028791
  C           1.98049156638468     -1.59819788858235      2.65505925505861
  C           4.46815614993174     -0.01083089598841      0.45492981919094
  O          -1.42547619733325     -5.24213507778055      0.07674510906712
  C           2.83761825569024     -1.39058335239071      1.41200866560005
  O           1.60017966399495     -2.67183180920605      3.05042919214100
  C           5.31369923011116     -1.20740076279362     -0.02601956131861
  O           3.77525932137666     -0.35856943887069      1.63626611913716
  C          -0.10659727606230     -5.75879547139996      0.21132938319604
  C           3.46654384391732     -2.68994811040762      0.88140078981579
  O           6.08038779772234     -0.89372487161323     -1.15371476650622
  C           4.35772093637832     -2.36870471823243     -0.33197688906042
  C           0.62187555169059     -5.19369898781833     -1.02915378361272
  C           0.57718479905613     -5.32768170710712      1.52273165865912
  O           2.39144724852699     -3.51030501012177      0.45852896682051
  O           5.06177920538993     -3.52667651449365     -0.72199042045781
  C           2.13287190346808     -5.43752347520259     -0.93793698460967
  O           0.04962399174112     -5.69016012552553     -2.20648403767518
  O           1.98082558046209     -5.56554743877525      1.46439885830118
  C           0.08942287478323     -6.11918917456740      2.74518773534981
  C           2.62505384025561     -4.89641520750258      0.41779595873775
  O           2.77291718604126     -4.81302303787382     -2.01372440733527
  O           0.19823959278577     -7.50648624534844      2.55583462311236
  C          -0.99158494565188     -0.88554324390320     -1.78619274734516
  O          -0.16594359711886     -0.62613874211917     -0.84851655515516
  C          -0.61135724175885     -1.63289292764859     -2.92161896098173
  C           0.67288626353344     -2.22001687047395     -3.00528746734125
  C          -1.55508514068161     -1.86596364976426     -3.94826595887388
  C           0.98132914245080     -3.04635415953716     -4.06030038263668
  C          -1.22388705224461     -2.68707217220827     -5.00116575376488
  C           0.03367401452283     -3.28594999003095     -5.05194129782060
  H          -4.36782358608149      2.81058823810301     -1.68241517817324
  H          -3.20786969215544      3.16161888938852     -3.80711011646578
  H          -4.55137057501209      1.81097354952574      0.36114881206196
  H          -4.46144390092024      1.09272568425197     -3.42149691998390
  H          -1.16835503215318      1.12399969547077     -2.80572968658169
  H          -0.95513972676041      2.70878209872552     -0.51914655390274
  H          -4.53108940574623     -0.69464993158910     -1.41546298668493
  H          -2.78938039392859     -0.66670924044466      0.53678923119170
  H          -1.59859591445673      1.49149510943699     -5.16463519540722
  H          -0.59979400178505      4.07838704596579     -3.22929164183793
  H           0.40561931907237      4.80493359205093     -0.57297208938197
  H          -1.13781738775744      5.01525529788527      0.29570655927285
  H          -6.63927161136584      0.16291210768992      0.62563297178089
  H          -6.63783503909917      0.45967063864405     -1.99706906528306
  H          -1.90918501486968      6.01738140092970     -1.62398609380661
  H          -5.85072115311121     -1.88230841682027      1.83862788390631
  H          -6.52528805381661     -2.20868723139956     -0.90644239492181
  H           1.59233929158515      4.44862678739004     -2.89271342605867
  H           0.67989309674998      1.13658053943579      1.32541800625602
  H          -0.20710724595820      2.03123099219328      2.61483221542850
  H           3.80939607397534      3.37588520014682     -3.31625416521034
  H          -5.25858103779437     -3.99450969288010      1.28966207837984
  H           1.60243587267688      2.24168939413253     -4.64595130699881
  H           2.33847368183536      0.77462616621643     -2.65656743884330
  H           1.57871255140237      1.93208652450457     -0.35381016850179
  H          -3.31135795049053     -3.95112107976188     -1.05676471804688
  H          -2.28191001220667     -3.30853403745141      1.31722390351692
  H           0.36155910857710      0.46211650235335      4.53081495878350
  H           0.11664744947146     -1.30826847588609      4.33272008990309
  H           4.23679917565523      0.79897736747724     -4.15137557856781
  H           4.55291229991003      2.08495789200983     -1.02483376342367
  H           2.20034413586223      3.58827003681964      1.40261471604789
  H           3.06877164409260      2.04906416787990      1.61132286317341
  H          -4.50267446734745     -6.45294601730421      0.23708629157537
  H          -5.26687374350629     -5.05473956682316     -1.95205150765636
  H          -2.57801505677731     -3.50024188471598      3.79873130119338
  H          -3.54948118778928     -2.17885234917436      3.10780383556287
  H           4.13920553949366      4.40296327479007      0.48428324333217
  H          -2.21264638959722     -6.88794489052379      1.05649949091683
  H          -2.52066850695998     -6.19633697822284     -1.75431879940934
  H          -4.50145125786542     -4.73057244465031      3.85285224856029
  H           5.10735477183400      0.83630400006286      0.72718893007805
  H           2.11004618602293     -1.06411609075458      0.64798793242177
  H           6.01513006688596     -1.49331383583280      0.76425700133748
  H          -0.13476438461377     -6.85720874164526      0.17268279578845
  H           4.04940114064686     -3.18470752228227      1.66777692409909
  H           5.52362054544107     -0.44920843010531     -1.82096817687858
  H           3.69433322290464     -2.05204007487377     -1.15142399346477
  H           0.44881907303175     -4.11271847676127     -1.04276631451815
  H           0.40067147382534     -4.25752340710092      1.68716482210816
  H           5.84845019660815     -3.23810847145829     -1.21676711967852
  H           2.32873142231654     -6.52366443512831     -0.95065333270718
  H           0.43377699780880     -6.55412671693471     -2.41956492532015
  H          -0.96315608252811     -5.90719532077988      2.93220193600857
  H           0.67924700263152     -5.78813777300464      3.60718271812743
  H           3.69082565305897     -5.11872519210473      0.54926833229257
  H           3.68686422535709     -4.59215958645779     -1.75878050223807
  H           1.13805115964786     -7.73286192509043      2.49835272207804
  H          -0.82688345557715     -1.94563162777658      2.03954567861822
  H           1.38426490206941     -2.03321440025747     -2.21590234091071
  H          -2.51786672061781     -1.38079059561587     -3.89505563234518
  H           1.94517237680909     -3.52646303094077     -4.09814311805034
  H          -1.93912468358624     -2.87329166318359     -5.78599124032571
  H           0.27773831016121     -3.94252707060398     -5.87227429589806
  H          -2.03255542497487     -0.57451240185929     -1.69044966876510
  H          -0.55298180762094     -0.24430304795780     -0.02218715171931
