147
 xtb: 6.7.1 (edcfbbe)
C           -3.36420186224016        2.53994862731607       -1.70962747248414
O           -3.28169245731869        1.27156888708255       -1.09310777792327
C           -2.75878483411561        2.47281270083572       -3.12460710785859
O           -2.72017039938644        3.51684058410960       -0.94334408191816
C           -4.47048421364985        0.75028342092699       -0.53091778534565
O           -3.34498159369646        1.48199204399145       -3.92328591829870
C           -1.26049643865227        2.16392984094248       -3.01859966335240
C           -1.33205232268291        3.26487290124343       -0.72999311644456
C           -5.22064226933338       -0.09424386022076       -1.57893840937182
C           -4.09949170110274       -0.17075659030894        0.64725003576625
O           -0.61244745173606        2.25383907531665       -4.26381677893738
C           -0.57399465519941        3.14733792250973       -2.06491501769901
C           -0.78931093708939        4.43242747412882        0.10929578409680
C           -6.36664066054978       -0.89975139771309       -0.93941369029955
O           -5.72341244439297        0.76171070680622       -2.58126084825252
O           -5.24934144392133       -0.78351740953913        1.18285271480553
C           -3.36068290823731        0.50810353854516        1.79179431772232
O            0.74452465087588        2.65787916594883       -1.85105382255224
O           -0.82796094819838        5.65049050489372       -0.58701267547299
C           -5.82880631598954       -1.69272825939418        0.26598997546675
O           -6.97802003668726       -1.71850279556564       -1.89294876530987
O           -2.11698595124794        0.80438959592621        1.42606120655380
O           -3.81822475943279        0.71478673762883        2.88588182336215
C            1.82549892675795        3.57325206368957       -1.86468302370074
O           -4.91408182366472       -2.62402254756220       -0.22258298961756
C           -1.11974357154174        0.91949893348296        2.43591060818143
C            2.74764422597510        3.24600684441115       -3.05270517511174
O            2.53237101309970        3.54190391438774       -0.66671266197500
C           -4.71345543416668       -3.85559007500089        0.46525540336192
C           -0.61404987257436       -0.49667542564875        2.74410290894061
O            2.10624607152557        3.36033401487597       -4.29182374302696
C            3.31502563112372        1.83717180549314       -2.84292553613271
C            3.19203775055616        2.31651420444320       -0.32140240035648
C           -4.17877519040179       -4.79412436448191       -0.62600112285746
C           -3.73491822572096       -3.72262962754034        1.65215048316877
C            0.80583045282853       -0.52267847193553        3.31717125672997
O           -0.89496628445643       -1.40043004698856        1.77418700871882
O           -1.49126329665527       -1.38815735025321        3.29188798536555
O            4.25582166583230        1.50713172236982       -3.83374727724793
C            4.00956341338956        1.70641458320935       -1.47957247619906
C            4.08374482856346        2.69678405331185        0.87594104985523
C           -3.62339148749777       -6.09596135757856       -0.03685089801460
O           -5.22029339435078       -5.03755694684117       -1.53726362584065
O           -3.19694913457766       -4.98064624387218        2.05106401334877
C           -4.41872916178186       -3.19154208539185        2.92212335729737
O            1.69102401627294       -0.46605412943261        2.20376259595200
O            4.18617749221046        0.29777898462981       -1.34580121905993
O            5.17888538541651        3.49256286895642        0.50410794436880
C           -2.58424224675032       -5.71992061574046        1.03270836453253
O           -3.08963204208751       -6.91352052443910       -1.04028781450342
O           -5.48370735236474       -4.01395866604919        3.31924233870493
C            2.59870205583204       -1.41631915718091        2.06461202281037
C            5.05403665774090       -0.20319837891343       -0.37994539373394
O           -1.55720726104701       -4.99597574474879        0.40857092872181
C            3.28873406157492       -1.28871757154830        0.71263413168137
O            2.83362421019808       -2.27097082474105        2.88582722031757
C            5.62617993483892       -1.52662155484546       -0.93259938900794
O            4.40918027348881       -0.43133912456942        0.86103163102309
C           -0.22300683590767       -5.45269157847708        0.54514244091142
C            3.70146979766251       -2.67444201591381        0.20751909294815
O            6.30852952826915       -1.33544848110614       -2.13817013378729
C            4.47819478542232       -2.53560900577542       -1.10652003566738
C            0.42740923521327       -5.28932242569764       -0.83241503307853
C            0.55284169033300       -4.65084242365625        1.60237902427572
O            2.52326934333806       -3.43519707720543       -0.01199079877002
O            4.95076069668342       -3.80877014676967       -1.48397625018536
C            1.92171372477711       -5.62284552460379       -0.76421933933368
O           -0.25833689495082       -6.12139934820135       -1.73549488490180
O            1.92930793061617       -5.01255244162506        1.58313237537544
C            0.04902373131060       -4.93213325163105        3.02247514268115
C            2.56496356458978       -4.78718714546941        0.35441618684808
O            2.49882242983284       -5.36776861343348       -2.01781359711822
O            0.10184024492256       -6.29467739581891        3.34705727970814
C           -0.36031570112906       -0.60991114138186       -0.61153116026075
O            0.77012674946646        0.22155008889451       -0.51631955986611
C           -0.27461389061668       -1.61319786419653       -1.74312003056747
C            0.89815717684574       -1.77728516942295       -2.46527327918562
C           -1.41706642002561       -2.32257995257014       -2.09306944695822
C            0.92739897043992       -2.64578726584881       -3.54186743598688
C           -1.38668977849883       -3.18278836210501       -3.17358058333075
C           -0.21183061187897       -3.35169920306451       -3.89270946305929
H           -4.40990211832966        2.86530215797310       -1.77065620645988
H           -2.89028994743679        3.46455611748781       -3.58596276822221
H           -5.11849381043983        1.55754764869592       -0.16981969222766
H           -4.26789517999443        1.33470675021296       -3.65306093969685
H           -1.16399814874702        1.14239500638593       -2.62340698926014
H           -1.22288739004827        2.33239806992614       -0.16655169678944
H           -4.49964102077895       -0.79885642228915       -2.02036794032821
H           -3.41540615568773       -0.94532111720801        0.26553862037820
H           -1.12787793216931        1.75586145865060       -4.91568634848313
H           -0.53410138303464        4.13149803442192       -2.54628826921335
H            0.26067364966358        4.24471628770330        0.34652872840344
H           -1.36603697597340        4.48974578238205        1.03819023414225
H           -7.13330556422697       -0.20499709718889       -0.57844277801810
H           -6.42708782940963        0.28434037509070       -3.05164129130751
H           -1.75119908659571        5.90427052811563       -0.72120756023568
H           -6.64353780441995       -2.17748009035579        0.81924135176323
H           -6.45470290694512       -2.53046588065563       -2.00534387457384
H            1.44788538770852        4.59934344371220       -1.94794766454503
H           -0.29770268689071        1.47611868801481        2.00070828857641
H           -1.52032268167638        1.38125266050109        3.33155579667930
H            3.56878664244908        3.96967706672424       -3.06801366860899
H           -5.67412866712828       -4.23389289089115        0.83566799317794
H            1.24532355743595        2.89370748433431       -4.27699654261458
H            2.48025086428453        1.11846985280196       -2.86421315107041
H            2.45837555339620        1.57912536076803        0.01570183974863
H           -3.34763404625537       -4.27838447227399       -1.13245752474886
H           -2.90990133326398       -3.05048539293969        1.37484972850870
H            0.96677289906290        0.33999667095472        3.95057493107951
H            0.97194494784740       -1.44854454953848        3.87869524012161
H            3.91463603047890        1.81232713416891       -4.68936334645174
H            4.99200972321338        2.19654178067833       -1.52998644753773
H            3.45515330619909        3.21766960393382        1.60624724504064
H            4.48795103586405        1.79599614370495        1.33805042993828
H           -4.43184976719122       -6.66507073068369        0.43308232171114
H           -5.00693278849510       -5.84684349055141       -2.02880229460109
H           -3.65418441804535       -3.11683152946310        3.70565469943517
H           -4.82906908545282       -2.19626653613641        2.75372737734053
H            4.84894098495242        4.35523645505975        0.21103338621201
H           -2.19316461438453       -6.61625965206493        1.53002755027386
H           -2.21258550545679       -6.57634747738436       -1.31331031379380
H           -5.12615171934465       -4.88139570366024        3.55145196941324
H            5.86608020509894        0.50105326966418       -0.15514968333856
H            2.57140515787875       -0.84177104447979        0.01589124422159
H            6.35363687090271       -1.92398515264599       -0.21710230733092
H           -0.21428657952715       -6.51340103641671        0.82761028992729
H            4.32993194438996       -3.15719835140265        0.96697662272699
H            5.77977671724815       -0.75825170687240       -2.71555104001356
H            3.78968244149672       -2.15601623987227       -1.87393389691233
H            0.32709060878451       -4.23740707308165       -1.13404411578781
H            0.43826859425113       -3.57930195019288        1.38911950122475
H            5.66322627629018       -3.68278236778046       -2.13312727237367
H            2.03918540680822       -6.68641107128738       -0.50233533896463
H            0.30415851278928       -6.24028281939679       -2.51761033572630
H           -0.99696683158387       -4.62521639876319        3.10021251194783
H            0.64627340554318       -4.33619286695834        3.72141673713500
H            3.60055214490618       -5.11245974793998        0.51462537292326
H            3.37938066009105       -4.97069367837568       -1.90671384597626
H            1.03586259489882       -6.56387425383792        3.36357087275798
H           -0.44218329556439       -1.15854204808548        0.35448124418557
H            1.77418241893376       -1.20114158827155       -2.19781464047894
H           -2.32628748084262       -2.18530311601984       -1.51809774588142
H            1.83509611492012       -2.76838295104945       -4.10865095417448
H           -2.27666679878905       -3.71945334348074       -3.45300735777391
H           -0.18819909472114       -4.03106985838819       -4.72579301105840
H           -1.29427772195144       -0.02709597463029       -0.69448431808439
H            0.62174211310460        1.08406435056306       -0.96990855249707
