147
Coordinates from ORCA-job job E -274.679793834110
  C          -3.38348376925779      2.80348216125198     -1.62078313339863
  O          -3.14667072532375      1.47726732155771     -1.20300740470676
  C          -2.93248336861749      2.93508641496176     -3.08692624815813
  O          -2.71934735587755      3.75496824359728     -0.83858209567832
  C          -4.16200970422504      0.86834944045370     -0.42248266714501
  O          -3.58280123126391      2.02695544354146     -3.93548661493760
  C          -1.42880390901622      2.64448774942583     -3.14941345108499
  C          -1.31142736924721      3.54190080360663     -0.74604002653285
  C          -5.12705081844543      0.12761451804038     -1.36389595905300
  C          -3.57507046392111     -0.16681382247164      0.54235765351772
  O          -0.87055379594493      2.89835227806140     -4.41246717117105
  C          -0.64394071812811      3.48115422255925     -2.13131329794179
  C          -0.74581018875732      4.70158342333893      0.08502239487329
  C          -6.16590756891205     -0.67106651850868     -0.56452657275937
  O          -5.75355598532692      1.04672039125359     -2.23093444039813
  O          -4.61668273350665     -0.75752850260777      1.29054996637007
  C          -2.56011709289444      0.41547986588344      1.57427933185147
  O           0.64179337923449      2.87199676926995     -2.03303169989360
  O          -0.90532361644263      5.94111205048504     -0.55301446220523
  C          -5.46333735152716     -1.55358294691639      0.48547309674995
  O          -6.98223139237816     -1.41510934801547     -1.42281089768144
  O          -1.40681174104905      0.82767835195783      0.76304623315227
  O          -2.96377177382763      1.27921489179955      2.39430404685403
  C           1.78376861968772      3.70592742414415     -2.00275224549785
  O          -4.75894383999790     -2.55620066819136     -0.18309927088029
  C          -0.25952662626757      0.40100298224355      1.43575646928263
  C           2.75858482149121      3.24202896758496     -3.09834391606849
  O           2.40447841968528      3.70632712395015     -0.75239118086697
  C          -4.54730815007625     -3.80390019743230      0.47952863423984
  C          -0.68626525029668     -1.00569181191244      1.88049716234573
  O           2.18157434881272      3.27108804518352     -4.37405936761098
  C           3.27486523943522      1.83558495500506     -2.75516010504368
  C           2.92275611377482      2.45747478346884     -0.29476495781627
  C          -3.79629272930283     -4.64374047694787     -0.56640567994951
  C          -3.74277033979767     -3.69022462379593      1.79318614043752
  C           0.18107923355702     -1.57267941872835      3.02318885209981
  O          -0.57815875585333     -1.82799600436259      0.74056252544252
  O          -2.00827257343286     -0.82971416817985      2.25904435998364
  O           4.29846326644238      1.43847927197165     -3.63245721396500
  C           3.84336179312775      1.77735301291459     -1.32944902262810
  C           3.66950005078248      2.80279543215598      1.00772684487876
  C          -3.32283626353225     -5.96750767647514      0.04159452384636
  O          -4.61957047008240     -4.86110456553427     -1.68206808181001
  O          -3.16250295851881     -4.93386699342689      2.19682637700495
  C          -4.60132031743808     -3.27215422636829      3.00354024562511
  O           1.42519229213588     -1.92597208802529      2.41943700741705
  O           4.00611490987746      0.38340667743824     -1.08588939970953
  O           4.84460236324509      3.52951858208981      0.76708242088513
  C          -2.41751189224468     -5.62353529302046      1.23760331491402
  O          -2.71572087201129     -6.77927073175329     -0.91843377230568
  O          -5.84149053008865     -3.92589544451648      3.05424119421152
  C           2.32954170075243     -0.96327006299141      2.26397408047414
  C           4.90994241511520     -0.04492296325888     -0.11358939490344
  O          -1.31087624470195     -4.85138728577549      0.82076493380342
  C           3.20250299730921     -1.16717851843672      1.03519062404823
  O           2.38604945036545      0.03176477671282      2.94286119803831
  C           5.53424437030626     -1.36770772531282     -0.59848144203555
  O           4.28337599399631     -0.26808841175099      1.13661639608540
  C          -0.04105229711509     -5.49867414635674      0.75040338276988
  C           3.68306415062869     -2.58260265611602      0.66575882408301
  O           6.17375022596887     -1.23636734263620     -1.83439132570791
  C           4.44208929936937     -2.45008856229854     -0.67326562984473
  C           0.57793576462613     -5.12134074787868     -0.60145526850349
  C           0.82599903400652     -5.02822142914128      1.93217690106734
  O           2.55111146669831     -3.40839323979265      0.48102331257684
  O           4.99786111054907     -3.69459191143035     -1.03150578833067
  C           2.06897752324063     -5.47169191925487     -0.63330241560497
  O          -0.13103545945872     -5.78794770142617     -1.61954381005090
  O           2.20637283140481     -5.33096655694554      1.75646580076072
  C           0.37964555272392     -5.69174054003078      3.24229320240551
  C           2.74414463299209     -4.80035480243790      0.57418401760350
  O           2.59314733347582     -5.05384286138686     -1.86268898537064
  O           0.37447272370934     -7.09229445250484      3.15826638571353
  C          -0.53459399955061     -0.53007012199630     -1.90102889535951
  O           0.56818013263212      0.11113676335537     -1.81812611762494
  C          -0.60495087633553     -1.79115303244517     -2.51982430695460
  C           0.54814926231910     -2.41079186839464     -3.06010373411919
  C          -1.86650482258782     -2.40641073734353     -2.68940869053105
  C           0.42868206908028     -3.58326136268654     -3.76673585943947
  C          -1.96933109475477     -3.57673382686375     -3.40493642473557
  C          -0.82645580609334     -4.16452600848466     -3.94245811168040
  H          -4.44730285182829      3.05315716423865     -1.52768586756802
  H          -3.12954756620216      3.96910507788399     -3.40880735313490
  H          -4.68875353271194      1.61897161960305      0.17886019471792
  H          -4.43767188946572      1.76694560425936     -3.54976665192935
  H          -1.32062517194377      1.58035506408884     -2.90536803891997
  H          -1.13725560696705      2.60278035406762     -0.21024485719550
  H          -4.52994872177565     -0.57801895926914     -1.96258584457063
  H          -3.04312135539596     -0.94351078874028     -0.02348506049561
  H          -1.44619767067471      2.51139007784371     -5.09121189240902
  H          -0.54850679864195      4.50045801459457     -2.52590610621115
  H           0.32793113971270      4.55705591460256      0.22233374485172
  H          -1.23654829332718      4.68745039633975      1.06479496252541
  H          -6.81590292567381      0.03137257383798     -0.03124340802369
  H          -6.56277120154565      0.62630439210576     -2.57163542215550
  H          -1.85121308297834      6.14045867607711     -0.60487438274260
  H          -6.20509421579931     -1.98010562102064      1.17280744573697
  H          -6.50426749398391     -2.21456006317215     -1.70151510759810
  H           1.49509803760100      4.74988840448818     -2.17417183112071
  H           0.57968600563935      0.39438964849312      0.74433303070861
  H          -0.04741389221079      1.03138163664941      2.30754281688636
  H           3.60812043723860      3.93385523932137     -3.12388074800487
  H          -5.52400287128467     -4.25984247530531      0.69694420554533
  H           1.24622145826786      2.99907712392892     -4.33733419225811
  H           2.43951460525080      1.12453512667383     -2.81672513038672
  H           2.09264761270414      1.78198172905608     -0.04792364076128
  H          -2.90740677187966     -4.06998573052044     -0.87293281989315
  H          -2.95995560395260     -2.93274350960075      1.66789611352722
  H           0.31084316711948     -0.82886644182134      3.81053716943265
  H          -0.26517586695265     -2.48200128306290      3.42466812677326
  H           4.02833601641051      1.66271334133084     -4.53759328958412
  H           4.82296711349108      2.27353021271113     -1.31235243308888
  H           2.97905942053214      3.36297273565965      1.64825317566788
  H           3.95477888690686      1.88866219111512      1.52951174268158
  H          -4.18341617085100     -6.53103798182385      0.41926708061004
  H          -4.44574683603274     -5.76161093112384     -2.00722181600171
  H          -4.00856409989989     -3.47722400420739      3.90112864671126
  H          -4.78812668713232     -2.19886208568995      2.96265797273535
  H           4.60524132243583      4.41340526928269      0.45185035914114
  H          -2.08294604276623     -6.53951712364018      1.74125287109723
  H          -1.85955168444296     -6.39693198322430     -1.20151943904837
  H          -5.70032837207281     -4.84501907367092      3.32706362731735
  H           5.68389017058898      0.70663090095066      0.08237574353600
  H           2.53898487199073     -0.85031653195593      0.20926410355547
  H           6.29841333720071     -1.67465202097205      0.12390071357549
  H          -0.16726107823702     -6.58712218690695      0.79734759690127
  H           4.34239008926336     -2.97944575953087      1.44712071798485
  H           5.62879464163716     -0.69162193070341     -2.42733651501253
  H           3.70577336151276     -2.14715398417691     -1.43325023918516
  H           0.47994941621251     -4.03361388524743     -0.73126937361840
  H           0.71805810257224     -3.94480811037038      2.01216337088390
  H           5.73940161699924     -3.52280414697112     -1.63824696841209
  H           2.19048777337618     -6.56124625740836     -0.51608853136726
  H           0.49463338178735     -6.01569417161901     -2.32472641625388
  H          -0.64615699925757     -5.38785856696481      3.46438034655355
  H           1.03696454940906     -5.34759779697765      4.04853636579839
  H           3.81068068211299     -5.05135190982067      0.60755218407812
  H           3.51902611843187     -4.77404749067496     -1.74338388973304
  H           1.28839825303962     -7.39788143773889      3.05910742176972
  H          -0.89789219168487     -2.72805182585393      0.93692972377898
  H           1.50627351474030     -1.93813086541282     -2.91658082097405
  H          -2.74008402802294     -1.93844032213353     -2.26223198136673
  H           1.30681456363799     -4.05543975333247     -4.17616591174783
  H          -2.93539693914227     -4.03646138478577     -3.54112088453331
  H          -0.92035546817011     -5.07781630918936     -4.50821107636040
  H          -1.45402881456360     -0.07763146721765     -1.52900567986077
  H           0.49053808051891      1.06372786595912     -1.56343525127359
