147
Coordinates from ORCA-job job E -274.682009652660
  C          -3.32834493221346      2.55916129082373     -1.65485521764166
  O          -3.07996250217237      1.45012101012676     -0.81727734226514
  C          -2.91146569177211      2.19182705770376     -3.09243994458222
  O          -2.64285925575826      3.71002525186663     -1.25216119065021
  C          -4.15477212281405      1.02226170605668      0.00787567413203
  O          -3.56080759007139      1.04618984561591     -3.57166811204632
  C          -1.40888434761248      1.91222509319964     -3.09629031324508
  C          -1.22764738199078      3.55086710811832     -1.15595507708127
  C          -5.10409151989070      0.15345446224483     -0.83510300862605
  C          -3.54532569128158      0.19893315129768      1.14994142551635
  O          -0.91093394828941      1.67738435919404     -4.38740475185618
  C          -0.61950506622971      3.07894354147446     -2.49054612840614
  C          -0.68005627095594      4.91592064349433     -0.71670094541504
  C          -6.08110358114640     -0.61291977784883      0.05848193464194
  O          -5.79350565386235      0.93882998135125     -1.78377933084708
  O          -4.49092358086001     -0.56267649382259      1.87064884053366
  C          -2.87347837102414      1.13899938322626      2.22174224392339
  O           0.68771566080620      2.55150814049585     -2.33370625420208
  O          -0.84219655014003      5.90113641034680     -1.70300919058707
  C          -5.25107850514306     -1.42920801306993      1.06039774601021
  O          -6.92668652395538     -1.41609422329654     -0.71620346431358
  O          -1.81623067030742      1.89053188524112      1.57526716048187
  O          -3.65791634733193      1.85673516325524      2.88955574533537
  C           1.78743198246787      3.42390069726590     -2.33600003157097
  O          -4.43942220649251     -2.29634670411553      0.31796663368035
  C          -0.69329171721885      1.07734721170111      1.39324752813107
  C           2.84525805894377      2.81282458220187     -3.27464509900042
  O           2.31523682612610      3.59837679224634     -1.04826966339172
  C          -4.34020932475238     -3.66254717359340      0.70222837900647
  C          -0.83966996660728     -0.03484498730864      2.46450628148576
  O           2.34894284916656      2.64744779796152     -4.57369548174320
  C           3.29855833599771      1.46910995937272     -2.68648147345741
  C           2.67987818877637      2.38077952595717     -0.39943136971571
  C          -3.92366393612043     -4.37236080735901     -0.59321279694579
  C          -3.31018596412975     -3.88106330429654      1.82393909353501
  C           0.34327780056519     -0.00134056768724      3.45892732901732
  O          -0.82704369533839     -1.29320086734763      1.79320494651501
  O          -2.04382695966542      0.19369253133658      3.08373511351346
  O           4.38127031744957      0.92517491651671     -3.39577892587798
  C           3.72870157388133      1.60699777077867     -1.22010286018771
  C           3.19799755627097      2.78666084157466      0.98937213572379
  C          -3.50473718749322     -5.82714714661302     -0.33599807947864
  O          -4.99882264850189     -4.28308233501145     -1.49097425482007
  O          -2.98247276679483     -5.26006950739569      1.96479579808245
  C          -3.82594355605585     -3.41885929881785      3.19537275865145
  O           1.53121465715792     -0.12013698719470      2.68067644171181
  O           3.87822223497354      0.26036487123703     -0.79565216255826
  O           4.43662411562477      3.44288317253129      0.92588018331840
  C          -2.45936580609378     -5.83619358665060      0.79618808042278
  O          -2.99392106972252     -6.41219114348267     -1.50050082207849
  O          -5.08766010897335     -3.95525703401764      3.49607117513101
  C           1.98078468489408     -1.34373474195836      2.41559400841489
  C           4.68252848196155     -0.04672076106977      0.30327752280481
  O          -1.34823680397659     -5.12797761216363      0.32468723202751
  C           2.93428732284988     -1.29515365793200      1.22847220633889
  O           1.63142750002122     -2.34393137643047      2.98907854176721
  C           5.48111706825323     -1.31336042086872     -0.06423663365906
  O           3.90836481700982     -0.29865163950345      1.46145747600943
  C          -0.05074961460132     -5.69753934260549      0.43652654131291
  C           3.54759172804512     -2.65739831379232      0.87118051438181
  O           6.30221212529007     -1.11156399590091     -1.17870717828606
  C           4.49008335420833     -2.45842960676099     -0.33023403870914
  C           0.66154364726129     -5.21846162402178     -0.84374329663280
  C           0.66362971122955     -5.21910068027294      1.71200569749686
  O           2.46739334614878     -3.49359657774812      0.50133482129412
  O           5.16829231305884     -3.66087130424149     -0.61595414611954
  C           2.16607862907033     -5.48934885664738     -0.77431990049856
  O           0.02919516537407     -5.75413501873271     -1.97674696396814
  O           2.06212426499335     -5.47930966141071      1.64470384632010
  C           0.14631683192345     -5.94777556880082      2.95974922721580
  C           2.69061848571374     -4.88236781604282      0.54408829219017
  O           2.78349023538692     -4.91234620507846     -1.88969104280115
  O           0.28782599970974     -7.34111628262537      2.85380808084168
  C          -0.93024583122391     -1.65555126078242     -1.54612069783017
  O          -0.09291179735636     -1.86514071245950     -0.61016467784895
  C          -0.63296405001260     -1.94402227381903     -2.89219970937121
  C           0.61394087465281     -2.50738762760059     -3.25898179565587
  C          -1.60544724605271     -1.69030684533688     -3.88867624661737
  C           0.85889246431176     -2.82584300665154     -4.57359291643486
  C          -1.33822927455108     -2.01617458737590     -5.19803433863767
  C          -0.11426146053224     -2.58753962918056     -5.54127768742171
  H          -4.38796177984176      2.83632865451351     -1.61986660190097
  H          -3.12737687817391      3.06106453604206     -3.73340694310098
  H          -4.68456899337999      1.87917492930920      0.44357974485810
  H          -4.49287029161268      1.06956222754585     -3.29115385334795
  H          -1.23147700679333      1.03097434949079     -2.46027072979246
  H          -1.00852978800197      2.81760812151643     -0.37547002124365
  H          -4.48543764582762     -0.58621212719703     -1.36850730357641
  H          -2.79625020849709     -0.47623910001786      0.71877959868969
  H          -1.59822181252263      1.22557938830423     -4.90137493325865
  H          -0.60596278203616      3.91879362545492     -3.19854424733191
  H           0.39085434651108      4.83485474662919     -0.52456270641560
  H          -1.19029158888443      5.19211713346249      0.21313673442323
  H          -6.71228095256692      0.08851212391065      0.61273614102658
  H          -6.64172886329345      0.49622277575538     -1.96693155803363
  H          -1.78916925916160      6.06576496742433     -1.81804643448026
  H          -5.90194987588502     -1.97586522776753      1.75299587750052
  H          -6.42842211450151     -2.18697484105184     -1.04249888235480
  H           1.50292761999935      4.42641096779182     -2.67808041593900
  H          -0.68301066024954      0.64833971393269      0.38366942630786
  H           0.20183289529526      1.68046049206294      1.55802497459580
  H           3.70047465565874      3.49187027063797     -3.34824082525640
  H          -5.32036281536070     -4.03293505924728      1.02812474501679
  H           1.46108918169666      2.25099259026913     -4.53226775313487
  H           2.44076657924860      0.77847869322206     -2.71395370431839
  H           1.78777738642733      1.75109685282342     -0.28302122817162
  H          -3.05011059220511     -3.83500868261837     -0.99714532129393
  H          -2.40329768215698     -3.31925770473940      1.56776092651327
  H           0.36614301916983      0.95786695577522      3.97123620139718
  H           0.26290021529185     -0.81998429817665      4.17845761424449
  H           4.19967450608134      1.00973481196792     -4.34574606782076
  H           4.69231639650680      2.12923342648126     -1.16451593781854
  H           2.43824907588762      3.42377238153177      1.45797621010557
  H           3.34041369220283      1.89721099950739      1.60530427626683
  H          -4.37643635388340     -6.41745107185949     -0.03828478401061
  H          -4.83995205720511     -4.89984271601849     -2.22458543840104
  H          -3.09045939550463     -3.71204726141835      3.95378046850157
  H          -3.92713542756721     -2.33059992260658      3.20697523452165
  H           4.31404854293788      4.29743186375658      0.48706413449187
  H          -2.19746712184685     -6.86489463058429      1.07313480406953
  H          -2.10788371735798     -6.04403051049847     -1.68793849448718
  H          -4.99269900950061     -4.91123409668154      3.62821596234213
  H           5.35155371657844      0.77913141931571      0.57042190754337
  H           2.30913310225910     -0.99479860116405      0.37069558917766
  H           6.13908751222910     -1.57625121243693      0.77033517491885
  H          -0.11722095818809     -6.79358710072683      0.45254540801812
  H           4.09137557326449     -3.07498766968628      1.72705988215779
  H           5.79350933895267     -0.66201607447347     -1.87589343457408
  H           3.86778893945552     -2.17589587929949     -1.19326293076038
  H           0.52120217430798     -4.13570432002788     -0.89739698770437
  H           0.50487932996280     -4.14012598464804      1.82754628310347
  H           5.98895646938215     -3.43008496953122     -1.08423203351812
  H           2.35067973171908     -6.57626855717619     -0.74208796997656
  H           0.43317917612430     -6.60156393727652     -2.21473073879187
  H          -0.92059211333653     -5.75066675075306      3.08081476168710
  H           0.68560088686495     -5.56074431254421      3.83135145857387
  H           3.75636215712362     -5.10644287454292      0.66706795072584
  H           3.72728420263100     -4.77480750562974     -1.70089562428371
  H           1.23336949981043     -7.54882909830681      2.82717371878484
  H          -0.94597535634194     -1.99665050815463      2.45189251671550
  H           1.35493031349826     -2.69763917775500     -2.49854011003152
  H          -2.54218243744817     -1.22959549130085     -3.61349899228268
  H           1.80235215493764     -3.26761629265670     -4.84922184280418
  H          -2.07820419875205     -1.83356350275142     -5.96019100543354
  H           0.08272898641004     -2.84455247414014     -6.57063178986250
  H          -1.91887284085225     -1.25161992836341     -1.31505388579448
  H          -0.39523591217492     -1.65164073367620      0.32880371119509
