13
Coordinates from ORCA-job job.QMRegion
  C           0.02812223783449     -0.34256741979335      2.92476279155577
  O          -0.57600779436648     -1.02445728441790      1.91778754585213
  H          -0.98894010292913     -0.42079454627830      1.20687689978770
  O          -1.28569608177716      0.31455659584092     -0.17669408004728
  H           0.40054399309860      0.26280160162237     -0.33712341314221
  O           1.35639148526236      0.17661360279723     -0.03279624375151
  H           1.28622053005048      0.36765472072693      1.23995584109913
  O           1.17190271449032      0.51409189990426      2.37044560263967
  H           2.00237495430799      0.18463471997151      2.76429195712930
  H           1.91301261210124      0.86198849662085     -0.44967029470777
  H          -1.83953917384026     -0.30183446208450     -0.67212259467009
  H           0.54013288762904     -1.09059809927956      3.55529303641744
  H          -0.61261092969124      0.37832467412797      3.44832177495343
