20
Coordinates from ORCA-job single_molecule_calc E -32.189807918200
  C          -0.18793021347022     -1.02158677217638     -0.65243715836912
  C          -1.53982140698024     -1.19332234644078     -0.40805045295836
  C          -2.25959962173143     -0.20155047323358      0.23609798889426
  C          -1.62481936105069      0.96434959794224      0.63241253373989
  C          -0.27510505786785      1.13767388970646      0.38434217485727
  C           0.45405065307049      0.14586763640938     -0.26070405115642
  C           1.93209160228436      0.33097362449456     -0.48866107902491
  O           2.69122797131112      0.13410126838501      0.69901902728053
  H           0.36952415140590     -1.79668516112615     -1.15883430495918
  H          -2.03121693564386     -2.10247871162972     -0.72069298226386
  H          -3.31370907762069     -0.33554269617403      0.42702497308906
  H          -2.18343225061172      1.74112243491732      1.13255778373634
  H           0.22386150245274      2.04648494255251      0.68572558752896
  H           2.13930498695126      1.36216360976295     -0.78791685167163
  H           2.28810453833094     -0.35079655446138     -1.27088807659826
  H           2.50451246101781     -0.74375567466072      1.05832272437906
  O           2.61026264461967      3.28426181209112      0.40580503749082
  O           3.11709427096160      2.73903855059831      1.61866463476695
  H           2.89539631434955      4.21398375577063      0.45497388461237
  H           3.09332023005561      1.76952267685659      1.44536280845720
