20
Coordinates from ORCA-job single_molecule_calc E -32.190157203800
  C          -0.28468495195254     -1.12920699301038     -0.73780345782240
  C          -1.65357237776641     -1.10973427350840     -0.53720489914339
  C          -2.24283728641540     -0.04776023770232      0.12858993469652
  C          -1.45828049883163      0.99667394873309      0.58763145654294
  C          -0.08991367572488      0.98266143865094      0.38093367754446
  C           0.50677350616321     -0.08301894222620     -0.28146255131204
  C           1.99746903419376     -0.09851568835453     -0.51492364003438
  O           2.75266742491325      0.42194180276042      0.56273385433723
  H           0.17337958674898     -1.96034499037337     -1.25439002200043
  H          -2.26077581893161     -1.92676246362894     -0.89718785295007
  H          -3.31042839825263     -0.03500571784286      0.28878329822159
  H          -1.91145038160537      1.82831050593228      1.10573035634625
  H           0.51891917830485      1.80148185150509      0.73517336353645
  H           2.23884809821728      0.53644153554626     -1.37352080661791
  H           2.32982945064606     -1.11916042106749     -0.74525690405665
  H           2.55497674465192     -0.09027211125174      1.35889727886158
  O           2.09819354996643      3.47459621050607      1.33709968435615
  O           3.41390587782263      3.12319897869300      0.92566828705230
  H           2.20438290748620      4.39765635234937      1.62655155675211
  H           3.32571543220028      2.16064462387402      0.73608158752069
