20
Coordinates from ORCA-job single_molecule_calc E -32.177077207480
  C          -0.19034832231473     -0.55655389592895     -0.95428657757193
  C          -1.56041393596984     -0.74554721162124     -0.96024465951538
  C          -2.33553308227357     -0.25396828089480      0.07748020904424
  C          -1.73321650464067      0.43210123187158      1.11805008878546
  C          -0.36341412924936      0.62674935074052      1.12016683188997
  C           0.42137905038230      0.13252245810709      0.08610675252255
  C           1.90738467870061      0.36147770941564      0.07387196841819
  O           2.48848298606038      0.46474531229027      1.36776527664539
  H           0.41261095026112     -0.94333418288672     -1.76314563195328
  H          -2.02498086066084     -1.28196278241047     -1.77433006334994
  H          -3.40460440620935     -0.40510885149173      0.07424189696134
  H          -2.33176077022936      0.82018662148860      1.92887802280423
  H           0.10821117448473      1.16827231174577      1.92697847815954
  H           2.13319284552962      1.33973861612992     -0.40186951997912
  H           2.40463423478270     -0.43120482597364     -0.49995618026866
  H           2.35651616894273     -0.36165502091133      1.85023487799496
  O           2.79039785299392      2.82871393639634     -0.56335040838058
  O           3.51668972792088      3.04996905018598      0.64252767390385
  H           2.93179512340211      3.66572770850583     -1.05105037141565
  H           3.37609461992098      2.21295615482566      1.13405553713581
