20
Coordinates from ORCA-job single_molecule_calc E -32.190273332830
  C          -0.26718028759670     -1.12167823398625     -0.71331445804562
  C          -1.63348203337541     -1.13811919883185     -0.49183123523751
  C          -2.24481797547577     -0.07718571373304      0.15450569122629
  C          -1.48611856090924      1.00240328630311      0.57581758428496
  C          -0.12164269943339      1.02365667611802      0.34873882055686
  C           0.49754488063496     -0.03999006009750     -0.29763543673723
  C           1.98595866905776     -0.00992501957950     -0.53970569564491
  O           2.73730083064305      0.34067382537981      0.61016572088894
  H           0.20764150927056     -1.95224093321621     -1.21553349327187
  H          -2.22061051178395     -1.98228439965425     -0.82116229305003
  H          -3.31005371169490     -0.09180479846695      0.32962432111600
  H          -1.95794952513030      1.83261877619983      1.07927327436156
  H           0.47143875066746      1.86591104408826      0.67364571551596
  H           2.22247677576946      0.75644013423150     -1.28432096989696
  H           2.32594279224270     -0.97944353505213     -0.92536572439520
  H           2.54071158249221     -0.28791806346095      1.31809080393154
  O           2.12975256658621      3.51478321847863      1.12292164533073
  O           3.45436875087337      2.99568952810698      1.14208913646907
  H           2.25694306091548      4.43198960367209      1.42256115767211
  H           3.31489253808083      2.04024927308473      0.94355963675630
