20
Coordinates from ORCA-job single_molecule_calc E -32.190415390410
  C          -0.21843795143179     -1.09018939499598     -0.64290768943444
  C          -1.57333082924165     -1.18735257452652     -0.37427274193657
  C          -2.23886419298551     -0.13202838298164      0.22538964992039
  C          -1.54725141789438      1.02322434282277      0.55215493269796
  C          -0.19529777224635      1.12396958142782      0.27795267126449
  C           0.47910290576049      0.06644183641016     -0.32185594953039
  C           1.95881984106205      0.17782678751786     -0.58667528345376
  O           2.72931351327145      0.20413171742825      0.60725745022398
  H           0.29773279092133     -1.91575488731161     -1.11174464083578
  H          -2.10888392856348     -2.08873664563958     -0.63199084786451
  H          -3.29488828698128     -0.20866701035680      0.43640167881788
  H          -2.06338630861044      1.84914131919120      1.01793687791611
  H           0.34811678709334      2.02397749782143      0.52526247025347
  H           2.17867632714626      1.12287453532693     -1.08984567491692
  H           2.29596084980705     -0.64891269307627     -1.22446315462666
  H           2.54137020126784     -0.59246221139180      1.12195947050345
  O           2.30392292941253      3.42583023904405      0.80775441576382
  O           3.31056984897616      2.77161848419797      1.57136467800028
  H           2.47981339788643      4.36602867405276      0.98705410598941
  H           3.22005869718433      1.83286419462335      1.28539178307876
