20
Coordinates from ORCA-job single_molecule_calc E -32.187237207910
  C          -0.20490590831606     -0.87759932412781     -0.82254697474732
  C          -1.57391572233786     -1.03445068085934     -0.68691194798866
  C          -2.28736155236163     -0.20487323982802      0.16112059710221
  C          -1.62858047747354      0.78690990799072      0.86954856716243
  C          -0.26265465281228      0.94852921802944      0.72749830670684
  C           0.46115493399245      0.11641189921439     -0.11896547898780
  C           1.95115781812526      0.29825334580264     -0.24739270340345
  O           2.62667038207487      0.21262682548279      1.00161262956256
  H           0.34916149820606     -1.52828095989186     -1.48387200720991
  H          -2.08338527556510     -1.80810939762165     -1.24173486467339
  H          -3.35435123170174     -0.32943848536008      0.26895440168628
  H          -2.18124277397957      1.43798125412428      1.53015709534018
  H           0.25431813816891      1.72454875279034      1.27217144020478
  H           2.17371800218985      1.30940208847298     -0.61177224431293
  H           2.36645818302804     -0.43514381516521     -0.94926790802949
  H           2.45242414442364     -0.64802788362199      1.40507580573365
  O           2.74015507541881      3.12438634950843     -0.08354352051644
  O           3.12863678120755      2.96388148533930      1.27692511719543
  H           2.87518170790536      4.07850788885415     -0.23023973942057
  H           3.10047833164133      1.98831018045086      1.39530763042660
