20
Coordinates from ORCA-job single_molecule_calc E -32.155047375670
  C          -0.19641726409644     -0.41741447223773     -1.00371650280541
  C          -1.57759096091626     -0.49292220574784     -1.05460719143091
  C          -2.33671513479372     -0.07746218873583      0.02684098307240
  C          -1.71069808543647      0.42478206722911      1.15626369247511
  C          -0.33056759148922      0.50648412829636      1.20426277393648
  C           0.43922653004082      0.07969608615813      0.12739029182920
  C           1.93233429809115      0.15583997671842      0.19604179905121
  O           2.47270960448041     -0.15833346745401      1.46750993853095
  H           0.39299754901070     -0.74382326015286     -1.84698754916402
  H          -2.05865113492507     -0.88116435637032     -1.94081098914858
  H          -3.41485880578570     -0.14435189385266     -0.00815103354869
  H          -2.30220648571883      0.75418487471978      1.99897642540346
  H           0.16870197621573      0.89947301046247      2.07721552413496
  H           2.26022490686369      1.23878806873832      0.01389070655096
  H           2.39213906236702     -0.45303420784400     -0.59248088918302
  H           2.31474236138400     -1.09164561782223      1.65739771358848
  O           2.87215713659349      2.37893468290161     -0.08526473318813
  O           3.25372423679858      3.85003792215237     -0.13772300880381
  H           3.76816790063131      2.01658468178442     -0.21587729072968
  H           2.56369730251916      4.27917158064084      0.39195354125999
