20
Coordinates from ORCA-job single_molecule_calc E -32.190370532100
  C          -0.24984117324205     -1.10078569792783     -0.69735284880893
  C          -1.61296673583210     -1.15591305035475     -0.46126279885339
  C          -2.24856345330459     -0.10811413042996      0.18271820025619
  C          -1.51808529541764      0.99776456871568      0.58617619795041
  C          -0.15758473298987      1.05770640384642      0.34375092024022
  C           0.48638209048430      0.00684594612515     -0.29960303710773
  C           1.97227443392194      0.07900731773557     -0.54649394544493
  O           2.72663158344188      0.27964046999960      0.63854184227339
  H           0.24359350439215     -1.92093801809070     -1.19888534094722
  H          -2.17841607631802     -2.01938755953768     -0.77818959488835
  H          -3.31108526245304     -0.15252975837897      0.36892950945595
  H          -2.00979397305037      1.81806569894305      1.08693245231401
  H           0.41438828694821      1.92094097314234      0.65052193230953
  H           2.19940635658948      0.94032269022225     -1.18141757464411
  H           2.31725662253289     -0.82919142537296     -1.05664799825638
  H           2.53263851231563     -0.43327369962605      1.26231303283004
  O           2.19488475031524      3.47554513390840      0.96906088018821
  O           3.44163742738660      2.89658689071485      1.33613172694381
  H           2.34828787404729      4.42448307916603      1.12114726967815
  H           3.31207266206643      1.94704957678389      1.10575337634211
