20
Coordinates from ORCA-job single_molecule_calc E -32.190378315630
  C          -0.20127213516850     -1.05926159970187     -0.64238817205713
  C          -1.55383789933410     -1.19431022603736     -0.37912533133238
  C          -2.24648871822446     -0.16593896551840      0.23673140740130
  C          -1.58419619602833      0.99998498950401      0.58522542826642
  C          -0.23415820307057      1.13757377233351      0.31733831296374
  C           0.46761212097206      0.10811801157859     -0.29875625333925
  C           1.94602189226661      0.25659361724050     -0.55092622101034
  O           2.71334869181526      0.16618921997636      0.64286637359756
  H           0.33528200491911     -1.86321884277862     -1.12571864098241
  H          -2.06663153353258     -2.10372012851006     -0.65434862441128
  H          -3.30094979397317     -0.27157686725351      0.44291859582673
  H          -2.12178310871506      1.80496260941857      1.06327496360331
  H           0.28703901267690      2.04592480294361      0.58075606494865
  H           2.15927490221146      1.25085212511027     -0.95154320975442
  H           2.28986710298344     -0.49903161034325     -1.26822835833222
  H           2.52436860395797     -0.67446282982808      1.08146194396357
  O           2.44134432915218      3.36665618136867      0.61703014657879
  O           3.20763760078380      2.73294854046834      1.63467449407288
  H           2.68362570914832      4.30360804422966      0.72046356462880
  H           3.15701301899403      1.78193456538341      1.38041771719868
