20
Coordinates from ORCA-job single_molecule_calc E -32.167414387640
  C           0.00513825242792     -0.04576147286396     -0.80344917275126
  C          -1.34245425847729      0.04689558583843     -1.06489301201059
  C          -2.27011947577827     -0.10718922660257     -0.03864951888387
  C          -1.84985459494219     -0.35420205734885      1.26795580869981
  C          -0.50838548441776     -0.44643784821171      1.55094357622991
  C           0.44532846144368     -0.28321645104238      0.51943720689922
  C           1.82669295795196     -0.33017939792629      0.78941548729661
  O           2.27549577560331     -0.50232837930767      1.97454154132064
  H           0.73317869410218      0.09253230469178     -1.58611955789352
  H          -1.68296137783337      0.24014470644381     -2.07032215236605
  H          -3.32419485784438     -0.03077775379447     -0.25743410047699
  H          -2.57894698132839     -0.47318383857614      2.05411404359881
  H          -0.15556941335847     -0.64048894044280      2.55213145883581
  H           1.63955900661902      2.17085082557339      0.27032750822815
  H           2.51210700059703     -0.20159885690349     -0.04380588135855
  H           3.25354895988200     -0.51917473687142      2.07692101800575
  O           1.63020201340333      3.09690522948074      0.01747243338678
  O           3.70643139482506      3.16951729713769     -1.36667551741024
  H           2.80973200315399      3.15148556827861     -0.77337232524436
  H           3.77818932580497      4.09003285203161     -1.63641464227514
