139
Coordinates from ORCA-job job
  C           0.54400251621734      4.85739909423338     -0.32385187630437
  C          -4.40875201882244      3.33481958373589      0.49060991709899
  C          -4.90928007904765     -1.70939700519271     -0.63816278114557
  C          -0.67639879527557     -4.82368132337200     -0.68944323700593
  C           4.31140846181063     -3.39671835014406      0.13572074723297
  C           4.77434638061385      1.75458990567112     -0.58346828872800
  O          -0.35250546344395      3.82423369520474      0.00179228014328
  O          -4.30797116941890      2.32293607155952     -0.45834093278756
  O          -3.51597111847505     -1.82680556057810     -0.82818564125059
  O           0.28629616483545     -3.85136780351168     -0.38109360980441
  O           4.14709066046870     -2.28132355967155     -0.68146662412504
  O           3.38214170093626      1.91130638196741     -0.74182774193973
  C           1.06109615383746      4.63774795003093     -1.75860253684225
  C          -4.02737534549671      4.62867136436580     -0.25204372380718
  C          -5.49564306332926     -0.90434966493152     -1.80984692069938
  C          -1.25995920758432     -4.51543889371110     -2.08104097401752
  C           3.94901530402809     -4.60014885303170     -0.75564136609218
  C           5.32923820506030      1.02931586397242     -1.82213320740717
  O           0.05236929240537      4.65965582358392     -2.73156557711898
  O          -4.84952936430419      4.84519259400621     -1.36454203484559
  O          -5.22621417221849     -1.49531005301870     -3.04948549959946
  O          -0.29932150727123     -4.51446245112112     -3.10232546519350
  O           4.76262071475731     -4.65804957696851     -1.89357158764337
  O           5.03474249307022      1.71200068727775     -3.00807174193867
  C           1.74151239819798      3.26521294194989     -1.78227177928322
  C          -2.56194911250100      4.51722405217471     -0.70090899455419
  C          -4.94108663869120      0.52449663331025     -1.75257390018334
  C          -1.91574506248723     -3.13071825241315     -2.00714555101538
  C           2.47743283526237     -4.45302403626279     -1.16867932076590
  C           4.76727805410148     -0.39742289082239     -1.86112004555784
  O           2.29873596745321      2.96890207972779     -3.04264027604548
  O          -2.16073137590102      5.71881152700483     -1.33444459384962
  O          -5.57498118403983      1.34237500663013     -2.70691287634641
  O          -2.53949422757130     -2.78058745085235     -3.22180344298482
  O           2.06271459329232     -5.56971418668895     -1.93334283732960
  O           5.37283419494925     -1.14466753425482     -2.88904695127251
  C           2.86114768794513      3.23351946102404     -0.74000409008448
  C          -1.62937679675508      4.19283791999738      0.47793559954926
  C          -5.12756592837377      1.16761530451195     -0.37167705902103
  C          -2.97310768609351     -3.13604362254307     -0.90128676450279
  C           1.55714920156547     -4.29292674647618      0.04955560796558
  C           4.98027675080668     -1.14299311299927     -0.53779929471143
  C           2.32908084831638      3.64914219292693      0.64490540800977
  C          -2.19960472166707      2.95335711358900      1.18588506040574
  C          -4.71227218926689      0.21733787587039      0.76954383481478
  C          -2.34506743889387     -3.58305673625260      0.43158961283018
  C           2.11635510436726     -3.18230908514579      0.95295909665458
  C           4.57683892221821     -0.27781105258565      0.67025936444257
  O           1.62764950049031      4.88879437344116      0.55642389949626
  O          -3.54435395985947      3.14195550096681      1.58604031463502
  O          -5.21806586152060     -1.10492457276076      0.57688725588573
  O          -1.70094619241306     -4.84325854911927      0.26053672383434
  O           3.48068823921133     -3.37135399853722      1.27361105356851
  O           5.08430260968011      1.05573511521136      0.58214742555077
  C           3.47265609412589      3.88363560229059      1.63850342725265
  C          -1.43664307444271      2.57043771340433      2.44616518211710
  C          -5.29528767863124      0.63431668432776      2.12963297975358
  C          -3.40738922120706     -3.79609639096988      1.51584808292736
  C           1.34330780405662     -3.08002479186902      2.26162698534433
  C           5.15209983318199     -0.81280718033753      1.99150809255568
  O           4.35128650650557      4.88342379063293      1.19148656406781
  O          -1.70243488338297      1.25902806511728      2.71082394172625
  O          -6.68953495051609      0.76869552251363      2.07697977966064
  O          -4.33390461390453     -4.78095152850121      1.14064911208552
  O           1.68220611279821     -1.91484122747834      2.88273681932487
  O           6.54255203500665     -0.97491366236743      1.92306447897729
  H           0.06510520221911      5.84032273999631     -0.23737123887505
  H          -5.41846332613859      3.40380648578751      0.91673678583176
  H          -5.37650447783905     -2.70113542446501     -0.58981213878254
  H          -0.24274421179284     -5.83170232392664     -0.67521315237335
  H           5.33613841606241     -3.48069986720903      0.52085089710556
  H           5.26251515984305      2.73087078903194     -0.47120655936490
  H           1.80687277252948      5.42041729313566     -1.97746240843402
  H          -4.14776064154110      5.49074194568209      0.41234778072541
  H          -6.58702350892161     -0.86952462910332     -1.70858135277988
  H          -2.03314597880215     -5.26887151830821     -2.30573149728969
  H           4.09386176186151     -5.53572589139139     -0.20602050004122
  H           6.42235031756838      0.98240526226836     -1.75010432610550
  H          -0.72299144241385      5.12307315842441     -2.37071052640540
  H          -4.97877933406373      3.99103544745328     -1.80731598581081
  H          -4.30336368274879     -1.80628620907433     -3.07234948195829
  H           0.51923725350669     -4.92646402114966     -2.77502989006383
  H           4.85933724398794     -3.75484497633740     -2.23678925787194
  H           4.10899003685080      2.01413258298600     -2.99183902505898
  H           0.97563331338420      2.51839032740414     -1.52513710869120
  H          -2.48756672844272      3.68444660845985     -1.41807333104889
  H          -3.85889450351147      0.49054756462418     -1.95529473902983
  H          -1.13062906203077     -2.39988134920158     -1.76376643826324
  H           2.38520517429393     -3.53824106808109     -1.77487346625562
  H           3.68079150081447     -0.34318219644933     -2.03321898568023
  H           1.66891805096565      3.28147263506650     -3.70547198133470
  H          -2.93427425260555      6.04473116254823     -1.81892092108878
  H          -5.68319334508838      0.80855526836553     -3.50608732365659
  H          -1.94922383595920     -3.06882449483602     -3.93064266786143
  H           2.81319316787992     -5.81750063618966     -2.49324632010143
  H           5.46663456285676     -0.55346120261184     -3.64868079811226
  H           3.64296567073550      3.94039032126752     -1.04926616073228
  H          -1.56248540787681      5.04218610976316      1.16933312366207
  H          -6.17878045551857      1.46157845042552     -0.24065016454348
  H          -3.76139310498019     -3.84909926168762     -1.17742241578028
  H           1.47951470871199     -5.23763966249288      0.60167357596951
  H           6.03161403561209     -1.44987554282707     -0.44847472446958
  H           1.65744318516713      2.87559439896479      1.03380802404570
  H          -2.12710861661404      2.10951935309465      0.47734410973614
  H          -3.61852006110481      0.19537329791907      0.83365658005935
  H          -1.61510288790495     -2.83679182970564      0.76483018651524
  H           1.97949200346179     -2.22551658107042      0.41680434082151
  H           3.48295118249946     -0.26408347300501      0.71442152919375
  H           4.06346430602993      2.97321333984286      1.74849022551478
  H           3.03234591698148      4.15182590782233      2.60646319068331
  H          -5.00556832242212     -0.13333519522653      2.85951744815801
  H          -4.88832998047727      1.59389519488114      2.44451936321324
  H          -3.97098886755235     -2.87502425218749      1.67270162394350
  H          -2.89429190520816     -4.07486739663457      2.44471765385703
  H           4.88689925545745     -0.10247337927143      2.78690416329230
  H           4.72338046007646     -1.78608199998544      2.22860938911579
  H           3.82373160705989      5.68038211895282      1.05708824076584
  H          -7.04966625750282     -0.07931704751147      1.78879792722878
  H          -3.83060797605627     -5.58463885086744      0.95919994458272
  H           6.92530294432744     -0.11692589330512      1.70109976943309
  C           0.75890469111859     -1.39522715006619      3.83697403884494
  H           1.31928390005435     -0.74264406483403      4.49735270011010
  H           0.30083592393148     -2.19663817725133      4.42000141442115
  O           0.56562081232346     -3.88863476838259      2.69660562190115
  C          -0.93027572130919      0.59547473395151      3.70595539480805
  H          -1.58611213780464      0.29987428651805      4.52933680546697
  H          -0.15698240267045      1.24931425050069      4.09729652555874
  O          -0.74399534228080      3.28708856153967      3.11660036722057
  C          -0.32292806635102     -0.64032792998977      3.07648355641481
  O          -0.70541355200722     -1.07583346557829      2.01035386946029
  H          -1.35065762119485     -0.19460004344544      0.52982584893484
  O          -1.42986177559140      0.12181387480343     -0.39025461508707
  H           0.43795559656609     -0.01046119468763     -0.59724164760301
  O           1.37957207793062     -0.10599793576581     -0.34176717837327
  H           1.48738389322830      0.56858670742012      1.30207491263457
  O           1.55030064048588      1.02288116256265      2.17472937608320
  H           2.46059034289182      0.87525980574616      2.44789543311790
  H           1.86401888857889      0.59848210976724     -0.79421943270979
  H          -2.05158642249283     -0.50518513990551     -0.78836447890041
