16

C             0.1909081593504660            -1.2593664441324075             0.0371460235695279
C             1.5684682963585050            -1.2069440857625151             0.0817008659093760
C             2.2220295601704847             0.0004295902756044            -0.0471643742387886
C             1.5117309068897760             1.1721406267400158            -0.2222019358356421
C             0.1373883985160305             1.1289126007666319            -0.2678040020867720
C            -0.5118216597222897            -0.0843304868245668            -0.1380312736045802
C            -2.0150813853100371            -0.1503948455239556            -0.1855301727017023
O            -2.4499698360053199             0.0013650984320942             1.1321565716078132
H            -0.3471856075245847            -2.2071679676194624             0.1373757924505060
H             2.1362001913656870            -2.1336899254255699             0.2203696284140619
H             3.3009604247256203             0.0799784360884480            -0.0171521287844039
H             2.0433084000905186             2.1288734631344837            -0.3238065037574913
H            -0.4408733941567555             2.0309853703549230            -0.4037248086127785
H            -2.3311166030221608            -1.1368233923639370            -0.5579271692073939
H            -2.4121236582824239             0.6968076224383024            -0.7927063684419132
H            -2.6028221934436164             0.9392243394219538             1.3472998553202085

