16
Coordinates from ORCA-job job.QMRegion
  C          -0.89655944118871      1.87978588559837      1.73465899684700
  C           1.03097691513918     -3.05302660454162      2.17376865815466
  O          -1.33693131932323      1.75420148014977      2.98763990722553
  O           1.15602799996874     -1.88096042433609      2.81086337859486
  C           0.25649737027418     -1.59396384994738      3.90459367651947
  H           0.88357413802514     -1.19058246397446      4.69304605898496
  H          -0.26017515878139     -2.49341655145393      4.22916416947763
  O           0.35702820015493     -3.98726116158978      2.55447605341242
  C          -0.57594095089740      0.84428642666022      3.78633442884779
  H          -0.97933026855208      0.96113718156426      4.79181632098528
  H           0.48103245422141      1.10805724547209      3.78495519493435
  O           0.15567546018366      1.40611344155572      1.33312458763298
  C          -0.72850437306896     -0.57902114691500      3.33485587958656
  O          -1.55117688565862     -0.91955505422613      2.49865816369677
  H          -1.59577948026890      2.40969873574665      1.11282244982297
  H           1.62008328695019     -3.02791237130757      1.26469004576286
