130
Coordinates from ORCA-job job
  C           0.71169642647887      5.00057463353624     -0.19543555104469
  C          -4.13812340325985      3.17660243119522      0.68900742175404
  C          -5.17501657111382     -1.77243483305478     -0.21555158273840
  C          -0.87123016505490     -4.77349667785054     -0.63581685100688
  C           4.05682554690844     -3.02936633662224      0.11949959622718
  C           5.05300288785386      2.09383644192056     -0.58954747262003
  O          -0.12575421754983      3.86543178404544     -0.26363919720872
  O          -4.31824409403733      2.22326858478668     -0.31353552842937
  O          -3.82289945142842     -1.92668949838671     -0.57825344578218
  O           0.06295264819867     -3.73133443007256     -0.49103252553899
  O           3.83385734960074     -1.80819295342067     -0.51694693123451
  O           3.73015786858770      2.39432858823071     -0.94292141646841
  C           1.36868602488280      5.17608506235389     -1.56888881338515
  C          -3.82960702500458      4.52158060754238     -0.00686407020526
  C          -5.86904106939182     -0.98499551530523     -1.33820981690292
  C          -1.60805385157591     -4.57238784921318     -1.96865042847201
  C           3.77609849985183     -4.12157115056409     -0.93346204271510
  C           5.59931413333904      1.22214117844145     -1.73644010330628
  O           0.41538794076098      5.31337608565775     -2.58982063204967
  O          -4.80904659591050      4.84401309879679     -0.94965416726846
  O          -5.78714888610604     -1.64846310992740     -2.56919475873356
  O          -0.73598868746647     -4.54482520733541     -3.06693384620922
  O           4.60806060088165     -3.96475070217541     -2.04683425036928
  O           5.51004304034118      1.89408124193229     -2.96239351265679
  C           2.22086733703797      3.93005030236220     -1.83185845029190
  C          -2.43689528650920      4.47048129514710     -0.66576939622738
  C          -5.20917908969323      0.39786271738478     -1.42048266603487
  C          -2.37961324941761     -3.24757628777961     -1.88671105128355
  C           2.29386946133815     -4.02906287089688     -1.34158117690590
  C           4.78398891400177     -0.07910733657987     -1.75984808967763
  O           2.96282867044275      4.03124468953959     -3.02038514052295
  O          -2.05628714887131      5.73605948242371     -1.14979976879302
  O          -5.88685470744786      1.22640589279702     -2.32975758214221
  O          -3.19018157453335     -3.03969563808890     -3.01556431639830
  O           1.91966917711966     -5.08071401633641     -2.19861648143335
  O           5.29073958563710     -1.00891906330378     -2.68521556206659
  C           3.21780533390077      3.69126944174437     -0.69166368145782
  C          -1.38761555221267      3.99181079875332      0.35132287116031
  C          -5.17236494957944      1.11233690139372     -0.06242189722191
  C          -3.29038402747925     -3.23535246187957     -0.65551150937228
  C           1.38467108877042     -4.07316746023715     -0.10726030380748
  C           4.77708500999615     -0.75608256954605     -0.38510482125792
  C           2.55156630563986      3.76706698479361      0.69415837523178
  C          -1.87770864201751      2.62336235705626      0.86209471513483
  C          -4.67400144012452      0.17881787198115      1.06305363564084
  C          -2.50320318128639     -3.59410063501066      0.61469803373230
  C           1.85728697956744     -3.01780012478398      0.89864952395388
  C           4.37430242091932      0.23161049159256      0.72306521448709
  O           1.66792781104086      4.87977526302570      0.81246076904689
  O          -3.08356168696319      2.81074377286662      1.55747471452453
  O          -5.30335666281533     -1.09999549573365      0.99902571602366
  O          -1.77502024877190     -4.80202561678910      0.43157124500345
  O           3.21380345831321     -3.18418151204376      1.24349975967328
  O           5.14087341754632      1.42908697064751      0.63880974234511
  C           3.58797667263496      3.97089581351369      1.81103301382207
  C          -0.89655944118871      1.87978588559837      1.73465899684700
  C          -5.02486777811314      0.67582835966105      2.47893752816180
  C          -3.42954365024017     -3.82967605852920      1.81456760450085
  C           1.03097691513918     -3.05302660454162      2.17376865815466
  C           4.64584810082311     -0.33820792740945      2.12303656644166
  O           4.36089152977489      5.11933141924220      1.58878730089599
  O          -1.33693131932323      1.75420148014977      2.98763990722553
  O          -6.36663178089081      1.06302428233864      2.58217749568966
  O          -4.39014339284832     -4.81162440190912      1.54586536230467
  O           1.15602799996874     -1.88096042433609      2.81086337859486
  O           5.98662224651070     -0.71951266052992      2.27437832728723
  H           0.13260242461170      5.89560890923856      0.06333069132205
  H          -5.02756529578473      3.26955544816766      1.32373419718107
  H          -5.65864336376049     -2.74536277388066     -0.06450762531903
  H          -0.37398872680018     -5.75093985675823     -0.61766586493885
  H           5.07713945339526     -3.11156333777680      0.51150159937343
  H           5.65240297606902      3.00623003040473     -0.47220304406546
  H           2.02063841318394      6.06288216567622     -1.54265608056167
  H          -3.83736757252163      5.32085659000324      0.74185744017545
  H          -6.93343597396691     -0.87250074780808     -1.10819433372638
  H          -2.32858000663459     -5.39353247275152     -2.09925226238620
  H           3.98038830699437     -5.11111813972979     -0.51294371312746
  H           6.65707077784786      0.99535828832881     -1.57194951504948
  H          -0.44503237122526      5.54750918757496     -2.19452772333397
  H          -5.00054904566657      4.05206073357011     -1.47619286832204
  H          -4.87937880114424     -1.98113669321450     -2.69349634815279
  H           0.17665716350348     -4.73451943331104     -2.77390227392421
  H           4.66630159210945     -3.01747734743327     -2.26924438414165
  H           4.64780027800597      2.34080657716292     -3.00521995094455
  H           1.54313941550852      3.06200108086580     -1.87668089740441
  H          -2.46306399926963      3.74741135743527     -1.49644041891094
  H          -4.16457402437650      0.25407945835652     -1.74585912377351
  H          -1.65008481755649     -2.42767866993251     -1.78611217171967
  H           2.13471029096117     -3.06089158264460     -1.84201472138796
  H           3.74200461037660      0.17619160739834     -2.01309850930437
  H           2.36630524475473      4.35035950813509     -3.71331914658726
  H          -2.80958728672778      6.10233859348864     -1.64079469420107
  H          -6.09656682050834      0.68845320306342     -3.10900484858174
  H          -2.66803880049833     -3.26018769942303     -3.80148300574573
  H           2.58883940284741     -5.14379179524132     -2.89899147860962
  H           5.48839610051229     -0.53359895617668     -3.50609274148515
  H           4.02173557213398      4.43726889888654     -0.75838924162937
  H          -1.33749907690213      4.68734185495023      1.19870975514847
  H          -6.17886488882533      1.47549672129728      0.18894982746477
  H          -4.09515725801390     -3.96752881665339     -0.80139845578658
  H           1.41179272166652     -5.06700493403480      0.35443519097890
  H           5.77442915197610     -1.16144999988739     -0.17275135138353
  H           1.99555958969082      2.83242046045391      0.85325844526313
  H          -2.03871057469964      1.97649487853772     -0.01879333402016
  H          -3.58567869446168      0.05146371700389      0.97357271557769
  H          -1.81426129368941     -2.76873868770712      0.84466877752485
  H           1.71167576835259     -2.02283971943819      0.44497912096951
  H           3.30505612470512      0.46381459319737      0.61523991132319
  H           4.27607132753278      3.12567677289742      1.83949754859014
  H           3.05120621140157      4.04145284157245      2.76456433105030
  H          -4.79840440569749     -0.14894313263767      3.16585233488320
  H          -4.41420158772948      1.53583217773661      2.74877402418001
  H          -3.96532765626622     -2.90659185315298      2.04281460673787
  H          -2.80485765569696     -4.10983900650378      2.67131183844518
  H           4.37078703658703      0.42457390996046      2.86088263156389
  H           4.03945150093542     -1.23126224081674      2.28313791866165
  H           3.75646665890363      5.87424304598168      1.54935027247614
  H          -6.91278758897396      0.28696955120535      2.39294391666194
  H          -3.91849892004021     -5.63232503161482      1.34191501895303
  H           6.53175129138738      0.06483062657277      2.11539279531654
  C           0.25649737027418     -1.59396384994738      3.90459367651947
  H           0.88357413802514     -1.19058246397446      4.69304605898496
  H          -0.26017515878139     -2.49341655145393      4.22916416947763
  O           0.35702820015493     -3.98726116158978      2.55447605341242
  C          -0.57594095089740      0.84428642666022      3.78633442884779
  H          -0.97933026855208      0.96113718156426      4.79181632098528
  H           0.48103245422141      1.10805724547209      3.78495519493435
  O           0.15567546018366      1.40611344155572      1.33312458763298
  C          -0.72850437306896     -0.57902114691500      3.33485587958656
  O          -1.55117688565862     -0.91955505422613      2.49865816369677
