147
Coordinates from ORCA-job job E -278.553911930730
  C           1.63306918526696      3.61365761235444     -0.04308878626835
  O           0.84212116220040      2.45043412753644     -0.17609120048055
  C           2.67051878060717      3.66673615982198     -1.17838776934626
  O           2.28950000248503      3.70604385442361      1.18721824302196
  C          -0.56102786443227      2.61715423395410     -0.02375981334759
  O           2.10181014729379      3.55425915870810     -2.45557164077347
  C           3.67952783073666      2.52783899823212     -1.00003042984277
  C           3.20821282721726      2.65065234752746      1.47960919419813
  C          -1.17316553736173      2.84025114861958     -1.41701683904231
  C          -1.20261526255664      1.35854716054144      0.57676919820246
  O           4.72652269163626      2.61508775889974     -1.93115432529515
  C           4.30026280293691      2.52513560978935      0.40292978716365
  C           3.77534784357223      2.99521547153729      2.86361016759364
  C          -2.70665810951268      2.86633597374349     -1.34845218065512
  O          -0.68007825184861      4.03905003562435     -1.96872285252688
  O          -2.60615711139379      1.47406744632136      0.61386952912167
  C          -0.76450918181649      1.08614464866157      2.05239788488889
  O           4.99329437247869      1.28901110570811      0.46476090681014
  O           4.52271817355034      4.18149795350797      2.85038856575157
  C          -3.19570000679327      1.57716041117362     -0.66546506862981
  O          -3.25535699115048      3.04454992373548     -2.62165763227028
  O           0.69059530250856      0.98099568072993      2.00649466450146
  O          -1.21240042094348      1.84210098516789      2.94364601570903
  C           6.06871831169016      1.12033616819106      1.34798946141549
  O          -2.88325878133310      0.51356101994241     -1.51303299521123
  C           1.10525135182323     -0.26372136111023      2.47803962729684
  C           7.12127717332307      0.28521226388535      0.59233439736946
  O           5.71483927052681      0.46844250543808      2.54171854100229
  C          -3.70768716294738     -0.65194929539725     -1.50681469465888
  C          -0.07745613328734     -1.17555908299654      2.12885872561077
  O           7.53497256025381      0.91692244915609     -0.58625174069282
  C           6.50911452377335     -1.09199364342609      0.28852285273876
  C           5.08523497956789     -0.79908173177154      2.36133837651446
  C          -3.41471471752613     -1.29439261173494     -2.87119827464866
  C          -3.40943370787591     -1.59021771518108     -0.32086264570018
  C          -0.01240829438035     -2.46232018291171      2.97007924925785
  O          -0.14235202689308     -1.51929856945886      0.72248039752447
  O          -1.17581804071806     -0.39360524332702      2.30651434034383
  O           7.44150057076750     -1.96362354709191     -0.29815434694867
  C           5.97599911052394     -1.76480824231916      1.55899025899537
  C           4.78423798929908     -1.32587386188575      3.77124014645374
  C          -3.87595519095122     -2.75629612723114     -2.96510958017491
  O          -4.03936624142871     -0.50428090606904     -3.85021641619216
  O          -3.84371459844069     -2.92538126654245     -0.56250305475354
  C          -4.16197287853618     -1.17270871647625      0.95362887158782
  O           1.30698785225612     -2.93626957800395      2.71780223049427
  O           5.25643068363945     -2.90019390339842      1.08607760204716
  O           5.95227292541273     -1.62061775941402      4.48816363787862
  C          -3.36417539424257     -3.52406491473373     -1.73583326047228
  O          -3.43634558075974     -3.33961719947792     -4.16063599973461
  O          -5.54020111282344     -1.05629707225195      0.73631741322796
  C           1.51683114879852     -4.16808209163759      2.26495422248087
  C           5.16771524994083     -4.04376655010319      1.88536438004165
  O          -1.96271545998595     -3.55904540515385     -1.80232093089470
  C           2.85271665766512     -4.18996932839420      1.52296799263546
  O           0.76019542395571     -5.09181464943884      2.39921926487306
  C           5.45644790384420     -5.26448117271222      0.99018496581896
  O           3.89154901879194     -4.19145887112891      2.48199486400298
  C          -1.30632415006778     -4.80393262121022     -1.61757118858914
  C           2.95070849090677     -5.35146331580846      0.52303287536212
  O           6.72218749472526     -5.18681472187993      0.40007272738813
  C           4.36149947176133     -5.37920164764565     -0.08788001740016
  C          -0.08393577322689     -4.78996176167188     -2.54198400661798
  C          -0.85778544448282     -5.01810110862080     -0.16360549662855
  O           2.01952785460839     -5.13277600814994     -0.53578194509721
  O           4.49298235981039     -6.56710776874017     -0.82191230307811
  C           0.74359606566716     -6.06646197407334     -2.32549601643087
  O          -0.53215863547376     -4.68714125991445     -3.86920810157677
  O          -0.03031723780382     -6.16901215103302     -0.04486091336599
  C          -2.04523815448417     -5.27463373407093      0.77497959349234
  C           1.12464342516063     -6.17431692679506     -0.83705987694651
  O           1.85224875418793     -6.10371299631139     -3.17397352990915
  O          -2.80864234631212     -6.37444122547848      0.36331322356982
  C           1.78630811109810     -0.87460269532410     -0.57682317321349
  H           1.37149067905287      0.09029740229296     -0.24983552885287
  C           1.66579446782610     -1.00789566724304     -2.07717799856186
  C           2.76021033642746     -0.73702211780504     -2.88899839702694
  C           0.45120461493917     -1.35856075241558     -2.64840025290512
  C           2.63931366115941     -0.82858808636728     -4.26517821594091
  C           0.33811652141206     -1.45723757672474     -4.02473603993534
  C           1.43061764638058     -1.19155489323494     -4.83342550045356
  H           0.99156478143387      4.50399763224061     -0.08136385808756
  H           3.19945979548497      4.63023051296614     -1.08940207670575
  H          -0.77811767573016      3.45651387098913      0.64854311303908
  H           1.16353855261384      3.81714662960625     -2.42174148383637
  H           3.13491480334623      1.58016135957277     -1.12159941312740
  H           2.66129471395329      1.70542663563321      1.53188377832757
  H          -0.86140126577900      1.98856631270811     -2.04370974859808
  H          -0.91802507272614      0.49383947110252     -0.03636576439886
  H           4.34582426056471      2.85351355944230     -2.79162784623874
  H           5.01082119118573      3.35887021957680      0.49656508190464
  H           4.44543361406588      2.20151614706395      3.19524067151210
  H           2.92690447706740      3.06478881236543      3.55522118792572
  H          -3.02151100317294      3.71911880537891     -0.73740030771016
  H          -1.30354446119096      4.32061974420142     -2.66437260469696
  H           3.93076941433537      4.91089473594608      2.61438006778220
  H          -4.27570443021347      1.61931980116672     -0.46714544325896
  H          -3.27295085285323      2.19187216545209     -3.08810580133471
  H           6.48294515089291      2.08805147366487      1.66095649885487
  H           2.03974771632608     -0.54896812721501      1.99805997651337
  H           1.22643850271989     -0.25584382409676      3.56858218364011
  H           8.01263666214023      0.16693289468547      1.21636415470944
  H          -4.76421147187706     -0.35087992724844     -1.46500853009126
  H           6.75774157783185      1.28648046426929     -1.03849051986310
  H           5.65394875366627     -0.93243769704924     -0.38453440871110
  H           4.14841624728240     -0.66159063758663      1.81062875333293
  H          -2.32429928519430     -1.26840306649624     -3.00611646072140
  H          -2.33007119487021     -1.57699457429077     -0.11428775363128
  H          -0.13757402125150     -2.22394550832879      4.02622608768400
  H          -0.75811548784108     -3.19063830855031      2.64338391344675
  H           7.94585140192528     -1.46751172825128     -0.96400018308445
  H           6.81783526323062     -2.09240003533689      2.18265019870534
  H           4.17723742890632     -0.57497492173552      4.29187009244633
  H           4.20885454035886     -2.25080297486188      3.70083836488136
  H          -4.97028932846957     -2.78873320283853     -2.97900413168021
  H          -4.02910458975811     -0.99404165024569     -4.68979407075967
  H          -3.94206751718350     -1.91722541437147      1.72804146929622
  H          -3.79119927750960     -0.20934148373617      1.30484879091279
  H           6.44114572027653     -0.79584817275118      4.63137320394924
  H          -3.77856413438751     -4.54115778520370     -1.71529455261704
  H          -2.51171887906254     -3.63089842609653     -4.06314284743845
  H          -5.89436341555176     -1.93805844725078      0.53829920826369
  H           5.86783745250454     -4.00333919158143      2.72842836347779
  H           2.88515141104053     -3.25090546604627      0.95361621666673
  H           5.44862732333068     -6.16816345482623      1.60825380463576
  H          -1.97779214221201     -5.62219542424349     -1.91212073237028
  H           2.73635321825257     -6.29933773927455      1.02773970727399
  H           6.87703225276795     -4.28406517603262      0.06938236172081
  H           4.44781559492114     -4.50543856133558     -0.75332366300202
  H           0.53072922153065     -3.91415236884735     -2.28111531692976
  H          -0.31450453782234     -4.11906186233342      0.15943738125156
  H           5.43350382431467     -6.69591315470079     -1.03238111951089
  H           0.12713206282312     -6.93515300224479     -2.58377131569188
  H           0.13387922405131     -5.09573187307848     -4.44799897913433
  H          -2.70606445580725     -4.40563492280813      0.77250538132384
  H          -1.64591882240597     -5.42724990780362      1.78445012605710
  H           1.59590046149891     -7.14613708214575     -0.63743096321898
  H           2.56358166774765     -5.56692964549209     -2.79530890128919
  H          -2.26381062705219     -7.17187261850229      0.45224085323581
  O           1.05754957072644     -1.93459582550149      0.10350235813722
  H           3.69631024706465     -0.43838443177024     -2.44183348226919
  H          -0.39031110789079     -1.56394037614276     -2.00076258869999
  H           3.49248697715822     -0.61807535686510     -4.88930291298879
  H          -0.60285028854249     -1.75150370352428     -4.46116265290564
  H           1.33538846298652     -1.26687391429525     -5.90454614949134
  H           3.52582924435776     -1.72124689510373     -0.50768478885786
  O           3.08907558549311     -0.94147660051776     -0.12218818605233
