147
Coordinates from ORCA-job job
  C          -3.36518811844495      2.53846816351110     -1.70844650746561
  O          -3.28038064673346      1.27040232470043     -1.09197001524845
  C          -2.75898476781690      2.47278875729702     -3.12291990020378
  O          -2.71861400644071      3.51507432709652     -0.94331120688359
  C          -4.47049031952944      0.75061446070413     -0.53102562501829
  O          -3.34216179012468      1.48256028171149     -3.92392838544058
  C          -1.26096042731313      2.16324200939407     -3.01694260121443
  C          -1.33005528938109      3.26518106697572     -0.73130217578503
  C          -5.22033238108178     -0.09450954503142     -1.57835116319260
  C          -4.10073615381169     -0.17347295965966      0.64509966024575
  O          -0.61481145886047      2.25566850655373     -4.26128789600832
  C          -0.57345746585087      3.14818958782872     -2.06616853758082
  C          -0.78793034120758      4.43194645866004      0.10849157325591
  C          -6.36714298463822     -0.90008221960082     -0.93883138744125
  O          -5.72273133149092      0.76190696516984     -2.57975049841338
  O          -5.25061333392218     -0.78565688266708      1.18209957476605
  C          -3.36354239493235      0.50049049525950      1.79135127494457
  O           0.74308414190268      2.65499817991112     -1.85274908819867
  O          -0.82604591035263      5.65063066498779     -0.58619286617926
  C          -5.82993028212463     -1.69407054424722      0.26667253011568
  O          -6.97803392769076     -1.72005282478520     -1.89153071451476
  O          -2.11495235223352      0.77906034439804      1.42361102471543
  O          -3.81836680974562      0.71621553707651      2.88243948200515
  C           1.82484347856986      3.57311712599675     -1.86614575223594
  O          -4.91352583211748     -2.62328050688315     -0.22340430553133
  C          -1.12509753084241      0.90819974415174      2.42993457106090
  C           2.74768931923837      3.24602224122767     -3.05231960611073
  O           2.53175576245415      3.53979848619124     -0.66861263800100
  C          -4.71306834175920     -3.85455753369497      0.46553433948808
  C          -0.63106153284481     -0.50429233900402      2.80322194904152
  O           2.10373044938997      3.35984301426488     -4.29006744723279
  C           3.31515853093600      1.83707929833352     -2.84203874401209
  C           3.19305795150826      2.31555236687795     -0.32139924126708
  C          -4.17749548316076     -4.79311263606030     -0.62574432552693
  C          -3.73479641446962     -3.72131338301325      1.65198410976988
  C           0.81068556994754     -0.52979003885848      3.33078731509011
  O          -0.92326820769132     -1.48283057704932      1.83309099408330
  O          -1.53152307768953     -1.33767729025575      3.45254334957565
  O           4.25646329136228      1.50972961401104     -3.83265110031988
  C           4.01041888809145      1.70622848763943     -1.47932767910028
  C           4.08420767228439      2.69709017603897      0.87605375681107
  C          -3.62249627558242     -6.09522976309005     -0.03619429888604
  O          -5.22026094951956     -5.03798925265770     -1.53549983496749
  O          -3.19836770621461     -4.98071677175291      2.05206741950076
  C          -4.41831252170285     -3.19073015793601      2.92354757208953
  O           1.67600981387027     -0.47431268205060      2.20363056330749
  O           4.18920726744597      0.29823987492064     -1.34633773676645
  O           5.17876204684111      3.49331938795015      0.50364675694130
  C          -2.58401400857426     -5.71857886128685      1.03456131403442
  O          -3.08621709484527     -6.91173589943383     -1.03894696185189
  O          -5.48501594458949     -4.01083575400466      3.31775084223884
  C           2.59448148916747     -1.41870239337358      2.06350139531560
  C           5.05569485082048     -0.20305708204677     -0.37937738383096
  O          -1.55614048394165     -4.99292567664431      0.41012115150870
  C           3.28539378291860     -1.28715143565451      0.71070129194620
  O           2.83182739384883     -2.26945261608027      2.88242870554680
  C           5.62583319195701     -1.52680239051653     -0.93235581056355
  O           4.40830992459886     -0.43281770855191      0.85984839613976
  C          -0.22340992899830     -5.45179211085876      0.54563805581943
  C           3.69914937083338     -2.67407011444931      0.20741501816362
  O           6.30694935999862     -1.33583155473357     -2.13861260266260
  C           4.47657702648782     -2.53470996081105     -1.10609428296315
  C           0.42726806942306     -5.28707900111610     -0.83151129006634
  C           0.55338092266464     -4.65032557864758      1.60240656511407
  O           2.52056765215440     -3.43392336678312     -0.01166589629990
  O           4.94892793256513     -3.80795957252656     -1.48426573881118
  C           1.92120936543834     -5.62235069523637     -0.76256739670362
  O          -0.25608006720810     -6.12036876878051     -1.73462095938274
  O           1.92895347867470     -5.01342860791060      1.58338260910142
  C           0.04805411627414     -4.93170150317156      3.02254252650985
  C           2.56529550002494     -4.78661444659159      0.35517534330609
  O           2.49755494540241     -5.37234203040403     -2.01682262499326
  O           0.10626323698572     -6.29414542937677      3.34604936691049
  C          -0.34386138173245     -0.58550207970810     -0.65400383411286
  O           0.78077286435282      0.25031215386360     -0.52737205424559
  C          -0.27197461162427     -1.58943264870129     -1.76213215557639
  C           0.90313453313877     -1.76974407071547     -2.48734809488004
  C          -1.41560332110656     -2.30953753272522     -2.10794768455972
  C           0.93104129039552     -2.64852624370846     -3.55375679232959
  C          -1.38418047278535     -3.18118841997346     -3.17855062636407
  C          -0.21051321273657     -3.35489847256466     -3.89996165035600
  H          -4.40984086403770      2.86567701111511     -1.77025469878962
  H          -2.88965279094292      3.46492233932998     -3.58506269241006
  H          -5.12009045080913      1.55810348379786     -0.17045177626364
  H          -4.26599141175118      1.33074547644562     -3.64929436533550
  H          -1.16279284781666      1.14219653278304     -2.62240726010697
  H          -1.21833776519955      2.33010060351060     -0.17102309135131
  H          -4.49850126036044     -0.79819351690245     -2.01995150761934
  H          -3.41575921445063     -0.94413990238310      0.26068446597400
  H          -1.12498844401502      1.74894866727778     -4.91232970753886
  H          -0.53483927173207      4.13221181524480     -2.54819584881511
  H           0.26152001278175      4.24391598862331      0.34583992829801
  H          -1.36558396557532      4.48934445495955      1.03733161975483
  H          -7.13361492144579     -0.20480976097217     -0.57890723589212
  H          -6.42581443874849      0.28383112391525     -3.05300634979769
  H          -1.75056937098892      5.90391523347816     -0.72122198988317
  H          -6.64475555388696     -2.17847519411841      0.81899297049869
  H          -6.45238636861960     -2.52886189515162     -2.00730384863485
  H           1.44843955863737      4.60007684710975     -1.94907863062052
  H          -0.29872937354355      1.47149547785916      1.98901356161956
  H          -1.52630662545534      1.40214366782417      3.32160960009099
  H           3.56986436899168      3.96940369359997     -3.06914003264988
  H          -5.67539972065099     -4.23439276194417      0.83464409642545
  H           1.24658980357796      2.89100188420534     -4.27614590115114
  H           2.48183209781237      1.11744608304130     -2.86384298719483
  H           2.45726752650978      1.57722280224185      0.01372452929954
  H          -3.34782633152222     -4.27699120816219     -1.13277977659149
  H          -2.91114237507388     -3.05192634030431      1.36872989651001
  H           0.99351637617392      0.34325045429579      3.96411429870067
  H           0.98647695244034     -1.45446560235003      3.89390725544092
  H           3.91275328413295      1.80971352409018     -4.68952435872453
  H           4.99196594695187      2.19826955322069     -1.52992162516912
  H           3.45433006001508      3.21741041941942      1.60559853194275
  H           4.48745435427275      1.79556428400388      1.33736827530082
  H          -4.43178954876037     -6.66482798169134      0.43249027359605
  H          -5.00518289665107     -5.84518178938903     -2.03095084604354
  H          -3.65503295524721     -3.12093349917863      3.70774560705357
  H          -4.82808016343911     -2.19525674106894      2.75518972351354
  H           4.84761999637177      4.35429336828778      0.20976007457355
  H          -2.19286656789559     -6.61614176315198      1.53024621459568
  H          -2.21268566861345     -6.57372843843157     -1.31450893756803
  H          -5.13002937661287     -4.88227484780881      3.54883674664395
  H           5.86718314569717      0.50044201302487     -0.15347036417617
  H           2.56795395445386     -0.83745639335896      0.01324760174470
  H           6.35338897431953     -1.92518432622404     -0.21768024764311
  H          -0.21484353954212     -6.51326586813428      0.82618371835834
  H           4.32888636119761     -3.15470072383389      0.96639473072145
  H           5.77669068556425     -0.75994224003440     -2.71477403697715
  H           3.78800615203719     -2.15508085663937     -1.87377607562270
  H           0.32606149143446     -4.23628956708538     -1.13555441928826
  H           0.44056728548504     -3.57966190545796      1.38483147448276
  H           5.66097245669109     -3.68152158509935     -2.13401653890267
  H           2.03724462606116     -6.68659425103395     -0.50144069269427
  H           0.30083596286513     -6.23066449323624     -2.52108159248859
  H          -0.99794825440627     -4.62822203433219      3.09905344220746
  H           0.64616440852478     -4.33529045821264      3.72157719035139
  H           3.60131374559498     -5.11237707814796      0.51409104782681
  H           3.37513251655923     -4.96285293657650     -1.90637461830165
  H           1.03722944917664     -6.56369933022310      3.36109277503824
  H          -0.41484892246332     -1.18226392332534      0.31940995135434
  H           1.77563059002099     -1.19522987542148     -2.21566937676345
  H          -2.32014951346268     -2.17337688156115     -1.53249008539983
  H           1.84074133110122     -2.78259742637749     -4.11641853716559
  H          -2.27237669997590     -3.72777131539342     -3.45248052923557
  H          -0.18828016055181     -4.03921516735682     -4.73255666531140
  H          -1.29193562434069     -0.02420483556107     -0.68031555552282
  H           0.64541019663141      1.08227374561255     -1.02184607743667
