30
 energy: -48.964842789871 gnorm: 0.000053514414 xtb: 6.7.1 (edcfbbe)
H           -6.11864788034167        1.50714057762159       -0.95771445445544
C           -5.14762379251780        1.65701941666718       -0.50154169569439
C           -4.80041058975033        0.95301454018505        0.64005262211758
C           -3.56445428218353        1.14717182347938        1.22762833262128
C           -2.65453925559185        2.04193143772544        0.67820324474143
C           -3.01005702329128        2.73943425927347       -0.46851259770992
C           -4.24678042277183        2.55187520839608       -1.05451019197275
H           -5.50309349397458        0.25220831392719        1.07505307574691
H           -3.29778892672800        0.60379943635865        2.12505190884604
C           -1.29693763083637        2.29648802949700        1.32155774585630
H           -2.28273484533047        3.42509420705796       -0.87859839627529
H           -4.51621833800359        3.10543539902112       -1.94585577369384
O           -0.39614433544105        2.90942273290602        0.62294939844390
H           -0.95966199799938        1.33065406768901        1.79963279076647
H           -6.37875309869280        5.06755384764979        0.63642249947162
C           -5.52484825792259        4.85078858592667        1.26413123773573
C           -5.60350396502031        3.85804697132502        2.22790092650053
C           -4.51222823510755        3.57285527750075        3.02059956625990
C           -3.31797457944685        4.28064086777828        2.86064594112522
C           -3.24622726599731        5.28236018303900        1.88983805989362
C           -4.34178244592688        5.55813678480881        1.10065014544422
H           -6.52242482937775        3.30085607249822        2.35355983497530
H           -4.55366830162753        2.80136615582940        3.77503919134966
C           -2.16731395035978        3.94397278525359        3.71682585437912
H           -2.31709777458016        5.81279346595511        1.75451017421267
H           -4.27818598239421        6.32795709569153        0.34288281667619
O           -2.18362085769511        3.11920450916183        4.62674162169485
H           -1.61986220841428        2.92600847357727        2.26449550108799
O           -1.15182085634177        4.86861985660630        3.64984784967563
H           -0.42756380083422        4.54675642949184        4.20240081607451
