30
 energy: -49.056859853786 gnorm: 0.000020845955 xtb: 6.7.1 (edcfbbe)
H           -5.39293499573218        0.09115369952517       -1.27691511734349
C           -4.56103329059956        0.75232440887755       -1.08959342816792
C           -3.80870836856747        0.59976994702373        0.06546196697458
C           -2.74527245354357        1.44606882519038        0.31614718108579
C           -2.42905355076541        2.45029831289793       -0.60035727097825
C           -3.19136257430296        2.59811680859986       -1.76202305781656
C           -4.25395465372733        1.75160982153265       -2.00224379885399
H           -4.05453538125235       -0.17405914083046        0.77619749638274
H           -2.15654177695130        1.37335895743993        1.22108916296469
C           -1.31235551913587        3.34184022421618       -0.31866036362411
H           -2.92526369630282        3.38682588859709       -2.44969888701325
H           -4.84525662484227        1.86830410004040       -2.89675709908473
O           -0.92871712704050        4.23914521902359       -1.04916988458967
H           -0.80694214615510        3.14119092368690        0.64381057940232
H           -5.88192689342330        4.54507733229535       -0.14812664515027
C           -5.08549893671122        4.41146136124212        0.56745939127273
C           -5.17269396973840        3.42150696968882        1.53119298861241
C           -4.14423013895592        3.24247769547735        2.43847005333170
C           -3.01964808593106        4.05522308055975        2.40037545518624
C           -2.94446950125308        5.05234522628689        1.43818840885084
C           -3.97020532852756        5.22955935260728        0.52558783252555
H           -6.03954196946854        2.77956320501526        1.57373700272871
H           -4.19382470516258        2.46837956121913        3.19044649159393
C           -1.82809529736664        3.75380636649121        3.30181310789304
H           -2.06696627458434        5.68654013415778        1.40698993460902
H           -3.88616701973155        6.00460206284235       -0.22200435656063
O           -1.11280639910586        2.73197980314242        2.89373853103108
H           -1.19939867140008        4.72180519451236        3.37111365715542
O           -2.33593951349397        3.57218890821623        4.65369122162355
H           -1.77660654462137        2.89372584001499        5.05899690129642
