11
Coordinates from ORCA-job job.QMRegion
  C          -2.25733855414168     -0.36896647391498      0.03562796562240
  H          -1.25020838894532     -2.03604729819099      0.04095347778274
  H          -1.44128575007439      0.43788946111552      0.00284761355368
  O          -0.39018327203970      1.54507093528667      0.33492440564308
  O          -1.77098817293104     -1.52079065545203      0.67140322057969
  H          -2.51429745093938     -0.53698495733151     -1.02181999638980
  H           0.55943057158969      0.62738208301155      1.96869987444562
  C          -0.03707317838468      1.51163598398182      1.70079819883832
  O           0.71056237933880      2.54823729438354      1.13757833474798
  H          -3.08823031136328      0.07515567057273      0.56268429735982
  H          -0.81856541312683      1.75938776695179      2.42550217041113
