31
Coordinates from ORCA-job job
  C          -2.25733855414168     -0.36896647391498      0.03562796562240
  H          -1.25020838894532     -2.03604729819099      0.04095347778274
  H          -1.44128575007439      0.43788946111552      0.00284761355368
  O          -0.39018327203970      1.54507093528667      0.33492440564308
  O          -1.77098817293104     -1.52079065545203      0.67140322057969
  H          -2.51429745093938     -0.53698495733151     -1.02181999638980
  H           0.55943057158969      0.62738208301155      1.96869987444562
  C          -0.03707317838468      1.51163598398182      1.70079819883832
  O           0.71056237933880      2.54823729438354      1.13757833474798
  H          -5.62302564796201      2.78533334614983      0.43336824903341
  H          -3.72095553953172      1.74114825938036     -0.73436414915763
  C          -3.41368553656624      0.24911560132856      0.76912904259816
  C          -3.83719691789308     -0.24642191865132      1.99502929838131
  C          -4.90486792871321      0.34089389748134      2.64949495348075
  C          -5.54924400283792      1.43095743326859      2.09092966239318
  C          -5.12485483282607      1.93355266841690      0.87041223919376
  C          -4.06213262446700      1.34710488727969      0.21146694653838
  H          -3.32817086595554     -1.09619156324975      2.42155410507542
  H          -5.23102867846758     -0.05306164456400      3.59945222025068
  H          -6.37856853101950      1.89168469444975      2.60487974285288
  H          -0.62682995996050      0.21033687062976      3.97976591895274
  C          -1.10521019367757      1.85026103773216      2.69131749353367
  C          -1.93414742288955      2.94315137053014      2.47450974446075
  C          -2.92542905527928      3.24696209362761      3.38852136164178
  C          -3.08965781902761      2.46241496311469      4.51803922177207
  C          -2.26358274362856      1.37192603142811      4.73385865048544
  C          -1.27085152181450      1.06212826456022      3.82158779797881
  H          -1.78878137466228      3.54272789715624      1.58798198166118
  H          -3.56936671678843      4.09516436131149      3.21689523007884
  H          -3.86426594505429      2.70102805156243      5.23005298502829
  H          -2.39314193214982      0.75983261356758      5.61261335644236
