31
* (null), Energy   -1000.0000000
C    -2.257339   -0.368966    0.035628   -0.119968   -0.069642   -0.187880
H    -1.250208   -2.036047    0.040953   -0.020876   -0.086164    0.067048
H    -1.441286    0.437889    0.002848   -0.481260   -0.606190   -0.916928
O    -0.390183    1.545071    0.334924    0.572610    0.586864    0.166188
O    -1.770988   -1.520791    0.671403    0.020354   -0.099454    0.083504
H    -2.514297   -0.536985   -1.021820   -0.950178   -0.737478    0.101370
H     0.559431    0.627382    1.968700    0.024748   -0.098152    0.087712
C    -0.037073    1.511636    1.700798   -0.047676   -0.162162    0.221750
O     0.710562    2.548237    1.137578   -0.233072   -0.175104   -0.324990
H    -5.623026    2.785333    0.433368   -0.000380    0.011618    0.018248
H    -3.720956    1.741148   -0.734364   -0.043186   -0.065930   -0.018254
C    -3.413686    0.249116    0.769129   -0.067326   -0.024930    0.000042
C    -3.837197   -0.246422    1.995029   -0.028418   -0.009258   -0.024186
C    -4.904868    0.340894    2.649495   -0.007872    0.019312    0.008608
C    -5.549244    1.430957    2.090930   -0.006230    0.008300    0.014430
C    -5.124855    1.933553    0.870412   -0.004878    0.008298    0.023722
C    -4.062133    1.347105    0.211467   -0.018398   -0.019980    0.018740
H    -3.328171   -1.096192    2.421554   -0.026450   -0.026490   -0.057932
H    -5.231029   -0.053062    3.599452    0.007326    0.020774    0.018326
H    -6.378569    1.891685    2.604880   -0.020446   -0.004726    0.007126
H    -0.626830    0.210337    3.979766   -0.030114   -0.022896    0.036832
C    -1.105210    1.850261    2.691317   -0.022540   -0.017098    0.036726
C    -1.934147    2.943151    2.474510    0.000426   -0.004068   -0.007134
C    -2.925429    3.246962    3.388521    0.006050    0.001684   -0.004770
C    -3.089658    2.462415    4.518039    0.000758    0.007534   -0.000026
C    -2.263583    1.371926    4.733859   -0.013738   -0.001568    0.018680
C    -1.270852    1.062128    3.821588   -0.015508   -0.016760    0.037820
H    -1.788781    3.542728    1.587982   -0.028534   -0.014330   -0.017346
H    -3.569367    4.095164    3.216895    0.003790   -0.004428   -0.008100
H    -3.864266    2.701028    5.230053   -0.002246    0.011996   -0.007172
H    -2.393142    0.759833    5.612613   -0.029704    0.005852    0.019116
31
* Frequency(6) -516.2500
C    -2.270973   -0.376880    0.014276   -0.119968   -0.069642   -0.187880
H    -1.252580   -2.045839    0.048573   -0.020876   -0.086164    0.067048
H    -1.495979    0.368999   -0.101356   -0.481260   -0.606190   -0.916928
O    -0.325109    1.611765    0.353810    0.572610    0.586864    0.166188
O    -1.768675   -1.532093    0.680893    0.020354   -0.099454    0.083504
H    -2.622280   -0.620796   -1.010300   -0.950178   -0.737478    0.101370
H     0.562243    0.616228    1.978668    0.024748   -0.098152    0.087712
C    -0.042491    1.493207    1.725999   -0.047676   -0.162162    0.221750
O     0.684075    2.528337    1.100645   -0.233072   -0.175104   -0.324990
H    -5.623069    2.786653    0.435442   -0.000380    0.011618    0.018248
H    -3.725864    1.733655   -0.736438   -0.043186   -0.065930   -0.018254
C    -3.421337    0.246283    0.769134   -0.067326   -0.024930    0.000042
C    -3.840427   -0.247474    1.992280   -0.028418   -0.009258   -0.024186
C    -4.905763    0.343089    2.650473   -0.007872    0.019312    0.008608
C    -5.549952    1.431900    2.092570   -0.006230    0.008300    0.014430
C    -5.125409    1.934496    0.873108   -0.004878    0.008298    0.023722
C    -4.064224    1.344834    0.213597   -0.018398   -0.019980    0.018740
H    -3.331177   -1.099202    2.414970   -0.026450   -0.026490   -0.057932
H    -5.230196   -0.050701    3.601535    0.007326    0.020774    0.018326
H    -6.380893    1.891148    2.605690   -0.020446   -0.004726    0.007126
H    -0.630252    0.207735    3.983952   -0.030114   -0.022896    0.036832
C    -1.107772    1.848318    2.695491   -0.022540   -0.017098    0.036726
C    -1.934099    2.942689    2.473699    0.000426   -0.004068   -0.007134
C    -2.924741    3.247153    3.387979    0.006050    0.001684   -0.004770
C    -3.089572    2.463271    4.518036    0.000758    0.007534   -0.000026
C    -2.265144    1.371748    4.735982   -0.013738   -0.001568    0.018680
C    -1.272614    1.060223    3.825886   -0.015508   -0.016760    0.037820
H    -1.792024    3.541099    1.586011   -0.028534   -0.014330   -0.017346
H    -3.568936    4.094661    3.215974    0.003790   -0.004428   -0.008100
H    -3.864521    2.702391    5.229238   -0.002246    0.011996   -0.007172
H    -2.396518    0.760498    5.614785   -0.029704    0.005852    0.019116
31
* Frequency(6) -516.2500
C    -2.283129   -0.383937   -0.004761   -0.119968   -0.069642   -0.187880
H    -1.254696   -2.054570    0.055367   -0.020876   -0.086164    0.067048
H    -1.544745    0.307574   -0.194268   -0.481260   -0.606190   -0.916928
O    -0.267086    1.671232    0.370650    0.572610    0.586864    0.166188
O    -1.766612   -1.542171    0.689354    0.020354   -0.099454    0.083504
H    -2.718561   -0.695524   -1.000028   -0.950178   -0.737478    0.101370
H     0.564751    0.606282    1.987556    0.024748   -0.098152    0.087712
C    -0.047322    1.476775    1.748469   -0.047676   -0.162162    0.221750
O     0.660457    2.510594    1.067713   -0.233072   -0.175104   -0.324990
H    -5.623108    2.787831    0.437291   -0.000380    0.011618    0.018248
H    -3.730240    1.726975   -0.738288   -0.043186   -0.065930   -0.018254
C    -3.428159    0.243757    0.769138   -0.067326   -0.024930    0.000042
C    -3.843306   -0.248412    1.989830   -0.028418   -0.009258   -0.024186
C    -4.906560    0.345046    2.651346   -0.007872    0.019312    0.008608
C    -5.550583    1.432741    2.094032   -0.006230    0.008300    0.014430
C    -5.125904    1.935337    0.875512   -0.004878    0.008298    0.023722
C    -4.066088    1.342810    0.215496   -0.018398   -0.019980    0.018740
H    -3.333857   -1.101887    2.409100   -0.026450   -0.026490   -0.057932
H    -5.229454   -0.048596    3.603392    0.007326    0.020774    0.018326
H    -6.382964    1.890669    2.606412   -0.020446   -0.004726    0.007126
H    -0.633304    0.205415    3.987684   -0.030114   -0.022896    0.036832
C    -1.110056    1.846585    2.699212   -0.022540   -0.017098    0.036726
C    -1.934055    2.942276    2.472976    0.000426   -0.004068   -0.007134
C    -2.924128    3.247324    3.387496    0.006050    0.001684   -0.004770
C    -3.089495    2.464035    4.518033    0.000758    0.007534   -0.000026
C    -2.266536    1.371589    4.737875   -0.013738   -0.001568    0.018680
C    -1.274186    1.058525    3.829718   -0.015508   -0.016760    0.037820
H    -1.794915    3.539647    1.584253   -0.028534   -0.014330   -0.017346
H    -3.568552    4.094212    3.215154    0.003790   -0.004428   -0.008100
H    -3.864749    2.703607    5.228511   -0.002246    0.011996   -0.007172
H    -2.399528    0.761091    5.616722   -0.029704    0.005852    0.019116
31
* Frequency(6) -516.2500
C    -2.292491   -0.389372   -0.019422   -0.119968   -0.069642   -0.187880
H    -1.256325   -2.061294    0.060599   -0.020876   -0.086164    0.067048
H    -1.582299    0.260270   -0.265819   -0.481260   -0.606190   -0.916928
O    -0.222404    1.717027    0.383618    0.572610    0.586864    0.166188
O    -1.765024   -1.549932    0.695870    0.020354   -0.099454    0.083504
H    -2.792707   -0.753072   -0.992118   -0.950178   -0.737478    0.101370
H     0.566682    0.598623    1.994400    0.024748   -0.098152    0.087712
C    -0.051042    1.464121    1.765773   -0.047676   -0.162162    0.221750
O     0.642270    2.496930    1.042353   -0.233072   -0.175104   -0.324990
H    -5.623137    2.788737    0.438715   -0.000380    0.011618    0.018248
H    -3.733610    1.721830   -0.739713   -0.043186   -0.065930   -0.018254
C    -3.433413    0.241811    0.769141   -0.067326   -0.024930    0.000042
C    -3.845524   -0.249135    1.987942   -0.028418   -0.009258   -0.024186
C    -4.907175    0.346553    2.652017   -0.007872    0.019312    0.008608
C    -5.551069    1.433389    2.095158   -0.006230    0.008300    0.014430
C    -5.126284    1.935984    0.877363   -0.004878    0.008298    0.023722
C    -4.067524    1.341251    0.216958   -0.018398   -0.019980    0.018740
H    -3.335921   -1.103954    2.404579   -0.026450   -0.026490   -0.057932
H    -5.228882   -0.046975    3.604822    0.007326    0.020774    0.018326
H    -6.384560    1.890300    2.606968   -0.020446   -0.004726    0.007126
H    -0.635654    0.203628    3.990558   -0.030114   -0.022896    0.036832
C    -1.111814    1.845251    2.702078   -0.022540   -0.017098    0.036726
C    -1.934022    2.941959    2.472420    0.000426   -0.004068   -0.007134
C    -2.923656    3.247455    3.387123    0.006050    0.001684   -0.004770
C    -3.089436    2.464623    4.518031    0.000758    0.007534   -0.000026
C    -2.267608    1.371467    4.739332   -0.013738   -0.001568    0.018680
C    -1.275396    1.057217    3.832670   -0.015508   -0.016760    0.037820
H    -1.797142    3.538529    1.582899   -0.028534   -0.014330   -0.017346
H    -3.568256    4.093867    3.214522    0.003790   -0.004428   -0.008100
H    -3.864924    2.704543    5.227952   -0.002246    0.011996   -0.007172
H    -2.401846    0.761548    5.618214   -0.029704    0.005852    0.019116
31
* Frequency(6) -516.2500
C    -2.298043   -0.392595   -0.028118   -0.119968   -0.069642   -0.187880
H    -1.257291   -2.065282    0.063702   -0.020876   -0.086164    0.067048
H    -1.604573    0.232215   -0.308257   -0.481260   -0.606190   -0.916928
O    -0.195902    1.744188    0.391310    0.572610    0.586864    0.166188
O    -1.764082   -1.554535    0.699735    0.020354   -0.099454    0.083504
H    -2.836683   -0.787204   -0.987426   -0.950178   -0.737478    0.101370
H     0.567828    0.594080    1.998460    0.024748   -0.098152    0.087712
C    -0.053249    1.456616    1.776036   -0.047676   -0.162162    0.221750
O     0.631483    2.488826    1.027312   -0.233072   -0.175104   -0.324990
H    -5.623155    2.789275    0.439559   -0.000380    0.011618    0.018248
H    -3.735609    1.718779   -0.740557   -0.043186   -0.065930   -0.018254
C    -3.436529    0.240657    0.769143   -0.067326   -0.024930    0.000042
C    -3.846839   -0.249563    1.986823   -0.028418   -0.009258   -0.024186
C    -4.907539    0.347446    2.652416   -0.007872    0.019312    0.008608
C    -5.551358    1.433773    2.095826   -0.006230    0.008300    0.014430
C    -5.126510    1.936368    0.878461   -0.004878    0.008298    0.023722
C    -4.068375    1.340326    0.217825   -0.018398   -0.019980    0.018740
H    -3.337145   -1.105180    2.401898   -0.026450   -0.026490   -0.057932
H    -5.228543   -0.046014    3.605670    0.007326    0.020774    0.018326
H    -6.385506    1.890082    2.607298   -0.020446   -0.004726    0.007126
H    -0.637047    0.202569    3.992263   -0.030114   -0.022896    0.036832
C    -1.112858    1.844460    2.703778   -0.022540   -0.017098    0.036726
C    -1.934002    2.941771    2.472090    0.000426   -0.004068   -0.007134
C    -2.923376    3.247533    3.386903    0.006050    0.001684   -0.004770
C    -3.089401    2.464971    4.518030    0.000758    0.007534   -0.000026
C    -2.268244    1.371394    4.740197   -0.013738   -0.001568    0.018680
C    -1.276114    1.056441    3.834420   -0.015508   -0.016760    0.037820
H    -1.798462    3.537866    1.582097   -0.028534   -0.014330   -0.017346
H    -3.568081    4.093662    3.214147    0.003790   -0.004428   -0.008100
H    -3.865028    2.705098    5.227620   -0.002246    0.011996   -0.007172
H    -2.403220    0.761819    5.619099   -0.029704    0.005852    0.019116
31
* Frequency(6) -516.2500
C    -2.299184   -0.393257   -0.029905   -0.119968   -0.069642   -0.187880
H    -1.257490   -2.066101    0.064340   -0.020876   -0.086164    0.067048
H    -1.609152    0.226447   -0.316981   -0.481260   -0.606190   -0.916928
O    -0.190454    1.749772    0.392891    0.572610    0.586864    0.166188
O    -1.763888   -1.555481    0.700530    0.020354   -0.099454    0.083504
H    -2.845723   -0.794221   -0.986462   -0.950178   -0.737478    0.101370
H     0.568063    0.593146    1.999294    0.024748   -0.098152    0.087712
C    -0.053703    1.455073    1.778145   -0.047676   -0.162162    0.221750
O     0.629265    2.487160    1.024220   -0.233072   -0.175104   -0.324990
H    -5.623159    2.789385    0.439733   -0.000380    0.011618    0.018248
H    -3.736019    1.718151   -0.740731   -0.043186   -0.065930   -0.018254
C    -3.437170    0.240420    0.769144   -0.067326   -0.024930    0.000042
C    -3.847109   -0.249651    1.986593   -0.028418   -0.009258   -0.024186
C    -4.907614    0.347630    2.652498   -0.007872    0.019312    0.008608
C    -5.551417    1.433852    2.095963   -0.006230    0.008300    0.014430
C    -5.126556    1.936447    0.878686   -0.004878    0.008298    0.023722
C    -4.068550    1.340136    0.218004   -0.018398   -0.019980    0.018740
H    -3.337397   -1.105432    2.401347   -0.026450   -0.026490   -0.057932
H    -5.228474   -0.045816    3.605844    0.007326    0.020774    0.018326
H    -6.385701    1.890037    2.607366   -0.020446   -0.004726    0.007126
H    -0.637334    0.202351    3.992613   -0.030114   -0.022896    0.036832
C    -1.113072    1.844297    2.704127   -0.022540   -0.017098    0.036726
C    -1.933998    2.941732    2.472022    0.000426   -0.004068   -0.007134
C    -2.923319    3.247549    3.386857    0.006050    0.001684   -0.004770
C    -3.089394    2.465043    4.518030    0.000758    0.007534   -0.000026
C    -2.268375    1.371379    4.740375   -0.013738   -0.001568    0.018680
C    -1.276261    1.056282    3.834780   -0.015508   -0.016760    0.037820
H    -1.798734    3.537730    1.581932   -0.028534   -0.014330   -0.017346
H    -3.568045    4.093619    3.214070    0.003790   -0.004428   -0.008100
H    -3.865049    2.705212    5.227551   -0.002246    0.011996   -0.007172
H    -2.403503    0.761874    5.619281   -0.029704    0.005852    0.019116
31
* Frequency(6) -516.2500
C    -2.295791   -0.391288   -0.024591   -0.119968   -0.069642   -0.187880
H    -1.256899   -2.063664    0.062443   -0.020876   -0.086164    0.067048
H    -1.595540    0.243593   -0.291046   -0.481260   -0.606190   -0.916928
O    -0.206650    1.733173    0.388191    0.572610    0.586864    0.166188
O    -1.764464   -1.552668    0.698168    0.020354   -0.099454    0.083504
H    -2.818849   -0.773362   -0.989329   -0.950178   -0.737478    0.101370
H     0.567363    0.595922    1.996814    0.024748   -0.098152    0.087712
C    -0.052354    1.459660    1.771873   -0.047676   -0.162162    0.221750
O     0.635858    2.492113    1.033412   -0.233072   -0.175104   -0.324990
H    -5.623148    2.789057    0.439217   -0.000380    0.011618    0.018248
H    -3.734798    1.720016   -0.740215   -0.043186   -0.065930   -0.018254
C    -3.435265    0.241125    0.769142   -0.067326   -0.024930    0.000042
C    -3.846306   -0.249389    1.987277   -0.028418   -0.009258   -0.024186
C    -4.907391    0.347084    2.652254   -0.007872    0.019312    0.008608
C    -5.551241    1.433617    2.095555   -0.006230    0.008300    0.014430
C    -5.126418    1.936213    0.878015   -0.004878    0.008298    0.023722
C    -4.068030    1.340701    0.217474   -0.018398   -0.019980    0.018740
H    -3.336649   -1.104683    2.402986   -0.026450   -0.026490   -0.057932
H    -5.228681   -0.046404    3.605326    0.007326    0.020774    0.018326
H    -6.385122    1.890170    2.607164   -0.020446   -0.004726    0.007126
H    -0.636482    0.202998    3.991571   -0.030114   -0.022896    0.036832
C    -1.112435    1.844781    2.703088   -0.022540   -0.017098    0.036726
C    -1.934010    2.941847    2.472223    0.000426   -0.004068   -0.007134
C    -2.923490    3.247502    3.386992    0.006050    0.001684   -0.004770
C    -3.089415    2.464830    4.518031    0.000758    0.007534   -0.000026
C    -2.267986    1.371423    4.739846   -0.013738   -0.001568    0.018680
C    -1.275823    1.056756    3.833710   -0.015508   -0.016760    0.037820
H    -1.797927    3.538135    1.582422   -0.028534   -0.014330   -0.017346
H    -3.568152    4.093745    3.214299    0.003790   -0.004428   -0.008100
H    -3.864986    2.704873    5.227754   -0.002246    0.011996   -0.007172
H    -2.402663    0.761709    5.618740   -0.029704    0.005852    0.019116
31
* Frequency(6) -516.2500
C    -2.288231   -0.386899   -0.012752   -0.119968   -0.069642   -0.187880
H    -1.255584   -2.058235    0.058218   -0.020876   -0.086164    0.067048
H    -1.565212    0.281793   -0.233264   -0.481260   -0.606190   -0.916928
O    -0.242734    1.696190    0.377718    0.572610    0.586864    0.166188
O    -1.765747   -1.546401    0.692906    0.020354   -0.099454    0.083504
H    -2.758971   -0.726888   -0.995717   -0.950178   -0.737478    0.101370
H     0.565804    0.602108    1.991286    0.024748   -0.098152    0.087712
C    -0.049350    1.469879    1.757899   -0.047676   -0.162162    0.221750
O     0.650545    2.503147    1.053892   -0.233072   -0.175104   -0.324990
H    -5.623124    2.788325    0.438067   -0.000380    0.011618    0.018248
H    -3.732077    1.724171   -0.739064   -0.043186   -0.065930   -0.018254
C    -3.431023    0.242696    0.769140   -0.067326   -0.024930    0.000042
C    -3.844515   -0.248806    1.988801   -0.028418   -0.009258   -0.024186
C    -4.906895    0.345867    2.651712   -0.007872    0.019312    0.008608
C    -5.550848    1.433094    2.094646   -0.006230    0.008300    0.014430
C    -5.126111    1.935690    0.876520   -0.004878    0.008298    0.023722
C    -4.066871    1.341960    0.216293   -0.018398   -0.019980    0.018740
H    -3.334982   -1.103013    2.406636   -0.026450   -0.026490   -0.057932
H    -5.229143   -0.047713    3.604171    0.007326    0.020774    0.018326
H    -6.383834    1.890468    2.606715   -0.020446   -0.004726    0.007126
H    -0.634584    0.204441    3.989250   -0.030114   -0.022896    0.036832
C    -1.111014    1.845858    2.700774   -0.022540   -0.017098    0.036726
C    -1.934037    2.942103    2.472673    0.000426   -0.004068   -0.007134
C    -2.923871    3.247396    3.387293    0.006050    0.001684   -0.004770
C    -3.089463    2.464355    4.518032    0.000758    0.007534   -0.000026
C    -2.267121    1.371522    4.738669   -0.013738   -0.001568    0.018680
C    -1.274845    1.057812    3.831327   -0.015508   -0.016760    0.037820
H    -1.796129    3.539038    1.583515   -0.028534   -0.014330   -0.017346
H    -3.568391    4.094024    3.214809    0.003790   -0.004428   -0.008100
H    -3.864844    2.704117    5.228206   -0.002246    0.011996   -0.007172
H    -2.400791    0.761340    5.617535   -0.029704    0.005852    0.019116
31
* Frequency(6) -516.2500
C    -2.277323   -0.380567    0.004331   -0.119968   -0.069642   -0.187880
H    -1.253686   -2.050400    0.052122   -0.020876   -0.086164    0.067048
H    -1.521455    0.336909   -0.149895   -0.481260   -0.606190   -0.916928
O    -0.294797    1.642832    0.362608    0.572610    0.586864    0.166188
O    -1.767597   -1.537358    0.685313    0.020354   -0.099454    0.083504
H    -2.672579   -0.659835   -1.004934   -0.950178   -0.737478    0.101370
H     0.563554    0.611032    1.983311    0.024748   -0.098152    0.087712
C    -0.045015    1.484623    1.737737   -0.047676   -0.162162    0.221750
O     0.671736    2.519068    1.083441   -0.233072   -0.175104   -0.324990
H    -5.623089    2.787268    0.436408   -0.000380    0.011618    0.018248
H    -3.728150    1.730165   -0.737405   -0.043186   -0.065930   -0.018254
C    -3.424901    0.244963    0.769136   -0.067326   -0.024930    0.000042
C    -3.841931   -0.247964    1.991000   -0.028418   -0.009258   -0.024186
C    -4.906179    0.344111    2.650929   -0.007872    0.019312    0.008608
C    -5.550282    1.432340    2.093334   -0.006230    0.008300    0.014430
C    -5.125668    1.934935    0.874364   -0.004878    0.008298    0.023722
C    -4.065198    1.343777    0.214589   -0.018398   -0.019980    0.018740
H    -3.332577   -1.100605    2.411904   -0.026450   -0.026490   -0.057932
H    -5.229809   -0.049601    3.602505    0.007326    0.020774    0.018326
H    -6.381975    1.890898    2.606067   -0.020446   -0.004726    0.007126
H    -0.631846    0.206523    3.985902   -0.030114   -0.022896    0.036832
C    -1.108965    1.847413    2.697435   -0.022540   -0.017098    0.036726
C    -1.934076    2.942473    2.473322    0.000426   -0.004068   -0.007134
C    -2.924421    3.247243    3.387726    0.006050    0.001684   -0.004770
C    -3.089532    2.463670    4.518035    0.000758    0.007534   -0.000026
C    -2.265871    1.371665    4.736971   -0.013738   -0.001568    0.018680
C    -1.273435    1.059336    3.827888   -0.015508   -0.016760    0.037820
H    -1.793534    3.540341    1.585092   -0.028534   -0.014330   -0.017346
H    -3.568736    4.094426    3.215546    0.003790   -0.004428   -0.008100
H    -3.864640    2.703026    5.228858   -0.002246    0.011996   -0.007172
H    -2.398090    0.760808    5.615797   -0.029704    0.005852    0.019116
31
* Frequency(6) -516.2500
C    -2.264250   -0.372978    0.024805   -0.119968   -0.069642   -0.187880
H    -1.251411   -2.041011    0.044816   -0.020876   -0.086164    0.067048
H    -1.469010    0.402968   -0.049974   -0.481260   -0.606190   -0.916928
O    -0.357196    1.578879    0.344498    0.572610    0.586864    0.166188
O    -1.769815   -1.526520    0.676214    0.020354   -0.099454    0.083504
H    -2.569035   -0.579470   -1.015980   -0.950178   -0.737478    0.101370
H     0.560857    0.621728    1.973753    0.024748   -0.098152    0.087712
C    -0.039820    1.502294    1.713573   -0.047676   -0.162162    0.221750
O     0.697135    2.538150    1.118856   -0.233072   -0.175104   -0.324990
H    -5.623048    2.786002    0.434419   -0.000380    0.011618    0.018248
H    -3.723444    1.737350   -0.735416   -0.043186   -0.065930   -0.018254
C    -3.417565    0.247680    0.769131   -0.067326   -0.024930    0.000042
C    -3.838834   -0.246955    1.993636   -0.028418   -0.009258   -0.024186
C    -4.905321    0.342007    2.649991   -0.007872    0.019312    0.008608
C    -5.549603    1.431435    2.091761   -0.006230    0.008300    0.014430
C    -5.125136    1.934031    0.871779   -0.004878    0.008298    0.023722
C    -4.063193    1.345954    0.212547   -0.018398   -0.019980    0.018740
H    -3.329695   -1.097718    2.418217   -0.026450   -0.026490   -0.057932
H    -5.230607   -0.051865    3.600508    0.007326    0.020774    0.018326
H    -6.379747    1.891413    2.605291   -0.020446   -0.004726    0.007126
H    -0.628565    0.209018    3.981888   -0.030114   -0.022896    0.036832
C    -1.106508    1.849276    2.693433   -0.022540   -0.017098    0.036726
C    -1.934122    2.942917    2.474099    0.000426   -0.004068   -0.007134
C    -2.925080    3.247059    3.388246    0.006050    0.001684   -0.004770
C    -3.089614    2.462849    4.518038    0.000758    0.007534   -0.000026
C    -2.264374    1.371836    4.734935   -0.013738   -0.001568    0.018680
C    -1.271745    1.061162    3.823767   -0.015508   -0.016760    0.037820
H    -1.790425    3.541902    1.586983   -0.028534   -0.014330   -0.017346
H    -3.569149    4.094909    3.216428    0.003790   -0.004428   -0.008100
H    -3.864395    2.701719    5.229640   -0.002246    0.011996   -0.007172
H    -2.394853    0.760170    5.613714   -0.029704    0.005852    0.019116
31
* Frequency(6) -516.2500
C    -2.250428   -0.364954    0.046451   -0.119968   -0.069642   -0.187880
H    -1.249005   -2.031083    0.037090   -0.020876   -0.086164    0.067048
H    -1.413562    0.472810    0.055670   -0.481260   -0.606190   -0.916928
O    -0.423170    1.511263    0.325350    0.572610    0.586864    0.166188
O    -1.772161   -1.515062    0.666592    0.020354   -0.099454    0.083504
H    -2.459559   -0.494500   -1.027660   -0.950178   -0.737478    0.101370
H     0.558005    0.633036    1.963647    0.024748   -0.098152    0.087712
C    -0.034326    1.520978    1.688023   -0.047676   -0.162162    0.221750
O     0.723989    2.558324    1.156300   -0.233072   -0.175104   -0.324990
H    -5.623004    2.784664    0.432317   -0.000380    0.011618    0.018248
H    -3.718468    1.744946   -0.733312   -0.043186   -0.065930   -0.018254
C    -3.409807    0.250552    0.769127   -0.067326   -0.024930    0.000042
C    -3.835560   -0.245889    1.996422   -0.028418   -0.009258   -0.024186
C    -4.904415    0.339781    2.648999   -0.007872    0.019312    0.008608
C    -5.548885    1.430479    2.090099   -0.006230    0.008300    0.014430
C    -5.124574    1.933075    0.869045   -0.004878    0.008298    0.023722
C    -4.061073    1.348256    0.210387   -0.018398   -0.019980    0.018740
H    -3.326647   -1.094666    2.424891   -0.026450   -0.026490   -0.057932
H    -5.231451   -0.054259    3.598396    0.007326    0.020774    0.018326
H    -6.377391    1.891957    2.604469   -0.020446   -0.004726    0.007126
H    -0.625095    0.211656    3.977644   -0.030114   -0.022896    0.036832
C    -1.103912    1.851246    2.689201   -0.022540   -0.017098    0.036726
C    -1.934172    2.943385    2.474921    0.000426   -0.004068   -0.007134
C    -2.925778    3.246865    3.388796    0.006050    0.001684   -0.004770
C    -3.089702    2.461981    4.518040    0.000758    0.007534   -0.000026
C    -2.262792    1.372016    4.732783   -0.013738   -0.001568    0.018680
C    -1.269959    1.063094    3.819409   -0.015508   -0.016760    0.037820
H    -1.787137    3.543554    1.588981   -0.028534   -0.014330   -0.017346
H    -3.569585    4.095419    3.217362    0.003790   -0.004428   -0.008100
H    -3.864137    2.700337    5.230466   -0.002246    0.011996   -0.007172
H    -2.391431    0.759496    5.611512   -0.029704    0.005852    0.019116
31
* Frequency(6) -516.2500
C    -2.237355   -0.357365    0.066925   -0.119968   -0.069642   -0.187880
H    -1.246730   -2.021694    0.029784   -0.020876   -0.086164    0.067048
H    -1.361117    0.538869    0.155591   -0.481260   -0.606190   -0.916928
O    -0.485569    1.447310    0.307240    0.572610    0.586864    0.166188
O    -1.774379   -1.504224    0.657493    0.020354   -0.099454    0.083504
H    -2.356015   -0.414135   -1.038706   -0.950178   -0.737478    0.101370
H     0.555308    0.643732    1.954089    0.024748   -0.098152    0.087712
C    -0.029131    1.538649    1.663859   -0.047676   -0.162162    0.221750
O     0.749388    2.577406    1.191715   -0.233072   -0.175104   -0.324990
H    -5.622963    2.783398    0.430328   -0.000380    0.011618    0.018248
H    -3.713762    1.752131   -0.731323   -0.043186   -0.065930   -0.018254
C    -3.402471    0.253269    0.769122   -0.067326   -0.024930    0.000042
C    -3.832463   -0.244880    1.999058   -0.028418   -0.009258   -0.024186
C    -4.903557    0.337677    2.648061   -0.007872    0.019312    0.008608
C    -5.548206    1.429574    2.088526   -0.006230    0.008300    0.014430
C    -5.124042    1.932171    0.866460   -0.004878    0.008298    0.023722
C    -4.059068    1.350433    0.208345   -0.018398   -0.019980    0.018740
H    -3.323765   -1.091779    2.431204   -0.026450   -0.026490   -0.057932
H    -5.232249   -0.056523    3.596399    0.007326    0.020774    0.018326
H    -6.375163    1.892472    2.603693   -0.020446   -0.004726    0.007126
H    -0.621814    0.214151    3.973630   -0.030114   -0.022896    0.036832
C    -1.101455    1.853109    2.685199   -0.022540   -0.017098    0.036726
C    -1.934218    2.943829    2.475698    0.000426   -0.004068   -0.007134
C    -2.926437    3.246681    3.389316    0.006050    0.001684   -0.004770
C    -3.089784    2.461160    4.518043    0.000758    0.007534   -0.000026
C    -2.261295    1.372187    4.730747   -0.013738   -0.001568    0.018680
C    -1.268269    1.064920    3.815288   -0.015508   -0.016760    0.037820
H    -1.784028    3.545115    1.590872   -0.028534   -0.014330   -0.017346
H    -3.569998    4.095902    3.218244    0.003790   -0.004428   -0.008100
H    -3.863892    2.699030    5.231248   -0.002246    0.011996   -0.007172
H    -2.388194    0.758858    5.609429   -0.029704    0.005852    0.019116
31
* Frequency(6) -516.2500
C    -2.226447   -0.351033    0.084008   -0.119968   -0.069642   -0.187880
H    -1.244832   -2.013859    0.023688   -0.020876   -0.086164    0.067048
H    -1.317360    0.593985    0.238960   -0.481260   -0.606190   -0.916928
O    -0.537632    1.393952    0.292130    0.572610    0.586864    0.166188
O    -1.776229   -1.495181    0.649900    0.020354   -0.099454    0.083504
H    -2.269623   -0.347082   -1.047923   -0.950178   -0.737478    0.101370
H     0.553058    0.652656    1.946114    0.024748   -0.098152    0.087712
C    -0.024796    1.553393    1.643697   -0.047676   -0.162162    0.221750
O     0.770579    2.593327    1.221264   -0.233072   -0.175104   -0.324990
H    -5.622928    2.782341    0.428669   -0.000380    0.011618    0.018248
H    -3.709835    1.758125   -0.729664   -0.043186   -0.065930   -0.018254
C    -3.396349    0.255536    0.769118   -0.067326   -0.024930    0.000042
C    -3.829879   -0.244038    2.001257   -0.028418   -0.009258   -0.024186
C    -4.902841    0.335921    2.647278   -0.007872    0.019312    0.008608
C    -5.547640    1.428820    2.087214   -0.006230    0.008300    0.014430
C    -5.123599    1.931416    0.864304   -0.004878    0.008298    0.023722
C    -4.057395    1.352250    0.206641   -0.018398   -0.019980    0.018740
H    -3.321360   -1.089371    2.436472   -0.026450   -0.026490   -0.057932
H    -5.232915   -0.058411    3.594733    0.007326    0.020774    0.018326
H    -6.373304    1.892902    2.603045   -0.020446   -0.004726    0.007126
H    -0.619076    0.216233    3.970282   -0.030114   -0.022896    0.036832
C    -1.099406    1.854664    2.681860   -0.022540   -0.017098    0.036726
C    -1.934257    2.944199    2.476347    0.000426   -0.004068   -0.007134
C    -2.926987    3.246528    3.389749    0.006050    0.001684   -0.004770
C    -3.089853    2.460475    4.518046    0.000758    0.007534   -0.000026
C    -2.260045    1.372330    4.729049   -0.013738   -0.001568    0.018680
C    -1.266859    1.066444    3.811849   -0.015508   -0.016760    0.037820
H    -1.781433    3.546418    1.592449   -0.028534   -0.014330   -0.017346
H    -3.570343    4.096304    3.218981    0.003790   -0.004428   -0.008100
H    -3.863688    2.697939    5.231900   -0.002246    0.011996   -0.007172
H    -2.385493    0.758326    5.607691   -0.029704    0.005852    0.019116
31
* Frequency(6) -516.2500
C    -2.218887   -0.346644    0.095847   -0.119968   -0.069642   -0.187880
H    -1.243517   -2.008430    0.019463   -0.020876   -0.086164    0.067048
H    -1.287032    0.632185    0.296742   -0.481260   -0.606190   -0.916928
O    -0.573716    1.356969    0.281657    0.572610    0.586864    0.166188
O    -1.777512   -1.488914    0.644638    0.020354   -0.099454    0.083504
H    -2.209745   -0.300608   -1.054311   -0.950178   -0.737478    0.101370
H     0.551499    0.658842    1.940586    0.024748   -0.098152    0.087712
C    -0.021792    1.563612    1.629723   -0.047676   -0.162162    0.221750
O     0.785266    2.604361    1.241744   -0.233072   -0.175104   -0.324990
H    -5.622904    2.781609    0.427519   -0.000380    0.011618    0.018248
H    -3.707114    1.762280   -0.728513   -0.043186   -0.065930   -0.018254
C    -3.392107    0.257107    0.769116   -0.067326   -0.024930    0.000042
C    -3.828088   -0.243455    2.002781   -0.028418   -0.009258   -0.024186
C    -4.902345    0.334704    2.646736   -0.007872    0.019312    0.008608
C    -5.547247    1.428297    2.086305   -0.006230    0.008300    0.014430
C    -5.123292    1.930893    0.862809   -0.004878    0.008298    0.023722
C    -4.056236    1.353509    0.205460   -0.018398   -0.019980    0.018740
H    -3.319693   -1.087701    2.440122   -0.026450   -0.026490   -0.057932
H    -5.233377   -0.059720    3.593578    0.007326    0.020774    0.018326
H    -6.372016    1.893200    2.602596   -0.020446   -0.004726    0.007126
H    -0.617178    0.217676    3.967961   -0.030114   -0.022896    0.036832
C    -1.097985    1.855741    2.679546   -0.022540   -0.017098    0.036726
C    -1.934284    2.944455    2.476797    0.000426   -0.004068   -0.007134
C    -2.927368    3.246422    3.390050    0.006050    0.001684   -0.004770
C    -3.089901    2.460000    4.518047    0.000758    0.007534   -0.000026
C    -2.259180    1.372429    4.727872   -0.013738   -0.001568    0.018680
C    -1.265881    1.067500    3.809466   -0.015508   -0.016760    0.037820
H    -1.779635    3.547321    1.593542   -0.028534   -0.014330   -0.017346
H    -3.570582    4.096583    3.219491    0.003790   -0.004428   -0.008100
H    -3.863546    2.697183    5.232352   -0.002246    0.011996   -0.007172
H    -2.383621    0.757957    5.606486   -0.029704    0.005852    0.019116
31
* Frequency(6) -516.2500
C    -2.215494   -0.344675    0.101161   -0.119968   -0.069642   -0.187880
H    -1.242926   -2.005993    0.017566   -0.020876   -0.086164    0.067048
H    -1.273420    0.649331    0.322677   -0.481260   -0.606190   -0.916928
O    -0.589912    1.340370    0.276957    0.572610    0.586864    0.166188
O    -1.778088   -1.486101    0.642276    0.020354   -0.099454    0.083504
H    -2.182871   -0.279749   -1.057178   -0.950178   -0.737478    0.101370
H     0.550799    0.661618    1.938106    0.024748   -0.098152    0.087712
C    -0.020443    1.568199    1.623451   -0.047676   -0.162162    0.221750
O     0.791859    2.609314    1.250936   -0.233072   -0.175104   -0.324990
H    -5.622893    2.781281    0.427003   -0.000380    0.011618    0.018248
H    -3.705893    1.764145   -0.727997   -0.043186   -0.065930   -0.018254
C    -3.390202    0.257812    0.769114   -0.067326   -0.024930    0.000042
C    -3.827285   -0.243193    2.003465   -0.028418   -0.009258   -0.024186
C    -4.902122    0.334158    2.646492   -0.007872    0.019312    0.008608
C    -5.547071    1.428062    2.085897   -0.006230    0.008300    0.014430
C    -5.123154    1.930659    0.862138   -0.004878    0.008298    0.023722
C    -4.055716    1.354074    0.204930   -0.018398   -0.019980    0.018740
H    -3.318945   -1.086952    2.441761   -0.026450   -0.026490   -0.057932
H    -5.233584   -0.060308    3.593060    0.007326    0.020774    0.018326
H    -6.371437    1.893333    2.602394   -0.020446   -0.004726    0.007126
H    -0.616326    0.218323    3.966919   -0.030114   -0.022896    0.036832
C    -1.097348    1.856225    2.678507   -0.022540   -0.017098    0.036726
C    -1.934296    2.944570    2.476998    0.000426   -0.004068   -0.007134
C    -2.927539    3.246375    3.390185    0.006050    0.001684   -0.004770
C    -3.089922    2.459787    4.518048    0.000758    0.007534   -0.000026
C    -2.258791    1.372473    4.727343   -0.013738   -0.001568    0.018680
C    -1.265443    1.067974    3.808396   -0.015508   -0.016760    0.037820
H    -1.778828    3.547726    1.594032   -0.028534   -0.014330   -0.017346
H    -3.570689    4.096709    3.219720    0.003790   -0.004428   -0.008100
H    -3.863483    2.696844    5.232555   -0.002246    0.011996   -0.007172
H    -2.382781    0.757792    5.605945   -0.029704    0.005852    0.019116
31
* Frequency(6) -516.2500
C    -2.216635   -0.345337    0.099374   -0.119968   -0.069642   -0.187880
H    -1.243125   -2.006812    0.018204   -0.020876   -0.086164    0.067048
H    -1.277999    0.643563    0.313953   -0.481260   -0.606190   -0.916928
O    -0.584464    1.345954    0.278538    0.572610    0.586864    0.166188
O    -1.777894   -1.487047    0.643071    0.020354   -0.099454    0.083504
H    -2.191911   -0.286766   -1.056214   -0.950178   -0.737478    0.101370
H     0.551034    0.660684    1.938940    0.024748   -0.098152    0.087712
C    -0.020897    1.566656    1.625560   -0.047676   -0.162162    0.221750
O     0.789641    2.607648    1.247844   -0.233072   -0.175104   -0.324990
H    -5.622897    2.781391    0.427177   -0.000380    0.011618    0.018248
H    -3.706303    1.763517   -0.728171   -0.043186   -0.065930   -0.018254
C    -3.390843    0.257575    0.769115   -0.067326   -0.024930    0.000042
C    -3.827555   -0.243281    2.003235   -0.028418   -0.009258   -0.024186
C    -4.902197    0.334342    2.646574   -0.007872    0.019312    0.008608
C    -5.547130    1.428141    2.086034   -0.006230    0.008300    0.014430
C    -5.123200    1.930738    0.862363   -0.004878    0.008298    0.023722
C    -4.055891    1.353884    0.205109   -0.018398   -0.019980    0.018740
H    -3.319197   -1.087204    2.441210   -0.026450   -0.026490   -0.057932
H    -5.233515   -0.060110    3.593234    0.007326    0.020774    0.018326
H    -6.371632    1.893288    2.602462   -0.020446   -0.004726    0.007126
H    -0.616613    0.218105    3.967269   -0.030114   -0.022896    0.036832
C    -1.097562    1.856062    2.678856   -0.022540   -0.017098    0.036726
C    -1.934292    2.944531    2.476930    0.000426   -0.004068   -0.007134
C    -2.927482    3.246391    3.390139    0.006050    0.001684   -0.004770
C    -3.089915    2.459859    4.518048    0.000758    0.007534   -0.000026
C    -2.258922    1.372458    4.727521   -0.013738   -0.001568    0.018680
C    -1.265590    1.067815    3.808756   -0.015508   -0.016760    0.037820
H    -1.779100    3.547590    1.593867   -0.028534   -0.014330   -0.017346
H    -3.570653    4.096666    3.219643    0.003790   -0.004428   -0.008100
H    -3.863504    2.696958    5.232486   -0.002246    0.011996   -0.007172
H    -2.383064    0.757847    5.606127   -0.029704    0.005852    0.019116
31
* Frequency(6) -516.2500
C    -2.222187   -0.348560    0.090678   -0.119968   -0.069642   -0.187880
H    -1.244091   -2.010800    0.021307   -0.020876   -0.086164    0.067048
H    -1.300273    0.615508    0.271515   -0.481260   -0.606190   -0.916928
O    -0.557962    1.373115    0.286230    0.572610    0.586864    0.166188
O    -1.776952   -1.491650    0.646936    0.020354   -0.099454    0.083504
H    -2.235887   -0.320898   -1.051522   -0.950178   -0.737478    0.101370
H     0.552180    0.656141    1.943000    0.024748   -0.098152    0.087712
C    -0.023104    1.559151    1.635823   -0.047676   -0.162162    0.221750
O     0.778854    2.599544    1.232803   -0.233072   -0.175104   -0.324990
H    -5.622915    2.781929    0.428021   -0.000380    0.011618    0.018248
H    -3.708302    1.760466   -0.729015   -0.043186   -0.065930   -0.018254
C    -3.393959    0.256421    0.769117   -0.067326   -0.024930    0.000042
C    -3.828870   -0.243709    2.002116   -0.028418   -0.009258   -0.024186
C    -4.902561    0.335235    2.646973   -0.007872    0.019312    0.008608
C    -5.547419    1.428525    2.086702   -0.006230    0.008300    0.014430
C    -5.123426    1.931122    0.863461   -0.004878    0.008298    0.023722
C    -4.056742    1.352959    0.205976   -0.018398   -0.019980    0.018740
H    -3.320421   -1.088430    2.438529   -0.026450   -0.026490   -0.057932
H    -5.233176   -0.059149    3.594082    0.007326    0.020774    0.018326
H    -6.372578    1.893070    2.602792   -0.020446   -0.004726    0.007126
H    -0.618006    0.217046    3.968974   -0.030114   -0.022896    0.036832
C    -1.098606    1.855271    2.680556   -0.022540   -0.017098    0.036726
C    -1.934272    2.944343    2.476600    0.000426   -0.004068   -0.007134
C    -2.927202    3.246469    3.389919    0.006050    0.001684   -0.004770
C    -3.089880    2.460207    4.518047    0.000758    0.007534   -0.000026
C    -2.259558    1.372385    4.728386   -0.013738   -0.001568    0.018680
C    -1.266308    1.067039    3.810506   -0.015508   -0.016760    0.037820
H    -1.780420    3.546927    1.593065   -0.028534   -0.014330   -0.017346
H    -3.570478    4.096461    3.219268    0.003790   -0.004428   -0.008100
H    -3.863608    2.697513    5.232154   -0.002246    0.011996   -0.007172
H    -2.384438    0.758118    5.607012   -0.029704    0.005852    0.019116
31
* Frequency(6) -516.2500
C    -2.231549   -0.353995    0.076017   -0.119968   -0.069642   -0.187880
H    -1.245720   -2.017524    0.026539   -0.020876   -0.086164    0.067048
H    -1.337827    0.568204    0.199964   -0.481260   -0.606190   -0.916928
O    -0.513280    1.418910    0.299198    0.572610    0.586864    0.166188
O    -1.775364   -1.499411    0.653452    0.020354   -0.099454    0.083504
H    -2.310033   -0.378446   -1.043612   -0.950178   -0.737478    0.101370
H     0.554111    0.648482    1.949844    0.024748   -0.098152    0.087712
C    -0.026824    1.546497    1.653127   -0.047676   -0.162162    0.221750
O     0.760667    2.585880    1.207443   -0.233072   -0.175104   -0.324990
H    -5.622944    2.782835    0.429445   -0.000380    0.011618    0.018248
H    -3.711672    1.755321   -0.730440   -0.043186   -0.065930   -0.018254
C    -3.399213    0.254475    0.769120   -0.067326   -0.024930    0.000042
C    -3.831088   -0.244432    2.000228   -0.028418   -0.009258   -0.024186
C    -4.903176    0.336742    2.647644   -0.007872    0.019312    0.008608
C    -5.547905    1.429173    2.087828   -0.006230    0.008300    0.014430
C    -5.123806    1.931769    0.865312   -0.004878    0.008298    0.023722
C    -4.058178    1.351400    0.207438   -0.018398   -0.019980    0.018740
H    -3.322485   -1.090497    2.434008   -0.026450   -0.026490   -0.057932
H    -5.232604   -0.057528    3.595512    0.007326    0.020774    0.018326
H    -6.374174    1.892701    2.603348   -0.020446   -0.004726    0.007126
H    -0.620356    0.215259    3.971848   -0.030114   -0.022896    0.036832
C    -1.100364    1.853937    2.683422   -0.022540   -0.017098    0.036726
C    -1.934239    2.944026    2.476044    0.000426   -0.004068   -0.007134
C    -2.926730    3.246600    3.389546    0.006050    0.001684   -0.004770
C    -3.089821    2.460795    4.518045    0.000758    0.007534   -0.000026
C    -2.260630    1.372263    4.729843   -0.013738   -0.001568    0.018680
C    -1.267518    1.065731    3.813458   -0.015508   -0.016760    0.037820
H    -1.782647    3.545809    1.591711   -0.028534   -0.014330   -0.017346
H    -3.570182    4.096116    3.218636    0.003790   -0.004428   -0.008100
H    -3.863783    2.698449    5.231595   -0.002246    0.011996   -0.007172
H    -2.386756    0.758575    5.608504   -0.029704    0.005852    0.019116
31
* Frequency(6) -516.2500
C    -2.243705   -0.361052    0.056980   -0.119968   -0.069642   -0.187880
H    -1.247836   -2.026255    0.033333   -0.020876   -0.086164    0.067048
H    -1.386593    0.506779    0.107052   -0.481260   -0.606190   -0.916928
O    -0.455257    1.478377    0.316038    0.572610    0.586864    0.166188
O    -1.773301   -1.509489    0.661913    0.020354   -0.099454    0.083504
H    -2.406314   -0.453174   -1.033340   -0.950178   -0.737478    0.101370
H     0.556619    0.638536    1.958732    0.024748   -0.098152    0.087712
C    -0.031655    1.530065    1.675597   -0.047676   -0.162162    0.221750
O     0.737049    2.568137    1.174511   -0.233072   -0.175104   -0.324990
H    -5.622983    2.784013    0.431294   -0.000380    0.011618    0.018248
H    -3.716048    1.748641   -0.732290   -0.043186   -0.065930   -0.018254
C    -3.406035    0.251949    0.769124   -0.067326   -0.024930    0.000042
C    -3.833967   -0.245370    1.997778   -0.028418   -0.009258   -0.024186
C    -4.903973    0.338699    2.648517   -0.007872    0.019312    0.008608
C    -5.548536    1.430014    2.089290   -0.006230    0.008300    0.014430
C    -5.124301    1.932610    0.867716   -0.004878    0.008298    0.023722
C    -4.060042    1.349376    0.209337   -0.018398   -0.019980    0.018740
H    -3.325165   -1.093182    2.428138   -0.026450   -0.026490   -0.057932
H    -5.231862   -0.055423    3.597369    0.007326    0.020774    0.018326
H    -6.376245    1.892222    2.604070   -0.020446   -0.004726    0.007126
H    -0.623408    0.212939    3.975580   -0.030114   -0.022896    0.036832
C    -1.102648    1.852204    2.687143   -0.022540   -0.017098    0.036726
C    -1.934195    2.943613    2.475321    0.000426   -0.004068   -0.007134
C    -2.926117    3.246771    3.389063    0.006050    0.001684   -0.004770
C    -3.089744    2.461559    4.518042    0.000758    0.007534   -0.000026
C    -2.262022    1.372104    4.731736   -0.013738   -0.001568    0.018680
C    -1.269090    1.064033    3.817290   -0.015508   -0.016760    0.037820
H    -1.785538    3.544357    1.589953   -0.028534   -0.014330   -0.017346
H    -3.569798    4.095667    3.217816    0.003790   -0.004428   -0.008100
H    -3.864011    2.699665    5.230868   -0.002246    0.011996   -0.007172
H    -2.389766    0.759168    5.610441   -0.029704    0.005852    0.019116
31
* Frequency(6) -516.2500
C    -2.257339   -0.368966    0.035628   -0.119968   -0.069642   -0.187880
H    -1.250208   -2.036047    0.040953   -0.020876   -0.086164    0.067048
H    -1.441286    0.437889    0.002848   -0.481260   -0.606190   -0.916928
O    -0.390183    1.545071    0.334924    0.572610    0.586864    0.166188
O    -1.770988   -1.520791    0.671403    0.020354   -0.099454    0.083504
H    -2.514297   -0.536985   -1.021820   -0.950178   -0.737478    0.101370
H     0.559431    0.627382    1.968700    0.024748   -0.098152    0.087712
C    -0.037073    1.511636    1.700798   -0.047676   -0.162162    0.221750
O     0.710562    2.548237    1.137578   -0.233072   -0.175104   -0.324990
H    -5.623026    2.785333    0.433368   -0.000380    0.011618    0.018248
H    -3.720956    1.741148   -0.734364   -0.043186   -0.065930   -0.018254
C    -3.413686    0.249116    0.769129   -0.067326   -0.024930    0.000042
C    -3.837197   -0.246422    1.995029   -0.028418   -0.009258   -0.024186
C    -4.904868    0.340894    2.649495   -0.007872    0.019312    0.008608
C    -5.549244    1.430957    2.090930   -0.006230    0.008300    0.014430
C    -5.124855    1.933553    0.870412   -0.004878    0.008298    0.023722
C    -4.062133    1.347105    0.211467   -0.018398   -0.019980    0.018740
H    -3.328171   -1.096192    2.421554   -0.026450   -0.026490   -0.057932
H    -5.231029   -0.053062    3.599452    0.007326    0.020774    0.018326
H    -6.378569    1.891685    2.604880   -0.020446   -0.004726    0.007126
H    -0.626830    0.210337    3.979766   -0.030114   -0.022896    0.036832
C    -1.105210    1.850261    2.691317   -0.022540   -0.017098    0.036726
C    -1.934147    2.943151    2.474510    0.000426   -0.004068   -0.007134
C    -2.925429    3.246962    3.388521    0.006050    0.001684   -0.004770
C    -3.089658    2.462415    4.518039    0.000758    0.007534   -0.000026
C    -2.263583    1.371926    4.733859   -0.013738   -0.001568    0.018680
C    -1.270852    1.062128    3.821588   -0.015508   -0.016760    0.037820
H    -1.788781    3.542728    1.587982   -0.028534   -0.014330   -0.017346
H    -3.569367    4.095164    3.216895    0.003790   -0.004428   -0.008100
H    -3.864266    2.701028    5.230053   -0.002246    0.011996   -0.007172
H    -2.393142    0.759833    5.612613   -0.029704    0.005852    0.019116
