31
* (null), Energy   -1000.0000000
C    -2.257339   -0.368966    0.035628   -0.047730    0.159558   -0.204664
H    -1.250208   -2.036047    0.040953   -0.215194    0.075984   -0.693392
H    -1.441286    0.437889    0.002848    0.006872    0.108230   -0.022902
O    -0.390183    1.545071    0.334924    0.148264   -0.058494    0.104772
O    -1.770988   -1.520791    0.671403   -0.112002   -0.034320   -0.525208
H    -2.514297   -0.536985   -1.021820   -0.087836    0.454472   -0.240656
H     0.559431    0.627382    1.968700   -0.148034   -0.228656    0.174234
C    -0.037073    1.511636    1.700798    0.011408   -0.136832    0.130994
O     0.710562    2.548237    1.137578    0.218596   -0.237398    0.220922
H    -5.623026    2.785333    0.433368   -0.148740   -0.043406    0.397316
H    -3.720956    1.741148   -0.734364   -0.184584    0.173184    0.149272
C    -3.413686    0.249116    0.769129   -0.000090    0.033550   -0.030452
C    -3.837197   -0.246422    1.995029    0.118332   -0.116106   -0.051232
C    -4.904868    0.340894    2.649495    0.135510   -0.240098    0.085678
C    -5.549244    1.430957    2.090930    0.038864   -0.216388    0.245266
C    -5.124855    1.933553    0.870412   -0.074614   -0.063822    0.270478
C    -4.062133    1.347105    0.211467   -0.092744    0.060120    0.134240
H    -3.328171   -1.096192    2.421554    0.188284   -0.138578   -0.181356
H    -5.231029   -0.053062    3.599452    0.222024   -0.357144    0.065530
H    -6.378569    1.891685    2.604880    0.050030   -0.316644    0.351502
H    -0.626830    0.210337    3.979766   -0.026312    0.252374    0.336882
C    -1.105210    1.850261    2.691317   -0.026578    0.014766    0.036862
C    -1.934147    2.943151    2.474510   -0.037370   -0.035664   -0.172000
C    -2.925429    3.246962    3.388521   -0.077134    0.093564   -0.260340
C    -3.089658    2.462415    4.518039   -0.102636    0.280744   -0.134840
C    -2.263583    1.371926    4.733859   -0.081184    0.340650    0.080942
C    -1.270852    1.062128    3.821588   -0.045694    0.205948    0.166820
H    -1.788781    3.542728    1.587982   -0.021310   -0.183374   -0.267712
H    -3.569367    4.095164    3.216895   -0.093754    0.046188   -0.427686
H    -3.864266    2.701028    5.230053   -0.136570    0.379212   -0.207050
H    -2.393142    0.759833    5.612613   -0.093802    0.491474    0.184734
31
* Frequency(7)  -39.8600
C    -2.262763   -0.350833    0.012369   -0.047730    0.159558   -0.204664
H    -1.274664   -2.027412   -0.037847   -0.215194    0.075984   -0.693392
H    -1.440505    0.450189    0.000245    0.006872    0.108230   -0.022902
O    -0.373334    1.538423    0.346831    0.148264   -0.058494    0.104772
O    -1.783716   -1.524691    0.611716   -0.112002   -0.034320   -0.525208
H    -2.524279   -0.485337   -1.049169   -0.087836    0.454472   -0.240656
H     0.542608    0.601396    1.988501   -0.148034   -0.228656    0.174234
C    -0.035777    1.496086    1.715685    0.011408   -0.136832    0.130994
O     0.735404    2.521258    1.162685    0.218596   -0.237398    0.220922
H    -5.639930    2.780400    0.478521   -0.148740   -0.043406    0.397316
H    -3.741933    1.760829   -0.717400   -0.184584    0.173184    0.149272
C    -3.413696    0.252929    0.765668   -0.000090    0.033550   -0.030452
C    -3.823749   -0.259617    1.989207    0.118332   -0.116106   -0.051232
C    -4.889468    0.313608    2.659232    0.135510   -0.240098    0.085678
C    -5.544827    1.406366    2.118803    0.038864   -0.216388    0.245266
C    -5.133334    1.926300    0.901150   -0.074614   -0.063822    0.270478
C    -4.072673    1.353937    0.226723   -0.092744    0.060120    0.134240
H    -3.306773   -1.111941    2.400944    0.188284   -0.138578   -0.181356
H    -5.205797   -0.093650    3.606899    0.222024   -0.357144    0.065530
H    -6.372883    1.855700    2.644826    0.050030   -0.316644    0.351502
H    -0.629820    0.239018    4.018051   -0.026312    0.252374    0.336882
C    -1.108230    1.851939    2.695506   -0.026578    0.014766    0.036862
C    -1.938394    2.939098    2.454963   -0.037370   -0.035664   -0.172000
C    -2.934195    3.257595    3.358935   -0.077134    0.093564   -0.260340
C    -3.101322    2.494320    4.502715   -0.102636    0.280744   -0.134840
C    -2.272809    1.410639    4.743058   -0.081184    0.340650    0.080942
C    -1.276045    1.085533    3.840546   -0.045694    0.205948    0.166820
H    -1.791203    3.521888    1.557558   -0.021310   -0.183374   -0.267712
H    -3.580022    4.100413    3.168291   -0.093754    0.046188   -0.427686
H    -3.879786    2.744123    5.206523   -0.136570    0.379212   -0.207050
H    -2.403802    0.815686    5.633607   -0.093802    0.491474    0.184734
31
* Frequency(7)  -39.8600
C    -2.267600   -0.334665   -0.008370   -0.047730    0.159558   -0.204664
H    -1.296469   -2.019712   -0.108109   -0.215194    0.075984   -0.693392
H    -1.439809    0.461156   -0.002075    0.006872    0.108230   -0.022902
O    -0.358310    1.532496    0.357447    0.148264   -0.058494    0.104772
O    -1.795066   -1.528169    0.558497   -0.112002   -0.034320   -0.525208
H    -2.533179   -0.439285   -1.073555   -0.087836    0.454472   -0.240656
H     0.527607    0.578227    2.006156   -0.148034   -0.228656    0.174234
C    -0.034621    1.482221    1.728958    0.011408   -0.136832    0.130994
O     0.757555    2.497202    1.185071    0.218596   -0.237398    0.220922
H    -5.655001    2.776002    0.518781   -0.148740   -0.043406    0.397316
H    -3.760637    1.778378   -0.702274   -0.184584    0.173184    0.149272
C    -3.413705    0.256328    0.762583   -0.000090    0.033550   -0.030452
C    -3.811759   -0.271382    1.984015    0.118332   -0.116106   -0.051232
C    -4.875737    0.289279    2.667914    0.135510   -0.240098    0.085678
C    -5.540889    1.384439    2.143656    0.038864   -0.216388    0.245266
C    -5.140895    1.919833    0.928558   -0.074614   -0.063822    0.270478
C    -4.082071    1.360029    0.240325   -0.092744    0.060120    0.134240
H    -3.287695   -1.125983    2.382567    0.188284   -0.138578   -0.181356
H    -5.183300   -0.129839    3.613539    0.222024   -0.357144    0.065530
H    -6.367814    1.823615    2.680444    0.050030   -0.316644    0.351502
H    -0.632486    0.264591    4.052187   -0.026312    0.252374    0.336882
C    -1.110924    1.853435    2.699241   -0.026578    0.014766    0.036862
C    -1.942181    2.935484    2.437534   -0.037370   -0.035664   -0.172000
C    -2.942011    3.267076    3.332555   -0.077134    0.093564   -0.260340
C    -3.111722    2.522768    4.489052   -0.102636    0.280744   -0.134840
C    -2.281035    1.445157    4.751259   -0.081184    0.340650    0.080942
C    -1.280675    1.106402    3.857450   -0.045694    0.205948    0.166820
H    -1.793362    3.503307    1.530431   -0.021310   -0.183374   -0.267712
H    -3.589522    4.105093    3.124953   -0.093754    0.046188   -0.427686
H    -3.893625    2.782549    5.185543   -0.136570    0.379212   -0.207050
H    -2.413307    0.865487    5.652326   -0.093802    0.491474    0.184734
31
* Frequency(7)  -39.8600
C    -2.271324   -0.322214   -0.024340   -0.047730    0.159558   -0.204664
H    -1.313262   -2.013783   -0.162217   -0.215194    0.075984   -0.693392
H    -1.439272    0.469601   -0.003862    0.006872    0.108230   -0.022902
O    -0.346740    1.527932    0.365623    0.148264   -0.058494    0.104772
O    -1.803806   -1.530847    0.517513   -0.112002   -0.034320   -0.525208
H    -2.540034   -0.403821   -1.092334   -0.087836    0.454472   -0.240656
H     0.516056    0.560384    2.019752   -0.148034   -0.228656    0.174234
C    -0.033730    1.471543    1.739180    0.011408   -0.136832    0.130994
O     0.774612    2.478677    1.202310    0.218596   -0.237398    0.220922
H    -5.666608    2.772615    0.549785   -0.148740   -0.043406    0.397316
H    -3.775041    1.791892   -0.690626   -0.184584    0.173184    0.149272
C    -3.413712    0.258946    0.760206   -0.000090    0.033550   -0.030452
C    -3.802525   -0.280442    1.980018    0.118332   -0.116106   -0.051232
C    -4.865162    0.270543    2.674599    0.135510   -0.240098    0.085678
C    -5.537857    1.367554    2.162795    0.038864   -0.216388    0.245266
C    -5.146718    1.914853    0.949664   -0.074614   -0.063822    0.270478
C    -4.089308    1.364721    0.250800   -0.092744    0.060120    0.134240
H    -3.273002   -1.136796    2.368415    0.188284   -0.138578   -0.181356
H    -5.165974   -0.157708    3.618653    0.222024   -0.357144    0.065530
H    -6.363910    1.798906    2.707873    0.050030   -0.316644    0.351502
H    -0.634540    0.284285    4.078475   -0.026312    0.252374    0.336882
C    -1.112998    1.854588    2.702118   -0.026578    0.014766    0.036862
C    -1.945097    2.932701    2.424113   -0.037370   -0.035664   -0.172000
C    -2.948030    3.274377    3.312239   -0.077134    0.093564   -0.260340
C    -3.119731    2.544675    4.478530   -0.102636    0.280744   -0.134840
C    -2.287371    1.471739    4.757576   -0.081184    0.340650    0.080942
C    -1.284241    1.122472    3.870468   -0.045694    0.205948    0.166820
H    -1.795025    3.488998    1.509540   -0.021310   -0.183374   -0.267712
H    -3.596838    4.108697    3.091579   -0.093754    0.046188   -0.427686
H    -3.904282    2.812140    5.169386   -0.136570    0.379212   -0.207050
H    -2.420627    0.903839    5.666742   -0.093802    0.491474    0.184734
31
* Frequency(7)  -39.8600
C    -2.273533   -0.314830   -0.033812   -0.047730    0.159558   -0.204664
H    -1.323221   -2.010266   -0.194308   -0.215194    0.075984   -0.693392
H    -1.438954    0.474610   -0.004922    0.006872    0.108230   -0.022902
O    -0.339878    1.525225    0.370472    0.148264   -0.058494    0.104772
O    -1.808989   -1.532435    0.493205   -0.112002   -0.034320   -0.525208
H    -2.544099   -0.382787   -1.103472   -0.087836    0.454472   -0.240656
H     0.509205    0.549801    2.027816   -0.148034   -0.228656    0.174234
C    -0.033202    1.465210    1.745243    0.011408   -0.136832    0.130994
O     0.784729    2.467690    1.212535    0.218596   -0.237398    0.220922
H    -5.673492    2.770606    0.568173   -0.148740   -0.043406    0.397316
H    -3.783584    1.799908   -0.683717   -0.184584    0.173184    0.149272
C    -3.413717    0.260499    0.758797   -0.000090    0.033550   -0.030452
C    -3.797048   -0.285816    1.977646    0.118332   -0.116106   -0.051232
C    -4.858891    0.259431    2.678565    0.135510   -0.240098    0.085678
C    -5.536058    1.357539    2.174146    0.038864   -0.216388    0.245266
C    -5.150171    1.911899    0.962183   -0.074614   -0.063822    0.270478
C    -4.093600    1.367503    0.257013   -0.092744    0.060120    0.134240
H    -3.264288   -1.143210    2.360022    0.188284   -0.138578   -0.181356
H    -5.155698   -0.174237    3.621686    0.222024   -0.357144    0.065530
H    -6.361594    1.784251    2.724141    0.050030   -0.316644    0.351502
H    -0.635757    0.295965    4.094067   -0.026312    0.252374    0.336882
C    -1.114228    1.855271    2.703824   -0.026578    0.014766    0.036862
C    -1.946826    2.931051    2.416152   -0.037370   -0.035664   -0.172000
C    -2.951600    3.278707    3.300190   -0.077134    0.093564   -0.260340
C    -3.124481    2.557669    4.472289   -0.102636    0.280744   -0.134840
C    -2.291128    1.487505    4.761322   -0.081184    0.340650    0.080942
C    -1.286356    1.132004    3.878188   -0.045694    0.205948    0.166820
H    -1.796011    3.480511    1.497150   -0.021310   -0.183374   -0.267712
H    -3.601177    4.110835    3.071785   -0.093754    0.046188   -0.427686
H    -3.910603    2.829691    5.159803   -0.136570    0.379212   -0.207050
H    -2.424968    0.926585    5.675291   -0.093802    0.491474    0.184734
31
* Frequency(7)  -39.8600
C    -2.273987   -0.313311   -0.035760   -0.047730    0.159558   -0.204664
H    -1.325269   -2.009543   -0.200905   -0.215194    0.075984   -0.693392
H    -1.438889    0.475640   -0.005140    0.006872    0.108230   -0.022902
O    -0.338468    1.524668    0.371469    0.148264   -0.058494    0.104772
O    -1.810055   -1.532762    0.488208   -0.112002   -0.034320   -0.525208
H    -2.544935   -0.378463   -1.105762   -0.087836    0.454472   -0.240656
H     0.507796    0.547626    2.029474   -0.148034   -0.228656    0.174234
C    -0.033094    1.463908    1.746489    0.011408   -0.136832    0.130994
O     0.786809    2.465431    1.214637    0.218596   -0.237398    0.220922
H    -5.674907    2.770193    0.571954   -0.148740   -0.043406    0.397316
H    -3.785340    1.801555   -0.682297   -0.184584    0.173184    0.149272
C    -3.413717    0.260818    0.758507   -0.000090    0.033550   -0.030452
C    -3.795922   -0.286920    1.977159    0.118332   -0.116106   -0.051232
C    -4.857601    0.257147    2.679380    0.135510   -0.240098    0.085678
C    -5.535688    1.355480    2.176480    0.038864   -0.216388    0.245266
C    -5.150881    1.911292    0.964756   -0.074614   -0.063822    0.270478
C    -4.094483    1.368075    0.258291   -0.092744    0.060120    0.134240
H    -3.262497   -1.144529    2.358296    0.188284   -0.138578   -0.181356
H    -5.153586   -0.177635    3.622309    0.222024   -0.357144    0.065530
H    -6.361118    1.781238    2.727486    0.050030   -0.316644    0.351502
H    -0.636008    0.298366    4.097272   -0.026312    0.252374    0.336882
C    -1.114481    1.855411    2.704175   -0.026578    0.014766    0.036862
C    -1.947182    2.930711    2.414516   -0.037370   -0.035664   -0.172000
C    -2.952334    3.279598    3.297713   -0.077134    0.093564   -0.260340
C    -3.125458    2.560340    4.471006   -0.102636    0.280744   -0.134840
C    -2.291900    1.490746    4.762092   -0.081184    0.340650    0.080942
C    -1.286790    1.133964    3.879776   -0.045694    0.205948    0.166820
H    -1.796214    3.478766    1.494603   -0.021310   -0.183374   -0.267712
H    -3.602069    4.111275    3.067716   -0.093754    0.046188   -0.427686
H    -3.911902    2.833299    5.157833   -0.136570    0.379212   -0.207050
H    -2.425861    0.931261    5.677049   -0.093802    0.491474    0.184734
31
* Frequency(7)  -39.8600
C    -2.272637   -0.317824   -0.029971   -0.047730    0.159558   -0.204664
H    -1.319182   -2.011693   -0.181293   -0.215194    0.075984   -0.693392
H    -1.439083    0.472579   -0.004493    0.006872    0.108230   -0.022902
O    -0.342661    1.526322    0.368506    0.148264   -0.058494    0.104772
O    -1.806887   -1.531791    0.503063   -0.112002   -0.034320   -0.525208
H    -2.542450   -0.391317   -1.098955   -0.087836    0.454472   -0.240656
H     0.511983    0.554093    2.024546   -0.148034   -0.228656    0.174234
C    -0.033417    1.467779    1.742784    0.011408   -0.136832    0.130994
O     0.780627    2.472146    1.208388    0.218596   -0.237398    0.220922
H    -5.670700    2.771420    0.560716   -0.148740   -0.043406    0.397316
H    -3.780119    1.796657   -0.686519   -0.184584    0.173184    0.149272
C    -3.413715    0.259869    0.759369   -0.000090    0.033550   -0.030452
C    -3.799269   -0.283636    1.978608    0.118332   -0.116106   -0.051232
C    -4.861434    0.263938    2.676957    0.135510   -0.240098    0.085678
C    -5.536787    1.361600    2.169543    0.038864   -0.216388    0.245266
C    -5.148770    1.913097    0.957106   -0.074614   -0.063822    0.270478
C    -4.091859    1.366375    0.254494   -0.092744    0.060120    0.134240
H    -3.267822   -1.140609    2.363426    0.188284   -0.138578   -0.181356
H    -5.159866   -0.167534    3.620456    0.222024   -0.357144    0.065530
H    -6.362533    1.790194    2.717544    0.050030   -0.316644    0.351502
H    -0.635264    0.291228    4.087744   -0.026312    0.252374    0.336882
C    -1.113729    1.854994    2.703132   -0.026578    0.014766    0.036862
C    -1.946125    2.931720    2.419380   -0.037370   -0.035664   -0.172000
C    -2.950152    3.276951    3.305077   -0.077134    0.093564   -0.260340
C    -3.122555    2.552399    4.474820   -0.102636    0.280744   -0.134840
C    -2.289604    1.481111    4.759803   -0.081184    0.340650    0.080942
C    -1.285498    1.128139    3.875057   -0.045694    0.205948    0.166820
H    -1.795611    3.483953    1.502175   -0.021310   -0.183374   -0.267712
H    -3.599417    4.109968    3.079813   -0.093754    0.046188   -0.427686
H    -3.908040    2.822573    5.163689   -0.136570    0.379212   -0.207050
H    -2.423207    0.917361    5.671824   -0.093802    0.491474    0.184734
31
* Frequency(7)  -39.8600
C    -2.269630   -0.327879   -0.017074   -0.047730    0.159558   -0.204664
H    -1.305621   -2.016481   -0.137598   -0.215194    0.075984   -0.693392
H    -1.439516    0.465759   -0.003049    0.006872    0.108230   -0.022902
O    -0.352005    1.530009    0.361903    0.148264   -0.058494    0.104772
O    -1.799829   -1.529629    0.536160   -0.112002   -0.034320   -0.525208
H    -2.536915   -0.419957   -1.083790   -0.087836    0.454472   -0.240656
H     0.521312    0.568502    2.013566   -0.148034   -0.228656    0.174234
C    -0.034135    1.476401    1.734529    0.011408   -0.136832    0.130994
O     0.766851    2.487106    1.194466    0.218596   -0.237398    0.220922
H    -5.661327    2.774156    0.535678   -0.148740   -0.043406    0.397316
H    -3.768487    1.785743   -0.695926   -0.184584    0.173184    0.149272
C    -3.413709    0.257755    0.761288   -0.000090    0.033550   -0.030452
C    -3.806726   -0.276320    1.981837    0.118332   -0.116106   -0.051232
C    -4.869974    0.279068    2.671557    0.135510   -0.240098    0.085678
C    -5.539236    1.375236    2.154087    0.038864   -0.216388    0.245266
C    -5.144068    1.917119    0.940061   -0.074614   -0.063822    0.270478
C    -4.086015    1.362586    0.246034   -0.092744    0.060120    0.134240
H    -3.279687   -1.131876    2.374854    0.188284   -0.138578   -0.181356
H    -5.173857   -0.145028    3.616326    0.222024   -0.357144    0.065530
H    -6.365686    1.810148    2.695393    0.050030   -0.316644    0.351502
H    -0.633605    0.275324    4.066514   -0.026312    0.252374    0.336882
C    -1.112054    1.854063    2.700809   -0.026578    0.014766    0.036862
C    -1.943770    2.933967    2.430219   -0.037370   -0.035664   -0.172000
C    -2.945291    3.271055    3.321483   -0.077134    0.093564   -0.260340
C    -3.116087    2.534708    4.483317   -0.102636    0.280744   -0.134840
C    -2.284488    1.459645    4.754702   -0.081184    0.340650    0.080942
C    -1.282618    1.115160    3.864545   -0.045694    0.205948    0.166820
H    -1.794268    3.495509    1.519045   -0.021310   -0.183374   -0.267712
H    -3.593509    4.107058    3.106764   -0.093754    0.046188   -0.427686
H    -3.899433    2.798676    5.176737   -0.136570    0.379212   -0.207050
H    -2.417296    0.886389    5.660183   -0.093802    0.491474    0.184734
31
* Frequency(7)  -39.8600
C    -2.265290   -0.342387    0.001535   -0.047730    0.159558   -0.204664
H    -1.286055   -2.023389   -0.074553   -0.215194    0.075984   -0.693392
H    -1.440141    0.455918   -0.000967    0.006872    0.108230   -0.022902
O    -0.365485    1.535327    0.352377    0.148264   -0.058494    0.104772
O    -1.789645   -1.526508    0.583913   -0.112002   -0.034320   -0.525208
H    -2.528929   -0.461278   -1.061909   -0.087836    0.454472   -0.240656
H     0.534771    0.589292    1.997724   -0.148034   -0.228656    0.174234
C    -0.035173    1.488842    1.722619    0.011408   -0.136832    0.130994
O     0.746976    2.508691    1.174380    0.218596   -0.237398    0.220922
H    -5.647803    2.778102    0.499554   -0.148740   -0.043406    0.397316
H    -3.751704    1.769997   -0.709498   -0.184584    0.173184    0.149272
C    -3.413701    0.254705    0.764056   -0.000090    0.033550   -0.030452
C    -3.817485   -0.265763    1.986495    0.118332   -0.116106   -0.051232
C    -4.882295    0.300898    2.663767    0.135510   -0.240098    0.085678
C    -5.542770    1.394911    2.131787    0.038864   -0.216388    0.245266
C    -5.137284    1.922921    0.915469   -0.074614   -0.063822    0.270478
C    -4.077582    1.357120    0.233829   -0.092744    0.060120    0.134240
H    -3.296806   -1.119277    2.391343    0.188284   -0.138578   -0.181356
H    -5.194044   -0.112556    3.610368    0.222024   -0.357144    0.065530
H    -6.370235    1.838938    2.663434    0.050030   -0.316644    0.351502
H    -0.631213    0.252378    4.035884   -0.026312    0.252374    0.336882
C    -1.109637    1.852721    2.697458   -0.026578    0.014766    0.036862
C    -1.940372    2.937210    2.445858   -0.037370   -0.035664   -0.172000
C    -2.938278    3.262548    3.345153   -0.077134    0.093564   -0.260340
C    -3.106755    2.509182    4.495577   -0.102636    0.280744   -0.134840
C    -2.277107    1.428672    4.747342   -0.081184    0.340650    0.080942
C    -1.278464    1.096435    3.849377   -0.045694    0.205948    0.166820
H    -1.792331    3.512181    1.543386   -0.021310   -0.183374   -0.267712
H    -3.584985    4.102858    3.145650   -0.093754    0.046188   -0.427686
H    -3.887016    2.764198    5.195562   -0.136570    0.379212   -0.207050
H    -2.408768    0.841704    5.643386   -0.093802    0.491474    0.184734
31
* Frequency(7)  -39.8600
C    -2.260089   -0.359774    0.023838   -0.047730    0.159558   -0.204664
H    -1.262605   -2.031670    0.001008   -0.215194    0.075984   -0.693392
H    -1.440890    0.444124    0.001529    0.006872    0.108230   -0.022902
O    -0.381642    1.541701    0.340960    0.148264   -0.058494    0.104772
O    -1.777440   -1.522768    0.641147   -0.112002   -0.034320   -0.525208
H    -2.519357   -0.510804   -1.035684   -0.087836    0.454472   -0.240656
H     0.550903    0.614210    1.978737   -0.148034   -0.228656    0.174234
C    -0.036416    1.503753    1.708344    0.011408   -0.136832    0.130994
O     0.723155    2.534561    1.150305    0.218596   -0.237398    0.220922
H    -5.631595    2.782832    0.456257   -0.148740   -0.043406    0.397316
H    -3.731590    1.751125   -0.725765   -0.184584    0.173184    0.149272
C    -3.413691    0.251049    0.767375   -0.000090    0.033550   -0.030452
C    -3.830380   -0.253111    1.992078    0.118332   -0.116106   -0.051232
C    -4.897062    0.327062    2.654431    0.135510   -0.240098    0.085678
C    -5.547005    1.418491    2.105059    0.038864   -0.216388    0.245266
C    -5.129153    1.929876    0.885994   -0.074614   -0.063822    0.270478
C    -4.067476    1.350568    0.219200   -0.092744    0.060120    0.134240
H    -3.317324   -1.104175    2.411106    0.188284   -0.138578   -0.181356
H    -5.218239   -0.073636    3.603227    0.222024   -0.357144    0.065530
H    -6.375687    1.873444    2.625129    0.050030   -0.316644    0.351502
H    -0.628346    0.224876    3.999173   -0.026312    0.252374    0.336882
C    -1.106741    1.851112    2.693441   -0.026578    0.014766    0.036862
C    -1.936300    2.941096    2.464601   -0.037370   -0.035664   -0.172000
C    -2.929873    3.252352    3.373523   -0.077134    0.093564   -0.260340
C    -3.095571    2.478588    4.510271   -0.102636    0.280744   -0.134840
C    -2.268260    1.391550    4.738522   -0.081184    0.340650    0.080942
C    -1.273484    1.073992    3.831198   -0.045694    0.205948    0.166820
H    -1.790009    3.532164    1.572560   -0.021310   -0.183374   -0.267712
H    -3.574768    4.097825    3.192257   -0.093754    0.046188   -0.427686
H    -3.872134    2.722874    5.218125   -0.136570    0.379212   -0.207050
H    -2.398546    0.788146    5.623255   -0.093802    0.491474    0.184734
31
* Frequency(7)  -39.8600
C    -2.254589   -0.378158    0.047418   -0.047730    0.159558   -0.204664
H    -1.237811   -2.040424    0.080898   -0.215194    0.075984   -0.693392
H    -1.441682    0.431654    0.004167    0.006872    0.108230   -0.022902
O    -0.398724    1.548441    0.328888    0.148264   -0.058494    0.104772
O    -1.764536   -1.518814    0.701659   -0.112002   -0.034320   -0.525208
H    -2.509237   -0.563166   -1.007956   -0.087836    0.454472   -0.240656
H     0.567959    0.640554    1.958663   -0.148034   -0.228656    0.174234
C    -0.037730    1.519519    1.693252    0.011408   -0.136832    0.130994
O     0.697969    2.561913    1.124851    0.218596   -0.237398    0.220922
H    -5.614457    2.787834    0.410479   -0.148740   -0.043406    0.397316
H    -3.710322    1.731171   -0.742963   -0.184584    0.173184    0.149272
C    -3.413681    0.247183    0.770883   -0.000090    0.033550   -0.030452
C    -3.844014   -0.239733    1.997980    0.118332   -0.116106   -0.051232
C    -4.912674    0.354726    2.644559    0.135510   -0.240098    0.085678
C    -5.551483    1.443423    2.076801    0.038864   -0.216388    0.245266
C    -5.120557    1.937230    0.854830   -0.074614   -0.063822    0.270478
C    -4.056790    1.343642    0.203734   -0.092744    0.060120    0.134240
H    -3.339018   -1.088209    2.432002    0.188284   -0.138578   -0.181356
H    -5.243819   -0.032488    3.595677    0.222024   -0.357144    0.065530
H    -6.381451    1.909926    2.584631    0.050030   -0.316644    0.351502
H    -0.625314    0.195798    3.960359   -0.026312    0.252374    0.336882
C    -1.103679    1.849410    2.689193   -0.026578    0.014766    0.036862
C    -1.931994    2.945206    2.484419   -0.037370   -0.035664   -0.172000
C    -2.920985    3.241572    3.403519   -0.077134    0.093564   -0.260340
C    -3.083745    2.446242    4.525807   -0.102636    0.280744   -0.134840
C    -2.258906    1.352302    4.729196   -0.081184    0.340650    0.080942
C    -1.268220    1.050264    3.811978   -0.045694    0.205948    0.166820
H    -1.787553    3.553292    1.603404   -0.021310   -0.183374   -0.267712
H    -3.563966    4.092503    3.241533   -0.093754    0.046188   -0.427686
H    -3.856398    2.679182    5.241981   -0.136570    0.379212   -0.207050
H    -2.387738    0.731520    5.601971   -0.093802    0.491474    0.184734
31
* Frequency(7)  -39.8600
C    -2.249388   -0.395545    0.069721   -0.047730    0.159558   -0.204664
H    -1.214361   -2.048705    0.156459   -0.215194    0.075984   -0.693392
H    -1.442431    0.419860    0.006663    0.006872    0.108230   -0.022902
O    -0.414881    1.554815    0.317471    0.148264   -0.058494    0.104772
O    -1.752331   -1.515074    0.758893   -0.112002   -0.034320   -0.525208
H    -2.499665   -0.612692   -0.981731   -0.087836    0.454472   -0.240656
H     0.584091    0.665472    1.939676   -0.148034   -0.228656    0.174234
C    -0.038973    1.534430    1.678977    0.011408   -0.136832    0.130994
O     0.674148    2.587783    1.100776    0.218596   -0.237398    0.220922
H    -5.598249    2.792564    0.367182   -0.148740   -0.043406    0.397316
H    -3.690208    1.712299   -0.759230   -0.184584    0.173184    0.149272
C    -3.413671    0.243527    0.774202   -0.000090    0.033550   -0.030452
C    -3.856909   -0.227081    2.003563    0.118332   -0.116106   -0.051232
C    -4.927441    0.380890    2.635223    0.135510   -0.240098    0.085678
C    -5.555718    1.467003    2.050073    0.038864   -0.216388    0.245266
C    -5.112426    1.944185    0.825355   -0.074614   -0.063822    0.270478
C    -4.046684    1.337090    0.189105   -0.092744    0.060120    0.134240
H    -3.359536   -1.073107    2.451765    0.188284   -0.138578   -0.181356
H    -5.268014    0.006432    3.588536    0.222024   -0.357144    0.065530
H    -6.386903    1.944432    2.546326    0.050030   -0.316644    0.351502
H    -0.622447    0.168296    3.923648   -0.026312    0.252374    0.336882
C    -1.100783    1.847801    2.685176   -0.026578    0.014766    0.036862
C    -1.927922    2.949092    2.503162   -0.037370   -0.035664   -0.172000
C    -2.912580    3.231376    3.431889   -0.077134    0.093564   -0.260340
C    -3.072561    2.415648    4.540501   -0.102636    0.280744   -0.134840
C    -2.250059    1.315180    4.720376   -0.081184    0.340650    0.080942
C    -1.263240    1.027821    3.793799   -0.045694    0.205948    0.166820
H    -1.785231    3.573275    1.632578   -0.021310   -0.183374   -0.267712
H    -3.553749    4.087470    3.288140   -0.093754    0.046188   -0.427686
H    -3.841516    2.637858    5.264544   -0.136570    0.379212   -0.207050
H    -2.377516    0.677962    5.581840   -0.093802    0.491474    0.184734
31
* Frequency(7)  -39.8600
C    -2.245048   -0.410053    0.088330   -0.047730    0.159558   -0.204664
H    -1.194795   -2.055613    0.219504   -0.215194    0.075984   -0.693392
H    -1.443056    0.410019    0.008745    0.006872    0.108230   -0.022902
O    -0.428361    1.560133    0.307945    0.148264   -0.058494    0.104772
O    -1.742147   -1.511953    0.806646   -0.112002   -0.034320   -0.525208
H    -2.491679   -0.654013   -0.959850   -0.087836    0.454472   -0.240656
H     0.597550    0.686262    1.923834   -0.148034   -0.228656    0.174234
C    -0.040011    1.546871    1.667067    0.011408   -0.136832    0.130994
O     0.654273    2.609368    1.080690    0.218596   -0.237398    0.220922
H    -5.584725    2.796510    0.331058   -0.148740   -0.043406    0.397316
H    -3.673425    1.696553   -0.772802   -0.184584    0.173184    0.149272
C    -3.413663    0.240477    0.776970   -0.000090    0.033550   -0.030452
C    -3.867668   -0.216524    2.008221    0.118332   -0.116106   -0.051232
C    -4.939762    0.402720    2.627433    0.135510   -0.240098    0.085678
C    -5.559252    1.486678    2.027773    0.038864   -0.216388    0.245266
C    -5.105642    1.949987    0.800763   -0.074614   -0.063822    0.270478
C    -4.038251    1.331624    0.176900   -0.092744    0.060120    0.134240
H    -3.376655   -1.060508    2.468254    0.188284   -0.138578   -0.181356
H    -5.288201    0.038904    3.582578    0.222024   -0.357144    0.065530
H    -6.391452    1.973222    2.514367    0.050030   -0.316644    0.351502
H    -0.620055    0.145350    3.893018   -0.026312    0.252374    0.336882
C    -1.098366    1.846459    2.681825   -0.026578    0.014766    0.036862
C    -1.924524    2.952335    2.518801   -0.037370   -0.035664   -0.172000
C    -2.905567    3.222869    3.455559   -0.077134    0.093564   -0.260340
C    -3.063229    2.390122    4.552761   -0.102636    0.280744   -0.134840
C    -2.242678    1.284207    4.713016   -0.081184    0.340650    0.080942
C    -1.259086    1.009096    3.778631   -0.045694    0.205948    0.166820
H    -1.783294    3.589947    1.656919   -0.021310   -0.183374   -0.267712
H    -3.545225    4.083270    3.327026   -0.093754    0.046188   -0.427686
H    -3.829099    2.603380    5.283369   -0.136570    0.379212   -0.207050
H    -2.368988    0.633277    5.565043   -0.093802    0.491474    0.184734
31
* Frequency(7)  -39.8600
C    -2.242041   -0.420108    0.101227   -0.047730    0.159558   -0.204664
H    -1.181234   -2.060401    0.263199   -0.215194    0.075984   -0.693392
H    -1.443489    0.403199    0.010189    0.006872    0.108230   -0.022902
O    -0.437705    1.563820    0.301342    0.148264   -0.058494    0.104772
O    -1.735089   -1.509791    0.839743   -0.112002   -0.034320   -0.525208
H    -2.486144   -0.682653   -0.944685   -0.087836    0.454472   -0.240656
H     0.606879    0.700671    1.912854   -0.148034   -0.228656    0.174234
C    -0.040729    1.555493    1.658812    0.011408   -0.136832    0.130994
O     0.640497    2.624328    1.066768    0.218596   -0.237398    0.220922
H    -5.575352    2.799246    0.306020   -0.148740   -0.043406    0.397316
H    -3.661793    1.685639   -0.782209   -0.184584    0.173184    0.149272
C    -3.413657    0.238363    0.778889   -0.000090    0.033550   -0.030452
C    -3.875125   -0.209208    2.011450    0.118332   -0.116106   -0.051232
C    -4.948302    0.417850    2.622033    0.135510   -0.240098    0.085678
C    -5.561701    1.500314    2.012317    0.038864   -0.216388    0.245266
C    -5.100940    1.954009    0.783718   -0.074614   -0.063822    0.270478
C    -4.032407    1.327835    0.168440   -0.092744    0.060120    0.134240
H    -3.388520   -1.051775    2.479682    0.188284   -0.138578   -0.181356
H    -5.302192    0.061410    3.578448    0.222024   -0.357144    0.065530
H    -6.394605    1.993176    2.492216    0.050030   -0.316644    0.351502
H    -0.618396    0.129446    3.871788   -0.026312    0.252374    0.336882
C    -1.096691    1.845528    2.679502   -0.026578    0.014766    0.036862
C    -1.922169    2.954582    2.529640   -0.037370   -0.035664   -0.172000
C    -2.900706    3.216973    3.471965   -0.077134    0.093564   -0.260340
C    -3.056761    2.372431    4.561258   -0.102636    0.280744   -0.134840
C    -2.237562    1.262741    4.707915   -0.081184    0.340650    0.080942
C    -1.256206    0.996117    3.768119   -0.045694    0.205948    0.166820
H    -1.781951    3.601503    1.673789   -0.021310   -0.183374   -0.267712
H    -3.539317    4.080360    3.353977   -0.093754    0.046188   -0.427686
H    -3.820492    2.579483    5.296417   -0.136570    0.379212   -0.207050
H    -2.363077    0.602305    5.553402   -0.093802    0.491474    0.184734
31
* Frequency(7)  -39.8600
C    -2.240691   -0.424621    0.107016   -0.047730    0.159558   -0.204664
H    -1.175147   -2.062551    0.282811   -0.215194    0.075984   -0.693392
H    -1.443683    0.400138    0.010836    0.006872    0.108230   -0.022902
O    -0.441898    1.565474    0.298379    0.148264   -0.058494    0.104772
O    -1.731921   -1.508820    0.854598   -0.112002   -0.034320   -0.525208
H    -2.483659   -0.695507   -0.937878   -0.087836    0.454472   -0.240656
H     0.611066    0.707138    1.907926   -0.148034   -0.228656    0.174234
C    -0.041052    1.559364    1.655107    0.011408   -0.136832    0.130994
O     0.634315    2.631043    1.060519    0.218596   -0.237398    0.220922
H    -5.571145    2.800473    0.294782   -0.148740   -0.043406    0.397316
H    -3.656572    1.680741   -0.786431   -0.184584    0.173184    0.149272
C    -3.413655    0.237414    0.779751   -0.000090    0.033550   -0.030452
C    -3.878472   -0.205924    2.012899    0.118332   -0.116106   -0.051232
C    -4.952135    0.424641    2.619610    0.135510   -0.240098    0.085678
C    -5.562800    1.506434    2.005380    0.038864   -0.216388    0.245266
C    -5.098829    1.955814    0.776068   -0.074614   -0.063822    0.270478
C    -4.029783    1.326135    0.164643   -0.092744    0.060120    0.134240
H    -3.393845   -1.047855    2.484812    0.188284   -0.138578   -0.181356
H    -5.308472    0.071511    3.576595    0.222024   -0.357144    0.065530
H    -6.396020    2.002132    2.482274    0.050030   -0.316644    0.351502
H    -0.617652    0.122308    3.862260   -0.026312    0.252374    0.336882
C    -1.095939    1.845111    2.678459   -0.026578    0.014766    0.036862
C    -1.921112    2.955591    2.534504   -0.037370   -0.035664   -0.172000
C    -2.898524    3.214326    3.479329   -0.077134    0.093564   -0.260340
C    -3.053858    2.364490    4.565072   -0.102636    0.280744   -0.134840
C    -2.235266    1.253106    4.705626   -0.081184    0.340650    0.080942
C    -1.254914    0.990292    3.763400   -0.045694    0.205948    0.166820
H    -1.781348    3.606690    1.681361   -0.021310   -0.183374   -0.267712
H    -3.536665    4.079053    3.366074   -0.093754    0.046188   -0.427686
H    -3.816630    2.568757    5.302273   -0.136570    0.379212   -0.207050
H    -2.360423    0.588405    5.548177   -0.093802    0.491474    0.184734
31
* Frequency(7)  -39.8600
C    -2.241145   -0.423102    0.105068   -0.047730    0.159558   -0.204664
H    -1.177195   -2.061828    0.276214   -0.215194    0.075984   -0.693392
H    -1.443618    0.401168    0.010618    0.006872    0.108230   -0.022902
O    -0.440488    1.564917    0.299376    0.148264   -0.058494    0.104772
O    -1.732987   -1.509147    0.849601   -0.112002   -0.034320   -0.525208
H    -2.484495   -0.691183   -0.940168   -0.087836    0.454472   -0.240656
H     0.609657    0.704963    1.909584   -0.148034   -0.228656    0.174234
C    -0.040944    1.558062    1.656353    0.011408   -0.136832    0.130994
O     0.636395    2.628784    1.062621    0.218596   -0.237398    0.220922
H    -5.572560    2.800060    0.298563   -0.148740   -0.043406    0.397316
H    -3.658328    1.682388   -0.785011   -0.184584    0.173184    0.149272
C    -3.413655    0.237733    0.779461   -0.000090    0.033550   -0.030452
C    -3.877346   -0.207028    2.012412    0.118332   -0.116106   -0.051232
C    -4.950845    0.422357    2.620425    0.135510   -0.240098    0.085678
C    -5.562430    1.504375    2.007714    0.038864   -0.216388    0.245266
C    -5.099539    1.955207    0.778641   -0.074614   -0.063822    0.270478
C    -4.030666    1.326707    0.165921   -0.092744    0.060120    0.134240
H    -3.392054   -1.049174    2.483086    0.188284   -0.138578   -0.181356
H    -5.306360    0.068113    3.577218    0.222024   -0.357144    0.065530
H    -6.395544    1.999119    2.485619    0.050030   -0.316644    0.351502
H    -0.617903    0.124709    3.865465   -0.026312    0.252374    0.336882
C    -1.096192    1.845251    2.678810   -0.026578    0.014766    0.036862
C    -1.921468    2.955251    2.532868   -0.037370   -0.035664   -0.172000
C    -2.899258    3.215217    3.476852   -0.077134    0.093564   -0.260340
C    -3.054835    2.367161    4.563789   -0.102636    0.280744   -0.134840
C    -2.236038    1.256347    4.706396   -0.081184    0.340650    0.080942
C    -1.255348    0.992252    3.764988   -0.045694    0.205948    0.166820
H    -1.781551    3.604945    1.678814   -0.021310   -0.183374   -0.267712
H    -3.537557    4.079493    3.362005   -0.093754    0.046188   -0.427686
H    -3.817929    2.572365    5.300303   -0.136570    0.379212   -0.207050
H    -2.361316    0.593081    5.549935   -0.093802    0.491474    0.184734
31
* Frequency(7)  -39.8600
C    -2.243354   -0.415718    0.095596   -0.047730    0.159558   -0.204664
H    -1.187154   -2.058311    0.244123   -0.215194    0.075984   -0.693392
H    -1.443300    0.406177    0.009558    0.006872    0.108230   -0.022902
O    -0.433626    1.562210    0.304225    0.148264   -0.058494    0.104772
O    -1.738170   -1.510735    0.825293   -0.112002   -0.034320   -0.525208
H    -2.488560   -0.670149   -0.951306   -0.087836    0.454472   -0.240656
H     0.602806    0.694380    1.917648   -0.148034   -0.228656    0.174234
C    -0.040416    1.551729    1.662416    0.011408   -0.136832    0.130994
O     0.646512    2.617797    1.072846    0.218596   -0.237398    0.220922
H    -5.579444    2.798051    0.316951   -0.148740   -0.043406    0.397316
H    -3.666871    1.690404   -0.778102   -0.184584    0.173184    0.149272
C    -3.413660    0.239286    0.778052   -0.000090    0.033550   -0.030452
C    -3.871869   -0.212402    2.010040    0.118332   -0.116106   -0.051232
C    -4.944574    0.411245    2.624391    0.135510   -0.240098    0.085678
C    -5.560631    1.494360    2.019065    0.038864   -0.216388    0.245266
C    -5.102992    1.952253    0.791160   -0.074614   -0.063822    0.270478
C    -4.034958    1.329489    0.172134   -0.092744    0.060120    0.134240
H    -3.383340   -1.055588    2.474693    0.188284   -0.138578   -0.181356
H    -5.296084    0.051584    3.580251    0.222024   -0.357144    0.065530
H    -6.393228    1.984464    2.501887    0.050030   -0.316644    0.351502
H    -0.619120    0.136389    3.881057   -0.026312    0.252374    0.336882
C    -1.097422    1.845934    2.680516   -0.026578    0.014766    0.036862
C    -1.923197    2.953601    2.524907   -0.037370   -0.035664   -0.172000
C    -2.902828    3.219547    3.464803   -0.077134    0.093564   -0.260340
C    -3.059585    2.380155    4.557548   -0.102636    0.280744   -0.134840
C    -2.239795    1.272113    4.710142   -0.081184    0.340650    0.080942
C    -1.257463    1.001784    3.772708   -0.045694    0.205948    0.166820
H    -1.782537    3.596458    1.666424   -0.021310   -0.183374   -0.267712
H    -3.541896    4.081631    3.342211   -0.093754    0.046188   -0.427686
H    -3.824250    2.589916    5.290720   -0.136570    0.379212   -0.207050
H    -2.365657    0.615827    5.558484   -0.093802    0.491474    0.184734
31
* Frequency(7)  -39.8600
C    -2.247078   -0.403267    0.079626   -0.047730    0.159558   -0.204664
H    -1.203947   -2.052382    0.190015   -0.215194    0.075984   -0.693392
H    -1.442763    0.414622    0.007771    0.006872    0.108230   -0.022902
O    -0.422056    1.557646    0.312401    0.148264   -0.058494    0.104772
O    -1.746910   -1.513413    0.784309   -0.112002   -0.034320   -0.525208
H    -2.495415   -0.634685   -0.970085   -0.087836    0.454472   -0.240656
H     0.591255    0.676537    1.931244   -0.148034   -0.228656    0.174234
C    -0.039525    1.541051    1.672638    0.011408   -0.136832    0.130994
O     0.663569    2.599272    1.090085    0.218596   -0.237398    0.220922
H    -5.591051    2.794664    0.347955   -0.148740   -0.043406    0.397316
H    -3.681275    1.703918   -0.766454   -0.184584    0.173184    0.149272
C    -3.413667    0.241904    0.775675   -0.000090    0.033550   -0.030452
C    -3.862635   -0.221462    2.006043    0.118332   -0.116106   -0.051232
C    -4.933999    0.392509    2.631076    0.135510   -0.240098    0.085678
C    -5.557599    1.477475    2.038204    0.038864   -0.216388    0.245266
C    -5.108815    1.947273    0.812266   -0.074614   -0.063822    0.270478
C    -4.042195    1.334181    0.182609   -0.092744    0.060120    0.134240
H    -3.368647   -1.066401    2.460541    0.188284   -0.138578   -0.181356
H    -5.278758    0.023715    3.585365    0.222024   -0.357144    0.065530
H    -6.389324    1.959755    2.529316    0.050030   -0.316644    0.351502
H    -0.621174    0.156083    3.907345   -0.026312    0.252374    0.336882
C    -1.099496    1.847087    2.683393   -0.026578    0.014766    0.036862
C    -1.926113    2.950818    2.511486   -0.037370   -0.035664   -0.172000
C    -2.908847    3.226848    3.444487   -0.077134    0.093564   -0.260340
C    -3.067594    2.402062    4.547026   -0.102636    0.280744   -0.134840
C    -2.246131    1.298695    4.716459   -0.081184    0.340650    0.080942
C    -1.261029    1.017854    3.785726   -0.045694    0.205948    0.166820
H    -1.784200    3.582149    1.645533   -0.021310   -0.183374   -0.267712
H    -3.549212    4.085235    3.308837   -0.093754    0.046188   -0.427686
H    -3.834907    2.619507    5.274563   -0.136570    0.379212   -0.207050
H    -2.372977    0.654179    5.572900   -0.093802    0.491474    0.184734
31
* Frequency(7)  -39.8600
C    -2.251915   -0.387099    0.058887   -0.047730    0.159558   -0.204664
H    -1.225752   -2.044682    0.119753   -0.215194    0.075984   -0.693392
H    -1.442067    0.425589    0.005451    0.006872    0.108230   -0.022902
O    -0.407032    1.551719    0.323017    0.148264   -0.058494    0.104772
O    -1.758260   -1.516891    0.731090   -0.112002   -0.034320   -0.525208
H    -2.504315   -0.588633   -0.994471   -0.087836    0.454472   -0.240656
H     0.576254    0.653368    1.948899   -0.148034   -0.228656    0.174234
C    -0.038369    1.527186    1.685911    0.011408   -0.136832    0.130994
O     0.685720    2.575216    1.112471    0.218596   -0.237398    0.220922
H    -5.606122    2.790266    0.388215   -0.148740   -0.043406    0.397316
H    -3.699979    1.721467   -0.751328   -0.184584    0.173184    0.149272
C    -3.413676    0.245303    0.772590   -0.000090    0.033550   -0.030452
C    -3.850645   -0.233227    2.000851    0.118332   -0.116106   -0.051232
C    -4.920268    0.368180    2.639758    0.135510   -0.240098    0.085678
C    -5.553661    1.455548    2.063057    0.038864   -0.216388    0.245266
C    -5.116376    1.940806    0.839674   -0.074614   -0.063822    0.270478
C    -4.051593    1.340273    0.196211   -0.092744    0.060120    0.134240
H    -3.349569   -1.080443    2.442164    0.188284   -0.138578   -0.181356
H    -5.256261   -0.012474    3.592005    0.222024   -0.357144    0.065530
H    -6.384255    1.927670    2.564934    0.050030   -0.316644    0.351502
H    -0.623840    0.181656    3.941481   -0.026312    0.252374    0.336882
C    -1.102190    1.848583    2.687128   -0.026578    0.014766    0.036862
C    -1.929900    2.947204    2.494057   -0.037370   -0.035664   -0.172000
C    -2.916663    3.236329    3.418107   -0.077134    0.093564   -0.260340
C    -3.077994    2.430510    4.533363   -0.102636    0.280744   -0.134840
C    -2.254357    1.333213    4.724660   -0.081184    0.340650    0.080942
C    -1.265659    1.038723    3.802630   -0.045694    0.205948    0.166820
H    -1.786359    3.563568    1.618406   -0.021310   -0.183374   -0.267712
H    -3.558712    4.089915    3.265499   -0.093754    0.046188   -0.427686
H    -3.848746    2.657933    5.253583   -0.136570    0.379212   -0.207050
H    -2.382482    0.703980    5.591619   -0.093802    0.491474    0.184734
31
* Frequency(7)  -39.8600
C    -2.257339   -0.368966    0.035628   -0.047730    0.159558   -0.204664
H    -1.250208   -2.036047    0.040953   -0.215194    0.075984   -0.693392
H    -1.441286    0.437889    0.002848    0.006872    0.108230   -0.022902
O    -0.390183    1.545071    0.334924    0.148264   -0.058494    0.104772
O    -1.770988   -1.520791    0.671403   -0.112002   -0.034320   -0.525208
H    -2.514297   -0.536985   -1.021820   -0.087836    0.454472   -0.240656
H     0.559431    0.627382    1.968700   -0.148034   -0.228656    0.174234
C    -0.037073    1.511636    1.700798    0.011408   -0.136832    0.130994
O     0.710562    2.548237    1.137578    0.218596   -0.237398    0.220922
H    -5.623026    2.785333    0.433368   -0.148740   -0.043406    0.397316
H    -3.720956    1.741148   -0.734364   -0.184584    0.173184    0.149272
C    -3.413686    0.249116    0.769129   -0.000090    0.033550   -0.030452
C    -3.837197   -0.246422    1.995029    0.118332   -0.116106   -0.051232
C    -4.904868    0.340894    2.649495    0.135510   -0.240098    0.085678
C    -5.549244    1.430957    2.090930    0.038864   -0.216388    0.245266
C    -5.124855    1.933553    0.870412   -0.074614   -0.063822    0.270478
C    -4.062133    1.347105    0.211467   -0.092744    0.060120    0.134240
H    -3.328171   -1.096192    2.421554    0.188284   -0.138578   -0.181356
H    -5.231029   -0.053062    3.599452    0.222024   -0.357144    0.065530
H    -6.378569    1.891685    2.604880    0.050030   -0.316644    0.351502
H    -0.626830    0.210337    3.979766   -0.026312    0.252374    0.336882
C    -1.105210    1.850261    2.691317   -0.026578    0.014766    0.036862
C    -1.934147    2.943151    2.474510   -0.037370   -0.035664   -0.172000
C    -2.925429    3.246962    3.388521   -0.077134    0.093564   -0.260340
C    -3.089658    2.462415    4.518039   -0.102636    0.280744   -0.134840
C    -2.263583    1.371926    4.733859   -0.081184    0.340650    0.080942
C    -1.270852    1.062128    3.821588   -0.045694    0.205948    0.166820
H    -1.788781    3.542728    1.587982   -0.021310   -0.183374   -0.267712
H    -3.569367    4.095164    3.216895   -0.093754    0.046188   -0.427686
H    -3.864266    2.701028    5.230053   -0.136570    0.379212   -0.207050
H    -2.393142    0.759833    5.612613   -0.093802    0.491474    0.184734
