14
Coordinates from ORCA-job benzaldehyde_gas_opt E -345.595682250009
  O       2.888580      1.234849     -0.492769
  C       2.313228      0.158987     -0.386316
  C       0.859967      0.062450     -0.143645
  C       0.266196     -1.198163     -0.032282
  C      -1.107419     -1.294808      0.197133
  C      -1.880154     -0.138056      0.314089
  C      -1.284010      1.118879      0.202368
  C       0.088267      1.221904     -0.026902
  H       2.862237     -0.794025     -0.468097
  H       0.856823     -2.105909     -0.121433
  H      -1.577985     -2.271217      0.285139
  H      -2.950178     -0.215673      0.492821
  H      -1.887735      2.018541      0.293773
  H       0.552181      2.202242     -0.113879
14
Coordinates from ORCA-job benzaldehyde_gas_opt E -345.597100321491
  O       2.898709      1.214586     -0.494897
  C       2.308367      0.165403     -0.385991
  C       0.853171      0.067773     -0.142754
  C       0.260286     -1.186552     -0.031496
  C      -1.104648     -1.289213      0.196652
  C      -1.874012     -0.139781      0.313318
  C      -1.282110      1.113678      0.202404
  C       0.080577      1.219561     -0.025453
  H       2.849417     -0.795383     -0.465336
  H       0.857245     -2.087412     -0.121330
  H      -1.570178     -2.263246      0.283341
  H      -2.939688     -0.219726      0.490924
  H      -1.885181      2.008503      0.293273
  H       0.548043      2.191810     -0.112657
14
Coordinates from ORCA-job benzaldehyde_gas_opt E -345.597297560471
  O       2.911036      1.203718     -0.497983
  C       2.308153      0.169725     -0.384828
  C       0.850509      0.071220     -0.141652
  C       0.258174     -1.180665     -0.030753
  C      -1.104117     -1.288058      0.196556
  C      -1.873369     -0.141103      0.312913
  C      -1.283753      1.112468      0.202658
  C       0.075500      1.220255     -0.024118
  H       2.839539     -0.800499     -0.465456
  H       0.863078     -2.076717     -0.121464
  H      -1.566840     -2.263219      0.282616
  H      -2.938924     -0.222878      0.490089
  H      -1.888599      2.006069      0.293494
  H       0.549611      2.189684     -0.112074
14
Coordinates from ORCA-job benzaldehyde_gas_opt E -345.597294679768
  O       2.917248      1.201384     -0.491765
  C       2.307125      0.170688     -0.391354
  C       0.849511      0.072343     -0.144919
  C       0.257912     -1.179447     -0.032851
  C      -1.104081     -1.288435      0.196732
  C      -1.873586     -0.141492      0.314300
  C      -1.285075      1.112973      0.203020
  C       0.073496      1.221404     -0.025934
  H       2.835007     -0.803682     -0.458193
  H       0.866719     -2.072995     -0.125225
  H      -1.565642     -2.264168      0.283549
  H      -2.938946     -0.223872      0.493293
  H      -1.890943      2.005968      0.294881
  H       0.551253      2.189331     -0.115534
14
Coordinates from ORCA-job benzaldehyde_gas_opt E -345.597318743339
  O       2.921920      1.199251     -0.498304
  C       2.308248      0.171619     -0.384439
  C       0.849757      0.073655     -0.141302
  C       0.258731     -1.178404     -0.030588
  C      -1.104093     -1.289130      0.196813
  C      -1.874439     -0.141921      0.313034
  C      -1.286879      1.113901      0.202911
  C       0.072060      1.223115     -0.023585
  H       2.826425     -0.807940     -0.465593
  H       0.872787     -2.068720     -0.122799
  H      -1.564680     -2.265539      0.282746
  H      -2.940268     -0.224985      0.490158
  H      -1.894498      2.006037      0.293934
  H       0.554928      2.189061     -0.112985
14
Coordinates from ORCA-job benzaldehyde_gas_opt E -345.597326652475
  O       2.917404      1.201214     -0.496558
  C       2.307597      0.170546     -0.385597
  C       0.849922      0.072867     -0.141962
  C       0.258815     -1.179519     -0.030997
  C      -1.103948     -1.288890      0.196797
  C      -1.873756     -0.141599      0.313174
  C      -1.285797      1.113733      0.202794
  C       0.073272      1.222536     -0.024157
  H       2.829706     -0.805852     -0.464549
  H       0.870401     -2.071259     -0.123061
  H      -1.565354     -2.264810      0.282983
  H      -2.939447     -0.224156      0.490603
  H      -1.892892      2.006034      0.293928
  H       0.554074      2.189154     -0.113396
14
Coordinates from ORCA-job benzaldehyde_gas_opt E -345.597331346271
  O       2.917369      1.201151     -0.495830
  C       2.307425      0.170484     -0.385829
  C       0.849787      0.072973     -0.142110
  C       0.258833     -1.179514     -0.031092
  C      -1.103902     -1.288898      0.196846
  C      -1.873603     -0.141617      0.313219
  C      -1.285825      1.113812      0.202754
  C       0.073157      1.222696     -0.024276
  H       2.829131     -0.806128     -0.464564
  H       0.870891     -2.070912     -0.123264
  H      -1.565322     -2.264805      0.283146
  H      -2.939285     -0.224159      0.490742
  H      -1.893207      2.005911      0.293931
  H       0.554550      2.189007     -0.113673
