139
Coordinates from ORCA-job job E -262.791801766140
  C           0.68960700901473      4.79492491107001     -0.31166757095119
  C          -4.30302092096578      3.22616925878610      0.36579693906528
  C          -5.06472968652933     -1.83807663763112     -0.45290668274488
  C          -0.76356724159538     -4.85856102997923     -0.67784030355226
  C           4.14620657428283     -3.17194823965681      0.10777850389796
  C           5.10731007386360      1.90263443650479     -0.52803826408109
  O          -0.21345033967896      3.71786598797748     -0.18694866291740
  O          -4.26876027774864      2.16541446592510     -0.53513120978010
  O          -3.68148857504761     -2.01192053319738     -0.70167533287483
  O           0.09114551464237     -3.76157180489120     -0.45090284281931
  O           4.09062477393778     -2.04609383269423     -0.71847518595370
  O           3.73937138354032      2.10368860074556     -0.74121934455559
  C           1.34187132184526      4.76998312669575     -1.70774869453528
  C          -3.90408919305761      4.50356632693031     -0.40133697387719
  C          -5.69263152784228     -1.07245487062148     -1.63096146962170
  C          -1.44070681361062     -4.66459463776154     -2.04758703238459
  C           3.78280430480818     -4.39160169973227     -0.75654898033742
  C           5.67370239022223      1.14948454976893     -1.74364659202506
  O           0.38926806422123      4.71018345455241     -2.73425275870580
  O          -4.75262936563293      4.74962226984303     -1.48648401667920
  O          -5.56431634638153     -1.75396521720220     -2.84807479776543
  O          -0.52938445259900     -4.60473657190459     -3.11312239389068
  O           4.63079195997270     -4.52967924978364     -1.86263844630683
  O           5.53777261151366      1.88123362738058     -2.92987201605575
  C           2.25371636993697      3.54551023896457     -1.84112485428850
  C          -2.44203178345091      4.40092674273444     -0.87661579421390
  C          -5.05713100462184      0.32287150949096     -1.70279689580624
  C          -2.20346245194403     -3.33673761531114     -1.98579179395177
  C           2.32192157909921     -4.26422945335002     -1.20480877643588
  C           4.95465517821119     -0.20498416799566     -1.84311118862898
  O           3.06149591321390      3.61679228348693     -2.99421880848775
  O          -2.01991158022245      5.61900241416274     -1.45337458732216
  O          -5.69012888906235      1.12622691828771     -2.66910574744655
  O          -2.95729602988093     -3.08503205415752     -3.14595340317901
  O           1.91991426308631     -5.41280867140698     -1.92315875290186
  O           5.51711460208132     -1.01305779889354     -2.84577758279452
  C           3.19890894175447      3.41318201126303     -0.64160740580647
  C          -1.51354735873088      4.03723167938471      0.29461590846888
  C          -5.14993757110263      1.05875619132744     -0.35780232995942
  C          -3.16862570960237     -3.33400718522643     -0.79439149047543
  C           1.39693312292200     -4.05341158436376      0.00409073590212
  C           5.02070120421319     -0.98567355775387     -0.52203387209242
  C           2.47671206532820      3.60686471106246      0.70394096571768
  C          -2.08843113604464      2.78855688987524      0.97043429716481
  C          -4.75996890963694      0.16649487685156      0.84096366654989
  C          -2.47679676616661     -3.76824154384214      0.51498708011120
  C           1.91698602535338     -2.86683733173537      0.81825722413328
  C           4.65944750389190     -0.09281175276569      0.68102002184194
  O           1.66026413589730      4.77446555847458      0.69394236068224
  O          -3.40647871936352      3.02800197303993      1.44292612621358
  O          -5.28621530524811     -1.16357595499988      0.74368688431405
  O          -1.74552443793685     -4.97678888669066      0.31327313836307
  O           3.26291087100804     -3.08189625787983      1.20189730051892
  O           5.33404328592403      1.16227366161792      0.64143994405147
  C           3.48313399475420      3.79157432120124      1.84852343741563
  C          -1.28408988618500      2.30856645947247      2.17960063727187
  C          -5.32752609517151      0.69540160688419      2.17179336140080
  C          -3.50322182578111     -4.04175625231608      1.62183301250784
  C           1.09868610578267     -2.65104552878467      2.14446179801276
  C           5.05323355742550     -0.70847428067890      2.03438450039868
  O           4.32401887895739      4.89742866972632      1.64383918655214
  O          -1.45479946040399      0.99974728276125      2.28506067177174
  O          -6.70400356711737      0.97046587913434      2.10159737257701
  O          -4.43621651929982     -5.02584648736592      1.25263338589365
  O           2.03315462679664     -2.02355125551233      3.05157180539871
  O           6.38842124797778     -1.14109345870822      2.05091892165532
  H           0.16214741107887      5.74624127156413     -0.17613046818037
  H          -5.29286077309050      3.34648214533389      0.82248882143280
  H          -5.55637533350777     -2.81056614803989     -0.33215234706616
  H          -0.20906950614350     -5.80334181486083     -0.65239348066375
  H           5.14250923176915     -3.29377060410122      0.55246244916571
  H           5.63720462016439      2.85168294422416     -0.37888965636148
  H           1.95830430260947      5.67893310210051     -1.79951074581684
  H          -4.00052802166518      5.35958640120266      0.27526773337689
  H          -6.76790012758295     -0.96967912139122     -1.44922928583620
  H          -2.14362687774682     -5.49760381391639     -2.20251316768168
  H           3.89733565413763     -5.29640330051343     -0.15013841564802
  H           6.74607326154157      0.98084437476157     -1.59907689571074
  H          -0.39079597097357      5.24129274428343     -2.48926511557033
  H          -4.90274740933190      3.91749531082295     -1.96579013149573
  H          -4.65695455752354     -2.10217452819384     -2.95070552750382
  H           0.31988235354763     -4.99890582780578     -2.84288545763742
  H           4.76852980385143     -3.65635466901972     -2.26804277176906
  H           4.66771601960306      2.32523827908491     -2.95445469478324
  H           1.63131834664714      2.64362777288899     -1.88878466181347
  H          -2.37413586059566      3.59983859274208     -1.62735921449577
  H          -3.99319410132306      0.21045554566359     -1.95631835733087
  H          -1.44344337004392     -2.55395018000054     -1.85513654974857
  H           2.23086167842016     -3.37864575359391     -1.85225178650319
  H           3.89182208404459     -0.01820536960199     -2.06072217880012
  H           2.48698171218723      3.78711992006000     -3.75654269389347
  H          -2.77115572214806      5.98529988436914     -1.94904550715149
  H          -5.81714492261986      0.59363017621842     -3.46977476978994
  H          -2.39992600056754     -3.26749863543569     -3.91762316901841
  H           2.67828047611959     -5.70352974098784     -2.45906428846607
  H           5.65240906136790     -0.46289205448747     -3.63435445364793
  H           3.99403450515007      4.16417908686445     -0.73249248350351
  H          -1.46107989829571      4.86035228116579      1.01582165055021
  H          -6.17723284240825      1.42240342354677     -0.21980243372933
  H          -3.97960705442767     -4.04143553338634     -1.00572721179088
  H           1.38930188711311     -4.93622672920523      0.65538066350022
  H           6.02989856907443     -1.39666384280619     -0.38594713834258
  H           1.86051653398193      2.72676306407778      0.92048771087002
  H          -2.12782101670844      1.97249295327895      0.23955107485866
  H          -3.66931006071513      0.12404757609012      0.92146685895830
  H          -1.77492349407493     -3.00590155173320      0.87087111116119
  H           1.84927615894489     -1.95911588648975      0.20475488976096
  H           3.57604898618660      0.08137092051791      0.64729861563057
  H           4.13157932249707      2.91484433251823      1.90319778774915
  H           2.92394820489931      3.88971637474156      2.78586861891826
  H          -5.12001265464948     -0.05693854377885      2.94061909124747
  H          -4.83327412769468      1.62665563899116      2.44687010895623
  H          -4.07566141552130     -3.13272518476910      1.81769727540177
  H          -2.95423772123997     -4.32974154009285      2.52502510179308
  H           4.88582911829139      0.05245418905319      2.80668356060324
  H           4.42977986114294     -1.57685445863696      2.25433554109301
  H           3.77924048461924      5.69803109290561      1.65070496441341
  H          -7.17732364815483      0.13452856764925      1.98609130060645
  H          -3.96640752823072     -5.86512986312437      1.14986218470589
  H           6.96418382241409     -0.36395519279781      1.98994534825404
  C           1.29586494499697     -1.10953029328985      3.82244892698120
  H           1.99135765021960     -0.45241914835223      4.33978282684902
  H           0.63956874804014     -1.63348949616094      4.52673888490896
  O           0.42298164644756     -3.60372170780183      2.60015038267025
  C          -0.78479864998945      0.27982839017534      3.30681898635932
  H          -1.47405691886457     -0.47835638125629      3.67596760210812
  H          -0.47247861933286      0.96003429194314      4.10270771313905
  O          -0.63717626444059      3.00124901701269      2.91958364620229
  C           0.46575715285426     -0.40537178008957      2.73472112626109
  O           0.17023196885358     -1.42789096917142      1.83376687192736
  H          -1.07817213636242     -0.95380140838074      0.69971432341361
  O          -1.58369363693463     -0.42299819541388      0.03350421908888
  H          -0.82635007803550      0.09919088218126     -0.48574559173801
  O           0.36201774256190      0.94765658378282     -0.67141345925378
  H           0.78019259762066      0.80210681572255      0.19289031427579
  O           1.23462512383169      0.57984201270990      2.07175178677600
  H           2.15211729290918      0.27016443219639      2.04011996442218
  H           0.08549350368984      1.87849939223075     -0.67263350701184
  H          -2.16714923030228     -1.01162800657869     -0.49509275228297
