133
Coordinates from ORCA-job job
  C           0.51149917051710      4.80264654452777     -0.45703322187446
  C          -4.23683351341298      2.99573377043745      0.79975276648414
  C          -5.47695921641833     -1.94164518572027     -0.54681717880490
  C          -1.05634170597914     -4.71827728664669     -0.91694338980218
  C           3.77821079452297     -2.96717681128076     -0.00477509253212
  C           4.91928756086524      1.94561130117165     -0.09784691161294
  O          -0.31718886949540      3.71980877141055     -0.09417652480582
  O          -4.08734532369254      1.82630921346405      0.05258078288213
  O          -4.19321507434529     -2.16550622297438     -1.06233680375649
  O          -0.26434362409493     -3.54471182877758     -0.96913836279425
  O           4.06051286138151     -1.94873296274685     -0.91309232803340
  O           3.51789136459336      2.07583681823795     -0.26326713204260
  C           1.13374501790437      4.47628963889349     -1.81911580988881
  C          -4.04417894396044      4.16874251262474     -0.18429209451523
  C          -6.10694767891568     -0.89051267513001     -1.47945044698440
  C          -1.85139158207407     -4.78291427629651     -2.22301612009946
  C           3.42683764016119     -4.23371824273420     -0.81828535464177
  C           5.55885965854431      1.40679633971393     -1.39047569362453
  O           0.16651555320011      4.25061103423607     -2.80777772500337
  O          -5.00287337642031      4.15086301040615     -1.19815757629523
  O          -6.16384611561705     -1.35189573017599     -2.79875484948014
  O          -1.00910458290277     -4.80153845199073     -3.34480531748958
  O           4.40250451850066     -4.50424805906190     -1.77796104157777
  O           5.44799462801294      2.27737216025336     -2.47685979888614
  C           1.97775236446252      3.20847139091990     -1.64405605636705
  C          -2.62288115511445      4.05445473241226     -0.76489953918861
  C          -5.24709984600521      0.37856360823952     -1.37166224668015
  C          -2.75010037327165     -3.54203072622837     -2.26354274079305
  C           2.04105634930969     -4.08928022656913     -1.47391721291368
  C           4.89690941317002      0.05990604580412     -1.70236820915699
  O           2.67245386338000      2.88469452873628     -2.81811172999129
  O          -2.32375527265541      5.11379469348881     -1.63702120937337
  O          -5.79607204909480      1.45202772195204     -2.09163933657827
  O          -3.60172865209575     -3.53730585553413     -3.37773150553626
  O           1.63062388505654     -5.29274663988907     -2.06940001901169
  O           5.50551047077815     -0.55452367907130     -2.80464571239202
  C           2.99948509170718      3.37305754763926     -0.51267370476628
  C          -1.61219027778923      4.04592921298825      0.38396812914445
  C          -5.10007023521529      0.82980831550940      0.08529360705829
  C          -3.63208939689960     -3.46441830221863     -1.01041749825499
  C           1.01938521303297     -3.67209824141230     -0.40539911201726
  C           4.95061369037153     -0.90970103445178     -0.51431059003805
  C           2.33397709645657      3.91114829004399      0.76504963832230
  C          -1.97257416926100      2.94822819846320      1.39160341238455
  C          -4.68644000563110     -0.32541549837181      1.01088219957669
  C          -2.83189811500088     -3.67228575723860      0.28935275245338
  C           1.52892990775877     -2.33461879544788      0.16469862962154
  C           4.56486854294902     -0.22121583611293      0.81368847230706
  O           1.51440848913645      5.03477724793894      0.49242467931917
  O          -3.29290413513705      3.05548294705703      1.85880415633649
  O          -5.46747918246815     -1.48897004323607      0.78097033173652
  O          -1.89894777921999     -4.74330640642584      0.19304270806357
  O           2.71953658045072     -2.58991051159537      0.86453060377942
  O           5.18261923405413      1.05610451938253      0.94341509065487
  C           3.36565526636839      4.37665157034080      1.80278425714617
  C          -0.97656067250051      3.02309188646697      2.54562914012555
  C          -4.90874447779593      0.04566438010723      2.48481286564869
  C          -3.74805223994731     -4.06919168252190      1.45922293640537
  C           0.55377203031175     -1.63203203076227      1.08625215628135
  C           5.02086045853641     -0.99070793724667      2.07479192193215
  O           4.25501003805650      5.31062048110147      1.26958398015361
  O          -0.87823574548305      1.84115525364086      3.14244298954652
  O          -6.24178174099016      0.39481778637991      2.72592617838037
  O          -4.47272300981036     -5.22932085388436      1.16401233891521
  O           0.95459077163976     -1.74814011272325      2.34534857042548
  O           6.26123857788424     -1.61127980867318      1.91750499620229
  H          -0.06391615718661      5.73495812565536     -0.50001380469750
  H          -5.21403457311073      3.04713988086631      1.29423034306005
  H          -6.06775899867288     -2.86700144763829     -0.53032374106361
  H          -0.42029763419317     -5.60540843815833     -0.81053211229083
  H           4.63408273173613     -3.16889522905244      0.64932845879323
  H           5.36889619836160      2.90020332574923      0.20114239452566
  H           1.79247532223110      5.30717857635490     -2.11549393021945
  H          -4.14957727094458      5.12119897922705      0.34483303909429
  H          -7.13375639930906     -0.67218301983604     -1.17119390412419
  H          -2.48095649149610     -5.68577858314197     -2.21544855425168
  H           3.40345872091780     -5.09226201738228     -0.13827986806154
  H           6.62990367775165      1.26450073922323     -1.21173764542308
  H          -0.67764387645851      4.66128567728765     -2.53778600347740
  H          -5.12837572749161      3.23625929286460     -1.51843335931946
  H          -5.32457308436447     -1.79393201093398     -3.00724010019573
  H          -0.10326237528204     -5.01185669966512     -3.05830795776539
  H           4.61532104495174     -3.67956544204785     -2.24300004309825
  H           4.50644375935553      2.46881913042400     -2.64688047328537
  H           1.30467414424250      2.38152286607242     -1.35271296494514
  H          -2.53603207407522      3.09281924277274     -1.29581247447906
  H          -4.23764706359384      0.14282536137118     -1.74708586050741
  H          -2.09824852482388     -2.65221789984270     -2.26963662452828
  H           2.08256417643409     -3.29186640223678     -2.23311012950588
  H           3.82871990727683      0.25306560455353     -1.91139297003039
  H           2.07760589251372      3.03805909616460     -3.57015507937249
  H          -3.11634702543404      5.27331857318808     -2.17918157764892
  H          -6.06478276550019      1.11931802421236     -2.96255610002975
  H          -3.06755398782281     -3.75980023180427     -4.15512387763557
  H           2.38492514801529     -5.64222665211885     -2.57375162609770
  H           5.70268272475020      0.14583833934155     -3.44931561921274
  H           3.79739089028154      4.05533315076088     -0.83016452456789
  H          -1.59739908987188      5.01500064042098      0.89849722106131
  H          -6.04903981432231      1.25818314881238      0.43223909405832
  H          -4.42447425270368     -4.22283720678571     -1.08086544232836
  H           1.00209862029917     -4.39758035997760      0.41836650594345
  H           5.96351725127444     -1.32643922026454     -0.42040276012254
  H           1.73146103431233      3.08993601954163      1.18933642265084
  H          -1.81675864160823      1.96751226098715      0.90978421764742
  H          -3.61968119742354     -0.53972368357830      0.83748526317939
  H          -2.29972780410796     -2.73404990370564      0.51447150170186
  H           1.70887329254241     -1.63616505907300     -0.67085884827015
  H           3.46982097542689     -0.09512958524256      0.84494297700674
  H           3.94894337736562      3.51846827917131      2.14322355538220
  H           2.81168524768577      4.78668951153783      2.65671993307657
  H          -4.60406677402020     -0.80562806417237      3.10572367447675
  H          -4.29087314143798      0.90968591424980      2.73999685971111
  H          -4.47271311038920     -3.27776588323139      1.65094517664003
  H          -3.11843635533004     -4.21045740838025      2.34663258881079
  H           5.03265881525275     -0.26499470430022      2.89687765822002
  H           4.28734950048705     -1.75977459763485      2.31910014573769
  H           3.74082440679962      6.08630252872399      0.99729129275084
  H          -6.79054714278539     -0.36386197835826      2.47341663287327
  H          -3.83506961614768     -5.93007867656505      0.96242136819157
  H           6.94163656792654     -0.92254267436118      1.88102772348490
  C           0.38824961772998     -0.84363111776483      3.30665703163149
  H           0.57086764346639     -1.32455635766755      4.26213756733438
  H          -0.66573301596820     -0.68267350706088      3.08738749265659
  O          -0.45827453574379     -1.06163940241263      0.70057388451430
  C           0.27934558409349      1.55767439169638      3.98793969235499
  H          -0.13710691781809      1.18419033085906      4.91913684443672
  H           0.87839067579977      2.44895196172603      4.13911461340462
  O          -0.33986373869016      4.01636331907348      2.83354269160557
  C           1.11220188571034      0.51112028495864      3.25072104054786
  O           1.46857693573888      0.91431079368077      2.02635351920442
  O           2.30592906080620      0.24556656292906      4.12982737750611
  O           3.30666239802310      1.23474471268018      3.79608108361130
  H           3.05007818420796      1.38392629641781      2.85571307598434
