19
Coordinates from ORCA-job job.QMRegion
  C          -0.97656067250051      3.02309188646697      2.54562914012555
  C           0.55377203031175     -1.63203203076227      1.08625215628135
  O          -0.87823574548305      1.84115525364086      3.14244298954652
  O           0.95459077163976     -1.74814011272325      2.34534857042548
  C           0.38824961772998     -0.84363111776483      3.30665703163149
  H           0.57086764346639     -1.32455635766755      4.26213756733438
  H          -0.66573301596820     -0.68267350706088      3.08738749265659
  O          -0.45827453574379     -1.06163940241263      0.70057388451430
  C           0.27934558409349      1.55767439169638      3.98793969235499
  H          -0.13710691781809      1.18419033085906      4.91913684443672
  H           0.87839067579977      2.44895196172603      4.13911461340462
  O          -0.33986373869016      4.01636331907348      2.83354269160557
  C           1.11220188571034      0.51112028495864      3.25072104054786
  O           1.46857693573888      0.91431079368077      2.02635351920442
  O           2.30592906080620      0.24556656292906      4.12982737750611
  O           3.30666239802310      1.23474471268018      3.79608108361130
  H           3.05007818420796      1.38392629641781      2.85571307598434
  H          -1.68661782686631      2.96972162849137      1.72292520391400
  H           1.24728797528360     -2.13169996690334      0.43085872752003
