7
Coordinates from ORCA-job job.QMRegion
  C          -0.90764590991241      3.06884173397384     -0.65716608380122
  O           0.18257953225668      2.27861679675132     -1.45466842732352
  H          -1.26527536466070      3.66104576559912     -1.54750583768993
  O          -0.35100543020761      3.76939871086282      0.30716772122988
  H           1.01299872764343      2.35730962266759      0.23687727062556
  O           1.00065877803541      1.62776452320124     -0.43358952238036
  H          -1.69160154509604      2.29554904957462     -0.37224885199873
