14
Coordinates from ORCA-job job.QMRegion
  C           0.24812445003531      0.01839438863502     -3.16891589746664
  O           0.64000650374480     -0.98840129440723     -2.29204568647315
  O          -0.92911056103684      0.68153118006794     -2.73060402261151
  O           0.66015739837927     -0.29026162073524     -0.66028931039129
  H          -0.72388339438578      1.63217218060986     -2.65050481448418
  H          -2.18129364700529      0.95901597865884      0.85296685703015
  H           1.49774193630212     -0.74282604407036     -0.42108102885804
  H           0.27227313181413      0.19570060236033      0.63924874011103
  O          -1.70557970448915      0.21701991431168      1.25968167286291
  C          -0.38575761038902      0.56530847706973      1.55327716716026
  H          -0.20575165369099      1.65291813678912      1.56269809174357
  H          -0.04786373858305     -0.57307668581614     -4.05756936346812
  H           1.04893873243721      0.73411221331818     -3.39086945649105
  H           0.00812989177371      0.05681385876356      2.42640863323982
