22
Coordinates from ORCA-job job.QMRegion
  O          -1.82665717380297      1.04397440129141      2.70229179883211
  O           2.05374171545948     -1.70340119508252      2.73195026584951
  C           1.31144066269351     -0.90668426838692      3.66605796174920
  H           2.04063590257923     -0.29665577254619      4.21072422418572
  H           0.74970867009679     -1.55035955386462      4.35163938389199
  C          -0.97633462479042      0.30228289023697      3.56761925588163
  H          -1.49764769459471     -0.64308978158212      3.74851239868559
  H          -0.78736306655026      0.81724651443385      4.52247405211641
  C           0.36297180721664      0.02289635844534      2.92737736673339
  O           0.68173115855228      0.56427997834010      1.87484523503376
  H          -1.01895132593128     -0.52467524930905      0.45130777541662
  O          -1.35581637933526     -0.10648023666541     -0.35380397985685
  H           0.63833258369930     -0.29655446811685     -1.09579186906117
  O           1.56998581648376     -0.46970337697064     -1.30003731111567
  H           0.92515186801599      2.61194091506754      4.01432616192438
  O           1.51300961000416      2.12576197348513      4.62495838964744
  O           2.69906726420895      1.90981706451481      3.79317939313611
  H           3.34694382088608      2.38116330534523      4.35094073782652
  H          -2.06940029646008     -0.71094799968366     -0.63010853812478
  H           2.03855597480954      0.31108322806319     -0.96661985694970
  H          -1.53990980644901      1.90991558797590      2.46308604422496
  H           1.50009985696451     -2.05673619483896      2.05489799153554
