140
Coordinates from ORCA-job job
  C           0.51759929614135      4.66894626906296     -0.29543527973738
  C          -4.43942920510270      3.24152290001546      0.53363964032574
  C          -5.04603876017436     -1.74964804033878     -0.70524327149773
  C          -0.74803334798714     -4.76866739697547     -0.71900224845431
  C           4.26385902427084     -3.37064911766067      0.06281215293997
  C           4.83146253404523      1.70524134756705     -0.52597773712950
  O          -0.37033682913606      3.63103585934609      0.05953074354270
  O          -4.36782551971567      2.27077564294947     -0.45979586877474
  O          -3.65131871090573     -1.88772525149434     -0.88266347657612
  O           0.15486540034264     -3.71167550705793     -0.48112484600217
  O           4.29143900007656     -2.31822090155080     -0.84812622899353
  O           3.42445878779045      1.79520458033924     -0.66514884357602
  C           1.00837258212938      4.42119577668693     -1.73292544936449
  C          -4.02293812284357      4.56536796726504     -0.13545814905443
  C          -5.60267136844338     -0.91642078885012     -1.86980987250826
  C          -1.36682225922192     -4.56194930963208     -2.11123044728804
  C           3.81273881229535     -4.61528627868596     -0.72828932304869
  C           5.42855569944181      1.06912359572736     -1.79236189672293
  O          -0.04722155567203      4.36704950716251     -2.65195710334164
  O          -4.86172285660331      4.89837848958941     -1.20225461328678
  O          -5.34069537649782     -1.50635931178622     -3.11323001507391
  O          -0.40192761168183     -4.53520522850349     -3.12731077625232
  O           4.64477535477817     -4.87180322943383     -1.82103305502420
  O           5.10009416707263      1.79556800328358     -2.94497874367841
  C           1.73847877542018      3.07341636829990     -1.73996782642085
  C          -2.57025359312951      4.42588816999784     -0.62452564048454
  C          -4.99701866198896      0.48970011350077     -1.78584484771262
  C          -2.10199717560629     -3.21678888533120     -2.08794785955001
  C           2.36127838173472     -4.41187327101997     -1.20054588110203
  C           4.95121369831408     -0.38352443618239     -1.90570479456578
  O           2.31709753163696      2.78253744651385     -2.98694827194682
  O          -2.12719634682635      5.63299476295238     -1.20059303470420
  O          -5.57252926509759      1.34372630513175     -2.74311734252501
  O          -2.80536566934277     -2.96885842856068     -3.28094339879890
  O           1.88753840453390     -5.57408803088191     -1.84244416141464
  O           5.67079873588370     -1.06331437706440     -2.90660724648440
  C           2.87030618199906      3.10044635999182     -0.71086222147281
  C          -1.64706241684337      4.01679267530154      0.53339349084062
  C          -5.20255166233279      1.12130397065509     -0.40159880797481
  C          -3.12475592386819     -3.20465507316430     -0.94900988991274
  C           1.44011370887769     -4.06159514693780     -0.01784754591906
  C           5.10750591100078     -1.17900990135764     -0.60061209282997
  C           2.36875459300353      3.53887712615913      0.67591318979696
  C          -2.24118096987107      2.76190096534200      1.18205099181607
  C          -4.82862289476272      0.15099458629784      0.73770835342443
  C          -2.49214378995824     -3.60920128061312      0.39307516838750
  C           2.06562681066155     -2.83357451809159      0.66459672326469
  C           4.68606217446902     -0.36988336414183      0.64509952538756
  O           1.59527210124290      4.73049236864661      0.59129832079990
  O          -3.56869567090192      2.96846355283391      1.61655212482323
  O          -5.35154562358879     -1.16058920737436      0.51721053288993
  O          -1.74109024572428     -4.81506068869787      0.26330508153282
  O           3.36289636671524     -3.13745632949442      1.12523193629051
  O           5.17646911712343      0.97063375416613      0.60234627842240
  C           3.53878473853070      3.87302754392734      1.61345849838249
  C          -1.42556811193467      2.25521320500004      2.36770176372832
  C          -5.43235044913118      0.55975718470308      2.09368199431216
  C          -3.56742346840523     -3.88905114693653      1.45211637717336
  C           1.27808084968259     -2.19842903232985      1.78338948560395
  C           5.27794595770090     -0.92202228759598      1.95501252480790
  O           4.43315458993014      4.78138982725993      1.03062845502078
  O          -1.82665717380297      1.04397440129141      2.70229179883211
  O          -6.80645639844606      0.82542639412067      1.99791977231312
  O          -4.47613105807312     -4.86871619434462      1.02412117066847
  O           2.05374171545948     -1.70340119508252      2.73195026584951
  O           6.66290712254487     -1.11691736880112      1.86248501185140
  H           0.02581024457070      5.64535387979271     -0.21997257492253
  H          -5.44177523167815      3.31328293232720      0.97364751637932
  H          -5.53091403811985     -2.73349780621714     -0.67936270738328
  H          -0.24134845654031     -5.73936860269944     -0.66791020840543
  H           5.24103385928513     -3.53203135608129      0.53464683991528
  H           5.26539603804357      2.70037640742759     -0.37005726160364
  H           1.71579165600498      5.22075987234699     -2.00504485340844
  H          -4.09220533594376      5.38148168798595      0.59029584862828
  H          -6.69206593465888     -0.84664095766241     -1.77837821753131
  H          -2.09070164126968     -5.37102892262621     -2.29893839649062
  H           3.86311073226452     -5.49482712353502     -0.07821376848336
  H           6.52119125556518      1.08405549036082     -1.71514645688767
  H          -0.72991937176976      5.00652073277773     -2.37560452697349
  H          -4.96264207472858      4.11454916304907     -1.76552691953313
  H          -4.42364902139811     -1.83780699840612     -3.13137018106690
  H           0.39515114295439     -5.00899673558943     -2.82164018970308
  H           4.78845374898185     -4.03700551290402     -2.29383072713049
  H           4.13900900774481      1.95845077470568     -2.95844511669685
  H           1.00865388001292      2.29879167928796     -1.46069074560453
  H          -2.53405955598974      3.62056177727306     -1.37587795827728
  H          -3.91060145877853      0.41488750497813     -1.95801383909062
  H          -1.34995499287645     -2.43162330361375     -1.91923028027663
  H           2.33662224608467     -3.56124288552622     -1.90094903806081
  H           3.87853266856307     -0.38067585951484     -2.15558992772227
  H           1.62469074264623      2.83888732141345     -3.66078919409663
  H          -2.86790781389216      5.98402085800913     -1.72417202380187
  H          -5.64479409886365      0.84263695688456     -3.56984479370890
  H          -2.19386027860559     -3.09823802355964     -4.01986800458402
  H           2.60509109733183     -5.89764962124061     -2.41264337190601
  H           5.68263830368793     -0.49266175105701     -3.68976293514885
  H           3.62734084477703      3.81452620316220     -1.06036493722474
  H          -1.55838821960620      4.83058366209024      1.26477209219188
  H          -6.25159212755248      1.43125621886094     -0.29182912749119
  H          -3.92241651867279     -3.91555234906418     -1.20102880849042
  H           1.38577716304315     -4.90248144696278      0.68560192451418
  H           6.15482557845215     -1.49451961378532     -0.48797237570543
  H           1.76380337844458      2.72701483348650      1.10532306070719
  H          -2.20729146309946      1.95756642621785      0.42814448230026
  H          -3.73567725631724      0.10840675783915      0.82197912527846
  H          -1.82933691057760     -2.80776601267340      0.73775310820007
  H           2.10400365791856     -2.03261665530041     -0.10522822945105
  H           3.59133627464879     -0.35296886764667      0.71445089299238
  H           4.09800567998707      2.96253221753994      1.83228973818016
  H           3.11811087991685      4.27966894967314      2.53900950733472
  H          -5.24252550861056     -0.26103228049108      2.79489906583587
  H          -4.95280677080166      1.46372538271752      2.46631909405410
  H          -4.14715368146685     -2.98255179491337      1.63445060166457
  H          -3.06652555181927     -4.19776425765614      2.37694410118898
  H           5.03379030612034     -0.19882997457583      2.74224359447514
  H           4.82803542340100     -1.88085199308924      2.20585339538460
  H           3.94483194565908      5.59620039157655      0.84501805275096
  H          -7.24274988136252      0.01336643550817      1.70388551071805
  H          -3.97290529197542     -5.67480980546884      0.84117877649398
  H           7.06599479226326     -0.26321239271879      1.65069564289640
  C           1.31144066269351     -0.90668426838692      3.66605796174920
  H           2.04063590257923     -0.29665577254619      4.21072422418572
  H           0.74970867009679     -1.55035955386462      4.35163938389199
  O           0.07789801994330     -2.03384404733395      1.78347904523856
  C          -0.97633462479042      0.30228289023697      3.56761925588163
  H          -1.49764769459471     -0.64308978158212      3.74851239868559
  H          -0.78736306655026      0.81724651443385      4.52247405211641
  O          -0.54238686415433      2.86935341869972      2.91460263459341
  C           0.36297180721664      0.02289635844534      2.92737736673339
  O           0.68173115855228      0.56427997834010      1.87484523503376
  H          -1.01895132593128     -0.52467524930905      0.45130777541662
  O          -1.35581637933526     -0.10648023666541     -0.35380397985685
  H           0.63833258369930     -0.29655446811685     -1.09579186906117
  O           1.56998581648376     -0.46970337697064     -1.30003731111567
  H           0.92515186801599      2.61194091506754      4.01432616192438
  O           1.51300961000416      2.12576197348513      4.62495838964744
  O           2.69906726420895      1.90981706451481      3.79317939313611
  H           3.34694382088608      2.38116330534523      4.35094073782652
  H          -2.06940029646008     -0.71094799968366     -0.63010853812478
  H           2.03855597480954      0.31108322806319     -0.96661985694970
