19
Coordinates from ORCA-job job.QMRegion
  O          -1.85317367846664      0.74363302181477      2.41675523327755
  O           2.20512939122190     -1.63226557003062      2.72138880525387
  C           1.42604899234460     -0.82102275986864      3.61490012013026
  H           2.10390974329007     -0.11902165597964      4.09436945287348
  H           0.93604719988958     -1.44645110532438      4.35925531384616
  C          -1.02898660684636      0.02866196600424      3.32236869286878
  H          -1.44617466454468     -0.97390814673202      3.38906992068245
  H          -1.00423290544084      0.49494824201422      4.31194113264599
  C           0.39591661005798     -0.03193554506603      2.81811528832672
  O           0.74675028743836      0.69940925172411      1.89069710963697
  H           1.10319649798570      0.14219673958304     -0.05200315895501
  O           1.55282866073532     -0.13824219362827     -0.86016108199442
  H           0.35618937081921      2.52530475987625      4.39041652787665
  O           0.92380328986085      2.06455445980435      5.03698007121845
  O           2.23947936683758      2.22875349456589      4.42801825183394
  H           2.65612320225618      2.77668449901708      5.12109952822332
  H           2.29797685542042      0.49247596412353     -0.90151309982588
  H          -1.64830612007602      1.65820243166427      2.31305531362229
  H           1.67047209223515     -1.95788465580980      2.02460977655053
