11
Coordinates from ORCA-job job.QMRegion
  C          -2.20094728706009     -0.43886625123442     -0.10347668634144
  H          -1.10705483307172     -2.05064060430278     -0.12626441871323
  H          -1.42657406526149      0.40779149824854     -0.06458724785765
  O          -0.42632109830984      1.52997467706570      0.36620146303063
  O          -1.68205822791768     -1.59322962782946      0.50179080952798
  H          -2.40482333120748     -0.57067735451291     -1.17745055802158
  C          -0.15623850611720      1.45834664975104      1.74874985392668
  O           0.59995153366542      2.52946723049444      1.26577804964962
  H           0.44361071756292      0.57899475378837      2.02490480809344
  H          -3.07509688164465     -0.06094069921527      0.40677995296995
  H          -0.98327809532545      1.66708667856309      2.43282256625694
