131
Coordinates from ORCA-job job
  C          -0.54092967714300      4.63799889686913      0.77211451524162
  C           4.52291307032036      3.24766547502523      0.34094749052977
  C           5.11998170751738     -1.90906924338786      0.37929736230776
  C           0.73975870630751     -4.72856390790550     -0.45886227374973
  C          -4.19370148878595     -3.13991399578577     -1.40244802940585
  C          -4.92488825460414      1.81084120724236     -0.02006874668041
  O           0.42706195178765      3.63728312562431      0.57284854666781
  O           4.36484457575725      2.04430994437676      1.02355291658140
  O           3.72181229641720     -2.03461407975841      0.46903696247760
  O          -0.19869659729946     -3.68448896845681     -0.54778401272915
  O          -4.19735839757247     -2.18372312257486     -0.39018805395643
  O          -3.57127316216698      1.86874686941687      0.35806243530625
  C          -1.33398099230544      4.31395591677475      2.05007426380509
  C           4.05235026007422      4.37092026484443      1.28623507420429
  C           5.64099173040492     -1.36314795628033      1.71926369687794
  C           1.27513133145056     -4.79137660953908      0.98210805008141
  C          -3.87195760606834     -4.49688466236322     -0.74492844504958
  C          -5.66852028119992      0.92320087830536      0.99165990600315
  O          -0.50477336684134      4.14532649746432      3.16834927342048
  O           4.79060119061401      4.40501808692142      2.47309647290484
  O           5.36444463410084     -2.22309849493070      2.78984240715678
  O           0.24848897742991     -4.91167523862520      1.92982726679401
  O          -4.81350292197237     -4.84969997181466      0.22637473616248
  O          -5.61736967754483      1.43858486638199      2.29314837628460
  C          -2.11702262203049      3.01593209269399      1.82421686836192
  C           2.55393339914233      4.18350549655716      1.58488688486617
  C           5.01273159744803      0.01879142692021      1.94186048575143
  C           2.05587526424243     -3.50439770412667      1.27059957098643
  C          -2.45976222212854     -4.43793124238691     -0.13523096582160
  C          -5.05421954773389     -0.48132677873762      0.92679123031319
  O          -2.96889407255977      2.72063747647139      2.90253534010730
  O           2.05217691503239      5.25457918196271      2.35216236077906
  O           5.54648747984729      0.64932005006737      3.07830191133238
  O           2.68949617061600     -3.54266730910408      2.52488445242194
  O          -2.07641466319725     -5.69283747077143      0.38066024659770
  O          -5.76850060706612     -1.39170904986202      1.72339644278011
  C          -2.98010093395508      3.13857449947406      0.56458872596403
  C           1.74323469922477      4.07572833801698      0.28295950941623
  C           5.23632899812019      0.95296973938632      0.74414778862286
  C           3.13754521102019     -3.29721891750217      0.20589488740344
  C          -1.42824526276235     -3.98885675214710     -1.18321387244864
  C          -5.03071171973751     -1.03423997034561     -0.50539130333401
  C          -2.12042768259269      3.56667023801173     -0.63678558483671
  C           2.39432308305597      3.01438554324403     -0.60784070426654
  C           4.93338290601765      0.25962351221850     -0.60049983061827
  C           2.52495372384261     -3.35529721437100     -1.20372311251988
  C          -1.93447966039274     -2.70208957336652     -1.84012570491310
  C          -4.50340639239080      0.00193931431765     -1.51983380811178
  O          -1.39580899659055      4.75331006952547     -0.32883676890198
  O           3.75811183592568      3.29100271452910     -0.84959477070450
  O           5.48998317068305     -1.05391305563613     -0.66151047616681
  O           1.78485879746290     -4.56008827809065     -1.37278684569383
  O          -3.22305393887160     -2.86347416401806     -2.39532571273686
  O          -5.07403994520768      1.29380848748936     -1.30930133650939
  C          -2.98108560267747      3.89658441234984     -1.86339071336297
  C           1.70561105366694      2.86122933565460     -1.95660063386514
  C           5.56301535351717      0.98804968570727     -1.80205799385657
  C           3.60527347661179     -3.35993663191008     -2.29338690439849
  C          -1.01592739627664     -2.19128194077232     -2.94109011461010
  C          -4.87964625642782     -0.33985397033172     -2.97324414068127
  O          -3.89117420080377      4.93249466220104     -1.60561639472306
  O           2.24668341538481      1.83748835145369     -2.61450262932688
  O           6.92713795550024      1.25229616928509     -1.60887385156313
  O           4.47914445948797     -4.44979792529128     -2.16496832772444
  O          -1.45515026445634     -1.00891175495496     -3.36824363205311
  O          -6.24857774156646     -0.60904735479332     -3.11951774529622
  H          -0.06538938147854      5.62205473790035      0.86781645745125
  H           5.56115743992872      3.40634438853706      0.02376069303258
  H           5.59047511661779     -2.87205436010335      0.14406850765303
  H           0.27821370391936     -5.68703805418834     -0.72713495546348
  H          -5.15131584889737     -3.17584642578269     -1.93667383202071
  H          -5.36974093099774      2.81324730438372     -0.05684445609719
  H          -2.04835172189223      5.13462512525970      2.22608741459187
  H           4.20556601932716      5.33605750880053      0.79190482664393
  H           6.73076959645105     -1.26651403354240      1.67193128823779
  H           1.96240801423877     -5.64978227956236      1.05493039386821
  H          -3.90354505780878     -5.27738358858173     -1.51247910924320
  H          -6.72796144489876      0.87231965913636      0.71958252697977
  H           0.30198960282261      4.68336842563317      3.06682148914630
  H           4.89414476037572      3.50044927109485      2.81192392561363
  H           4.44800913455521     -2.55302749308296      2.72604341610770
  H          -0.51377545502057     -5.37337185467803      1.53415296864755
  H          -5.00241194489204     -4.07774284856890      0.78491806394773
  H          -4.71522495391591      1.75169117909574      2.49420317734235
  H          -1.39503125322693      2.19939114593703      1.67185194895463
  H           2.42267735295346      3.23948481159221      2.13594762499765
  H           3.92490639474410     -0.11469492051085      2.05738877633991
  H           1.35460125107821     -2.65763274582112      1.22124229110182
  H          -2.45920774706984     -3.68959874293844      0.67221585205778
  H          -4.00938168750862     -0.41364297304383      1.27046889893957
  H          -2.46014194649264      2.80330777234301      3.72479188493728
  H           2.74191548206366      5.51102874855587      2.98863945226155
  H           5.61161824896886     -0.01052032560222      3.78728052613601
  H           2.03906017065166     -3.82516474900545      3.18730522790702
  H          -2.86330802979808     -6.10208556554315      0.78053156671816
  H          -5.97035099248321     -0.96001824380842      2.56920122979111
  H          -3.75715945339493      3.89494166167873      0.73703804196678
  H           1.72268871792302      5.04056862399459     -0.23791436068615
  H           6.27745482788081      1.30372450928462      0.74538608431592
  H           3.88992818385066     -4.09095911202319      0.30291462745257
  H          -1.28773872279106     -4.76727781344394     -1.94284130113807
  H          -6.04496695465080     -1.34209036898760     -0.79422787858541
  H          -1.42217753089138      2.75441562688636     -0.88382178603076
  H           2.29545588460039      2.04362913343164     -0.09635682637842
  H           3.84419397668478      0.19807603654830     -0.73083632788962
  H           1.86494265241920     -2.48722562135668     -1.34222697199078
  H          -1.95670880569851     -1.91885776205962     -1.06557018258758
  H          -3.41093228845672      0.06834766185271     -1.42373363123349
  H          -3.57279017844553      3.02044076898578     -2.13463290586661
  H          -2.30856532824302      4.15800119180742     -2.68776345319321
  H           5.40835570556853      0.35595630991759     -2.68330790159417
  H           5.07128997485444      1.94696453547413     -1.96011234433925
  H           4.21368441216020     -2.45842096523501     -2.20121244728112
  H           3.10350394230966     -3.36932347240107     -3.26729007212555
  H          -4.57957553798041      0.51045220414967     -3.59537047776866
  H          -4.34264676473490     -1.22873208448523     -3.30147647907977
  H          -3.38747221813520      5.73647596236736     -1.40989313331214
  H           7.40443276952421      0.41012967371088     -1.58455837483970
  H           3.96974575847402     -5.26368956987735     -2.29375550292307
  H          -6.74346828717322      0.20648890857647     -2.95350529687301
  C          -0.56034283623952     -0.23079407716259     -4.14440460935902
  H          -1.15823832894132      0.51836227915059     -4.66830050374532
  H           0.00413299684357     -0.85833591716389     -4.84566171981727
  O          -0.04125458330784     -2.75043610806409     -3.36870824589925
  C           1.52658559995311      1.33250542167866     -3.72589714954383
  H           2.22826175424177      0.74598694835325     -4.32328865214451
  H           1.08073429083739      2.14611677902088     -4.31196759108945
  O           0.81027279181279      3.54415747403003     -2.37794563040001
  C           0.41342618505343      0.44104673066623     -3.17812582787495
  O          -0.13963537433230      0.88176709201611     -1.95602487902892
  O           0.75065185880723     -0.33974342056950     -2.05086634989284
