13
Coordinates from ORCA-job job.QMRegion
  C          -0.00334936646133     -0.40487065514014      2.92343996115909
  O          -0.52211113589958     -1.05020586732881      1.88000525363973
  H          -0.96520881530743     -0.43870306922103      1.08666055531283
  O          -1.29810529690075      0.19903832684187     -0.07378676690902
  H           0.43678673166967      0.25586794306294     -0.34077485230439
  O           1.39149237305570      0.19128773545680     -0.05920914779192
  H           1.33112744863714      0.40119352891729      1.40392227920324
  O           1.22795035533410      0.49691053061273      2.44501285551182
  H           2.03775964464955      0.09818905378562      2.81875895478934
  H           1.91751789354836      0.87417526950889     -0.51052756510634
  H          -1.86258544546245     -0.40895638902121     -0.56849043103941
  H           0.51250676725439     -1.15104525786971      3.58342496856447
  H          -0.65612753634429      0.34899717611607      3.43709204651524
