139
Coordinates from ORCA-job job
  C           0.55811702836046      4.88292681592225     -0.43638511789405
  C          -4.37969512737727      3.29556353661652      0.45203787447631
  C          -4.95085503757501     -1.75831834433255     -0.55520811223727
  C          -0.68213697345230     -4.80821905364812     -0.73549622820834
  C           4.28051887976350     -3.32318488088371      0.13217816181500
  C           4.82996516311638      1.81388512693810     -0.60100781142480
  O          -0.35414844010018      3.82673497092263     -0.25594361968777
  O          -4.34994080403313      2.28521110263078     -0.50796333302737
  O          -3.57276525788966     -1.86993866753116     -0.83372516470756
  O           0.27242287610061     -3.81611692083665     -0.47837788525430
  O           4.13329238066429     -2.21263432731545     -0.69718693240120
  O           3.44073369723771      1.98322115961431     -0.81516359145453
  C           1.16696227295367      4.75378475136156     -1.84333662903608
  C          -4.03300743832964      4.60703370004907     -0.28027695451802
  C          -5.62048531862780     -0.97890240575254     -1.69846193133058
  C          -1.30540539416872     -4.53395472311685     -2.11500679876260
  C           3.94219408820193     -4.55490720375463     -0.72998117451588
  C           5.42773172132312      1.07370613916212     -1.80882609090483
  O           0.19887092249232      4.79776953788498     -2.85944660711408
  O          -4.93490786538610      4.89075022882778     -1.31193995618886
  O          -5.44979781686703     -1.60387479144704     -2.94173671549764
  O          -0.35039595711542     -4.49626578054246     -3.14190781986639
  O           4.80910563027344     -4.68443454538341     -1.82099110469065
  O           5.22780596478246      1.76727236001977     -3.01076937078861
  C           1.88961324060108      3.40270181292421     -1.90886781350625
  C          -2.60037284593845      4.50094747629172     -0.82612227521119
  C          -5.05209799138520      0.44426719998224     -1.71062106057952
  C          -2.01624016763048     -3.17731692356503     -2.04679381467595
  C           2.48792256404352     -4.41306900178741     -1.20340156115614
  C           4.82597224664229     -0.33688958576930     -1.87051999623152
  O           2.57690756436714      3.21495375715181     -3.12129579106956
  O          -2.19964867498756      5.70462336627613     -1.44433434989142
  O          -5.72931729673580      1.25614282114024     -2.63602356670537
  O          -2.71522439977676     -2.88083729197364     -3.23089619406998
  O           2.07226798285706     -5.53526063508041     -1.95294035890969
  O           5.44278244344300     -1.11342055477099     -2.86835653087129
  C           2.91434676687883      3.30272060882907     -0.77334334851528
  C          -1.61467863959589      4.14874954236888      0.29829245678502
  C          -5.14985372933090      1.12168271851629     -0.33607930323378
  C          -3.02448949597842     -3.17814729160487     -0.89445597868665
  C           1.54275594723742     -4.23629234373887     -0.00691537210447
  C           4.98535443110088     -1.08350449848619     -0.53847284991144
  C           2.26352394727676      3.61162723319202      0.58747651994730
  C          -2.13368996031840      2.89814469562350      1.01436051993066
  C          -4.66206963346396      0.19880638504223      0.79842672634057
  C          -2.34267148673588     -3.58723409899623      0.42185906334337
  C           2.06073457893458     -3.12272132450191      0.91114505663933
  C           4.57682063409898     -0.21219145890114      0.66369477600951
  O           1.56736245002434      4.85621344643398      0.52994454829018
  O          -3.45469140819664      3.08292521193327      1.49460650632172
  O          -5.18378785580401     -1.12656476719247      0.66409520172742
  O          -1.67498715822912     -4.83506911905317      0.25080235182877
  O           3.42613083062231     -3.27692080030184      1.25668028525088
  O           5.08747973106327      1.12297263285162      0.57870893295036
  C           3.30584603792949      3.74398598799719      1.70564029661675
  C          -1.26349688238672      2.46868534695816      2.18513262189881
  C          -5.14859997529013      0.64146196961070      2.18904930090848
  C          -3.35120346361817     -3.78770883540091      1.55796040460321
  C           1.24086611182828     -3.04686078030053      2.19974704146840
  C           5.12507946543831     -0.75142769316784      1.99856105017878
  O           4.23862825249165      4.76228616775046      1.44137204605545
  O          -1.68859577761694      1.30764840766262      2.65492964023756
  O          -6.53426705154465      0.86311821751044      2.22620592272940
  O          -4.31986063723924     -4.75554144094733      1.24482858951282
  O           1.66181744471226     -2.03865494926037      2.96121416018547
  O           6.49981912963862     -1.03873471752824      1.93858666110675
  H           0.06493701603615      5.85523144002696     -0.32159437957298
  H          -5.36051279783154      3.36296297063559      0.94098035053979
  H          -5.40637658571473     -2.75181885483768     -0.45337387374059
  H          -0.22951101903176     -5.80765366145348     -0.71635992677832
  H           5.29463166551713     -3.39684532451092      0.54431215595735
  H           5.31784642932242      2.78823084575434     -0.47656009409145
  H           1.89543277671172      5.56770433760313     -1.98454444761128
  H          -4.09472259735936      5.43831637166815      0.42988019219460
  H          -6.70027324547634     -0.93656394106264     -1.51998225640663
  H          -2.04957621933664     -5.31932065836472     -2.32275603727707
  H           4.05188699240227     -5.46301541400341     -0.12913818209195
  H           6.51232873811701      0.99487430749114     -1.67710672595609
  H          -0.59275797217434      5.26463339098580     -2.53852473475588
  H          -5.09935672761991      4.07908289442774     -1.81903588090728
  H          -4.52875731245955     -1.90709375579819     -3.04516549936835
  H           0.45202257988846     -4.97976371240247     -2.86651501047321
  H           4.91506158141441     -3.81593177164223     -2.24453355315546
  H           4.31722421974066      2.11325789818640     -3.05466833071219
  H           1.12437032594016      2.62215293874873     -1.78243446427982
  H          -2.56901428373292      3.67987479190401     -1.55894917700293
  H          -3.98205469402077      0.38756912825634     -1.96840672215804
  H          -1.25834884258247     -2.40479953456973     -1.85038549322556
  H           2.41168941495995     -3.50713970846804     -1.82344931073490
  H           3.74748977776301     -0.25214743697696     -2.07522551507030
  H           1.98293457276013      3.45528692626080     -3.84837293171390
  H          -2.97781100261319      6.08022541059226     -1.89089953571558
  H          -5.85899302415597      0.74602151435195     -3.45207203001124
  H          -2.13454960752468     -3.08322916489950     -3.98228517057633
  H           2.82898272985445     -5.82821903563074     -2.48879863405532
  H           5.52576968799083     -0.57117377102357     -3.66830111234319
  H           3.71300956745179      4.03075024697916     -0.96181345178677
  H          -1.52274590974390      4.98191680002274      1.00637259393953
  H          -6.19171633295206      1.41662693847812     -0.14522054982365
  H          -3.81772425963225     -3.90215367620474     -1.12504599777660
  H           1.45429508881163     -5.17715157641729      0.54998449195163
  H           6.02676896215617     -1.41406942267512     -0.42874637349557
  H           1.54845648671390      2.82138170571390      0.84305131807008
  H          -2.08988446315303      2.04661645148983      0.30809487380863
  H          -3.56509064928998      0.16991462172769      0.78480699362043
  H          -1.61935207416156     -2.81577432248775      0.71124074076414
  H           1.90702372649640     -2.16767042905295      0.38205606869952
  H           3.48327409523076     -0.18806360441207      0.69223124697144
  H           3.87757649667894      2.81763450938907      1.78074246257084
  H           2.77113131274955      3.92999348783508      2.64263494700121
  H          -4.85954465107057     -0.14317128908907      2.89668051661076
  H          -4.66671737523906      1.57441894878578      2.47651648461366
  H          -3.88487755965225     -2.85252474606193      1.73471400630750
  H          -2.79143012255315     -4.06642266028462      2.45705811156161
  H           4.92845418235256      0.00407191533516      2.76657056907595
  H           4.62142772096043     -1.68283867058459      2.25928100127795
  H           3.76885778692414      5.60794352027187      1.43528129435756
  H          -6.98471564788463      0.01621912003268      2.09528363577812
  H          -3.87201066243921     -5.60994982066511      1.15563119151375
  H           6.98274591670521     -0.20661395198031      1.83561826327483
  C           0.70832002751403     -1.43428485149630      3.83394794886066
  H           1.24600573421692     -0.96747622858710      4.66065052511682
  H          -0.01065626196231     -2.17373423459703      4.20074209888825
  O           0.34759396961498     -3.79560100144487      2.49582962394607
  C          -0.90014994918902      0.63080906204686      3.62910615944706
  H          -1.60175816031512      0.11740659550434      4.29189965308996
  H          -0.28234730734376      1.34823470384714      4.18228978426810
  O          -0.30785546721754      3.07022322983400      2.60442028300825
  C          -0.00334936646133     -0.40487065514014      2.92343996115909
  O          -0.52211113589958     -1.05020586732881      1.88000525363973
  H          -0.96520881530743     -0.43870306922103      1.08666055531283
  O          -1.29810529690075      0.19903832684187     -0.07378676690902
  H           0.43678673166967      0.25586794306294     -0.34077485230439
  O           1.39149237305570      0.19128773545680     -0.05920914779192
  H           1.33112744863714      0.40119352891729      1.40392227920324
  O           1.22795035533410      0.49691053061273      2.44501285551182
  H           2.03775964464955      0.09818905378562      2.81875895478934
  H           1.91751789354836      0.87417526950889     -0.51052756510634
  H          -1.86258544546245     -0.40895638902121     -0.56849043103941
