16
Coordinates from ORCA-job job.QMRegion
  C          -0.90363888092942      1.91306258681760      1.77869361006701
  C           1.02483616353052     -3.05008461513931      2.17087757681230
  O          -1.38187424709749      1.75308822363591      3.01422431654417
  O           1.16469828562064     -1.87864366139518      2.80575280419969
  C           0.26827399262637     -1.57742818167484      3.89676061153553
  H           0.89762643806535     -1.16641612580117      4.67916187157572
  H          -0.24718457055845     -2.47362303862811      4.23375856320847
  O           0.34127702914695     -3.97625140759242      2.55418840534299
  C          -0.62630888544039      0.84421624684270      3.81903555442953
  H          -1.07106855442513      0.92396323577390      4.81072756525466
  H           0.42163091598731      1.13750871859392      3.86529242728344
  O           0.17246138895968      1.47247434737775      1.40435062208595
  C          -0.72124104436288     -0.56976826143613      3.32324965282713
  O          -1.50604530907109     -0.90720955068761      2.44982761425880
  H          -1.59734695264191      2.43432354246615      1.14410416397937
  H           1.61305778653657     -3.03156545834622      1.26117602520478
