130
Coordinates from ORCA-job job
  C           0.71306694103528      5.01086373203282     -0.18997159551821
  C          -4.13990088755692      3.18214943514758      0.68736358005210
  C          -5.17152022356127     -1.77553849051190     -0.21925591843021
  C          -0.87601633124975     -4.78842407591475     -0.63734783770983
  C           4.04987431657250     -3.03287849067290      0.11703127501183
  C           5.04536200506018      2.09222153902283     -0.58355645291840
  O          -0.12612292966253      3.87666263894279     -0.24912755863798
  O          -4.30242741570036      2.21933664302423     -0.30918529515618
  O          -3.82039929561565     -1.93699876102561     -0.58220734801922
  O           0.05623513678850     -3.74464421661164     -0.49151796806705
  O           3.82688847142541     -1.81213621434238     -0.52039866689118
  O           3.72370383709968      2.39635593718227     -0.93833795053140
  C           1.36538197620868      5.17985890569239     -1.56673964707736
  C          -3.83358501934610      4.52341803595331     -0.01606291979902
  C          -5.86044648567231     -0.98311866663844     -1.34157982273787
  C          -1.61171651453215     -4.58841816867895     -1.97098033610833
  C           3.77052041236791     -4.12654689386795     -0.93479518411391
  C           5.59217380831174      1.22198120200566     -1.73128468197057
  O           0.40973861461834      5.31431538089339     -2.58579643569700
  O          -4.80724449785637      4.83395877615271     -0.96883181689637
  O          -5.78002564357346     -1.64538896817798     -2.57329470437512
  O          -0.73899726235318     -4.56199084705311     -3.06880374000705
  O           4.60100141087511     -3.96857216907086     -2.04916272429523
  O           5.50370324581373      1.89592536953740     -2.95624899702100
  C           2.21521590903455      3.93185259535046     -1.82775934327531
  C          -2.43589355612698      4.47338347054120     -0.66415779455024
  C          -5.19375224800637      0.39660208473823     -1.42129161388990
  C          -2.38268121870574     -3.26318804432398     -1.89037684117039
  C           2.28761296794540     -4.03920442816539     -1.34189449986040
  C           4.77731940468551     -0.07949990343243     -1.75788209479451
  O           2.95266920285141      4.02733765494607     -3.01962297908548
  O          -2.05826698000668      5.73707403822518     -1.15560975662680
  O          -5.86486524368796      1.22886076273126     -2.33202544269145
  O          -3.19270427922590     -3.05564957490109     -3.01976040424601
  O           1.91627341990953     -5.09333251678084     -2.19713747638940
  O           5.28718994497496     -1.00767123551305     -2.68300821929177
  C           3.21627019737623      3.69604554843109     -0.69078372907826
  C          -1.38932483149919      4.00827092531779      0.36232865228345
  C          -5.15844972864825      1.10911963989303     -0.06232007556712
  C          -3.29423590558071     -3.24832710206419     -0.65981010230786
  C           1.37853868256448     -4.08344062193806     -0.10721809081645
  C           4.76783731617889     -0.75839443124201     -0.38419245131088
  C           2.55675521353806      3.78038595350237      0.69764060740010
  C          -1.87748019156326      2.64481917569209      0.88784421232710
  C          -4.66272526555495      0.17277943005197      1.06187241965019
  C          -2.51062281861881     -3.61079732512200      0.61157634163057
  C           1.84993635910259     -3.02410773959754      0.89483654263926
  C           4.36203964041329      0.22783906384472      0.72429669603790
  O           1.67396745444158      4.89425510991908      0.81420398409958
  O          -3.09098695831091      2.83316633895754      1.56925192272677
  O          -5.29609812967406     -1.10414964619180      0.99636446134553
  O          -1.78172620530747     -4.81837469649812      0.42833425045778
  O           3.20650592683867     -3.18777471347959      1.24063188702981
  O           5.12957051216762      1.42504471135379      0.64372719819099
  C           3.59876171695571      3.98911993656611      1.80830523991563
  C          -0.90363888092942      1.91306258681760      1.77869361006701
  C          -5.01244752378668      0.67026655885378      2.47771234191423
  C          -3.44089534268427     -3.84956963280314      1.80782332426130
  C           1.02483616353052     -3.05008461513931      2.17087757681230
  C           4.62997826825035     -0.34333919614119      2.12438087484795
  O           4.37422695332300      5.13367509410770      1.57517988648580
  O          -1.38187424709749      1.75308822363591      3.01422431654417
  O          -6.35507905866934      1.05463062037265      2.58186264604574
  O          -4.40000002090990     -4.83154470881928      1.53369517113469
  O           1.16469828562064     -1.87864366139518      2.80575280419969
  O           5.97047139644134     -0.72437775859675      2.27889302319966
  H           0.13618786763000      5.90786551146189      0.06711634438406
  H          -5.03621261333783      3.27312452696412      1.31269447414398
  H          -5.66075052141114     -2.74591031755498     -0.06963467212137
  H          -0.37721826665519     -5.76506164780996     -0.61847976651634
  H           5.07004190436179     -3.11411386760477      0.50964620931779
  H           5.64645865920072      3.00313476591432     -0.46350475147118
  H           2.01845757070612      6.06598187740809     -1.54599304880836
  H          -3.85080420055507      5.32819650832795      0.72655078731543
  H          -6.92460358407646     -0.86565939558868     -1.11293011285091
  H          -2.33234759439621     -5.40947203707295     -2.10141873206081
  H           3.97795222397211     -5.11510083998416     -0.51342799583209
  H           6.64982665971998      0.99490428414657     -1.56647752000574
  H          -0.45064614302487      5.54725424419777     -2.18921915263180
  H          -4.99113699484094      4.03716904670260     -1.49077191428449
  H          -4.87408403263654     -1.98354395439199     -2.69620587562199
  H           0.17363092043385     -4.75014786788630     -2.77476919935461
  H           4.65833263676543     -3.02115088051153     -2.27089183474803
  H           4.64143030913848      2.34267472690640     -2.99893532182410
  H           1.53626326757691      3.06453111307077     -1.86657268727412
  H          -2.45318070020563      3.74354599024989     -1.48911994932655
  H          -4.14882921166509      0.24832877328831     -1.74351789084324
  H          -1.65259503169735     -2.44381745926969     -1.79010930872365
  H           2.12538764913054     -3.07234056671670     -1.84393113303925
  H           3.73581581760448      0.17556868060311     -2.01332710116876
  H           2.35418729992296      4.34609352011855     -3.71103752742968
  H          -2.81073405748228      6.09669691653662     -1.65280299108557
  H          -6.07607928578523      0.69198025602767     -3.11159765621528
  H          -2.66996527196580     -3.27585989685593     -3.80534366817492
  H           2.58530534747331     -5.15549623840879     -2.89771915345758
  H           5.48611718635798     -0.53124202009074     -3.50294071404176
  H           4.02210631540111      4.43930914701909     -0.76497654701271
  H          -1.34249679998176      4.71477990696192      1.20070517274468
  H          -6.16502937786093      1.47265906903459      0.18804682160804
  H          -4.10233054942754     -3.97655124029938     -0.80734920870187
  H           1.40769766143589     -5.07616057263150      0.35662741873362
  H           5.76525849153692     -1.16264801153244     -0.17002447540242
  H           2.00143692932911      2.84708452368329      0.86530747795491
  H          -2.02697558465037      1.98573621900296      0.01359200838677
  H          -3.57472395514565      0.04254887704690      0.97202625340599
  H          -1.82239058186604     -2.78612833508089      0.84562397542538
  H           1.70397977683609     -2.03142421124051      0.43605905223269
  H           3.29322794252611      0.46096111108937      0.61450543727312
  H           4.28413210941784      3.14177148402073      1.83961648925391
  H           3.06628682483284      4.06740637173590      2.76362861079545
  H          -4.78381470258567     -0.15308903225488      3.16557108104713
  H          -4.40358064642777      1.53229200509402      2.74538009039749
  H          -3.97838636869390     -2.92746861372738      2.03609884284241
  H          -2.81890404828800     -4.13136395870155      2.66601346051748
  H           4.35260182700923      0.41884262224813      2.86198452111626
  H           4.02331111447718     -1.23656906409021      2.28224655574334
  H           3.77191169796174      5.89015595366038      1.53393883154941
  H          -6.89962902569711      0.27759316747010      2.39200133039370
  H          -3.92710844422458     -5.65120446222506      1.32853046877107
  H           6.51573244185149      0.06016777404537      2.12130733749243
  C           0.26827399262637     -1.57742818167484      3.89676061153553
  H           0.89762643806535     -1.16641612580117      4.67916187157572
  H          -0.24718457055845     -2.47362303862811      4.23375856320847
  O           0.34127702914695     -3.97625140759242      2.55418840534299
  C          -0.62630888544039      0.84421624684270      3.81903555442953
  H          -1.07106855442513      0.92396323577390      4.81072756525466
  H           0.42163091598731      1.13750871859392      3.86529242728344
  O           0.17246138895968      1.47247434737775      1.40435062208595
  C          -0.72124104436288     -0.56976826143613      3.32324965282713
  O          -1.50604530907109     -0.90720955068761      2.44982761425880
