137
Coordinates from ORCA-job job
  C           0.39415909102136      4.34525720016251      5.55238899261746
  C           1.26370911526988      1.32101121225947      9.80712607188416
  C          -0.62675347888567     -3.49563571775015      9.46062142718903
  C          -1.74912233798718     -5.19805965619429      4.59410425434198
  C          -1.36837295369540     -2.34515828772602      0.17555541054017
  C          -1.40663114774719      2.90337783143825      0.82739998104108
  O           0.41536496614225      3.05167242220674      6.12839722989299
  O           0.12771376565196      0.52736567104540      9.65381021962089
  O          -1.05000410858962     -3.23567496516088      8.14559414748891
  O          -1.52092844553718     -3.99270465775169      3.91152965258881
  O          -1.82746643759852     -1.19525992235686      0.81550037576426
  O          -1.53057459078815      2.88054563863557      2.22168886587232
  C          -1.05575318927814      4.81107259400781      5.33638304600799
  C           0.81576596911677      2.79088595804640      9.88816754902375
  C          -1.52879585394294     -2.70210236159194     10.42007859331004
  C          -2.97421575140624     -5.02410460504753      5.50862078248546
  C          -2.46345040318926     -3.41848996881870      0.32202838208564
  C          -2.72554261275496      2.35994152905317      0.24785270889070
  O          -1.84326551615118      4.77547252096194      6.49466276779799
  O          -0.07977162952234      3.01681366713346     10.93888945570632
  O          -2.87582285723553     -3.07289086439309     10.32108150778048
  O          -4.12750820329813     -4.62660947649421      4.81553364843672
  O          -3.66613335051286     -3.02160876336388     -0.27231812524535
  O          -3.82795374662465      3.10320015772938      0.68848292453086
  C          -1.70043196573249      3.88665780066346      4.30397047951806
  C           0.19642509645851      3.24154709181044      8.55179012970478
  C          -1.34168235641306     -1.20861242596409     10.12069051497227
  C          -2.63943881962843     -3.95942226065730      6.55975241262083
  C          -2.66103836193478     -3.71348859735547      1.81767824507680
  C          -2.86034815550889      0.88198551829449      0.63573851205744
  O          -3.01956355443055      4.27247877508467      4.01120230711028
  O          -0.03961572114701      4.63304413513370      8.59102283512023
  O          -2.03985760703925     -0.41257872700573     11.04338462296022
  O          -3.66389416237303     -3.82138952978078      7.51225821780448
  O          -3.55556133871104     -4.78530184819610      2.01458118151246
  O          -3.96665330172579      0.27637874646354      0.01430346805266
  C          -0.91246464792731      3.90325067227911      2.99098987306882
  C           1.11021077940025      2.91239583693088      7.35683110668615
  C           0.13676836929154     -0.79896784414800     10.17160332645281
  C          -1.35339103324501     -4.33280315232555      7.30229224106495
  C          -1.32981027238989     -4.05529037861036      2.50776774322903
  C          -1.61045526718483      0.08503337116332      0.23607158946854
  C           0.59464910709995      3.66042346171169      3.22450000700563
  C           1.53503382872583      1.44458169213519      7.48007609806824
  C           1.02859940238295     -1.77273451209246      9.37172798051355
  C          -0.21670433718843     -4.62212499401638      6.30716121929293
  C          -0.27790574670510     -3.00628413837793      2.13814533501722
  C          -0.34216319279672      0.77855675561724      0.76491158298236
  O           1.09534643205845      4.39703550217338      4.34873622815721
  O           2.15816975885881      1.18103165918372      8.72396561586174
  O           0.70872973394996     -3.13572026426494      9.65507906748289
  O          -0.63562491378051     -5.58769578588617      5.34600861663200
  O          -0.16496568412649     -2.82033245974610      0.74100892953117
  O          -0.31735721763920      2.15180911528396      0.37607501476726
  C           1.45558750640009      4.14302679942130      2.02974550469364
  C           2.55415721746038      1.00691124302982      6.43503129672334
  C           2.52096257482080     -1.66776904175068      9.73756464739193
  C           1.01234866886635     -5.21737865409660      7.00392998256728
  C           1.11900697781849     -3.32492707523676      2.67269588210319
  C           0.95900086357707      0.17456813947903      0.21872533232261
  O           2.50203151809477      3.28691392013561      1.66665901324689
  O           2.63661130264283     -0.30940313766978      6.43571998168261
  O           2.73709818290276     -1.72860488776748     11.12151154492549
  O           0.71967152284266     -6.42300670783704      7.65791287877536
  O           1.96262309997290     -2.37706423294246      2.28826429168757
  O           2.08174709380927      0.70290635237731      0.86591518724603
  H           0.91866765990573      5.05200485234909      6.20803354856862
  H           1.83673082557812      1.03817088698731     10.69939542365106
  H          -0.67103125566820     -4.56905642762315      9.68500272451680
  H          -1.91811271474783     -6.02060553101562      3.88725299176023
  H          -1.13997739967588     -2.16240786955282     -0.88167356903612
  H          -1.23827654026068      3.92505022466665      0.46001125947937
  H          -1.02078783622472      5.83620834455824      4.93170563915371
  H           1.69876503735689      3.40696008378877     10.09212360735123
  H          -1.22569448854226     -2.90672523257558     11.45247925760907
  H          -3.15964150999146     -5.98284066998932      6.01840321646824
  H          -2.14065154293557     -4.33092071258620     -0.19017000952816
  H          -2.70310525966128      2.44761654412339     -0.84334988057247
  H          -1.28473892325328      4.97014797635047      7.27322739152123
  H          -0.75014347600895      2.31467841745674     10.94614458481358
  H          -3.12412856787449     -3.19343108610228      9.38547522441770
  H          -4.02931400193274     -4.80492923949124      3.86041115065518
  H          -3.84277476413329     -2.08722770212057     -0.06303055672739
  H          -3.73406920967331      3.27909082213065      1.63980822898303
  H          -1.68123019749474      2.86055940778877      4.70345614313265
  H          -0.75255773511222      2.70411213700284      8.40218174955015
  H          -1.70607312625175     -1.01456857382925      9.09881551260655
  H          -2.47221135278792     -3.00441671899012      6.03943510870912
  H          -3.05484492866372     -2.80558043735933      2.30011156541459
  H          -2.95933410602976      0.81677775603369      1.73099348621538
  H          -3.47041065265745      4.44940960735760      4.85173345017463
  H          -0.34212435596895      4.85561853621759      9.48865231842938
  H          -2.91117564486691     -0.81546629197976     11.18965298867695
  H          -4.51049164989116     -3.77566126160744      7.03956373119995
  H          -4.27863186158411     -4.69332418479740      1.36991777202328
  H          -4.71799656405366      0.88911213872682      0.06333576185589
  H          -1.07130618048759      4.87652614391501      2.50469089284567
  H           1.99659190158422      3.55950712229259      7.37175087434589
  H           0.47296977475715     -0.77966623450475     11.21778618010930
  H          -1.53824791286732     -5.23229013241045      7.90459769409622
  H          -0.98644124594524     -5.05215621227265      2.20676720683656
  H          -1.56674639951617      0.00130198926466     -0.85735099208591
  H           0.72598148401711      2.58852593197103      3.41259756729328
  H           0.64128529829826      0.81587690390133      7.36593572116226
  H           0.89491246540167     -1.58237541479119      8.29786116123386
  H           0.06729925388383     -3.69084946577611      5.80031949958534
  H          -0.57831902124345     -2.05996561692328      2.61373057757439
  H          -0.35302627681914      0.71257170383754      1.86332505740238
  H           1.91802433147924      5.08331683020812      2.34055863934990
  H           0.81680801502708      4.33043470533810      1.16504302457705
  H           3.03632122011790     -2.48667638138490      9.22319798134533
  H           2.92870989829552     -0.71887961541357      9.39305671611674
  H           1.36343712923786     -4.52209042640230      7.76852887481472
  H           1.79235624250516     -5.35621632524070      6.24691364192624
  H           0.93187480196880     -0.91404535665795      0.31942722425631
  H           1.05351322921162      0.45001214531324     -0.83422359876170
  H           2.16885121831292      2.48722543193695      1.19481448982796
  H           2.50330433709720     -2.61466266545516     11.43437671279645
  H           0.44685354591746     -7.07031653349528      6.99069273266981
  H           2.07451506065495      0.41863589809551      1.81201574442036
  C           3.08867758637462     -2.15032560812841      3.11544155450589
  H           3.74642490186058     -1.46317853225509      2.57920841341430
  H           3.59532514432973     -3.08956315195843      3.37055536630552
  O           1.42413392698203     -4.32147169426969      3.28309638086652
  C           3.43861607601787     -0.97160569927510      5.46203732521709
  H           3.92882852874098     -1.80664140671663      5.97310600816377
  H           4.17654690906378     -0.29152127162048      5.02448545934098
  O           3.21612484346635      1.74938833896153      5.75992336684442
  C           2.48460784051730     -1.53764557352830      4.39712019033592
  O           1.35331530405678     -1.96027713276175      4.75243830589712
  H           4.18406509252821      2.35063654105027      4.05671902773292
  H           0.54117303592813     -0.38626657241260      4.54633944487023
  H           3.55833422779285      2.57314338947482      2.60532770365504
  O           3.96131449114560      1.89076334723822      3.22663379211819
  H           3.18410111936754      1.26374325097025      3.46311236229183
  O           2.04466694120884      0.15959213921874      3.55395641473442
  O           0.76050406504651      0.48671407200688      4.13336559333673
