139
Coordinates from ORCA-job job
  C           0.52965273495208      4.80375553192126     -0.38768315718945
  C          -4.41719344911271      3.28558361523256      0.46934845564420
  C          -4.97453925852654     -1.74298535098101     -0.62572669482636
  C          -0.67830111951250     -4.77869070044004     -0.73421270877417
  C           4.31166552148887     -3.35592183466441      0.10160441599891
  C           4.83133854814012      1.77999435165966     -0.53396015865269
  O          -0.35655685758035      3.75472204174712     -0.07757987958175
  O          -4.36649602910932      2.28645477961826     -0.49867110274066
  O          -3.58292445052372     -1.84531166883279     -0.84948581169936
  O           0.27773899972444     -3.78876673078710     -0.45872941545207
  O           4.19094969985526     -2.24385724417463     -0.72852283862203
  O           3.43564143327021      1.91893354600988     -0.71444252707113
  C           1.07464592893821      4.58411792405962     -1.81125642211359
  C          -4.02596079933045      4.59880862580302     -0.23396440342242
  C          -5.60562447468049     -0.95280268039716     -1.78333383878284
  C          -1.29108396653034     -4.49810076575442     -2.11830057622479
  C           3.93770378178812     -4.57886170107312     -0.75828088300784
  C           5.42841523219715      1.08213409308511     -1.76837475076878
  O           0.06493592270534      4.54467039107431     -2.78312724790463
  O          -4.88935773190054      4.91066914073910     -1.28963894258904
  O          -5.38951484503214     -1.56225620959419     -3.02677442505336
  O          -0.33134668734121     -4.46081486893290     -3.14034197784203
  O           4.78727724186079     -4.72389730330881     -1.86067186661885
  O           5.19481428023079      1.80069765951108     -2.94888953675435
  C           1.80543288764973      3.23729792482834     -1.81646092010738
  C          -2.57930702435963      4.47798421585807     -0.74007441347646
  C          -5.05467997758697      0.47860319069379     -1.76069055670263
  C          -1.99551731754587     -3.13697335639422     -2.05304545454711
  C           2.47988146446933     -4.41682084161060     -1.21470717789318
  C           4.85842081761103     -0.33886895811815     -1.85781959740505
  O           2.42059688973355      2.95819553862066     -3.04921492094420
  O          -2.16361219807617      5.68230861252920     -1.34902035094756
  O          -5.72617079703056      1.29522389083778     -2.68777758896924
  O          -2.67726944303182     -2.82866006804266     -3.24380759972367
  O           2.04632424875297     -5.53986044502416     -1.95271618494858
  O           5.48715339910048     -1.07990171609069     -2.87453561250233
  C           2.89591317271278      3.23451638144967     -0.74142387500106
  C          -1.63435848383812      4.11304201436626      0.41605537546290
  C          -5.19637979278380      1.13617638350917     -0.37972192709332
  C          -3.01969422700847     -3.14768963753480     -0.91475007799692
  C           1.55106875121123     -4.21718455872500     -0.00884220373964
  C           5.03701161544576     -1.11464156881568     -0.54525021592867
  C           2.32742662547744      3.64669431870063      0.62845041073255
  C          -2.19261314767235      2.86349313449837      1.10867887340434
  C          -4.77309254188144      0.19898937014540      0.76918902152190
  C          -2.35104510117506     -3.55896663081970      0.40848275978588
  C           2.10140881117363     -3.09635267906094      0.88041970749650
  C           4.64698966811742     -0.28000149254687      0.68930733890437
  O           1.59030844100261      4.86434358633759      0.52218953847651
  O          -3.53092758102559      3.04654776986164      1.54341098729514
  O          -5.26010303056244     -1.13450945705698      0.59395253859660
  O          -1.68021382787069     -4.80677591569028      0.24339620071154
  O           3.46261665929057     -3.29204226408316      1.22963213598951
  O           5.12698333433822      1.06795935934235      0.62635013336740
  C           3.44433651642033      3.90195825778463      1.64790432751568
  C          -1.38164493926600      2.46938603483517      2.34185009320942
  C          -5.34978131640860      0.62741316061731      2.13061723057831
  C          -3.37696313744623     -3.76208029270912      1.52960887114402
  C           1.30410371609155     -2.96643424745737      2.17749440510709
  C           5.24828709163775     -0.84444228354870      1.98972339107938
  O           4.35039100598970      4.88475650996171      1.21371976047996
  O          -1.68791031481421      1.23124014930051      2.69815045338400
  O          -6.73514107039660      0.84726138591911      2.08239350265186
  O          -4.32944230257403     -4.74154776053297      1.20442888030228
  O           1.67861754701183     -1.88047865164898      2.83515316876508
  O           6.62307689177467     -1.10814204125014      1.87973293525081
  H           0.02888973208490      5.77592750275306     -0.31524197323123
  H          -5.41251884322765      3.36425044308738      0.92531191239530
  H          -5.42571349313739     -2.74066025113160     -0.55777095271502
  H          -0.22771905124873     -5.77850127119827     -0.71491078953467
  H           5.32580467230269     -3.45573928448831      0.50921718658467
  H           5.29903224622353      2.76265260477396     -0.39608528076923
  H           1.78881626452916      5.39247617272777     -2.03536452521034
  H          -4.09522901667900      5.42210939396489      0.48456646640649
  H          -6.69118147576715     -0.92188538778637     -1.64047009654772
  H          -2.03556918132170     -5.28216299432805     -2.33057081164725
  H           4.03955995551144     -5.48845342093622     -0.15795953714781
  H           6.51625934316211      1.02797039493327     -1.65402995868881
  H          -0.66635638893453      5.12905536049716     -2.51414425461185
  H          -5.04090366099855      4.11002365103118     -1.81877963011638
  H          -4.46266732679229     -1.85725679938238     -3.10516442209891
  H           0.45972490196405     -4.96432881604727     -2.86994712077286
  H           4.90686810744511     -3.85614458150094     -2.28175492882058
  H           4.25892227194275      2.07201658239048     -3.00098602330380
  H           1.05808123885847      2.46612597295622     -1.57995408237491
  H          -2.53300091319231      3.65934184513863     -1.47437629358592
  H          -3.98007628163239      0.44644132409153     -1.99803509885138
  H          -1.22952645426671     -2.37587682263484     -1.84513530179316
  H           2.41003835221072     -3.51352305881742     -1.83912998041624
  H           3.77724160270211     -0.27309545914296     -2.05442501046535
  H           1.77951328355184      3.13625204393476     -3.75461881460460
  H          -2.94349479011004      6.07458295474184     -1.77908983554531
  H          -5.80079480338754      0.80845589957412     -3.52392726793970
  H          -2.08046874332011     -3.00564484243729     -3.98787120200868
  H           2.79428928223993     -5.84192936772466     -2.49592140562459
  H           5.54181566764056     -0.52486154602005     -3.66867534556518
  H           3.67418387188010      3.95032135830853     -1.03544749630323
  H          -1.55341806998436      4.94381129123432      1.12856504138679
  H          -6.23989928547867      1.44741213741629     -0.23076874840365
  H          -3.80226038315588     -3.87819722073826     -1.15661076493626
  H           1.46413413042604     -5.14797241767073      0.56544097939111
  H           6.08136083411877     -1.44410145165446     -0.45675750785401
  H           1.66804992503739      2.85815871443050      1.00856634245593
  H          -2.13587373112594      2.03090089971173      0.39048182606327
  H          -3.67917862788591      0.18820695618185      0.83139787874085
  H          -1.62682737008155     -2.79353499089466      0.71096612003309
  H           1.98455241428757     -2.14578725572273      0.33647879557075
  H           3.55460179074075     -0.27999144604995      0.76282702467469
  H           4.02287487078103      2.98718351782780      1.78443041501675
  H           2.97758554648149      4.18525975468345      2.59685046347341
  H          -5.10561456915606     -0.16190686880508      2.85025079340590
  H          -4.88933129748430      1.55957699092099      2.45516535702721
  H          -3.92642811657478     -2.83304887784689      1.69159585919818
  H          -2.83249044064314     -4.02926026931447      2.44187264802170
  H           5.05994636987909     -0.11804397440573      2.78731913343214
  H           4.76257956085083     -1.78701599258292      2.24272394064208
  H           3.87796418816322      5.72792713394063      1.15795122507453
  H          -7.17318090867195      0.00233727825786      1.90625117656229
  H          -3.86954153853527     -5.58886958709938      1.11265491158140
  H           7.09293270339853     -0.26747653105126      1.78200499081710
  C           0.81556294262317     -1.38690642392310      3.85439887536682
  H           1.40934108604247     -0.71932101209851      4.47995350906542
  H           0.38967579491646     -2.21329398556111      4.44215854688807
  O           0.46685235869247     -3.74580124074821      2.56078208519053
  C          -0.92959532971438      0.59758961472921      3.72682325936014
  H          -1.60187748538499      0.32724388187186      4.55114012604626
  H          -0.14649816101933      1.27946902505434      4.08515504023067
  O          -0.59531993260809      3.17902414801315      2.91232311900288
  C          -0.30968702360593     -0.65091081172887      3.12630561557867
  O          -0.68370735829627     -1.08422572497305      2.04972788822550
  H          -1.36713002420258     -0.25034717067296      0.55129071392259
  O          -1.48719868794274      0.07616400292822     -0.36050302494197
  H           0.52897598401776      0.03975041255791     -0.52702926414293
  O           1.44086940434614     -0.06897593989447     -0.19997559051521
  H           1.63666104786644      0.55705274210742      1.62315074077394
  O           1.70266769893870      1.07681104517897      2.44562022383105
  H           2.61794070358762      0.96522654628082      2.72859424555228
  H           1.95673809624267      0.65498243265299     -0.59196382626109
  H          -2.12535811874890     -0.55710189862828     -0.72927837887777
