19
Coordinates from ORCA-job job.QMRegion
  O          -1.43152848538775      1.04215363107409      2.24172913909314
  O           1.87026140334028     -2.27835636049191      3.07171090797746
  C           0.93892031583570     -1.49241688415787      3.78783927327997
  H           1.51259515270929     -0.86927850693896      4.46712081066424
  H           0.21901080998019     -2.10819277864934      4.33598493029634
  C          -0.79955548866197      0.33253830739293      3.30510870295324
  H          -1.56412714806057     -0.20659456170693      3.86254850859682
  H          -0.30307901696992      1.05186018164300      3.96150859199013
  C           0.16148955298557     -0.69295255778942      2.73029427940413
  O          -0.15134053980786     -1.34806107840307      1.68019878303212
  H           0.53432140666560      0.36728872051386     -0.49929007020674
  O           0.80078458490703      1.19099672364069     -0.06116204016604
  H           1.13974831906555      0.71668589562387      1.19953741858787
  O           1.46400606366037      0.29929745772957      2.14596028294098
  O           1.81814869064083      1.48489188239212      2.92924028605182
  H           2.74664862989889      1.24526743271176      3.14027547452768
  H           1.66734974919871      1.41503949541563     -0.46825027902336
  H          -1.38002229982095      1.97689512631246      2.27285446927193
  H           1.45573058749848     -2.90958741491737      2.53275799005127
