137
Coordinates from ORCA-job job
  C           0.56163500000000      5.14877400000000     -0.06452200000000
  C          -4.36293900000000      3.29002000000000      0.50149500000000
  C          -5.12807500000000     -1.75508400000000     -0.47006000000000
  C          -0.92215500000000     -4.95255500000000     -0.43446400000000
  C           4.07508500000000     -3.22357400000000     -0.06142900000000
  C           4.72288800000000      1.96823800000000     -0.67633800000000
  O          -0.29484500000000      4.03284800000000      0.05239200000000
  O          -4.29089300000000      2.27882000000000     -0.45466300000000
  O          -3.75318000000000     -1.97245400000000     -0.67549100000000
  O           0.06196000000000     -3.95423500000000     -0.36366400000000
  O           3.75010000000000     -2.02381500000000     -0.69067400000000
  O           3.34728400000000      2.27282500000000     -0.75742200000000
  C           1.14637300000000      5.18641100000000     -1.48894500000000
  C          -4.02157600000000      4.62105700000000     -0.19848400000000
  C          -5.66165500000000     -0.94899700000000     -1.66610500000000
  C          -1.64619300000000     -4.83223000000000     -1.78748200000000
  C           3.73405700000000     -4.34833100000000     -1.05827900000000
  C           5.10433900000000      1.19155500000000     -1.95135600000000
  O           0.17014000000000      5.33059600000000     -2.48595800000000
  O          -4.85084700000000      4.85488200000000     -1.29994100000000
  O          -5.46387300000000     -1.61354500000000     -2.88263200000000
  O          -0.79739300000000     -4.97865000000000     -2.89264700000000
  O           4.43130000000000     -4.18316000000000     -2.26160800000000
  O           4.80739700000000      1.91758400000000     -3.11247400000000
  C           1.87995100000000      3.85869900000000     -1.71134600000000
  C          -2.54475600000000      4.62976100000000     -0.63474700000000
  C          -4.95824200000000      0.41513800000000     -1.66815000000000
  C          -2.31905900000000     -3.45324800000000     -1.83275400000000
  C           2.21817600000000     -4.32946000000000     -1.31500200000000
  C           4.37072600000000     -0.15802500000000     -1.93909100000000
  O           2.55651400000000      3.81061500000000     -2.94604600000000
  O          -2.18928900000000      5.90609400000000     -1.11843800000000
  O          -5.46618900000000      1.24218800000000     -2.68380400000000
  O          -3.06410000000000     -3.27494500000000     -3.01117300000000
  O           1.82069300000000     -5.44487000000000     -2.07995300000000
  O           4.77665600000000     -0.97891600000000     -3.00897800000000
  C           2.92514000000000      3.62490600000000     -0.61523000000000
  C          -1.60855700000000      4.24715900000000      0.52555000000000
  C          -5.12727200000000      1.13609900000000     -0.32436500000000
  C          -3.26575000000000     -3.30060600000000     -0.64106300000000
  C           1.39101500000000     -4.32032700000000     -0.01858000000000
  C           4.64723100000000     -0.92130600000000     -0.63853100000000
  C           2.36441800000000      3.87734500000000      0.79799800000000
  C          -2.12695100000000      2.91814900000000      1.08846100000000
  C          -4.74695300000000      0.20624700000000      0.84926700000000
  C          -2.52576900000000     -3.59196400000000      0.67632500000000
  C           1.95615900000000     -3.25396400000000      0.92772600000000
  C           4.40845900000000     -0.03929200000000      0.59972000000000
  O           1.60474100000000      5.08478800000000      0.86415300000000
  O          -3.45445700000000      3.07146000000000      1.56234100000000
  O          -5.36949500000000     -1.07366000000000      0.72267200000000
  O          -1.84629600000000     -4.84349500000000      0.61314400000000
  O           3.34626500000000     -3.40789300000000      1.13507300000000
  O           5.02990000000000      1.24346100000000      0.47388000000000
  C           3.50257400000000      4.02335000000000      1.81670500000000
  C          -1.35893100000000      2.35966300000000      2.28560000000000
  C          -5.25365900000000      0.70836600000000      2.21338600000000
  C          -3.50337000000000     -3.70738000000000      1.85218900000000
  C           1.27222200000000     -3.18902700000000      2.29416900000000
  C           5.00619400000000     -0.66516700000000      1.87033500000000
  O           4.35755600000000      5.09012700000000      1.49096500000000
  O          -1.43152848538775      1.04215363107409      2.24172913909314
  O          -6.61630000000000      1.03541400000000      2.17347600000000
  O          -4.44659100000000     -4.72187800000000      1.64155700000000
  O           1.87026140334028     -2.27835636049191      3.07171090797746
  O           6.35090600000000     -1.03567700000000      1.69849400000000
  H           0.02693400000000      6.08025900000000      0.15461000000000
  H          -5.35498900000000      3.34039500000000      0.96719000000000
  H          -5.66738700000000     -2.70595100000000     -0.37318100000000
  H          -0.47997700000000     -5.95051900000000     -0.32217500000000
  H           5.13105000000000     -3.26367200000000      0.23069400000000
  H           5.31744700000000      2.88721800000000     -0.60525000000000
  H           1.86248000000000      6.02139100000000     -1.54275900000000
  H          -4.19059000000000      5.44246000000000      0.50581800000000
  H          -6.74174300000000     -0.80145400000000     -1.55769700000000
  H          -2.42474500000000     -5.60804900000000     -1.83373300000000
  H           4.02747800000000     -5.31641600000000     -0.64197700000000
  H           6.18487600000000      1.01117900000000     -1.95802900000000
  H          -0.65512800000000      5.66245800000000     -2.08278600000000
  H          -4.88127700000000      4.04525900000000     -1.83402200000000
  H          -4.57676400000000     -2.01927200000000     -2.88753900000000
  H           0.12260000000000     -5.12993700000000     -2.59432700000000
  H           4.37127100000000     -3.24728500000000     -2.52356800000000
  H           3.95382900000000      2.37774200000000     -3.00059000000000
  H           1.11769900000000      3.06882500000000     -1.66795400000000
  H          -2.41470200000000      3.88073700000000     -1.43179400000000
  H          -3.88069100000000      0.24397000000000     -1.82502800000000
  H          -1.53695300000000     -2.68259900000000     -1.75627200000000
  H           1.97933500000000     -3.40056800000000     -1.85628800000000
  H           3.28805800000000      0.02427600000000     -2.00879300000000
  H           1.94601700000000      4.11355200000000     -3.63236700000000
  H          -2.91472600000000      6.21468200000000     -1.68582000000000
  H          -5.59931200000000      0.68435000000000     -3.46612300000000
  H          -2.53052000000000     -3.60963900000000     -3.74809500000000
  H           2.43587900000000     -5.52153600000000     -2.82719900000000
  H           4.82399600000000     -0.42204200000000     -3.80022300000000
  H           3.76773500000000      4.30489500000000     -0.79333200000000
  H          -1.62549800000000      5.01734700000000      1.30667900000000
  H          -6.17175800000000      1.45793900000000     -0.20777400000000
  H          -4.09385400000000     -4.01290000000000     -0.75163800000000
  H           1.41385800000000     -5.30541000000000      0.46118800000000
  H           5.68459000000000     -1.28068100000000     -0.64550200000000
  H           1.71733300000000      3.04662800000000      1.09156900000000
  H          -2.10286800000000      2.16073500000000      0.29436400000000
  H          -3.65527200000000      0.08454400000000      0.87602800000000
  H          -1.80305400000000     -2.78790400000000      0.87142400000000
  H           1.76208400000000     -2.27305200000000      0.46858300000000
  H           3.32974000000000      0.07154300000000      0.74482200000000
  H           4.11555600000000      3.12081200000000      1.80871500000000
  H           3.05950700000000      4.16103700000000      2.80941700000000
  H          -5.06587500000000     -0.09011000000000      2.94155300000000
  H          -4.71636300000000      1.60407200000000      2.52090300000000
  H          -4.05959700000000     -2.77438000000000      1.95716700000000
  H          -2.91838800000000     -3.89378900000000      2.76118100000000
  H           4.91327000000000      0.06138700000000      2.68493900000000
  H           4.45314400000000     -1.57017500000000      2.13075000000000
  H           3.82049700000000      5.89384700000000      1.47140900000000
  H          -7.10196900000000      0.23498500000000      1.92819000000000
  H          -3.95868400000000     -5.54509700000000      1.49458100000000
  H           6.84853900000000     -0.23176600000000      1.49247200000000
  C           0.93892031583570     -1.49241688415787      3.78783927327997
  H           1.51259515270929     -0.86927850693896      4.46712081066424
  H           0.21901080998019     -2.10819277864934      4.33598493029634
  O           0.38242600000000     -3.91218200000000      2.67043500000000
  C          -0.79955548866197      0.33253830739293      3.30510870295324
  H          -1.56412714806057     -0.20659456170693      3.86254850859682
  H          -0.30307901696992      1.05186018164300      3.96150859199013
  O          -0.82966900000000      3.00874700000000      3.14329200000000
  C           0.16148955298557     -0.69295255778942      2.73029427940413
  O          -0.15134053980786     -1.34806107840307      1.68019878303212
  H           0.53432140666560      0.36728872051386     -0.49929007020674
  O           0.80078458490703      1.19099672364069     -0.06116204016604
  H           1.13974831906555      0.71668589562387      1.19953741858787
  O           1.46400606366037      0.29929745772957      2.14596028294098
  O           1.81814869064083      1.48489188239212      2.92924028605182
  H           2.74664862989889      1.24526743271176      3.14027547452768
  H           1.66734974919871      1.41503949541563     -0.46825027902336
