31
Coordinates from ORCA-job job
  H          -5.40847081790224      1.41475574512924     -1.38679130065126
  C          -4.39260228325694      1.56545905693293     -1.05677219081830
  C          -3.77521173373424      0.61025366985350     -0.26274261322776
  C          -2.47799591422488      0.80185381447464      0.16979437406263
  C          -1.78969530161104      1.95944108771172     -0.19017885439046
  C          -2.41637733125811      2.91453390182609     -0.99201002008069
  C          -3.71204703791112      2.71566920900736     -1.42405402150565
  H          -4.31003617654597     -0.28159571977784      0.02468498756630
  H          -1.98855341859936      0.08050214912994      0.80622838018286
  C          -0.42138428434211      2.18674626514291      0.28424960112761
  H          -1.86141798527061      3.80362994953384     -1.25476640711852
  H          -4.19413606449283      3.46047987696723     -2.03740705830420
  O           0.26730680943086      3.15407822838259     -0.02438810523037
  H           0.00122684701397      1.38533082778894      0.92770685299247
  H          -6.97062987292365      4.38257563990382      0.46369511841531
  C          -5.98146802386761      4.25614858404310      0.87565466640405
  C          -5.67403894876188      3.12096834263484      1.60578271051630
  C          -4.40485305239035      2.96126194168292      2.13170732605114
  C          -3.43769612220214      3.93118345607596      1.92488307460996
  C          -3.74778753469888      5.06919923086569      1.19772566964549
  C          -5.01834985072396      5.23086677472368      0.67441585349052
  H          -6.41935996117390      2.35788470116012      1.76924439151045
  H          -4.12532577165907      2.08417037085311      2.69809810591388
  C          -2.04507809133672      3.73439494378037      2.50109182180367
  H          -2.98365655085114      5.81982188347279      1.04837007606602
  H          -5.25268784865157      6.11938092827092      0.10801139777580
  O          -1.63307138184319      2.49953738565815      2.73697196249448
  H          -1.30253755530358      4.35791722732914      1.92850101951750
  O          -2.19803713011799      4.50632003872462      3.82112528811890
  O          -0.94778324127397      4.28462257357480      4.54948312869989
  H          -0.80166436951575      3.33272691514269      4.31878876436196
