10
Coordinates from ORCA-job job.QMRegion
  O           3.06920178130408      2.37069275842203     -0.44260569055447
  C           0.81780977212360      1.91286071945265     -0.86416625128044
  O           0.84576859343396      2.78064102176262     -1.71496055553781
  O           1.90096797394559      1.55983349499096     -0.09202539851512
  C           3.92212836804888      2.26675763189981      0.75430206987801
  O           5.02284449267676      3.04487867897989      0.42265498902811
  H           3.39432657247993      2.76201946932501      1.57922354601933
  H           5.67410692287326      2.49018968788585     -0.03572012198019
  H          -0.05181120210042      1.28855819553541     -0.59066172274477
  H           4.15680387525315      1.21487372790172      0.98113092399655
