30
Coordinates from ORCA-job job
  H          -3.60174545306597      0.77306826612337     -1.34288185009937
  C          -2.66751964606502      0.57851937032017     -0.84055516171620
  C          -2.58280789996431     -0.42415338300469      0.11417767883389
  C          -1.38135804204579     -0.67636323213277      0.76082363863003
  C          -0.25806842724554      0.07048053544017      0.46009638296609
  C          -0.34192051385011      1.08028817801561     -0.49941943111915
  C          -1.55115946537932      1.33100657112391     -1.14992088202343
  H          -3.45523619197504     -1.01125202360209      0.35473136449901
  H          -1.32022762440322     -1.45780989701060      1.50137914799549
  H           0.68186571375122     -0.11834006328208      0.95405213968398
  H          -1.58497271177118      2.11784019682949     -1.88824105683527
  O           3.06920178130408      2.37069275842203     -0.44260569055447
  C           0.81780977212360      1.91286071945265     -0.86416625128044
  O           0.84576859343396      2.78064102176262     -1.71496055553781
  O           1.90096797394559      1.55983349499096     -0.09202539851512
  C           3.92212836804888      2.26675763189981      0.75430206987801
  O           5.02284449267676      3.04487867897989      0.42265498902811
  H           3.39432657247993      2.76201946932501      1.57922354601933
  H           3.76506715054732      0.99467021051499      3.14226989131133
  C           4.24350203212813      0.82626736326859      1.06493022547637
  C           4.68200512468742     -0.01303383555879      0.04804471757832
  C           4.98915920902556     -1.33304036098087      0.32569899198019
  C           4.86565821881987     -1.81584162374299      1.61814399901245
  C           4.42789985664342     -0.97969121926378      2.63200945651140
  C           4.11197822789577      0.33989511735399      2.35751991639559
  H           4.75643223299693      0.36631918770507     -0.96135096330162
  H           5.32339313370966     -1.98285872960183     -0.46802067729637
  H           5.10675834472918     -2.84498567823647      1.83370043390268
  H           4.32712361774496     -1.35527140939729      3.63818966175719
  H           5.67410692287326      2.49018968788585     -0.03572012198019
