25
Coordinates from ORCA-job job.QMRegion
  C          -1.43664307444271      2.57043771340433      2.44616518211710
  C           1.34330780405662     -3.08002479186902      2.26162698534433
  O          -1.70243488338297      1.25902806511728      2.71082394172625
  O           1.68220611279821     -1.91484122747834      2.88273681932487
  C           0.75890469111859     -1.39522715006619      3.83697403884494
  H           1.31928390005435     -0.74264406483403      4.49735270011010
  H           0.30083592393148     -2.19663817725133      4.42000141442115
  O           0.56562081232346     -3.88863476838259      2.69660562190115
  C          -0.93027572130919      0.59547473395151      3.70595539480805
  H          -1.58611213780464      0.29987428651805      4.52933680546697
  H          -0.15698240267045      1.24931425050069      4.09729652555874
  O          -0.74399534228080      3.28708856153967      3.11660036722057
  C          -0.32292806635102     -0.64032792998977      3.07648355641481
  O          -0.70541355200722     -1.07583346557829      2.01035386946029
  H          -1.35065762119485     -0.19460004344544      0.52982584893484
  O          -1.42986177559140      0.12181387480343     -0.39025461508707
  H           0.43795559656609     -0.01046119468763     -0.59724164760301
  O           1.37957207793062     -0.10599793576581     -0.34176717837327
  H           1.48738389322830      0.56858670742012      1.30207491263457
  O           1.55030064048588      1.02288116256265      2.17472937608320
  H           2.46059034289182      0.87525980574616      2.44789543311790
  H           1.86401888857889      0.59848210976724     -0.79421943270979
  H          -2.05158642249283     -0.50518513990551     -0.78836447890041
  H          -1.98586123035367      2.84608235110931      1.53895218275382
  H           1.89796381415588     -3.15341305411626      1.32266696388898
