19
Coordinates from ORCA-job job.QMRegion
  C          -1.42521949040034      2.69399305708281      2.23807531539425
  C           1.23698514516181     -2.95865392907694      1.91923334649941
  O          -1.78100995072063      1.45706937536446      2.60142457210801
  O           1.66998222519069     -1.88431475387417      2.56686403741216
  C           0.74707536034694     -1.18491138450773      3.42862337249135
  H           1.38235706725997     -0.68028516962462      4.14860042773625
  H           0.03958184200933     -1.88613872553861      3.86528460875860
  O           0.35372719563747     -3.70135177827700      2.29087939905140
  C          -0.89371710221191      0.68161418960801      3.44284850045450
  H          -1.56334684739905      0.03286548379569      3.99626309243822
  H          -0.30122084441918      1.35464589672635      4.05954174845119
  O          -0.56027233684683      3.38459581976655      2.73401492970316
  C          -0.02026594645133     -0.20098860140122      2.55362596313465
  O          -0.66092350589296     -0.78306444221645      1.53578284228000
  O           0.97112300485935      0.68365215910739      1.84164415668305
  O           1.86408429791352      1.35282205800257      2.85530493624563
  H           2.62070649020495      0.72311131587791      2.85666323637905
  H          -2.04415559725955      2.96444021232390      1.39223469731625
  H           1.80666035848734     -3.06175660481699      0.99947873227736
