133
Coordinates from ORCA-job job
  C           0.49157907356320      4.86943621525746     -0.45128771165978
  C          -4.50341990832844      3.41765305342237      0.41935662680534
  C          -5.10295597422038     -1.73459906499456      0.09633148114494
  C          -0.84726450785463     -4.67189907688640     -0.88027880578768
  C           4.20192338897884     -3.30887534030400     -0.21456237827482
  C           4.79907973140995      1.85896620955751     -0.10107854102575
  O          -0.43145922766048      3.83026223604144     -0.18653634198340
  O          -4.48252593650856      2.26745094448554     -0.36481352037669
  O          -3.73678641851263     -1.82512485420808     -0.27279877277611
  O           0.12575487269632     -3.68139928967991     -0.62670784493245
  O           4.09856182438907     -2.08664912412683     -0.87438780841130
  O           3.40370143871971      2.00060424084679     -0.31537799885702
  C           1.15020637289171      4.57042328515509     -1.80479833698150
  C          -4.11440207808741      4.59869367622528     -0.49749802512366
  C          -5.89569871002425     -1.08493944962646     -1.05086537061144
  C          -1.61100020128077     -4.24863484074754     -2.14175677725711
  C           3.77188170829992     -4.39466116610181     -1.22486801909175
  C           5.47202758096621      1.31747042096686     -1.37533615541791
  O           0.21010676163554      4.45251379662462     -2.83804885901481
  O          -4.97059873741190      4.71298040880384     -1.59249170443143
  O          -5.87219701495246     -1.83911273176344     -2.22708266330936
  O          -0.75520632920483     -4.05227480516902     -3.23458497323050
  O           4.56529229031487     -4.37778350806674     -2.37171305960303
  O           5.36500509566452      2.17920942944232     -2.47007699813682
  C           1.91204217575896      3.24690673517565     -1.66848968544726
  C          -2.65509804233055      4.42523364005622     -0.96960566566877
  C          -5.30292264939638      0.30863573633055     -1.28393219781250
  C          -2.34091251234361     -2.93725884512573     -1.82440429090066
  C           2.28971348275178     -4.17127418982261     -1.58590202067047
  C           4.83938730442563     -0.04397934809876     -1.68611620510049
  O           2.62462457071281      2.93604853245691     -2.83652067518180
  O          -2.22654511836124      5.53044796117897     -1.72144751181465
  O          -6.02415398196763      1.00459525923148     -2.26346077557337
  O          -3.14132398216381     -2.51653254442289     -2.89617239083427
  O           1.80438917225223     -5.17147458010710     -2.44229530322498
  O           5.44697429958287     -0.63835845762100     -2.80076630507609
  C           2.90574062567469      3.31558032157576     -0.50422887836753
  C          -1.72367038095666      4.23091760113380      0.23540569662163
  C          -5.28700901029228      1.15014518468154     -0.00068910298246
  C          -3.23751448897490     -3.11053239287634     -0.59416884724747
  C           1.43162160286718     -4.13793180353402     -0.31527226785716
  C           4.94877681448126     -1.00762368199232     -0.49749428576519
  C           2.21149693469690      3.80175588588925      0.77923097110469
  C          -2.29284533586865      3.07310640839668      1.05237428218840
  C          -4.73706284722298      0.35546099918213      1.20656311136509
  C          -2.43073902329242     -3.67703906470287      0.58402030674714
  C           2.03372644915183     -3.10285216412819      0.63287495570988
  C           4.52331125962373     -0.33561646903779      0.82647048669157
  O           1.45826008462620      4.98351317496434      0.55074701763433
  O          -3.59124952212008      3.34533104979351      1.50504842226166
  O          -5.24445181884624     -0.97663278947735      1.25609349348883
  O          -1.72296593929393     -4.84461504960034      0.19690231110132
  O           3.37417472485282     -3.37117759630982      0.93879448551137
  O           5.03571513240022      0.98804353821507      0.95865327289396
  C           3.22357039790510      4.13573055762957      1.88381914313705
  C          -1.42521949040034      2.69399305708281      2.23807531539425
  C          -5.18726752947995      0.94791023389692      2.55539594684965
  C          -3.33124197252310     -4.09394915726200      1.75530587990253
  C           1.23698514516181     -2.95865392907694      1.91923334649941
  C           5.09130315197734     -1.06206643571070      2.06201971267581
  O           4.17497771471231      5.06649209799254      1.45593753527742
  O          -1.78100995072063      1.45706937536446      2.60142457210801
  O          -6.57835648310206      1.06038044845327      2.62294296494183
  O          -4.31596871050491     -5.00092706596424      1.35977150479502
  O           1.66998222519069     -1.88431475387417      2.56686403741216
  O           6.47160843497726     -1.25816904146077      1.94875056361640
  H          -0.01823776369757      5.83978278818236     -0.47225412204227
  H          -5.48450306041285      3.57607790409277      0.88473640678957
  H          -5.50574035329099     -2.72463410351755      0.34320623076596
  H          -0.37336417365147     -5.65110595336486     -1.02099252832524
  H           5.21823659397382     -3.48701358841953      0.15920798805885
  H           5.24327304995888      2.81533258525522      0.20115123897536
  H           1.86806298105685      5.37405670631615     -2.03297311745781
  H          -4.19795909055182      5.52997526357452      0.07270134633197
  H          -6.94664783668377     -0.99890203877692     -0.75525967767727
  H          -2.35766751199296     -5.02183257348264     -2.38137492579940
  H           3.89139373715368     -5.38169854718233     -0.76701801664659
  H           6.54320673570715      1.19256788221548     -1.18318996011349
  H          -0.59141189045587      4.95740384039625     -2.60209943691846
  H          -5.09806863795510      3.83457312358207     -1.98311271445050
  H          -4.94752796818927     -2.01940824373005     -2.47844324374374
  H           0.08017416406456     -4.53370211498152     -3.08093607298370
  H           4.65473981675069     -3.46099330300271     -2.67596770917046
  H           4.42716331951085      2.39578931553973     -2.62672436413951
  H           1.18339927115145      2.44850591531535     -1.43845640331633
  H          -2.59348173066380      3.50854971225715     -1.57982758474316
  H          -4.25108282835694      0.18048946160328     -1.59895739540337
  H          -1.58827588893322     -2.16657202568298     -1.57522499389696
  H           2.19573533091632     -3.18365593064599     -2.06759650838859
  H           3.76235130733310      0.11596643776219     -1.87680435277792
  H           2.06518112580601      3.15661132881041     -3.59790579054393
  H          -2.96858374329708      5.80260369530333     -2.28954557185672
  H          -6.28541602389104      0.35813315579073     -2.94052238391065
  H          -2.65319824954809     -2.68513024934436     -3.71818277747849
  H           2.47912958530581     -5.32069772475430     -3.12775714478161
  H           5.64153550091334      0.07352019666076     -3.43314206375647
  H           3.72178278678545      4.00131628204523     -0.76387049073444
  H          -1.66568458929419      5.13478599170702      0.85300723539324
  H          -6.30555882130632      1.49265973636561      0.23168224279922
  H          -4.06179484442587     -3.79310705237149     -0.83696349001977
  H           1.39397668401667     -5.11905350393977      0.17214943054695
  H           5.98272965279104     -1.36959691139208     -0.40745691988806
  H           1.54401433120378      3.00092560410259      1.12407275020443
  H          -2.29834909443794      2.17776013477108      0.40564071200468
  H          -3.63612578845980      0.32562072123102      1.15337356335885
  H          -1.73225884107030     -2.89233238723243      0.92219196364898
  H           1.94159948292461     -2.11735425118015      0.13888575974477
  H           3.42154059095703     -0.31560217124262      0.86181741665329
  H           3.75211889332273      3.22438488635942      2.16605893941814
  H           2.65919215983528      4.49780188221501      2.75077148386144
  H          -4.80097009426789      0.28733861789819      3.34178480696237
  H          -4.76546054682436      1.94212640085914      2.69512520104914
  H          -3.83337204808980     -3.20767188019717      2.14766909813657
  H          -2.68271499480261     -4.51335319688085      2.53436490783721
  H           4.85381846643895     -0.45077157581585      2.94105950675783
  H           4.62557675112810     -2.04086763433702      2.17410672263812
  H           3.70708483518858      5.88583289369634      1.23674005982081
  H          -6.94984941461398      0.17475910198097      2.49294801469488
  H          -3.86826159845224     -5.79161438089469      1.02154610673235
  H           6.88718778930785     -0.38573490846821      1.87561012591238
  C           0.74707536034694     -1.18491138450773      3.42862337249135
  H           1.38235706725997     -0.68028516962462      4.14860042773625
  H           0.03958184200933     -1.88613872553861      3.86528460875860
  O           0.35372719563747     -3.70135177827700      2.29087939905140
  C          -0.89371710221191      0.68161418960801      3.44284850045450
  H          -1.56334684739905      0.03286548379569      3.99626309243822
  H          -0.30122084441918      1.35464589672635      4.05954174845119
  O          -0.56027233684683      3.38459581976655      2.73401492970316
  C          -0.02026594645133     -0.20098860140122      2.55362596313465
  O          -0.66092350589296     -0.78306444221645      1.53578284228000
  O           0.97112300485935      0.68365215910739      1.84164415668305
  O           1.86408429791352      1.35282205800257      2.85530493624563
  H           2.62070649020495      0.72311131587791      2.85666323637905
