17
Coordinates from ORCA-job job.activeRegion
  O          -1.43098293031250      1.04234344775764      2.24218473660706
  O           1.87052395682668     -2.27902765641531      3.07070878301771
  C           0.93869923037275     -1.49236499733661      3.78666721981443
  H           1.51162598670481     -0.87230293104388      4.46944333597196
  H           0.21610551003719     -2.10874901474494      4.33048267598904
  C          -0.79798661496201      0.33328313390876      3.30473102762437
  H          -1.56136109326048     -0.20866402227246      3.86097253615678
  H          -0.30351026232874      1.05284191924311      3.96238612122887
  C           0.16490748869632     -0.68964603106684      2.72880344468409
  O          -0.14873034601222     -1.34464118185608      1.67832332793166
  H           0.52674591352443      0.36631452740327     -0.49543989851999
  O           0.79968620684680      1.19043679569741     -0.06228216951603
  H           1.14360337967961      0.71801014497385      1.20203305094450
  O           1.46632078859863      0.30123079563061      2.14819962309004
  O           1.81705667733138      1.48678533722394      2.93318300916249
  H           2.74578990417057      1.24908735861921      3.14589501047708
  H           1.66515916070495      1.40522810073368     -0.47593816889278
