10
Coordinates from ORCA-job job.QMRegion
  C           2.80577657431790     -1.06993855419549      4.36729425741927
  O           1.58932705422149     -1.02903025010087      4.56875227244937
  H           4.07944036435669      2.67184198103442      1.44246074525480
  H           2.69319276502889      1.18077567778349      3.40811144730255
  H           4.25866871046466      1.43931094589923      0.54425364412653
  O           4.57458135496722      1.83017392701624      1.38151349051632
  H           4.06333831183099      1.22437306834573      2.12977040988427
  O           3.16778231739479      0.49904646021519      2.91497049771055
  H           3.20008854915344     -1.81576254725677      3.67970107069066
  H           3.47338528505370     -0.64303901333750      5.10727160935915
