136
Coordinates from ORCA-job job
  C          -0.28960128825368      4.18387466078161      5.40516236056296
  C           0.92677142864414      1.24420553108633      9.59516937856686
  C          -0.75320294792276     -3.68138363687191      9.62129946565067
  C          -1.58133010923475     -5.51180276674958      4.76579594864745
  C          -0.85166431015970     -2.81418758655896      0.31094342977257
  C          -1.31372389502958      2.40722681769939      0.58716767711929
  O          -0.15464755733993      2.88977973422269      5.95336093731149
  O          -0.13575655059244      0.35063251235839      9.46074576533800
  O          -1.24708028599343     -3.51263728354294      8.31954985959437
  O          -1.30179926764123     -4.29047638386493      4.12618909447532
  O          -1.51952014226001     -1.67541185620388      0.75977471190247
  O          -1.55428008696362      2.38295191324009      1.96867982229247
  C          -1.76387014252558      4.42080624294586      5.04388659337888
  C           0.32248307417924      2.65764522893733      9.68682063023707
  C          -1.65230828410529     -2.85181171374487     10.55377873504978
  C          -2.89001696367293     -5.36632180623294      5.56050304555186
  C          -1.83996728653055     -3.99111286743826      0.41683875300907
  C          -2.54300047817155      1.77760750897000     -0.09115759473211
  O          -2.63267019428187      4.25558178248551      6.13174407553439
  O          -0.56009227619447      2.78351003768086     10.76446651657772
  O          -2.98755340027742     -3.27297171602787     10.49826488875727
  O          -3.96915774416486     -4.96630281066359      4.75831849803211
  O          -2.98910331624210     -3.77842993107388     -0.35177429519202
  O          -3.71545500584005      2.48405814877906      0.20560986497316
  C          -2.14238002679843      3.40546401179460      3.96470872510117
  C          -0.38913691784747      2.98770985427417      8.36413895177538
  C          -1.52201449831630     -1.37682813506822     10.14952458183595
  C          -2.67293060210876     -4.31343486445114      6.65163425333330
  C          -2.19959673175061     -4.19784121782252      1.89646512791758
  C          -2.63760234668373      0.31759147340400      0.36530262193236
  O          -3.45088544849749      3.59859619729199      3.49115384677708
  O          -0.86562791996327      4.31521646801704      8.37640501107764
  O          -2.18561741786817     -0.53164698550865     11.05476475895545
  O          -3.77290498759766     -4.21430889565942      7.52063924735048
  O          -3.01425888701924     -5.33645950107435      2.06550601763336
  O          -3.65694786412203     -0.37857233099984     -0.30662542084431
  C          -1.20307747330395      3.50825284437349      2.75723626406489
  C           0.56156677888786      2.79480502636837      7.17036956312533
  C          -0.05700962667412     -0.92451586274690     10.08558802822057
  C          -1.44497387270716     -4.65366284698995      7.50274329401277
  C          -0.93495646874255     -4.35420394773130      2.76034213530890
  C          -1.32323896140361     -0.43025972215191      0.10360711577411
  C           0.28371012887040      3.50779993013884      3.17008184549131
  C           1.17271369401828      1.38829984518690      7.26254265162628
  C           0.82288539039516     -1.92455991458750      9.31045039475998
  C          -0.22023509264851     -4.95152216413218      6.62226580823609
  C           0.01774160360724     -3.18830828325292      2.45669289173269
  C          -0.10504900408260      0.34995496189813      0.63337041921243
  O           0.51711380733547      4.37435748333759      4.28152264468024
  O           1.81758967180404      1.18166795758790      8.50060959524200
  O           0.57871753987033     -3.26492608189106      9.73380172215151
  O          -0.54153740729201     -5.90636500706341      5.61345014597257
  O           0.30052654826787     -3.08966859141123      1.07667180375325
  O          -0.14640774650731      1.72348935894202      0.24246244296740
  C           1.23086486616204      4.02607439869922      2.05833261848465
  C           2.18215222557248      1.10991827702638      6.15678753288681
  C           2.32721738148125     -1.70762204021963      9.54788331048989
  C           0.93845102092485     -5.56038151075761      7.42176721843911
  C           1.34137301497396     -3.24381886753422      3.20985877431597
  C           1.22161248443731     -0.18324100121802      0.06319996196790
  O           2.24850153782074      3.14437580654731      1.69909087999348
  O           2.95495911538405      0.08613553850456      6.46101929713547
  O           2.64705208558551     -1.63970057541675     10.91167939091285
  O           0.57073845179112     -6.74896227711630      8.07098234717132
  O           2.26653363308339     -2.52867566294511      2.59297017700593
  O           2.30679442123076      0.59653902756146      0.45153261039835
  H           0.04796615281987      4.94072481958915      6.12381922824724
  H           1.53770755385945      1.01939656251914     10.47814041763055
  H          -0.75497407687774     -4.73854644890948      9.91592181044086
  H          -1.67643144651698     -6.32225439730222      4.03198464247831
  H          -0.49472365539647     -2.69822326719250     -0.71971510796093
  H          -1.17571152547818      3.43364611144418      0.22332396658337
  H          -1.85519678631993      5.44013100692175      4.63507529844361
  H           1.12956766253691      3.37878364645074      9.85357824187161
  H          -1.32599116065008     -2.97982614390092     11.59058863536737
  H          -3.11205414128842     -6.33520215639108      6.03572411064959
  H          -1.36205552983348     -4.89635973965494      0.02810319806309
  H          -2.42104729108644      1.81646268374947     -1.17833932206456
  H          -2.16434940936810      4.46998965740750      6.96019617385876
  H          -1.13370787935964      1.99970473721197     10.80365877831142
  H          -3.24173385921559     -3.43274738299586      9.57161106637983
  H          -3.80947421753986     -5.23428037336732      3.83374495305497
  H          -3.29757767818872     -2.86373489493691     -0.22958183501553
  H          -3.73998020024133      2.68404570341153      1.15672265673677
  H          -2.03563092902426      2.39854193244902      4.39675344041996
  H          -1.23190821915204      2.29151244499690      8.23433240990210
  H          -1.94609224577096     -1.26043944600616      9.13928603503984
  H          -2.48591838569429     -3.34722691050388      6.15844116192443
  H          -2.73235250667707     -3.30372629374111      2.25534085003548
  H          -2.81928801401947      0.30400178602557      1.45149065728636
  H          -4.03892325331032      3.68410725191795      4.25792714869201
  H          -1.17377617615866      4.50804769795545      9.27957751760353
  H          -3.05122361983742     -0.92223044704948     11.25623127825591
  H          -4.57768166858194     -4.14778093261484      6.98287859530346
  H          -3.63442931704170     -5.37018627479200      1.31622508216268
  H          -4.44637156827095      0.18565842211100     -0.33450528031149
  H          -1.44150989075617      4.43438762449427      2.21478175700176
  H           1.36254023993047      3.54473689108041      7.20059046722143
  H           0.33419988893823     -0.81240429041521     11.10592152838270
  H          -1.66991513448915     -5.52999200032817      8.12568373394382
  H          -0.43802340879858     -5.30679264314641      2.53839318757872
  H          -1.21927279290425     -0.59277344253311     -0.97791905342949
  H           0.55701950899029      2.48276592359335      3.45835948160600
  H           0.36062272631690      0.65514948444605      7.12739626602041
  H           0.60334924940264     -1.83299007070795      8.23715792572268
  H           0.11357752919354     -4.01908710925929      6.14936990008026
  H          -0.46942165235470     -2.26419586403155      2.81060764416970
  H          -0.10085841029126      0.28482675373871      1.73250480298466
  H           1.71968392288809      4.91370846456874      2.46856861305195
  H           0.64862665454741      4.31973565083874      1.17885535958823
  H           2.85734529417801     -2.53330336844366      9.06005555809477
  H           2.64378274391591     -0.76788556235412      9.09553148891803
  H           1.25108999929447     -4.86151858649379      8.19883680355875
  H           1.76894718402904     -5.72722128487506      6.72701410413268
  H           1.35369562548849     -1.22547902556164      0.36954682233924
  H           1.17207546194833     -0.11768629372793     -1.02833884252278
  H           1.90162077827847      2.40300487117345      1.15637169265318
  H           2.48848766708873     -2.50800577723373     11.31081302330324
  H           0.34298075226784     -7.40561394891369      7.39632770837474
  H           2.52088635658686      0.45535629219758      1.43820573979163
  C           3.36399174551781     -2.12577833219196      3.39389001676518
  H           4.12422312066107     -1.72483208640900      2.72361890511003
  H           3.74728786219275     -2.97109557642674      3.98067942928332
  O           1.52995724513638     -3.86779649153948      4.22837243437383
  C           3.75536342850463     -0.46272929293479      5.41981612314443
  H           4.34835395442748     -1.25171582164084      5.88880060271986
  H           4.40646529305546      0.29441524923430      4.97049019177539
  O           2.26420392692115      1.76047911958467      5.14236623941670
  C           2.80577657431790     -1.06993855419549      4.36729425741927
  O           1.58932705422149     -1.02903025010087      4.56875227244937
  H           4.07944036435669      2.67184198103442      1.44246074525480
  H           2.69319276502889      1.18077567778349      3.40811144730255
  H           4.25866871046466      1.43931094589923      0.54425364412653
  O           4.57458135496722      1.83017392701624      1.38151349051632
  H           4.06333831183099      1.22437306834573      2.12977040988427
  O           3.16778231739479      0.49904646021519      2.91497049771055
