147
 xtb: 6.7.1 (edcfbbe)
C           -3.39034291103241        2.44151843391172       -1.72137442659964
O           -3.27308267228410        1.18110824285073       -1.10019073922429
C           -2.86325699274437        2.34591146507327       -3.16342619245839
O           -2.70356628746171        3.42328906323316       -1.00307445976474
C           -4.40879265362748        0.72303824866032       -0.38953550311266
O           -3.49772831696645        1.33605507581784       -3.90015198049481
C           -1.36197175811180        2.03742345352602       -3.12613988899294
C           -1.30589946720408        3.17059030715685       -0.85727799439095
C           -5.30136260970088       -0.12191931618553       -1.31213407434698
C           -3.92331543655650       -0.16156459987204        0.77361352301514
O           -0.76890225950407        2.10300725427446       -4.39739158467848
C           -0.62873566020128        3.04459496618630       -2.23248259443685
C           -0.74030048482415        4.34733066919659       -0.04811486944745
C           -6.40679363559319       -0.82072808614253       -0.50061407507309
O           -5.84786811506287        0.70921258775720       -2.31055678101590
O           -5.01428419344616       -0.72119965296039        1.46812276832027
C           -3.06262166237668        0.63735418392795        1.74646444060852
O            0.70549403668328        2.56926755973425       -2.12080101779094
O           -0.82864917060721        5.56102905484680       -0.74796376390305
C           -5.74819923697833       -1.61083981029611        0.64771944533914
O           -7.18469553032234       -1.63629235981496       -1.32768975754491
O           -1.79365104188074        0.52385367877839        1.39050880520996
O           -3.46795500221022        1.30701707951038        2.66146244987952
C            1.75275870622873        3.52106882812047       -2.07318171095444
O           -4.93991105371519       -2.57547290513062        0.04802608695002
C           -0.76828398140691        1.02392342260868        2.24236690528923
C            2.77793366314647        3.15278000741895       -3.15706527944600
O            2.36039395561619        3.57815397215598       -0.82051483325709
C           -4.73360655341026       -3.83573402384590        0.67609569519488
C           -0.40809341123025       -0.05500098945529        3.24469265258655
O            2.21467997785031        3.15083978326090       -4.43965064062316
C            3.37243042682949        1.78236441477259       -2.81142840433075
C            2.97076984204134        2.37422940783499       -0.34435767952140
C           -4.36506902820478       -4.75143452132581       -0.50007589736645
C           -3.62299641432345       -3.80044735069870        1.74562544310389
C            1.03379770657515       -0.00425107233231        3.76353744117044
O           -0.31643291587259       -0.85958040439197        1.96874476435840
O           -1.20434644329384       -0.92413464329908        3.57515563393375
O            4.42638961256553        1.44494839462641       -3.67753435065916
C            3.91614135385984        1.72673740312738       -1.37576161150753
C            3.71281467470118        2.79819647036335        0.93681466219384
C           -3.84031469551152       -6.11291656486944       -0.02618996250654
O           -5.50413735452850       -4.88281099601323       -1.31117604191687
O           -3.16347921417079       -5.11300826775951        2.06244954670321
C           -4.11210782731241       -3.22924059736021        3.08665726655261
O            1.89643334527931       -0.05873752181882        2.62528033299504
O            4.08717240524443        0.32939030204318       -1.15264035104144
O            4.84893085496129        3.57836850055442        0.66948104320461
C           -2.69542882037521       -5.85259739235133        0.96781269341158
O           -3.41842920231262       -6.89411340731385       -1.10921087709478
O           -5.20572889328728       -3.94892454874852        3.58958698947679
C            2.26750312944583       -1.25769323633343        2.21045959249953
C            4.88942940355795       -0.11727135496911       -0.10471505070007
O           -1.69140555604304       -5.17578760809321        0.26228341691438
C            3.05095456325051       -1.17266076371154        0.90551058534426
O            2.00237747574949       -2.28699513344818        2.77857714761977
C            5.50343958812522       -1.45706541980821       -0.55695055331289
O            4.16434749000821       -0.31794796653410        1.09378346704217
C           -0.34626304959170       -5.59995688204468        0.39421684127811
C            3.47047817219634       -2.57183288964558        0.43509675615092
O            6.29870891014244       -1.31764185671525       -1.69957545393460
C            4.36312094469606       -2.45812237354064       -0.80906124268808
C            0.29577145127239       -5.24070036854930       -0.95139322450244
C            0.37545428343006       -4.91714512791920        1.56875216574386
O            2.29391042339542       -3.31170257835636        0.12240535984084
O            4.86536808225228       -3.73355770917329       -1.14322658187045
C            1.81233955465552       -5.43397807053599       -0.91187716519517
O           -0.30757879450427       -6.04972339103102       -1.93129161606871
O            1.78278187756668       -5.13278450217833        1.49141795079589
C           -0.05138374062885       -5.48955009374400        2.92824511510293
C            2.39508816590166       -4.70904220653431        0.31337807990264
O            2.35085017883755       -4.95143363516818       -2.11279238821480
O            0.13017457046182       -6.87932258243398        3.00186979273387
C           -0.29174510944192       -0.86365185095919       -0.76939641610895
O            0.60846697462719        0.23131868609012       -0.55868135229153
C           -0.07155231817018       -1.58898456402272       -2.07372764591255
C            1.16527360283504       -1.58258915755248       -2.70059779004960
C           -1.11917736054071       -2.32265032401143       -2.61662038707999
C            1.35476974012513       -2.30449124754762       -3.86630792003051
C           -0.92614583186083       -3.04576055815822       -3.78007228155089
C            0.31189274348977       -3.03889390611753       -4.40286262015121
H           -4.43619187707599        2.77066645483224       -1.72760981873172
H           -3.02029022764677        3.32633445001188       -3.64128868663820
H           -4.98187548508647        1.56640775785425        0.01912046084045
H           -4.40576240520502        1.20127415712026       -3.56271168799682
H           -1.24610866835764        1.02521111674211       -2.71043745634843
H           -1.15962424336608        2.23246977513125       -0.30666411270994
H           -4.67100927161143       -0.89147178540381       -1.77811708440005
H           -3.29629344442980       -0.96314880948998        0.35925131150659
H           -1.34097308854555        1.64043285121053       -5.03166017717811
H           -0.63621929419988        4.02230664704843       -2.72960112994308
H            0.32301740878517        4.17602770101730        0.14559581610351
H           -1.27887802729393        4.40058987002468        0.90273932798201
H           -7.07760501131201       -0.06678528030580       -0.07114620213222
H           -6.64096603612291        0.26982293521295       -2.66150303042636
H           -1.75988788567681        5.79724720347916       -0.84185028668291
H           -6.50156029566756       -2.05998588567198        1.30904665690520
H           -6.71869155114450       -2.46915435164855       -1.49360255974331
H            1.36133498866804        4.52842927116255       -2.25232519829418
H            0.08158985821977        1.23511702765294        1.60279741818024
H           -1.11735179546822        1.91457794081457        2.77624765714362
H            3.57321368338137        3.89946049930413       -3.17616871702076
H           -5.66900211918225       -4.18453056296146        1.13325559624112
H            1.34913600184074        2.69299691389877       -4.42930856809673
H            2.56536674216324        1.03174192037050       -2.89231494924248
H            2.19268245497011        1.64996910994355       -0.08054576348253
H           -3.55459355387765       -4.25348222142649       -1.06134376408142
H           -2.78306870091591       -3.20001509206007        1.37060293154811
H            1.23001271815685        0.97461806410071        4.25154375782049
H            1.23563189873288       -0.82643044994194        4.45250339921026
H            4.16861055161052        1.68380619736280       -4.58171290352865
H            4.89203564721857        2.22660388391114       -1.34475376424104
H            3.00240018193866        3.34879397635538        1.56086946061648
H            4.04930042208859        1.91397907523258        1.47428416559953
H           -4.64110771728663       -6.66865830715019        0.46471620817788
H           -5.35398092886874       -5.61723459076231       -1.93085243316314
H           -3.27021169172379       -3.24817204411520        3.78640093220383
H           -4.44027729276819       -2.19938490861436        2.96310806708629
H            4.56423677257903        4.43160740043536        0.31365241184229
H           -2.32294611278532       -6.79513964216216        1.38660903326599
H           -2.54848759369213       -6.57358268841007       -1.42120944983758
H           -4.91269058274900       -4.85227867324465        3.78723210891839
H            5.67095909240030        0.60983523230137        0.15094368225784
H            2.37429580544111       -0.72286669106700        0.16565212566973
H            6.15367439031094       -1.83374151885076        0.24490719113976
H           -0.30760571751434       -6.68848519765062        0.53023065493613
H            4.01589571800742       -3.06973940468539        1.25003208695830
H            5.84348064489408       -0.75345941984599       -2.33590586809871
H            3.74808343458084       -2.08592122907062       -1.63394224618921
H            0.08357092123769       -4.18086074197061       -1.16019571459193
H            0.15302645133787       -3.84362716320156        1.55565810754710
H            5.67028994870940       -3.60302481125137       -1.66605784683983
H            2.02683144914096       -6.50740882141057       -0.79381904359856
H            0.21901906291288       -5.97676866523009       -2.74498502135766
H           -1.11472887448249       -5.29929470611633        3.08519985172470
H            0.52466864970965       -4.97414160916453        3.70175464271390
H            3.44932025292986       -4.98786987564319        0.43280969216375
H            3.30275786706746       -4.76998612845614       -1.98248076861529
H            1.07812465495467       -7.06627767988909        2.95755937743711
H            0.30005061999361       -1.74854091649131       -0.21688602059511
H            1.97082310349566       -1.01564221936221       -2.27413823358372
H           -2.08643056047434       -2.30797164215928       -2.13627739689413
H            2.31857816066411       -2.31155967930582       -4.35202820306524
H           -1.75040967503661       -3.60069258745549       -4.21668079929883
H            0.45866174948026       -3.60740191550856       -5.31677546808491
H           -1.32931186730977       -0.50714706250781       -0.70410955697706
H            0.54086301997689        0.86628225107999       -1.29521610346491
