147
Coordinates from ORCA-job job
  C          -3.42604608249596      2.45351910329941     -1.80140175492646
  O          -3.34351930968448      1.16943139216538     -1.22926599570892
  C          -2.83135983908714      2.40041792083865     -3.21741620094206
  O          -2.76620192217857      3.39959835474671     -1.01115808552757
  C          -4.49147332942601      0.71460249415489     -0.53506373870893
  O          -3.45087261363938      1.42840862366179     -4.01651435894949
  C          -1.33703774854359      2.06734669061154     -3.11877969690866
  C          -1.38647025544636      3.11223882786328     -0.80417475479876
  C          -5.36761763129673     -0.13797644148184     -1.46275154492561
  C          -4.01512825138473     -0.16365486417081      0.62965023854182
  O          -0.68500591037718      2.18406063991830     -4.35787411795491
  C          -0.64243698502799      3.02948656448017     -2.14782998211537
  C          -0.83012140482376      4.23628661396678      0.08238150548801
  C          -6.48068414926216     -0.82966837347190     -0.65320555420584
  O          -5.89496590023371      0.68740596706213     -2.47474781383319
  O          -5.11056827821088     -0.70230506534656      1.33674542155967
  C          -3.13487610949427      0.64153158298742      1.57817610547709
  O           0.68292413912170      2.55068425099631     -1.97095735662519
  O          -0.86900973571001      5.48296757880437     -0.55960803577400
  C          -5.84159036195037     -1.60165799338910      0.52081422816137
  O          -7.24561827776458     -1.66236282397473     -1.47432906859316
  O          -1.92832078277284      0.09852805074646      1.58328822213686
  O          -3.45626543369821      1.62905201500740      2.18296608625135
  C           1.72967887216609      3.50596952833837     -1.94397162943964
  O          -5.02755270076413     -2.57978889650717     -0.04578728634041
  C          -0.87489142077462      0.66178948290607      2.35126371662116
  C           2.71477259309323      3.19435160162513     -3.08177147430387
  O           2.38632452248073      3.51440672102447     -0.71717190131767
  C          -4.78426126564213     -3.80508895261286      0.63738327026102
  C          -0.29197585661034     -0.42342040254439      3.24910712545093
  O           2.12008318752369      3.26871512136943     -4.34790844952953
  C           3.30860278007546      1.80513141540713     -2.82540250745416
  C           3.03523791543926      2.30206674103592     -0.31878006399248
  C          -4.26788813709616     -4.71869302590082     -0.48413419007110
  C          -3.76275442157050     -3.67360652894105      1.78688791449673
  C           1.14391623278568     -0.18471534764523      3.70999914484764
  O          -0.59798915151207     -1.74913215604366      2.89239764916394
  O          -1.17909477543818     -1.08246164365045      4.11557461946486
  O           4.31107228939496      1.49110370783512     -3.75892578367283
  C           3.92559756224550      1.69650655366675     -1.42308468135251
  C           3.84881507025361      2.70232839301969      0.92667424143514
  C          -3.68560113594457     -6.02734820094302      0.06327624755462
  O          -5.33185721518500     -4.95297129618819     -1.36990980085723
  O          -3.22434059478989     -4.94037717013481      2.16178879104052
  C          -4.38959095910624     -3.13551130107592      3.08493986772016
  O           1.95653460877278     -0.21420892994486      2.53912046524140
  O           4.11483499579971      0.29369251645138     -1.25885214613298
  O           4.94831083885068      3.51610516888809      0.61090425245098
  C          -2.63120887491003     -5.66385042471105      1.12315821319410
  O          -3.15582312548155     -6.81430688956230     -0.96687081177682
  O          -5.48068067347784     -3.91211035177761      3.49958989440839
  C           2.56812167911420     -1.35263148013449      2.23116044602590
  C           4.97967623589588     -0.17285611221146     -0.27235869656326
  O          -1.61562311888781     -4.91807293695138      0.49686504533107
  C           3.21892022966270     -1.25096591029530      0.85602584750542
  O           2.59202667433439     -2.32436716264559      2.93935966655765
  C           5.56348540556033     -1.50532693649197     -0.78299821706138
  O           4.33115330790634     -0.37979977192895      0.96782444787196
  C          -0.29037718343354     -5.41339921266169      0.55007688453164
  C           3.62141145619569     -2.63986900209204      0.34851905310486
  O           6.27455829830565     -1.34499080065417     -1.97643768008603
  C           4.41285927291259     -2.51032099103271     -0.95977946264636
  C           0.32480353673646     -5.13870621584330     -0.82647937211042
  C           0.52462252384340     -4.73676448675712      1.66435029109841
  O           2.42670398146350     -3.37074331800619      0.12170930359645
  O           4.89073699960111     -3.78387327630838     -1.33331515835295
  C           1.81660626540911     -5.48616415546312     -0.82211753432592
  O          -0.38895083709059     -5.90007276720462     -1.76976353635803
  O           1.89415651234738     -5.10557286764823      1.56659547819182
  C           0.05570989349392     -5.16535170811687      3.06051802021682
  C           2.49221383460454     -4.75434215569870      0.34958553854785
  O           2.36455783136190     -5.12810722433029     -2.06256480767888
  O           0.10352507460846     -6.55640992215348      3.23189999911839
  C          -0.38632699325234     -0.90340471200890     -0.81076219168190
  O           0.56632734346773      0.10810875744621     -0.44990878150729
  C          -0.12566204169256     -1.58606662624198     -2.13436285786676
  C           1.11624060232834     -1.53334239728022     -2.74706901517357
  C          -1.15050302136933     -2.31327855013909     -2.72821102886458
  C           1.33530291180227     -2.20256232683921     -3.93921630782206
  C          -0.93007293040829     -2.98528921508392     -3.91622654869708
  C           0.31437990285095     -2.93023375457579     -4.52397488675478
  H          -4.46839102594237      2.79066979992224     -1.84789452531077
  H          -2.94718970378348      3.39753372267786     -3.67195735485500
  H          -5.06598427688412      1.56022788653830     -0.13760846979248
  H          -4.35480502414725      1.25887531590316     -3.69809685574294
  H          -1.24817484439105      1.03681994259672     -2.74520302353082
  H          -1.28943402153852      2.15182672714644     -0.28247554614510
  H          -4.72891627777935     -0.91361240027567     -1.91241179571613
  H          -3.40245880769470     -0.97932246545057      0.22349155749080
  H          -1.22457831975027      1.74755749077392     -5.03516296833430
  H          -0.62439066568044      4.02647501757552     -2.60528107441688
  H           0.21967805531769      4.03360951951046      0.30410826187698
  H          -1.40532542779046      4.25315506697313      1.01471536685368
  H          -7.16014610076689     -0.07185202100270     -0.24924145689861
  H          -6.67126800636413      0.23990936998957     -2.85276912455002
  H          -1.79366452816320      5.74843777032782     -0.66919406582396
  H          -6.60731891820319     -2.03140117835763      1.17811132936792
  H          -6.75803798423505     -2.48617803122244     -1.64139150182320
  H           1.32513338920148      4.51914700942665     -2.05757861648768
  H          -0.08795818245759      0.98303186808439      1.65444481673384
  H          -1.24258739342274      1.49842846097742      2.95763628650614
  H           3.51430176622888      3.94263333664223     -3.07469331422771
  H          -5.72730571850197     -4.20377967636229      1.03497345366818
  H           1.26457862670288      2.80009727606943     -4.35232074770815
  H           2.49204177238031      1.06994022979006     -2.89121735190393
  H           2.28233669294877      1.56106273863581     -0.02765755105421
  H          -3.45592467804085     -4.17933630942357     -0.99922677299692
  H          -2.94422402342159     -3.01388916266222      1.46740943442858
  H           1.24194414161019      0.81059791479759      4.15078895337882
  H           1.44888894969178     -0.96949621395132      4.41383206965978
  H           4.02282931053903      1.80576098746375     -4.63082543379314
  H           4.90105765277835      2.20289055691399     -1.42219163404185
  H           3.16867465657768      3.21528604401008      1.61472038272191
  H           4.24110839314805      1.81008666238526      1.41404019782392
  H          -4.47999788940224     -6.61891984706453      0.52981959082375
  H          -5.08916368490499     -5.69757041807977     -1.94408346518612
  H          -3.60387620121729     -3.11596040496457      3.84984657771917
  H          -4.76064709430884     -2.12163914138690      2.93738986163889
  H           4.61965740346800      4.37198211801489      0.30010236346212
  H          -2.22735565393228     -6.56840326958773      1.59445181355844
  H          -2.30355775727997     -6.44478507120210     -1.26627940463289
  H          -5.15815519848870     -4.79736307426344      3.72443349831301
  H           5.78026245283336      0.54706501075256     -0.05859477971289
  H           2.47055447553316     -0.82106723958698      0.17389796586819
  H           6.27268910545757     -1.88971258581142     -0.04244469636692
  H          -0.29827679825332     -6.49746674295259      0.72423597225490
  H           4.23465911572312     -3.14051432871582      1.10863349579506
  H           5.77092046235661     -0.76699901664145     -2.57294146151957
  H           3.73043351360707     -2.13527375961646     -1.73514886234829
  H           0.22253375491151     -4.06750883200518     -1.05280090713698
  H           0.42015707057714     -3.64658371742776      1.57275434669560
  H           5.63389883406564     -3.65229370616413     -1.94688327996350
  H           1.92986213401706     -6.56994247045249     -0.65465121929602
  H           0.13160472508231     -5.93128342632122     -2.58682348847992
  H          -0.98361662203006     -4.86226979572889      3.19907030181236
  H           0.68202672514140     -4.65171617874320      3.79804924271327
  H           3.53459712345312     -5.08404080597587      0.44174891352273
  H           3.29032149417815     -4.84975386103574     -1.94187426102715
  H           1.03061192446260     -6.83574694148811      3.19477109003557
  H          -0.33314436106075     -1.66298045064691     -0.01592053952133
  H           1.91075285552216     -0.96883313096452     -2.28109624298067
  H          -2.11832154659704     -2.35318319482620     -2.24705056989851
  H           2.30478673785252     -2.15650424022951     -4.40981231591523
  H          -1.73058901722957     -3.54941660014628     -4.36898074093288
  H           0.48619885605736     -3.45310156521173     -5.45165384545212
  H          -1.40708720181144     -0.48846114174257     -0.80530877165120
  H           0.51271886368730      0.83889789908610     -1.09027572022288
