11
Coordinates from ORCA-job job.QMRegion
  C          -0.29197585661034     -0.42342040254439      3.24910712545093
  O          -0.59798915151207     -1.74913215604366      2.89239764916394
  O          -1.17909477543818     -1.08246164365045      4.11557461946486
  C          -0.38632699325234     -0.90340471200890     -0.81076219168190
  O           0.56632734346773      0.10810875744621     -0.44990878150729
  H          -0.33314436106075     -1.66298045064691     -0.01592053952133
  H          -1.40708720181144     -0.48846114174257     -0.80530877165120
  H           0.51271886368730      0.83889789908610     -1.09027572022288
  H          -0.70742707763440      0.35002227027934      2.60920288645277
  H           0.73268646516726     -0.25307885837173      3.57800279259152
  H          -0.19712051329536     -1.39892226057014     -1.77151207930200
