147
Coordinates from ORCA-job job_XTB
  C          -3.39773430283307      2.50850956064913     -1.69633771408679
  O          -3.29226306226620      1.23978191590962     -1.09007356521960
  C          -2.86616122750269      2.42991778281104     -3.13829648613970
  O          -2.70451659892610      3.47264729130617     -0.95934844687843
  C          -4.43746039955307      0.76337841609179     -0.41070909161037
  O          -3.50720011034661      1.43856658703404     -3.89407834710634
  C          -1.36721701532493      2.10872461644535     -3.10444024423280
  C          -1.31039342394509      3.20207483986169     -0.81597489882435
  C          -5.30447927711025     -0.07291513145136     -1.36660129767459
  C          -3.96646712658720     -0.14523241698790      0.73988703763802
  O          -0.77530123583490      2.19834967212221     -4.37573282384757
  C          -0.62891250702527      3.09215655719136     -2.19001002514488
  C          -0.72825309095906      4.35728299128495      0.01201288461825
  C          -6.41228828069627     -0.81259491317442     -0.59542893865619
  O          -5.85223591291529      0.77846809574857     -2.34715772511098
  O          -5.06293170699124     -0.73566694884241      1.40128926923871
  C          -3.14755280352339      0.61222302540209      1.77495815175273
  O           0.69743543688354      2.60117960921249     -2.06943752587370
  O          -0.82016862841460      5.58725501109279     -0.65770243702670
  C          -5.77095728476002     -1.61714048088659      0.55168796259637
  O          -7.15645290208424     -1.62225334584818     -1.45799297561436
  O          -1.86478321069630      0.58214481886222      1.43255620197395
  O          -3.58301905153971      1.15513924912307      2.75444083341412
  C           1.75859382152365      3.53316364030496     -2.06152034326711
  O          -4.93861000691654     -2.56702381117089     -0.03920372126727
  C          -0.88136614430358      0.99638405561373      2.37398151512965
  C           2.74208182194807      3.14758016687649     -3.17789075596710
  O           2.40578073796074      3.57196780335078     -0.82768203611505
  C          -4.72532943257408     -3.82314985487119      0.59539698094338
  C          -0.37727400357274     -0.22795101426662      3.13376665250643
  O           2.14159322665196      3.16770778206113     -4.44406540630035
  C           3.31044946795701      1.76041609848752     -2.85555672632308
  C           2.99049782166279      2.34611248042734     -0.37713832150590
  C          -4.25296378061144     -4.71913988949499     -0.55903017960794
  C          -3.68985375362021     -3.75397798542738      1.73668273617329
  C           1.04200604946967     -0.09480135387342      3.67456056622661
  O          -0.72480205388026     -1.46464391693382      2.63594662548244
  O          -1.28862574004194     -0.97814798596641      3.83319033404114
  O           4.32879040929962      1.39825940028168     -3.75432448549418
  C           3.89808333991439      1.69231333319644     -1.43834562774007
  C           3.76670142171844      2.73767941363249      0.89424744206158
  C          -3.69419570297707     -6.05685409675578     -0.05801142897759
  O          -5.34196449111071     -4.90135191341088     -1.42720694495021
  O          -3.18544374762401     -5.04535180482890      2.06952377981189
  C          -4.28996807169970     -3.23245806113880      3.05398715981333
  O           1.91476681335898     -0.14509132310906      2.54396344940856
  O           4.06641386487837      0.29386222018008     -1.22346746956934
  O           4.91704927367935      3.49160217539729      0.61260207919907
  C          -2.62194578061177     -5.75251606950097      1.00186439870353
  O          -3.18464916639004     -6.81909812936902     -1.11689437235468
  O          -5.39545184984951     -3.99289330577328      3.45942729258868
  C           2.41421468912702     -1.33107336437571      2.21043884119997
  C           4.91073480016102     -0.14790397525798     -0.20751933319916
  O          -1.59848879559712     -5.01885236300436      0.37866735568432
  C           3.13623413522187     -1.25162585899893      0.87204164496913
  O           2.29285111205648     -2.32735383959571      2.87438691463753
  C           5.53770314148738     -1.47270443066786     -0.68608426813402
  O           4.22526455952600     -0.35694215444891      1.01206205289111
  C          -0.26886255732551     -5.49659072809965      0.47656777096660
  C           3.58323985632173     -2.64004209527831      0.39904463089417
  O           6.27690355083717     -1.30863840230997     -1.86204496556488
  C           4.41636052852381     -2.50562837753141     -0.88388107951168
  C           0.37950862001774     -5.20592205501834     -0.88138480925703
  C           0.50385074209519     -4.81295257563322      1.61633520453180
  O           2.41393221248303     -3.39746832276194      0.13231847962190
  O           4.93437628396263     -3.77149228415587     -1.22977609267773
  C           1.87796325157101     -5.52047918712516     -0.83913610855837
  O          -0.29465011824536     -5.97889620921590     -1.84447646968889
  O           1.88279446885127     -5.15521126575262      1.55171820795279
  C           0.01517829197248     -5.26229523433341      2.99913956076423
  C           2.50517460254976     -4.78067878739154      0.35450407013527
  O           2.45240783292658     -5.14173823592795     -2.06128114423563
  O           0.09864880181661     -6.65281813228513      3.16386613358345
  C          -0.41548480233373     -0.88740909032321     -0.79711969016963
  O           0.54045083079021      0.10949012997883     -0.50444384404600
  C          -0.16189961196277     -1.64777794888237     -2.07381902835553
  C           1.08021557646990     -1.63316095367913     -2.69022182349352
  C          -1.19227034530139     -2.39449921973075     -2.63377985450897
  C           1.29483761688568     -2.36232619627769     -3.84734251400430
  C          -0.97741005641559     -3.12376620777143     -3.78857187504474
  C           0.26804802861098     -3.10894725281337     -4.39659222326922
  H          -4.44126084896186      2.84551290006660     -1.70553298731577
  H          -3.01056825765348      3.41860051806809     -3.60363501046817
  H          -5.02602101194259      1.59455784950935     -0.00165798188142
  H          -4.41450603194615      1.30240335182949     -3.56481652846946
  H          -1.25530324876998      1.08842206105569     -2.70961392908385
  H          -1.17797518575229      2.25428767560662     -0.28113848839405
  H          -4.65178771868568     -0.81889512151048     -1.84522601057092
  H          -3.32239327648204     -0.92457471493380      0.31056553417712
  H          -1.32488474730730      1.71130490942703     -5.00894854770740
  H          -0.62359108581688      4.07838458517047     -2.67104959615298
  H           0.33443779579294      4.17803984282386      0.18552822491378
  H          -1.25515692499630      4.39373336132174      0.97192252213735
  H          -7.10652573791105     -0.08148861013013     -0.16772829512038
  H          -6.62320028407326      0.32873871012346     -2.73427322795788
  H          -1.75510418437130      5.82140961146641     -0.74984413833738
  H          -6.53460392246590     -2.08042159924534      1.18834386964475
  H          -6.66299944877925     -2.43958930324459     -1.63931499106509
  H           1.38120253301138      4.55082398207283     -2.22070065727761
  H          -0.05394878964971      1.41699710183887      1.79965335410685
  H          -1.30511571517096      1.71527657275805      3.08237884799522
  H           3.55612797706007      3.87897181912713     -3.21039453589830
  H          -5.67505354201580     -4.20656621247598      0.99210355010102
  H           1.26832579807599      2.73524619734397     -4.40952224084213
  H           2.48555851678779      1.03360884356649     -2.91215290937469
  H           2.20083099177105      1.63565147652795     -0.10769164698541
  H          -3.43803909358106     -4.18873086782053     -1.07788073834205
  H          -2.85629546840299     -3.10866084004256      1.42513522428894
  H           1.18779000960357      0.87298942141458      4.15280938830778
  H           1.25917427538485     -0.92193619309956      4.35857086597188
  H           4.04821576647102      1.65052403305368     -4.64853996538884
  H           4.87931163318380      2.18695247424053     -1.43428102148287
  H           3.08216454932486      3.29850326330934      1.53943831518137
  H           4.09307735548384      1.83974639158148      1.41847136312355
  H          -4.49770743110816     -6.64682251640609      0.39452029286793
  H          -5.13464605071617     -5.63742523956537     -2.02547934939805
  H          -3.49737102810461     -3.24978462365701      3.81177790848034
  H          -4.63681499297332     -2.20587876333345      2.93660680899233
  H           4.64427857666861      4.35403636360855      0.26751357648286
  H          -2.23652029277653     -6.68077310245429      1.44174497221183
  H          -2.31552177779271     -6.47018659672553     -1.38904067069348
  H          -5.09231008669341     -4.89106462454269      3.65922505041242
  H           5.69013098505750      0.58916371569934      0.02392331249880
  H           2.40978438275710     -0.85028317690264      0.14906069123788
  H           6.23532316283643     -1.83259643711852      0.07734065202104
  H          -0.26931675075126     -6.58165257753527      0.64589404479625
  H           4.17793463098231     -3.12206259793739      1.18540859212558
  H           5.77312271125854     -0.75557194324315     -2.48204719756598
  H           3.74954458304220     -2.15472843328281     -1.68414357016289
  H           0.26005689759873     -4.13606466737097     -1.10513431455432
  H           0.38322967707882     -3.72466461524692      1.52729614512095
  H           5.69562233900986     -3.62903946733034     -1.81833046455481
  H           2.01114097051453     -6.60254342720325     -0.67530275140840
  H           0.23884695139931     -5.98148215854418     -2.65371470952892
  H          -1.03514601058128     -4.99104104658488      3.11855949545060
  H           0.61298430224042     -4.73694696514456      3.75219026215665
  H           3.55212361980578     -5.08711447417804      0.47243876923358
  H           3.36964389389410     -4.84991539792659     -1.91120989542113
  H           1.03313404667343     -6.90642541136411      3.12889931315411
  H          -0.38366317652687     -1.58369580155154      0.05232341741054
  H           1.87869659604473     -1.05076974238759     -2.25348080839182
  H          -2.16030196062570     -2.40226186663298     -2.15127562603524
  H           2.26508974823866     -2.34898367888846     -4.31822792525778
  H          -1.78207120902273     -3.70126763704778     -4.21594855868240
  H           0.43597202818262     -3.67838010094666     -5.29719435139276
  H          -1.41948306663938     -0.44282141721154     -0.82909380898726
  H           0.51598989994144      0.78191732874880     -1.20816988969880
