139
 xtb: 6.7.1 (edcfbbe)
C            0.72425988763292        4.87087210571912       -0.28400455357614
C           -4.26925436290280        3.23515385831408        0.30686783039123
C           -5.02511177613369       -1.85371823012408       -0.42138668711431
C           -0.78687153098315       -4.98320232368884       -0.60881160117212
C            4.15514064399282       -3.18448488117180        0.02143853150798
C            5.11032247451514        1.93144863164031       -0.49874762353448
O           -0.17765615529137        3.78943606760483       -0.20588160021346
O           -4.22257186121688        2.15909351358475       -0.57497543707814
O           -3.65007533625323       -2.05960067269778       -0.67835427344572
O            0.11670892107250       -3.91072317537880       -0.51694942306586
O            4.02150695889583       -2.00512095720001       -0.71378033516717
O            3.75192741554708        2.17151180988315       -0.73499857020496
C            1.40258529974977        4.88685165963421       -1.66703046098988
C           -3.87858307870272        4.50491076899471       -0.47736161562333
C           -5.65036224406324       -1.09990749487852       -1.60771439747763
C           -1.53685283040667       -4.85749092108540       -1.94603979642038
C            3.82392317308348       -4.35609124076702       -0.92219872360578
C            5.66468233999013        1.17047080387619       -1.71606793753545
O            0.47318939645370        4.86732621953598       -2.71704457599898
O           -4.71171465258423        4.71479710103517       -1.58198353218447
O           -5.53938168406514       -1.80021666609842       -2.81551172976165
O           -0.70242356077659       -4.94755549738007       -3.07031130851258
O            4.64868997986727       -4.36703634474793       -2.05361029699891
O            5.56095417440157        1.91785569596833       -2.89601114267334
C            2.31037161748894        3.66193174903173       -1.81679510067668
C           -2.40577467014144        4.42672655405573       -0.92321577404116
C           -4.99787214993253        0.28576686834499       -1.70454272297290
C           -2.24266655732306       -3.49446593097444       -1.93493682441637
C            2.34506076744868       -4.26323496290901       -1.32617531830061
C            4.90127065972329       -0.15819732963594       -1.83038829923775
O            3.13969438815293        3.75872514918805       -2.95250500582015
O           -1.99488679570288        5.65134512072751       -1.49395891281884
O           -5.61505350465122        1.07377510532445       -2.69277113081369
O           -3.02981483418580       -3.29020120024282       -3.08296660694584
O            1.95774051106482       -5.37532175436217       -2.10256615775901
O            5.43360521845931       -0.97708888908058       -2.84141610527689
C            3.23277782884693        3.48503119118585       -0.60534769055718
C           -1.48682205349559        4.08335543623068        0.26173522687754
C           -5.09280965976945        1.04733016872354       -0.37466651654902
C           -3.15541791932184       -3.39289528874197       -0.70850318584881
C            1.43579144628285       -4.18488037492417       -0.08853589581813
C            4.95348284726930       -0.94842356226800       -0.51608058542091
C            2.48978266762403        3.65156676803556        0.73219837873493
C           -2.05490262351862        2.83143480058014        0.93530700133339
C           -4.69443233453994        0.17506214719457        0.83547399712969
C           -2.40170532139028       -3.74588054595444        0.58940216512338
C            1.93039835678667       -3.03825491146002        0.79923566566874
C            4.58724571887586       -0.05832841149070        0.68713227220380
O            1.67868258955875        4.82377863724680        0.73554145620696
O           -3.37867438960364        3.06552886289261        1.39241517447753
O           -5.22916859680717       -1.15303712431659        0.76393223590052
O           -1.70848784093490       -4.98515550552208        0.44530976037370
O            3.29787332491431       -3.21604193498077        1.14005230984673
O            5.29846633404185        1.17821674782483        0.66833776565923
C            3.47610864625641        3.80530387225157        1.89821604589614
C           -1.26518302616914        2.34427598680658        2.15032288478299
C           -5.24633835794805        0.72300996653581        2.16417488957232
C           -3.37022435771458       -3.91346262084744        1.76680758091174
C            1.20858841935734       -2.95120475167545        2.15043790446859
C            4.94573913922875       -0.70264012098575        2.03621026334159
O            4.31877119078449        4.91712396575155        1.73904553402342
O           -1.57001546675866        1.07377644724476        2.34080484785864
O           -6.62457533242875        0.99287413139438        2.10635928631001
O           -4.32237345707864       -4.91945827234974        1.53360970552124
O            1.88287947416431       -2.07522611782637        2.94369731667062
O            6.28808637415942       -1.11113798839582        2.08297790676092
H            0.18903211984664        5.81389987437026       -0.13089120037898
H           -5.26305802800787        3.35212954015280        0.75765203610389
H           -5.53297105946443       -2.81588267058883       -0.27555815015924
H           -0.26753941514294       -5.94537849753919       -0.54730323490089
H            5.16496730351505       -3.28945470725090        0.43391610698103
H            5.66448084220064        2.86556148486773       -0.33971437602729
H            2.02337417891584        5.79610597333263       -1.71794560067421
H           -4.00185942163957        5.37026011096715        0.18332306402922
H           -6.72367359199020       -0.97890743433526       -1.41897523145695
H           -2.28699552090761       -5.65868735107869       -2.00167456257359
H            3.99640526148458       -5.29767538694656       -0.39274425166959
H            6.73006466611730        0.96648862146148       -1.56841670682753
H           -0.33680023933413        5.34033865458702       -2.45101967611170
H           -4.84649558985788        3.87206667380652       -2.04224936175329
H           -4.64795287774062       -2.18635856968812       -2.90523769303165
H            0.22385492086003       -5.08686518490634       -2.79644014480966
H            4.74137842407066       -3.45923564925744       -2.39157530759864
H            4.70984944261929        2.39702893381305       -2.91801057534714
H            1.68163946784483        2.76718625983349       -1.89973536684635
H           -2.30926204593994        3.62261969880701       -1.66986798563022
H           -3.93344479010700        0.15577988589915       -1.94339385699671
H           -1.46332258503854       -2.72351593883368       -1.87428243619098
H            2.20040540770080       -3.33648057741589       -1.90477811377102
H            3.84375490483346        0.06726359886844       -2.04230120472777
H            2.58197289809792        3.95856747097928       -3.72042698719828
H           -2.73569100018152        5.99440902767513       -2.02018131027026
H           -5.75790093478712        0.51814466623307       -3.47534860275993
H           -2.52327780971259       -3.58907284036695       -3.85456369567360
H            2.68324721240861       -5.58200170665016       -2.71129386452844
H            5.59208959023161       -0.42427674005441       -3.62492329037316
H            4.04098560402668        4.22605925635035       -0.66297514979666
H           -1.45547145011982        4.90705927812458        0.97897122917021
H           -6.12247150148928        1.40556892381075       -0.23737825709051
H           -3.98761855714835       -4.09765413868971       -0.83528929852543
H            1.47234405537888       -5.12118807275755        0.47707789348228
H            5.96126467887916       -1.35994110096147       -0.37821955085753
H            1.86591215998606        2.76920304044363        0.91449027480247
H           -2.07560712532654        2.00729860433631        0.20657800776374
H           -3.59958967906347        0.12531077368505        0.89587118168657
H           -1.67819790242701       -2.96392001023474        0.83534453041201
H            1.80143875077049       -2.09161064527829        0.25329952878229
H            3.51106717610546        0.14983755677392        0.63375675474502
H            4.12460240283564        2.92793034923296        1.93779609282831
H            2.89909800430694        3.87612552722741        2.82654106642863
H           -5.02141392718132       -0.01918846056557        2.94059680188917
H           -4.74475564368148        1.65747932787822        2.41818860182498
H           -3.93001135977178       -2.98776395522540        1.90887864081165
H           -2.78063713211872       -4.13009120494988        2.66207024083821
H            4.74125735882167        0.03218581077303        2.82340520461861
H            4.33987983703801       -1.59204187361717        2.20578674919012
H            3.77150670413353        5.71625763709380        1.75435947436827
H           -7.08980999483703        0.15201292985515        2.00430477847610
H           -3.85766778932165       -5.76777034199960        1.46410319552952
H            6.85114436568592       -0.32422081813259        2.03252666636066
C            1.03094222632158       -1.28039699306658        3.75155202739891
H            1.65381150171859       -0.66389478253660        4.39354017724372
H            0.34487267501398       -1.90415435525546        4.33113872619189
O            0.39201927399584       -3.73681020102579        2.55914160442958
C           -0.89855409882431        0.32012709711709        3.34103486323859
H           -1.63109374206519       -0.36983570101695        3.76083970000533
H           -0.49571638712595        0.99173608912902        4.10796349277983
O           -0.52214750116046        3.00765662404069        2.82636286884670
C            0.25795850556051       -0.45739688441793        2.68586147401343
O           -0.11948430556949       -1.32507945274927        1.70401398694981
H           -0.73636823799797       -0.97948634113296        1.12682968390495
O           -1.57089492871732       -0.32992407054738       -0.01513387623035
H           -0.89460933381407       -0.00551843886153       -0.62199529958248
O            0.48705628893685        1.01460621175610       -0.69151437057382
H            0.80503748369769        0.81424105757297        0.23592186441720
O            1.14227864567843        0.51542230095450        2.11801571688789
H            2.02202850154677        0.11647791708951        2.08651683359619
H            0.22372234970631        1.92479302705303       -0.65171578726476
H           -2.09922234973392       -0.99386211203800       -0.48284211201703
