139
Coordinates from ORCA-job job E -262.799850491290
  C           0.71357410682396      4.84936255435562     -0.35544891374684
  C          -4.26038365451294      3.21350296684893      0.37511147584940
  C          -5.04443464390011     -1.86698740631308     -0.43252940901475
  C          -0.73572843984640     -4.92470652873462     -0.66337094194491
  C           4.23761415708702     -3.24879959511188      0.03263453901856
  C           5.09568502089695      1.90950407496086     -0.53277684978990
  O          -0.18166883967861      3.76215286098259     -0.24931794174332
  O          -4.23436981658385      2.13761812491527     -0.50863930094260
  O          -3.67485624319691     -2.03901275350406     -0.72414771440587
  O           0.20755129173044     -3.90073493255963     -0.46810519820439
  O           4.04321868260747     -2.05589355822835     -0.66438125335183
  O           3.75030024579716      2.16375427561120     -0.82362732965908
  C           1.37509578317401      4.85722353167217     -1.74638876414160
  C          -3.88761360113250      4.47635239035669     -0.42817762410227
  C          -5.69243207318538     -1.09106219592137     -1.59257058922367
  C          -1.42553776882405     -4.71079904669530     -2.02310822795804
  C           3.90689451697533     -4.40679179786819     -0.92910126407343
  C           5.67367627480864      1.11374133127158     -1.71710723974999
  O           0.43623418319156      4.81883387544622     -2.78841401583570
  O          -4.75287081282164      4.68637414032030     -1.50769971506420
  O          -5.57158302531998     -1.76281320990805     -2.81684284091377
  O          -0.52619067880575     -4.67431468337313     -3.09995334587409
  O           4.71681276318564     -4.38592348548644     -2.07048857909308
  O           5.59013363174154      1.83196673024770     -2.91753155034607
  C           2.29902458016815      3.64444888630427     -1.89639168268046
  C          -2.43166222016220      4.37246847512863     -0.91888021331941
  C          -5.05815792397767      0.30459370182658     -1.66121055065326
  C          -2.17508658385551     -3.37380373060036     -1.96720736961884
  C           2.42026752930901     -4.32959104509014     -1.31712101194830
  C           4.91311769275732     -0.21816836086227     -1.81204264293827
  O           3.11940687452884      3.74842975068117     -3.03783504441822
  O          -2.03132809519129      5.57463310738368     -1.54137225921172
  O          -5.70979787218992      1.11558553563037     -2.60827985025064
  O          -2.92372379275741     -3.13268812507502     -3.13276665009489
  O           2.04009475658416     -5.44177675602292     -2.09775168513861
  O           5.46215359476448     -1.06229761649970     -2.79369710909302
  C           3.23346651194858      3.47798175004555     -0.69180834469103
  C          -1.48004369535727      4.06245314091595      0.24775960264844
  C          -5.11327338544109      1.03254682071722     -0.31072602984880
  C          -3.13716241358429     -3.35268862675441     -0.77485354381433
  C           1.51781694952487     -4.27099822305507     -0.07317484973512
  C           4.94718322575953     -0.97313756545325     -0.47706716595832
  C           2.50522010551841      3.65958790798147      0.65218427510139
  C          -2.02557836782918      2.83341202700553      0.98233036027563
  C          -4.69027517238186      0.12599864545633      0.86380930404975
  C          -2.39755057552815     -3.72213117159942      0.52384077652035
  C           2.04149634151036     -3.17464862732191      0.86067583556183
  C           4.52709673008625     -0.05291961338000      0.68514799544693
  O           1.68457362976905      4.82562046617156      0.64764580429751
  O          -3.34935540062150      3.05791371772506      1.44395319361750
  O          -5.24287085032589     -1.19288773419663      0.77097262394089
  O          -1.69012443888012     -4.95129133382041      0.35906491851058
  O           3.41173244553031     -3.33551771577103      1.17507953399685
  O           5.23780698261775      1.18487717597282      0.65734029883786
  C           3.49778131744728      3.83822102871240      1.80926099414557
  C          -1.19564892403487      2.42552287913073      2.19723563063705
  C          -5.18734742249405      0.65127112474538      2.22133703068656
  C          -3.37132474879389     -3.92849844072163      1.68983912801393
  C           1.27267166752245     -3.08695999873164      2.17925108361806
  C           4.84180989683044     -0.65866742857769      2.06261484591849
  O           4.34230099297705      4.94448879012091      1.62143630625701
  O          -1.63001378033426      1.25516517494035      2.63136631613941
  O          -6.56418869832333      0.93082680080066      2.22297708118392
  O          -4.31452872852974     -4.93575264365601      1.42455153051478
  O           1.73015853950059     -2.04986217749596      2.88091156035199
  O           6.19952999332221     -0.99533164766050      2.18727124231573
  H           0.17529644061598      5.79336568367012     -0.20720089869705
  H          -5.24477863923001      3.33042136689942      0.84614554189534
  H          -5.53549870111308     -2.83948379463993     -0.30212769853255
  H          -0.25503613489764     -5.91053748539577     -0.63553640082023
  H           5.26267412530308     -3.33646690881960      0.41311068234151
  H           5.65746599082340      2.83957252698946     -0.37866226275753
  H           1.98398593145068      5.77385630059494     -1.81280184415988
  H          -3.98275805009165      5.34907137546778      0.22696517041064
  H          -6.76585000221380     -0.99136143961945     -1.40001959335619
  H          -2.14960459372088     -5.52688750664336     -2.17260064976144
  H           4.10084803076138     -5.35716253511842     -0.42058195164002
  H           6.73658084339442      0.91472803584493     -1.54418683946812
  H          -0.38611894970695      5.26269420168026     -2.50811129743064
  H          -4.91182267013338      3.83889734414170     -1.95583765848157
  H          -4.66463770794581     -2.10818997791551     -2.92314641181707
  H           0.33367220348510     -5.05449820412069     -2.83743786604821
  H           4.79770407262989     -3.47197207848356     -2.39379192311548
  H           4.73874165385769      2.30530209235365     -2.96169737427460
  H           1.68000206799119      2.74176848206978     -1.97303523312637
  H          -2.36380786946128      3.54323144225211     -1.63856780677858
  H          -3.99766159590338      0.19339515914910     -1.93159267660516
  H          -1.42119273826127     -2.58437012422850     -1.83203813451744
  H           2.25947179590659     -3.40210839253263     -1.88750369859500
  H           3.85935664662443     -0.00009544806789     -2.04493238903029
  H           2.55388380755505      3.94231291413855     -3.80087309229554
  H          -2.78783397022335      5.90620937595017     -2.05448687918981
  H          -5.85086320106877      0.58929105819502     -3.41136225808106
  H          -2.36302962864297     -3.33166914042494     -3.89885090229050
  H           2.76698703351786     -5.63658745477637     -2.71341243727201
  H           5.63955836501797     -0.52950317252982     -3.58500686038225
  H           4.04218254336102      4.21708890930592     -0.76640322981213
  H          -1.43148015077753      4.91272867423912      0.93814222951789
  H          -6.13443161175367      1.40069782671579     -0.13952723693123
  H          -3.93929921139882     -4.08021206266619     -0.95159834393468
  H           1.51106213032410     -5.23859433943885      0.44188739766492
  H           5.95995003830955     -1.35659538885120     -0.29795386964988
  H           1.88815342193238      2.77738230774850      0.85416133496393
  H          -2.03094592541492      1.97700995745084      0.29266887946702
  H          -3.59838764276787      0.06684693120807      0.88706486374096
  H          -1.68950607721167     -2.92852828000161      0.78743263553198
  H           1.89180037221207     -2.21317328069256      0.34414637276668
  H           3.45246663024168      0.14853989277902      0.58521913365328
  H           4.14372621086546      2.96046376006632      1.86834026018247
  H           2.92209219475916      3.93338186295208      2.73656414037467
  H          -4.94224921625276     -0.10453736314804      2.97524371825984
  H          -4.67341200938268      1.57920979313350      2.47015567659543
  H          -3.93395290223330     -3.00777828364376      1.85438433224417
  H          -2.78347837334729     -4.16230073713443      2.58363193083227
  H           4.55361037791413      0.07217764312340      2.82738006382899
  H           4.27890036191596     -1.58109567693409      2.21038628529788
  H           3.79720057381630      5.74448432362120      1.61961129331119
  H          -7.04613072689680      0.09701695166308      2.12538290695030
  H          -3.84140816132337     -5.77621393930228      1.33973773364659
  H           6.72220158315401     -0.18164765868182      2.13645167864922
  C           0.81919533898691     -1.39562318326213      3.76762248847242
  H           1.41324972206093     -0.88764641218623      4.52343980363365
  H           0.12095570369087     -2.11162658753124      4.20117558711339
  O           0.40032988871692     -3.83175212087964      2.53223024851537
  C          -0.86950381589419      0.54986629308472      3.61058796137855
  H          -1.58089880939358     -0.01668773125814      4.20758959604347
  H          -0.28693739913991      1.24902950657675      4.21348891608532
  O          -0.29162144059706      3.06032916673229      2.67608061829635
  C           0.07452526849436     -0.40273879016493      2.84603924084405
  O          -0.61494721489703     -1.19287163251726      1.93593243496922
  H          -1.07771581225518     -0.63984642891625      1.24691583812976
  O          -1.71006695741789     -0.06616018923792     -0.21548585326455
  H          -0.86794324912149      0.08887613820125     -0.69083857279657
  O           0.70759585405976      0.95266501947272     -0.59994537937750
  H           0.84816483655833      0.77644127000705      0.34509475232461
  O           1.02526607041354      0.40359115148680      2.17721893357519
  H           1.85455178612147     -0.09853817521584      2.11797846569495
  H           0.38178031290957      1.86285076119117     -0.63428929481377
  H          -2.16907939725715     -0.81096556351138     -0.62512800296188
