11
Coordinates from ORCA-job job.QMRegion
  C          -0.10772661084859     -1.32473968911335      3.18612716088165
  O          -0.75428394399493     -1.69910448856006      2.00024422940227
  O          -1.48341097015438     -1.38993493888679      3.37967908662767
  C           1.40792110869007     -1.17516263594342     -0.68089881105713
  H           1.77388736093804     -0.29919648797374     -0.07978047151239
  O           0.26193719691507     -1.69657255050371     -0.22569430170425
  H           2.20879815227539     -2.97805975056002     -0.82086695795151
  O           2.56619674995601     -2.11553881594662     -0.55077702734888
  H           0.36568177480390     -0.32267870192485      3.14826343020509
  H           0.49321377686791     -2.10438605344763      3.69731744581160
  H           1.39165574994338     -0.85618078952063     -1.74421605154246
