139
* (null), Energy   -1000.0000000
C     0.680981    4.794844   -0.301121    0.001730    0.001642    0.000944
C    -4.312140    3.219952    0.366183    0.000548   -0.000498    0.002340
C    -5.085618   -1.845944   -0.498478   -0.001902   -0.001542    0.000308
C    -0.781071   -4.867071   -0.647950    0.001164    0.003574   -0.000574
C     4.141436   -3.178255    0.092215    0.000376    0.000572   -0.001868
C     5.099279    1.900761   -0.499990   -0.000900    0.000262   -0.000126
O    -0.217088    3.711658   -0.168167   -0.000784   -0.010730   -0.003698
O    -4.272746    2.159902   -0.535797   -0.003132   -0.000806   -0.002182
O    -3.708143   -2.023308   -0.753338   -0.012282   -0.009214   -0.004658
O     0.085602   -3.772059   -0.470806   -0.000558   -0.002246   -0.002324
O     4.086216   -2.049091   -0.728663   -0.001464   -0.000780    0.001120
O     3.729668    2.105491   -0.699110   -0.000536   -0.001870   -0.000122
C     1.334854    4.763669   -1.696685    0.000276    0.002100   -0.000304
C    -3.909236    4.496353   -0.400715    0.000890   -0.000334    0.000254
C    -5.706781   -1.061556   -1.667398   -0.000490    0.001252    0.000534
C    -1.471973   -4.720402   -2.016516    0.000800    0.002170   -0.000170
C     3.778202   -4.396083   -0.775216    0.000808   -0.000358   -0.000094
C     5.661329    1.159551   -1.725202    0.000142    0.000760   -0.000186
O     0.383542    4.684364   -2.723013   -0.001130   -0.002510    0.000500
O    -4.752792    4.743366   -1.489569    0.000332   -0.000136   -0.000122
O    -5.574028   -1.728121   -2.892768    0.000142    0.000380    0.000628
O    -0.573214   -4.699973   -3.093971   -0.000648   -0.000230    0.000738
O     4.623358   -4.527541   -1.884224   -0.000038   -0.000090    0.000120
O     5.526325    1.902080   -2.904624   -0.000194   -0.000134   -0.000178
C     2.259169    3.547614   -1.822447    0.002238    0.001740   -0.002666
C    -2.445254    4.390892   -0.870743    0.000294    0.000060   -0.000336
C    -5.062505    0.330581   -1.719570   -0.000182   -0.000756    0.001366
C    -2.236295   -3.392322   -1.995171   -0.000464    0.001144    0.001264
C     2.315204   -4.273915   -1.218613    0.000190   -0.000266   -0.000090
C     4.940983   -0.193298   -1.836957    0.000048   -0.000264   -0.000520
O     3.075257    3.627345   -2.969771    0.000998   -0.000426   -0.000942
O    -2.020991    5.607914   -1.448163    0.000196   -0.000360   -0.000082
O    -5.688554    1.150775   -2.675726    0.000970   -0.000812    0.000976
O    -2.998736   -3.183749   -3.157596   -0.000254   -0.001828    0.000590
O     1.910329   -5.427739   -1.926715   -0.000386   -0.000150   -0.000122
O     5.497404   -0.988951   -2.853080    0.000224   -0.000450   -0.000736
C     3.198101    3.420643   -0.617104    0.000262    0.000170    0.000134
C    -1.521172    4.028082    0.304632    0.001008   -0.003210   -0.001734
C    -5.148122    1.049009   -0.365016    0.001564    0.000314   -0.000364
C    -3.190317   -3.344602   -0.796165   -0.000620   -0.000792    0.000510
C     1.391740   -4.058354   -0.009633    0.001432   -0.000288    0.001342
C     5.015778   -0.988706   -0.525155    0.001028    0.000478    0.000282
C     2.478738    3.631761    0.727906   -0.000574    0.000024    0.001002
C    -2.100440    2.779352    0.977666    0.001240   -0.005438   -0.002122
C    -4.742686    0.135010    0.811798    0.002866    0.000650   -0.000816
C    -2.478835   -3.723691    0.518982   -0.000920   -0.000916   -0.001300
C     1.913395   -2.871234    0.801855    0.000658   -0.001574    0.001902
C     4.660515   -0.109412    0.689983    0.000818    0.000374    0.000330
O     1.649430    4.790437    0.705849   -0.002238    0.000162    0.000416
O    -3.419022    3.025787    1.446382   -0.000260    0.001376    0.000580
O    -5.303403   -1.179466    0.705394   -0.002960    0.000928    0.000042
O    -1.753219   -4.941114    0.357439   -0.001852    0.000988    0.000602
O     3.257825   -3.091460    1.186918   -0.000460    0.000294    0.000836
O     5.331194    1.148212    0.660727   -0.000570    0.000214    0.000752
C     3.492385    3.843341    1.862138    0.000390   -0.000120    0.000892
C    -1.305688    2.295827    2.191408   -0.003756   -0.000676    0.005224
C    -5.264548    0.651675    2.164798    0.001134   -0.000218   -0.001390
C    -3.484459   -3.950204    1.654427    0.000380   -0.000510   -0.001842
C     1.093107   -2.646507    2.125296   -0.005328    0.005798   -0.002168
C     5.063504   -0.738732    2.034460   -0.000484    0.000148    0.000158
O     4.330278    4.946143    1.629267    0.000928    0.000870   -0.000158
O    -1.465734    0.983642    2.280763   -0.000726    0.001110    0.005522
O    -6.642612    0.926199    2.139375    0.001574   -0.000696   -0.000258
O    -4.406253   -4.967322    1.354441    0.000780    0.000556    0.000676
O     2.033675   -2.024142    3.033381    0.000248    0.000520    0.001294
O     6.396543   -1.179155    2.036321    0.000674   -0.000392    0.000092
H     0.145832    5.742844   -0.174993   -0.000918   -0.001784   -0.002102
H    -5.303694    3.338377    0.819782   -0.000752   -0.001676    0.000926
H    -5.585978   -2.815401   -0.386252   -0.004352   -0.002494    0.003422
H    -0.234418   -5.815523   -0.592722   -0.000698    0.001440    0.004590
H     5.137589   -3.302498    0.536569   -0.000862   -0.000914    0.000374
H     5.631384    2.847432   -0.344217    0.001350   -0.001686   -0.000276
H     1.941790    5.678173   -1.794929   -0.001922    0.002456    0.001550
H    -4.007449    5.352856    0.275098   -0.003940   -0.001322    0.001462
H    -6.782301   -0.955106   -1.489048   -0.001126   -0.000958    0.000596
H    -2.176650   -5.557859   -2.134651   -0.003302    0.004948    0.001832
H     3.897544   -5.302235   -0.171757   -0.001724   -0.000054    0.000592
H     6.733620    0.987524   -1.583273   -0.000350   -0.000668    0.001374
H    -0.394223    5.224227   -2.491531    0.005266    0.007498   -0.008502
H    -4.905091    3.910904   -1.967466   -0.002560    0.000054    0.002118
H    -4.676635   -2.103759   -2.979875    0.000312    0.002146    0.003390
H     0.289397   -5.057598   -2.813383    0.002430    0.001032    0.002168
H     4.756788   -3.652101   -2.286695   -0.001216    0.000690   -0.000884
H     4.657158    2.349091   -2.926412   -0.000690    0.002540    0.000288
H     1.645602    2.640706   -1.878542    0.007460    0.004366   -0.024122
H    -2.377449    3.588675   -1.620179   -0.015858    0.000696   -0.002522
H    -3.998770    0.212904   -1.971354    0.001942   -0.013454    0.018598
H    -1.477206   -2.603821   -1.897227   -0.026300    0.020956    0.022134
H     2.219835   -3.392788   -1.871341   -0.004066   -0.002362   -0.000978
H     3.876961   -0.004615   -2.046425    0.001090   -0.005612   -0.006010
H     2.505125    3.791338   -3.736638    0.003130    0.003562   -0.001066
H    -2.771622    5.975875   -1.943194    0.003152    0.004300    0.001532
H    -5.814151    0.630746   -3.484898    0.001576   -0.000214   -0.000418
H    -2.447182   -3.399661   -3.925348    0.008718    0.003572    0.002408
H     2.662386   -5.716422   -2.472442    0.001266    0.002224   -0.000952
H     5.632752   -0.427208   -3.633483   -0.000322    0.000816    0.000352
H     3.998283    4.165318   -0.714169   -0.002748    0.002120    0.002600
H    -1.474786    4.850769    1.026668   -0.001342   -0.007382    0.000980
H    -6.175325    1.406007   -0.210230    0.000690    0.000584    0.002062
H    -4.000106   -4.064370   -0.969429   -0.003944   -0.000924    0.000846
H     1.383825   -4.938789    0.644608   -0.001688   -0.000590    0.001388
H     6.026226   -1.399890   -0.399669    0.000514    0.000480    0.000334
H     1.874118    2.749717    0.965948    0.000510    0.005356    0.027404
H    -2.143482    1.959559    0.250430   -0.010822   -0.044492    0.031990
H    -3.650708    0.063865    0.854841    0.010398   -0.009296   -0.029060
H    -1.772288   -2.944912    0.827437   -0.012534    0.018034   -0.021156
H     1.850343   -1.965150    0.185874   -0.002184   -0.008064   -0.002326
H     3.576485    0.061043    0.665878    0.001682   -0.004744    0.007578
H     4.143048    2.969029    1.930167    0.003338    0.001670    0.002400
H     2.939989    3.959685    2.801316    0.001822    0.000124    0.002382
H    -5.033526   -0.108231    2.919837    0.003740   -0.000262   -0.001858
H    -4.763260    1.580770    2.433515    0.000728   -0.000332   -0.001436
H    -4.068353   -3.040380    1.808548    0.006660    0.003350   -0.002634
H    -2.916947   -4.180547    2.563067    0.001680    0.001206   -0.002182
H     4.907204    0.016623    2.814376    0.001728   -0.001096    0.001788
H     4.436693   -1.605048    2.252785   -0.000272    0.000072    0.001434
H     3.785623    5.746712    1.629360    0.000216   -0.000176    0.002220
H    -7.117708    0.092316    2.015649   -0.000902    0.001164   -0.003236
H    -3.922080   -5.801738    1.280037    0.001722   -0.000122   -0.001984
H     6.976348   -0.404623    1.981236   -0.001198    0.001186    0.000392
C     1.297101   -1.112918    3.807182    0.002264    0.002824    0.000272
H     1.992123   -0.455106    4.324381    0.004962    0.001024   -0.000858
H     0.643282   -1.638970    4.512386   -0.000048    0.006204    0.000364
O     0.416063   -3.598083    2.585736    0.000440   -0.003032    0.002070
C    -0.793897    0.261100    3.298271    0.000986    0.002400    0.000040
H    -1.476480   -0.506784    3.659786    0.007088   -0.000430    0.002768
H    -0.489631    0.937551    4.100695    0.000480    0.007520   -0.001736
O    -0.671470    2.985848    2.944486    0.000848    0.001626    0.000562
C     0.462693   -0.409284    2.722521   -0.001658   -0.001524   -0.001200
O     0.178508   -1.425741    1.811723    0.015220   -0.006888    0.006046
H    -1.092250   -0.901452    0.599918   -0.070694    0.036248   -0.079740
O    -1.538882   -0.358754   -0.084305   -0.036936   -0.012528   -0.006250
H    -0.626417    0.275833   -0.514764    1.554016    1.120070   -0.498208
O     0.408362    1.002764   -0.606603   -0.049498   -0.029818    0.035452
H     0.809910    0.844862    0.271404    0.092510   -0.010662    0.068608
O     1.225565    0.587439    2.067287   -0.004646   -0.003262   -0.018226
H     2.149295    0.293909    2.050732    0.009236    0.011646    0.027150
H     0.108323    1.933280   -0.601302   -0.066836    0.037834   -0.029384
H    -2.028356   -0.949165   -0.683191   -0.038548   -0.031086    0.168036
139
* Frequency(6) -890.7100
C     0.681178    4.795031   -0.301014    0.001730    0.001642    0.000944
C    -4.312078    3.219895    0.366449    0.000548   -0.000498    0.002340
C    -5.085834   -1.846119   -0.498443   -0.001902   -0.001542    0.000308
C    -0.780939   -4.866665   -0.648015    0.001164    0.003574   -0.000574
C     4.141479   -3.178190    0.092003    0.000376    0.000572   -0.001868
C     5.099177    1.900791   -0.500004   -0.000900    0.000262   -0.000126
O    -0.217177    3.710439   -0.168587   -0.000784   -0.010730   -0.003698
O    -4.273102    2.159810   -0.536045   -0.003132   -0.000806   -0.002182
O    -3.709539   -2.024355   -0.753867   -0.012282   -0.009214   -0.004658
O     0.085539   -3.772314   -0.471070   -0.000558   -0.002246   -0.002324
O     4.086050   -2.049180   -0.728536   -0.001464   -0.000780    0.001120
O     3.729607    2.105278   -0.699124   -0.000536   -0.001870   -0.000122
C     1.334885    4.763908   -1.696720    0.000276    0.002100   -0.000304
C    -3.909135    4.496315   -0.400686    0.000890   -0.000334    0.000254
C    -5.706837   -1.061414   -1.667337   -0.000490    0.001252    0.000534
C    -1.471882   -4.720155   -2.016535    0.000800    0.002170   -0.000170
C     3.778294   -4.396124   -0.775227    0.000808   -0.000358   -0.000094
C     5.661345    1.159637   -1.725223    0.000142    0.000760   -0.000186
O     0.383414    4.684079   -2.722956   -0.001130   -0.002510    0.000500
O    -4.752754    4.743351   -1.489583    0.000332   -0.000136   -0.000122
O    -5.574012   -1.728078   -2.892697    0.000142    0.000380    0.000628
O    -0.573288   -4.699999   -3.093887   -0.000648   -0.000230    0.000738
O     4.623354   -4.527551   -1.884210   -0.000038   -0.000090    0.000120
O     5.526303    1.902065   -2.904644   -0.000194   -0.000134   -0.000178
C     2.259423    3.547812   -1.822750    0.002238    0.001740   -0.002666
C    -2.445221    4.390899   -0.870781    0.000294    0.000060   -0.000336
C    -5.062526    0.330495   -1.719415   -0.000182   -0.000756    0.001366
C    -2.236348   -3.392192   -1.995027   -0.000464    0.001144    0.001264
C     2.315226   -4.273945   -1.218623    0.000190   -0.000266   -0.000090
C     4.940988   -0.193328   -1.837016    0.000048   -0.000264   -0.000520
O     3.075370    3.627297   -2.969878    0.000998   -0.000426   -0.000942
O    -2.020969    5.607873   -1.448172    0.000196   -0.000360   -0.000082
O    -5.688444    1.150683   -2.675615    0.000970   -0.000812    0.000976
O    -2.998765   -3.183957   -3.157529   -0.000254   -0.001828    0.000590
O     1.910285   -5.427756   -1.926729   -0.000386   -0.000150   -0.000122
O     5.497429   -0.989002   -2.853164    0.000224   -0.000450   -0.000736
C     3.198131    3.420662   -0.617089    0.000262    0.000170    0.000134
C    -1.521057    4.027717    0.304435    0.001008   -0.003210   -0.001734
C    -5.147944    1.049045   -0.365057    0.001564    0.000314   -0.000364
C    -3.190387   -3.344692   -0.796107   -0.000620   -0.000792    0.000510
C     1.391903   -4.058387   -0.009480    0.001432   -0.000288    0.001342
C     5.015895   -0.988652   -0.525123    0.001028    0.000478    0.000282
C     2.478673    3.631764    0.728020   -0.000574    0.000024    0.001002
C    -2.100299    2.778734    0.977425    0.001240   -0.005438   -0.002122
C    -4.742360    0.135084    0.811705    0.002866    0.000650   -0.000816
C    -2.478940   -3.723795    0.518834   -0.000920   -0.000916   -0.001300
C     1.913470   -2.871413    0.802071    0.000658   -0.001574    0.001902
C     4.660608   -0.109369    0.690021    0.000818    0.000374    0.000330
O     1.649176    4.790455    0.705896   -0.002238    0.000162    0.000416
O    -3.419052    3.025943    1.446448   -0.000260    0.001376    0.000580
O    -5.303739   -1.179361    0.705399   -0.002960    0.000928    0.000042
O    -1.753429   -4.941002    0.357507   -0.001852    0.000988    0.000602
O     3.257773   -3.091427    1.187013   -0.000460    0.000294    0.000836
O     5.331129    1.148236    0.660812   -0.000570    0.000214    0.000752
C     3.492429    3.843327    1.862239    0.000390   -0.000120    0.000892
C    -1.306115    2.295750    2.192002   -0.003756   -0.000676    0.005224
C    -5.264419    0.651650    2.164640    0.001134   -0.000218   -0.001390
C    -3.484416   -3.950262    1.654218    0.000380   -0.000510   -0.001842
C     1.092502   -2.645848    2.125050   -0.005328    0.005798   -0.002168
C     5.063449   -0.738715    2.034478   -0.000484    0.000148    0.000158
O     4.330383    4.946242    1.629249    0.000928    0.000870   -0.000158
O    -1.465817    0.983768    2.281391   -0.000726    0.001110    0.005522
O    -6.642433    0.926120    2.139346    0.001574   -0.000696   -0.000258
O    -4.406164   -4.967259    1.354518    0.000780    0.000556    0.000676
O     2.033703   -2.024083    3.033528    0.000248    0.000520    0.001294
O     6.396620   -1.179200    2.036331    0.000674   -0.000392    0.000092
H     0.145728    5.742641   -0.175232   -0.000918   -0.001784   -0.002102
H    -5.303779    3.338187    0.819887   -0.000752   -0.001676    0.000926
H    -5.586473   -2.815684   -0.385863   -0.004352   -0.002494    0.003422
H    -0.234497   -5.815359   -0.592200   -0.000698    0.001440    0.004590
H     5.137491   -3.302602    0.536612   -0.000862   -0.000914    0.000374
H     5.631537    2.847240   -0.344248    0.001350   -0.001686   -0.000276
H     1.941572    5.678452   -1.794753   -0.001922    0.002456    0.001550
H    -4.007897    5.352706    0.275264   -0.003940   -0.001322    0.001462
H    -6.782429   -0.955215   -1.488980   -0.001126   -0.000958    0.000596
H    -2.177025   -5.557297   -2.134443   -0.003302    0.004948    0.001832
H     3.897348   -5.302241   -0.171690   -0.001724   -0.000054    0.000592
H     6.733580    0.987448   -1.583117   -0.000350   -0.000668    0.001374
H    -0.393625    5.225079   -2.492497    0.005266    0.007498   -0.008502
H    -4.905382    3.910910   -1.967225   -0.002560    0.000054    0.002118
H    -4.676600   -2.103515   -2.979490    0.000312    0.002146    0.003390
H     0.289673   -5.057481   -2.813137    0.002430    0.001032    0.002168
H     4.756650   -3.652023   -2.286795   -0.001216    0.000690   -0.000884
H     4.657080    2.349380   -2.926379   -0.000690    0.002540    0.000288
H     1.646450    2.641202   -1.881283    0.007460    0.004366   -0.024122
H    -2.379251    3.588754   -1.620466   -0.015858    0.000696   -0.002522
H    -3.998549    0.211375   -1.969240    0.001942   -0.013454    0.018598
H    -1.480195   -2.601439   -1.894712   -0.026300    0.020956    0.022134
H     2.219373   -3.393056   -1.871452   -0.004066   -0.002362   -0.000978
H     3.877085   -0.005253   -2.047108    0.001090   -0.005612   -0.006010
H     2.505481    3.791743   -3.736759    0.003130    0.003562   -0.001066
H    -2.771264    5.976364   -1.943020    0.003152    0.004300    0.001532
H    -5.813972    0.630722   -3.484946    0.001576   -0.000214   -0.000418
H    -2.446191   -3.399255   -3.925074    0.008718    0.003572    0.002408
H     2.662530   -5.716169   -2.472550    0.001266    0.002224   -0.000952
H     5.632715   -0.427115   -3.633443   -0.000322    0.000816    0.000352
H     3.997971    4.165559   -0.713874   -0.002748    0.002120    0.002600
H    -1.474939    4.849930    1.026779   -0.001342   -0.007382    0.000980
H    -6.175247    1.406073   -0.209996    0.000690    0.000584    0.002062
H    -4.000554   -4.064475   -0.969333   -0.003944   -0.000924    0.000846
H     1.383633   -4.938856    0.644766   -0.001688   -0.000590    0.001388
H     6.026284   -1.399835   -0.399631    0.000514    0.000480    0.000334
H     1.874176    2.750326    0.969062    0.000510    0.005356    0.027404
H    -2.144712    1.954503    0.254065   -0.010822   -0.044492    0.031990
H    -3.649526    0.062809    0.851538    0.010398   -0.009296   -0.029060
H    -1.773712   -2.942863    0.825033   -0.012534    0.018034   -0.021156
H     1.850095   -1.966066    0.185610   -0.002184   -0.008064   -0.002326
H     3.576676    0.060504    0.666739    0.001682   -0.004744    0.007578
H     4.143427    2.969219    1.930440    0.003338    0.001670    0.002400
H     2.940196    3.959699    2.801587    0.001822    0.000124    0.002382
H    -5.033101   -0.108261    2.919626    0.003740   -0.000262   -0.001858
H    -4.763177    1.580732    2.433352    0.000728   -0.000332   -0.001436
H    -4.067596   -3.039999    1.808249    0.006660    0.003350   -0.002634
H    -2.916756   -4.180410    2.562819    0.001680    0.001206   -0.002182
H     4.907400    0.016498    2.814579    0.001728   -0.001096    0.001788
H     4.436662   -1.605040    2.252948   -0.000272    0.000072    0.001434
H     3.785648    5.746692    1.629612    0.000216   -0.000176    0.002220
H    -7.117811    0.092448    2.015281   -0.000902    0.001164   -0.003236
H    -3.921884   -5.801752    1.279812    0.001722   -0.000122   -0.001984
H     6.976212   -0.404488    1.981281   -0.001198    0.001186    0.000392
C     1.297358   -1.112597    3.807213    0.002264    0.002824    0.000272
H     1.992687   -0.454990    4.324283    0.004962    0.001024   -0.000858
H     0.643277   -1.638265    4.512427   -0.000048    0.006204    0.000364
O     0.416113   -3.598428    2.585971    0.000440   -0.003032    0.002070
C    -0.793785    0.261373    3.298276    0.000986    0.002400    0.000040
H    -1.475674   -0.506833    3.660101    0.007088   -0.000430    0.002768
H    -0.489576    0.938406    4.100498    0.000480    0.007520   -0.001736
O    -0.671374    2.986033    2.944550    0.000848    0.001626    0.000562
C     0.462505   -0.409457    2.722385   -0.001658   -0.001524   -0.001200
O     0.180238   -1.426524    1.812410    0.015220   -0.006888    0.006046
H    -1.100284   -0.897333    0.590856   -0.070694    0.036248   -0.079740
O    -1.543080   -0.360178   -0.085015   -0.036936   -0.012528   -0.006250
H    -0.449811    0.403123   -0.571383    1.554016    1.120070   -0.498208
O     0.402737    0.999375   -0.602574   -0.049498   -0.029818    0.035452
H     0.820423    0.843650    0.279201    0.092510   -0.010662    0.068608
O     1.225037    0.587068    2.065216   -0.004646   -0.003262   -0.018226
H     2.150345    0.295233    2.053817    0.009236    0.011646    0.027150
H     0.100727    1.937580   -0.604641   -0.066836    0.037834   -0.029384
H    -2.032737   -0.952698   -0.664095   -0.038548   -0.031086    0.168036
139
* Frequency(6) -890.7100
C     0.681353    4.795197   -0.300918    0.001730    0.001642    0.000944
C    -4.312022    3.219845    0.366686    0.000548   -0.000498    0.002340
C    -5.086027   -1.846275   -0.498412   -0.001902   -0.001542    0.000308
C    -0.780821   -4.866303   -0.648073    0.001164    0.003574   -0.000574
C     4.141517   -3.178132    0.091813    0.000376    0.000572   -0.001868
C     5.099086    1.900817   -0.500017   -0.000900    0.000262   -0.000126
O    -0.217257    3.709351   -0.168962   -0.000784   -0.010730   -0.003698
O    -4.273419    2.159729   -0.536266   -0.003132   -0.000806   -0.002182
O    -3.710783   -2.025289   -0.754339   -0.012282   -0.009214   -0.004658
O     0.085482   -3.772542   -0.471306   -0.000558   -0.002246   -0.002324
O     4.085901   -2.049259   -0.728422   -0.001464   -0.000780    0.001120
O     3.729553    2.105089   -0.699136   -0.000536   -0.001870   -0.000122
C     1.334913    4.764120   -1.696750    0.000276    0.002100   -0.000304
C    -3.909045    4.496281   -0.400660    0.000890   -0.000334    0.000254
C    -5.706886   -1.061287   -1.667283   -0.000490    0.001252    0.000534
C    -1.471801   -4.719936   -2.016553    0.000800    0.002170   -0.000170
C     3.778376   -4.396160   -0.775236    0.000808   -0.000358   -0.000094
C     5.661360    1.159714   -1.725242    0.000142    0.000760   -0.000186
O     0.383299    4.683824   -2.722906   -0.001130   -0.002510    0.000500
O    -4.752721    4.743337   -1.489595    0.000332   -0.000136   -0.000122
O    -5.573997   -1.728039   -2.892633    0.000142    0.000380    0.000628
O    -0.573353   -4.700022   -3.093812   -0.000648   -0.000230    0.000738
O     4.623350   -4.527560   -1.884198   -0.000038   -0.000090    0.000120
O     5.526283    1.902051   -2.904662   -0.000194   -0.000134   -0.000178
C     2.259650    3.547988   -1.823020    0.002238    0.001740   -0.002666
C    -2.445191    4.390905   -0.870815    0.000294    0.000060   -0.000336
C    -5.062544    0.330418   -1.719276   -0.000182   -0.000756    0.001366
C    -2.236395   -3.392076   -1.994899   -0.000464    0.001144    0.001264
C     2.315245   -4.273972   -1.218632    0.000190   -0.000266   -0.000090
C     4.940993   -0.193355   -1.837069    0.000048   -0.000264   -0.000520
O     3.075472    3.627253   -2.969974    0.000998   -0.000426   -0.000942
O    -2.020949    5.607837   -1.448181    0.000196   -0.000360   -0.000082
O    -5.688345    1.150600   -2.675516    0.000970   -0.000812    0.000976
O    -2.998791   -3.184142   -3.157469   -0.000254   -0.001828    0.000590
O     1.910246   -5.427771   -1.926741   -0.000386   -0.000150   -0.000122
O     5.497452   -0.989048   -2.853238    0.000224   -0.000450   -0.000736
C     3.198157    3.420680   -0.617075    0.000262    0.000170    0.000134
C    -1.520955    4.027392    0.304259    0.001008   -0.003210   -0.001734
C    -5.147786    1.049077   -0.365094    0.001564    0.000314   -0.000364
C    -3.190450   -3.344772   -0.796055   -0.000620   -0.000792    0.000510
C     1.392048   -4.058416   -0.009345    0.001432   -0.000288    0.001342
C     5.015999   -0.988603   -0.525094    0.001028    0.000478    0.000282
C     2.478615    3.631766    0.728121   -0.000574    0.000024    0.001002
C    -2.100173    2.778183    0.977210    0.001240   -0.005438   -0.002122
C    -4.742070    0.135150    0.811623    0.002866    0.000650   -0.000816
C    -2.479033   -3.723888    0.518703   -0.000920   -0.000916   -0.001300
C     1.913536   -2.871572    0.802264    0.000658   -0.001574    0.001902
C     4.660691   -0.109332    0.690054    0.000818    0.000374    0.000330
O     1.648949    4.790472    0.705938   -0.002238    0.000162    0.000416
O    -3.419078    3.026083    1.446507   -0.000260    0.001376    0.000580
O    -5.304039   -1.179267    0.705403   -0.002960    0.000928    0.000042
O    -1.753617   -4.940902    0.357568   -0.001852    0.000988    0.000602
O     3.257726   -3.091397    1.187098   -0.000460    0.000294    0.000836
O     5.331071    1.148258    0.660889   -0.000570    0.000214    0.000752
C     3.492469    3.843315    1.862330    0.000390   -0.000120    0.000892
C    -1.306495    2.295682    2.192531   -0.003756   -0.000676    0.005224
C    -5.264304    0.651628    2.164499    0.001134   -0.000218   -0.001390
C    -3.484377   -3.950314    1.654031    0.000380   -0.000510   -0.001842
C     1.091962   -2.645261    2.124830   -0.005328    0.005798   -0.002168
C     5.063400   -0.738700    2.034494   -0.000484    0.000148    0.000158
O     4.330477    4.946330    1.629233    0.000928    0.000870   -0.000158
O    -1.465890    0.983881    2.281950   -0.000726    0.001110    0.005522
O    -6.642274    0.926049    2.139320    0.001574   -0.000696   -0.000258
O    -4.406085   -4.967202    1.354586    0.000780    0.000556    0.000676
O     2.033728   -2.024030    3.033659    0.000248    0.000520    0.001294
O     6.396688   -1.179239    2.036341    0.000674   -0.000392    0.000092
H     0.145635    5.742460   -0.175445   -0.000918   -0.001784   -0.002102
H    -5.303856    3.338017    0.819981   -0.000752   -0.001676    0.000926
H    -5.586914   -2.815937   -0.385516   -0.004352   -0.002494    0.003422
H    -0.234568   -5.815213   -0.591735   -0.000698    0.001440    0.004590
H     5.137404   -3.302694    0.536649   -0.000862   -0.000914    0.000374
H     5.631674    2.847070   -0.344276    0.001350   -0.001686   -0.000276
H     1.941377    5.678701   -1.794596   -0.001922    0.002456    0.001550
H    -4.008296    5.352572    0.275412   -0.003940   -0.001322    0.001462
H    -6.782543   -0.955312   -1.488920   -0.001126   -0.000958    0.000596
H    -2.177360   -5.556795   -2.134257   -0.003302    0.004948    0.001832
H     3.897173   -5.302247   -0.171630   -0.001724   -0.000054    0.000592
H     6.733545    0.987380   -1.582978   -0.000350   -0.000668    0.001374
H    -0.393091    5.225839   -2.493359    0.005266    0.007498   -0.008502
H    -4.905641    3.910916   -1.967011   -0.002560    0.000054    0.002118
H    -4.676568   -2.103298   -2.979146    0.000312    0.002146    0.003390
H     0.289919   -5.057376   -2.812917    0.002430    0.001032    0.002168
H     4.756527   -3.651953   -2.286885   -0.001216    0.000690   -0.000884
H     4.657010    2.349637   -2.926350   -0.000690    0.002540    0.000288
H     1.647206    2.641645   -1.883728    0.007460    0.004366   -0.024122
H    -2.380858    3.588825   -1.620721   -0.015858    0.000696   -0.002522
H    -3.998353    0.210012   -1.967356    0.001942   -0.013454    0.018598
H    -1.482860   -2.599316   -1.892469   -0.026300    0.020956    0.022134
H     2.218961   -3.393296   -1.871551   -0.004066   -0.002362   -0.000978
H     3.877195   -0.005821   -2.047717    0.001090   -0.005612   -0.006010
H     2.505798    3.792104   -3.736867    0.003130    0.003562   -0.001066
H    -2.770944    5.976799   -1.942865    0.003152    0.004300    0.001532
H    -5.813812    0.630700   -3.484988    0.001576   -0.000214   -0.000418
H    -2.445308   -3.398893   -3.924830    0.008718    0.003572    0.002408
H     2.662658   -5.715944   -2.472647    0.001266    0.002224   -0.000952
H     5.632683   -0.427033   -3.633407   -0.000322    0.000816    0.000352
H     3.997692    4.165774   -0.713610   -0.002748    0.002120    0.002600
H    -1.475074    4.849182    1.026879   -0.001342   -0.007382    0.000980
H    -6.175177    1.406133   -0.209787    0.000690    0.000584    0.002062
H    -4.000954   -4.064569   -0.969247   -0.003944   -0.000924    0.000846
H     1.383462   -4.938916    0.644906   -0.001688   -0.000590    0.001388
H     6.026336   -1.399787   -0.399597    0.000514    0.000480    0.000334
H     1.874228    2.750868    0.971839    0.000510    0.005356    0.027404
H    -2.145808    1.949994    0.257307   -0.010822   -0.044492    0.031990
H    -3.648473    0.061867    0.848594    0.010398   -0.009296   -0.029060
H    -1.774982   -2.941035    0.822889   -0.012534    0.018034   -0.021156
H     1.849873   -1.966884    0.185374   -0.002184   -0.008064   -0.002326
H     3.576847    0.060023    0.667507    0.001682   -0.004744    0.007578
H     4.143766    2.969388    1.930683    0.003338    0.001670    0.002400
H     2.940381    3.959712    2.801828    0.001822    0.000124    0.002382
H    -5.032722   -0.108287    2.919438    0.003740   -0.000262   -0.001858
H    -4.763103    1.580699    2.433206    0.000728   -0.000332   -0.001436
H    -4.066921   -3.039660    1.807982    0.006660    0.003350   -0.002634
H    -2.916586   -4.180288    2.562598    0.001680    0.001206   -0.002182
H     4.907575    0.016387    2.814760    0.001728   -0.001096    0.001788
H     4.436635   -1.605033    2.253093   -0.000272    0.000072    0.001434
H     3.785669    5.746674    1.629837    0.000216   -0.000176    0.002220
H    -7.117902    0.092566    2.014953   -0.000902    0.001164   -0.003236
H    -3.921710   -5.801764    1.279610    0.001722   -0.000122   -0.001984
H     6.976090   -0.404368    1.981320   -0.001198    0.001186    0.000392
C     1.297588   -1.112311    3.807240    0.002264    0.002824    0.000272
H     1.993190   -0.454886    4.324197    0.004962    0.001024   -0.000858
H     0.643272   -1.637636    4.512464   -0.000048    0.006204    0.000364
O     0.416158   -3.598735    2.586181    0.000440   -0.003032    0.002070
C    -0.793685    0.261616    3.298280    0.000986    0.002400    0.000040
H    -1.474956   -0.506876    3.660381    0.007088   -0.000430    0.002768
H    -0.489528    0.939168    4.100322    0.000480    0.007520   -0.001736
O    -0.671288    2.986198    2.944607    0.000848    0.001626    0.000562
C     0.462337   -0.409612    2.722263   -0.001658   -0.001524   -0.001200
O     0.181780   -1.427222    1.813023    0.015220   -0.006888    0.006046
H    -1.107447   -0.893660    0.582776   -0.070694    0.036248   -0.079740
O    -1.546822   -0.361447   -0.085649   -0.036936   -0.012528   -0.006250
H    -0.292343    0.516619   -0.621866    1.554016    1.120070   -0.498208
O     0.397721    0.996354   -0.598982   -0.049498   -0.029818    0.035452
H     0.829797    0.842570    0.286153    0.092510   -0.010662    0.068608
O     1.224566    0.586738    2.063369   -0.004646   -0.003262   -0.018226
H     2.151281    0.296413    2.056569    0.009236    0.011646    0.027150
H     0.093955    1.941413   -0.607619   -0.066836    0.037834   -0.029384
H    -2.036643   -0.955848   -0.647068   -0.038548   -0.031086    0.168036
139
* Frequency(6) -890.7100
C     0.681488    4.795325   -0.300844    0.001730    0.001642    0.000944
C    -4.311979    3.219806    0.366869    0.000548   -0.000498    0.002340
C    -5.086175   -1.846396   -0.498388   -0.001902   -0.001542    0.000308
C    -0.780730   -4.866024   -0.648118    0.001164    0.003574   -0.000574
C     4.141546   -3.178087    0.091668    0.000376    0.000572   -0.001868
C     5.099015    1.900838   -0.500027   -0.000900    0.000262   -0.000126
O    -0.217318    3.708514   -0.169251   -0.000784   -0.010730   -0.003698
O    -4.273664    2.159666   -0.536436   -0.003132   -0.000806   -0.002182
O    -3.711742   -2.026008   -0.754703   -0.012282   -0.009214   -0.004658
O     0.085439   -3.772717   -0.471487   -0.000558   -0.002246   -0.002324
O     4.085787   -2.049320   -0.728335   -0.001464   -0.000780    0.001120
O     3.729511    2.104943   -0.699146   -0.000536   -0.001870   -0.000122
C     1.334935    4.764284   -1.696774    0.000276    0.002100   -0.000304
C    -3.908975    4.496255   -0.400641    0.000890   -0.000334    0.000254
C    -5.706925   -1.061189   -1.667242   -0.000490    0.001252    0.000534
C    -1.471739   -4.719766   -2.016566    0.000800    0.002170   -0.000170
C     3.778439   -4.396188   -0.775244    0.000808   -0.000358   -0.000094
C     5.661371    1.159774   -1.725256    0.000142    0.000760   -0.000186
O     0.383211    4.683629   -2.722866   -0.001130   -0.002510    0.000500
O    -4.752695    4.743326   -1.489605    0.000332   -0.000136   -0.000122
O    -5.573986   -1.728010   -2.892584    0.000142    0.000380    0.000628
O    -0.573404   -4.700040   -3.093755   -0.000648   -0.000230    0.000738
O     4.623347   -4.527567   -1.884189   -0.000038   -0.000090    0.000120
O     5.526268    1.902041   -2.904676   -0.000194   -0.000134   -0.000178
C     2.259825    3.548124   -1.823228    0.002238    0.001740   -0.002666
C    -2.445168    4.390910   -0.870841    0.000294    0.000060   -0.000336
C    -5.062558    0.330359   -1.719170   -0.000182   -0.000756    0.001366
C    -2.236431   -3.391987   -1.994801   -0.000464    0.001144    0.001264
C     2.315260   -4.273993   -1.218639    0.000190   -0.000266   -0.000090
C     4.940997   -0.193375   -1.837109    0.000048   -0.000264   -0.000520
O     3.075549    3.627220   -2.970047    0.000998   -0.000426   -0.000942
O    -2.020934    5.607809   -1.448187    0.000196   -0.000360   -0.000082
O    -5.688270    1.150537   -2.675440    0.000970   -0.000812    0.000976
O    -2.998810   -3.184285   -3.157423   -0.000254   -0.001828    0.000590
O     1.910216   -5.427783   -1.926751   -0.000386   -0.000150   -0.000122
O     5.497470   -0.989083   -2.853296    0.000224   -0.000450   -0.000736
C     3.198178    3.420693   -0.617065    0.000262    0.000170    0.000134
C    -1.520877    4.027141    0.304124    0.001008   -0.003210   -0.001734
C    -5.147664    1.049101   -0.365123    0.001564    0.000314   -0.000364
C    -3.190499   -3.344834   -0.796016   -0.000620   -0.000792    0.000510
C     1.392160   -4.058438   -0.009240    0.001432   -0.000288    0.001342
C     5.016079   -0.988566   -0.525072    0.001028    0.000478    0.000282
C     2.478570    3.631768    0.728200   -0.000574    0.000024    0.001002
C    -2.100077    2.777759    0.977044    0.001240   -0.005438   -0.002122
C    -4.741846    0.135200    0.811559    0.002866    0.000650   -0.000816
C    -2.479105   -3.723959    0.518601   -0.000920   -0.000916   -0.001300
C     1.913588   -2.871695    0.802412    0.000658   -0.001574    0.001902
C     4.660755   -0.109302    0.690080    0.000818    0.000374    0.000330
O     1.648774    4.790484    0.705971   -0.002238    0.000162    0.000416
O    -3.419098    3.026190    1.446552   -0.000260    0.001376    0.000580
O    -5.304270   -1.179194    0.705406   -0.002960    0.000928    0.000042
O    -1.753762   -4.940825    0.357615   -0.001852    0.000988    0.000602
O     3.257690   -3.091374    1.187163   -0.000460    0.000294    0.000836
O     5.331027    1.148275    0.660947   -0.000570    0.000214    0.000752
C     3.492499    3.843306    1.862399    0.000390   -0.000120    0.000892
C    -1.306789    2.295629    2.192939   -0.003756   -0.000676    0.005224
C    -5.264216    0.651611    2.164391    0.001134   -0.000218   -0.001390
C    -3.484348   -3.950353    1.653887    0.000380   -0.000510   -0.001842
C     1.091546   -2.644808    2.124661   -0.005328    0.005798   -0.002168
C     5.063362   -0.738689    2.034506   -0.000484    0.000148    0.000158
O     4.330550    4.946398    1.629221    0.000928    0.000870   -0.000158
O    -1.465947    0.983967    2.282381   -0.000726    0.001110    0.005522
O    -6.642151    0.925995    2.139299    0.001574   -0.000696   -0.000258
O    -4.406024   -4.967159    1.354639    0.000780    0.000556    0.000676
O     2.033748   -2.023990    3.033760    0.000248    0.000520    0.001294
O     6.396740   -1.179270    2.036348    0.000674   -0.000392    0.000092
H     0.145563    5.742321   -0.175609   -0.000918   -0.001784   -0.002102
H    -5.303914    3.337886    0.820053   -0.000752   -0.001676    0.000926
H    -5.587253   -2.816132   -0.385249   -0.004352   -0.002494    0.003422
H    -0.234623   -5.815101   -0.591377   -0.000698    0.001440    0.004590
H     5.137336   -3.302766    0.536679   -0.000862   -0.000914    0.000374
H     5.631780    2.846938   -0.344298    0.001350   -0.001686   -0.000276
H     1.941227    5.678893   -1.794475   -0.001922    0.002456    0.001550
H    -4.008603    5.352469    0.275526   -0.003940   -0.001322    0.001462
H    -6.782631   -0.955387   -1.488873   -0.001126   -0.000958    0.000596
H    -2.177618   -5.556409   -2.134114   -0.003302    0.004948    0.001832
H     3.897039   -5.302251   -0.171584   -0.001724   -0.000054    0.000592
H     6.733517    0.987328   -1.582870   -0.000350   -0.000668    0.001374
H    -0.392680    5.226424   -2.494022    0.005266    0.007498   -0.008502
H    -4.905841    3.910920   -1.966845   -0.002560    0.000054    0.002118
H    -4.676544   -2.103130   -2.978882    0.000312    0.002146    0.003390
H     0.290109   -5.057296   -2.812748    0.002430    0.001032    0.002168
H     4.756432   -3.651899   -2.286954   -0.001216    0.000690   -0.000884
H     4.656956    2.349835   -2.926328   -0.000690    0.002540    0.000288
H     1.647788    2.641985   -1.885610    0.007460    0.004366   -0.024122
H    -2.382096    3.588879   -1.620918   -0.015858    0.000696   -0.002522
H    -3.998201    0.208962   -1.965905    0.001942   -0.013454    0.018598
H    -1.484912   -2.597681   -1.890742   -0.026300    0.020956    0.022134
H     2.218644   -3.393480   -1.871628   -0.004066   -0.002362   -0.000978
H     3.877280   -0.006259   -2.048186    0.001090   -0.005612   -0.006010
H     2.506042    3.792382   -3.736950    0.003130    0.003562   -0.001066
H    -2.770698    5.977135   -1.942745    0.003152    0.004300    0.001532
H    -5.813689    0.630683   -3.485020    0.001576   -0.000214   -0.000418
H    -2.444628   -3.398614   -3.924642    0.008718    0.003572    0.002408
H     2.662757   -5.715770   -2.472721    0.001266    0.002224   -0.000952
H     5.632658   -0.426969   -3.633380   -0.000322    0.000816    0.000352
H     3.997478    4.165939   -0.713407   -0.002748    0.002120    0.002600
H    -1.475179    4.848606    1.026955   -0.001342   -0.007382    0.000980
H    -6.175123    1.406178   -0.209626    0.000690    0.000584    0.002062
H    -4.001262   -4.064641   -0.969181   -0.003944   -0.000924    0.000846
H     1.383330   -4.938962    0.645015   -0.001688   -0.000590    0.001388
H     6.026377   -1.399749   -0.399571    0.000514    0.000480    0.000334
H     1.874267    2.751286    0.973978    0.000510    0.005356    0.027404
H    -2.146653    1.946522    0.259803   -0.010822   -0.044492    0.031990
H    -3.647661    0.061141    0.846326    0.010398   -0.009296   -0.029060
H    -1.775961   -2.939628    0.821238   -0.012534    0.018034   -0.021156
H     1.849703   -1.967513    0.185192   -0.002184   -0.008064   -0.002326
H     3.576978    0.059653    0.668098    0.001682   -0.004744    0.007578
H     4.144026    2.969518    1.930870    0.003338    0.001670    0.002400
H     2.940523    3.959721    2.802014    0.001822    0.000124    0.002382
H    -5.032430   -0.108308    2.919293    0.003740   -0.000262   -0.001858
H    -4.763047    1.580673    2.433094    0.000728   -0.000332   -0.001436
H    -4.066402   -3.039398    1.807776    0.006660    0.003350   -0.002634
H    -2.916455   -4.180194    2.562428    0.001680    0.001206   -0.002182
H     4.907710    0.016302    2.814900    0.001728   -0.001096    0.001788
H     4.436613   -1.605027    2.253205   -0.000272    0.000072    0.001434
H     3.785686    5.746660    1.630010    0.000216   -0.000176    0.002220
H    -7.117972    0.092657    2.014701   -0.000902    0.001164   -0.003236
H    -3.921575   -5.801774    1.279456    0.001722   -0.000122   -0.001984
H     6.975997   -0.404275    1.981351   -0.001198    0.001186    0.000392
C     1.297764   -1.112091    3.807262    0.002264    0.002824    0.000272
H     1.993577   -0.454806    4.324130    0.004962    0.001024   -0.000858
H     0.643268   -1.637152    4.512493   -0.000048    0.006204    0.000364
O     0.416192   -3.598971    2.586343    0.000440   -0.003032    0.002070
C    -0.793608    0.261803    3.298283    0.000986    0.002400    0.000040
H    -1.474403   -0.506910    3.660597    0.007088   -0.000430    0.002768
H    -0.489490    0.939754    4.100186    0.000480    0.007520   -0.001736
O    -0.671222    2.986324    2.944651    0.000848    0.001626    0.000562
C     0.462207   -0.409731    2.722169   -0.001658   -0.001524   -0.001200
O     0.182968   -1.427759    1.813495    0.015220   -0.006888    0.006046
H    -1.112964   -0.890831    0.576554   -0.070694    0.036248   -0.079740
O    -1.549705   -0.362425   -0.086136   -0.036936   -0.012528   -0.006250
H    -0.171077    0.604023   -0.660743    1.554016    1.120070   -0.498208
O     0.393859    0.994027   -0.596215   -0.049498   -0.029818    0.035452
H     0.837016    0.841738    0.291507    0.092510   -0.010662    0.068608
O     1.224204    0.586483    2.061947   -0.004646   -0.003262   -0.018226
H     2.152001    0.297321    2.058687    0.009236    0.011646    0.027150
H     0.088739    1.944366   -0.609912   -0.066836    0.037834   -0.029384
H    -2.039651   -0.958273   -0.633955   -0.038548   -0.031086    0.168036
139
* Frequency(6) -890.7100
C     0.681568    4.795401   -0.300801    0.001730    0.001642    0.000944
C    -4.311954    3.219783    0.366977    0.000548   -0.000498    0.002340
C    -5.086263   -1.846467   -0.498373   -0.001902   -0.001542    0.000308
C    -0.780676   -4.865858   -0.648145    0.001164    0.003574   -0.000574
C     4.141564   -3.178061    0.091581    0.000376    0.000572   -0.001868
C     5.098974    1.900850   -0.500033   -0.000900    0.000262   -0.000126
O    -0.217354    3.708017   -0.169422   -0.000784   -0.010730   -0.003698
O    -4.273809    2.159629   -0.536537   -0.003132   -0.000806   -0.002182
O    -3.712310   -2.026434   -0.754918   -0.012282   -0.009214   -0.004658
O     0.085413   -3.772821   -0.471595   -0.000558   -0.002246   -0.002324
O     4.085719   -2.049356   -0.728283   -0.001464   -0.000780    0.001120
O     3.729486    2.104857   -0.699151   -0.000536   -0.001870   -0.000122
C     1.334948    4.764382   -1.696788    0.000276    0.002100   -0.000304
C    -3.908934    4.496240   -0.400629    0.000890   -0.000334    0.000254
C    -5.706947   -1.061131   -1.667217   -0.000490    0.001252    0.000534
C    -1.471702   -4.719666   -2.016574    0.000800    0.002170   -0.000170
C     3.778476   -4.396204   -0.775248    0.000808   -0.000358   -0.000094
C     5.661377    1.159809   -1.725265    0.000142    0.000760   -0.000186
O     0.383159    4.683512   -2.722843   -0.001130   -0.002510    0.000500
O    -4.752679    4.743320   -1.489610    0.000332   -0.000136   -0.000122
O    -5.573980   -1.727992   -2.892555    0.000142    0.000380    0.000628
O    -0.573434   -4.700051   -3.093721   -0.000648   -0.000230    0.000738
O     4.623345   -4.527572   -1.884183   -0.000038   -0.000090    0.000120
O     5.526259    1.902035   -2.904684   -0.000194   -0.000134   -0.000178
C     2.259928    3.548204   -1.823352    0.002238    0.001740   -0.002666
C    -2.445154    4.390912   -0.870857    0.000294    0.000060   -0.000336
C    -5.062567    0.330324   -1.719107   -0.000182   -0.000756    0.001366
C    -2.236452   -3.391934   -1.994742   -0.000464    0.001144    0.001264
C     2.315268   -4.274005   -1.218644    0.000190   -0.000266   -0.000090
C     4.940999   -0.193388   -1.837133    0.000048   -0.000264   -0.000520
O     3.075596    3.627200   -2.970091    0.000998   -0.000426   -0.000942
O    -2.020924    5.607792   -1.448191    0.000196   -0.000360   -0.000082
O    -5.688225    1.150499   -2.675395    0.000970   -0.000812    0.000976
O    -2.998822   -3.184369   -3.157396   -0.000254   -0.001828    0.000590
O     1.910198   -5.427790   -1.926756   -0.000386   -0.000150   -0.000122
O     5.497480   -0.989104   -2.853330    0.000224   -0.000450   -0.000736
C     3.198190    3.420701   -0.617059    0.000262    0.000170    0.000134
C    -1.520830    4.026993    0.304044    0.001008   -0.003210   -0.001734
C    -5.147591    1.049116   -0.365140    0.001564    0.000314   -0.000364
C    -3.190527   -3.344871   -0.795992   -0.000620   -0.000792    0.000510
C     1.392226   -4.058452   -0.009178    0.001432   -0.000288    0.001342
C     5.016127   -0.988544   -0.525059    0.001028    0.000478    0.000282
C     2.478543    3.631769    0.728246   -0.000574    0.000024    0.001002
C    -2.100019    2.777507    0.976946    0.001240   -0.005438   -0.002122
C    -4.741714    0.135231    0.811521    0.002866    0.000650   -0.000816
C    -2.479147   -3.724002    0.518541   -0.000920   -0.000916   -0.001300
C     1.913618   -2.871768    0.802500    0.000658   -0.001574    0.001902
C     4.660793   -0.109285    0.690095    0.000818    0.000374    0.000330
O     1.648671    4.790492    0.705990   -0.002238    0.000162    0.000416
O    -3.419110    3.026254    1.446579   -0.000260    0.001376    0.000580
O    -5.304407   -1.179151    0.705408   -0.002960    0.000928    0.000042
O    -1.753847   -4.940779    0.357643   -0.001852    0.000988    0.000602
O     3.257669   -3.091360    1.187202   -0.000460    0.000294    0.000836
O     5.331001    1.148285    0.660982   -0.000570    0.000214    0.000752
C     3.492517    3.843300    1.862441    0.000390   -0.000120    0.000892
C    -1.306962    2.295598    2.193180   -0.003756   -0.000676    0.005224
C    -5.264163    0.651601    2.164326    0.001134   -0.000218   -0.001390
C    -3.484330   -3.950377    1.653802    0.000380   -0.000510   -0.001842
C     1.091299   -2.644540    2.124560   -0.005328    0.005798   -0.002168
C     5.063340   -0.738682    2.034514   -0.000484    0.000148    0.000158
O     4.330593    4.946438    1.629213    0.000928    0.000870   -0.000158
O    -1.465980    0.984019    2.282637   -0.000726    0.001110    0.005522
O    -6.642078    0.925963    2.139287    0.001574   -0.000696   -0.000258
O    -4.405988   -4.967133    1.354670    0.000780    0.000556    0.000676
O     2.033759   -2.023966    3.033820    0.000248    0.000520    0.001294
O     6.396772   -1.179288    2.036352    0.000674   -0.000392    0.000092
H     0.145521    5.742239   -0.175706   -0.000918   -0.001784   -0.002102
H    -5.303949    3.337808    0.820096   -0.000752   -0.001676    0.000926
H    -5.587455   -2.816247   -0.385091   -0.004352   -0.002494    0.003422
H    -0.234655   -5.815034   -0.591165   -0.000698    0.001440    0.004590
H     5.137297   -3.302808    0.536696   -0.000862   -0.000914    0.000374
H     5.631842    2.846860   -0.344311    0.001350   -0.001686   -0.000276
H     1.941138    5.679006   -1.794403   -0.001922    0.002456    0.001550
H    -4.008786    5.352407    0.275594   -0.003940   -0.001322    0.001462
H    -6.782683   -0.955431   -1.488846   -0.001126   -0.000958    0.000596
H    -2.177770   -5.556180   -2.134029   -0.003302    0.004948    0.001832
H     3.896959   -5.302253   -0.171556   -0.001724   -0.000054    0.000592
H     6.733501    0.987297   -1.582807   -0.000350   -0.000668    0.001374
H    -0.392436    5.226771   -2.494416    0.005266    0.007498   -0.008502
H    -4.905960    3.910922   -1.966747   -0.002560    0.000054    0.002118
H    -4.676529   -2.103031   -2.978725    0.000312    0.002146    0.003390
H     0.290221   -5.057248   -2.812647    0.002430    0.001032    0.002168
H     4.756375   -3.651867   -2.286995   -0.001216    0.000690   -0.000884
H     4.656924    2.349953   -2.926314   -0.000690    0.002540    0.000288
H     1.648133    2.642187   -1.886726    0.007460    0.004366   -0.024122
H    -2.382829    3.588911   -1.621035   -0.015858    0.000696   -0.002522
H    -3.998111    0.208339   -1.965044    0.001942   -0.013454    0.018598
H    -1.486129   -2.596711   -1.889717   -0.026300    0.020956    0.022134
H     2.218455   -3.393589   -1.871673   -0.004066   -0.002362   -0.000978
H     3.877331   -0.006519   -2.048464    0.001090   -0.005612   -0.006010
H     2.506187    3.792547   -3.737000    0.003130    0.003562   -0.001066
H    -2.770553    5.977334   -1.942674    0.003152    0.004300    0.001532
H    -5.813616    0.630673   -3.485040    0.001576   -0.000214   -0.000418
H    -2.444224   -3.398449   -3.924531    0.008718    0.003572    0.002408
H     2.662816   -5.715667   -2.472765    0.001266    0.002224   -0.000952
H     5.632643   -0.426931   -3.633364   -0.000322    0.000816    0.000352
H     3.997351    4.166037   -0.713287   -0.002748    0.002120    0.002600
H    -1.475241    4.848264    1.027001   -0.001342   -0.007382    0.000980
H    -6.175091    1.406205   -0.209530    0.000690    0.000584    0.002062
H    -4.001444   -4.064684   -0.969142   -0.003944   -0.000924    0.000846
H     1.383252   -4.938989    0.645079   -0.001688   -0.000590    0.001388
H     6.026400   -1.399727   -0.399556    0.000514    0.000480    0.000334
H     1.874291    2.751534    0.975246    0.000510    0.005356    0.027404
H    -2.147154    1.944463    0.261284   -0.010822   -0.044492    0.031990
H    -3.647180    0.060711    0.844981    0.010398   -0.009296   -0.029060
H    -1.776541   -2.938793    0.820259   -0.012534    0.018034   -0.021156
H     1.849602   -1.967886    0.185085   -0.002184   -0.008064   -0.002326
H     3.577056    0.059433    0.668449    0.001682   -0.004744    0.007578
H     4.144181    2.969596    1.930981    0.003338    0.001670    0.002400
H     2.940607    3.959727    2.802124    0.001822    0.000124    0.002382
H    -5.032257   -0.108320    2.919207    0.003740   -0.000262   -0.001858
H    -4.763013    1.580657    2.433028    0.000728   -0.000332   -0.001436
H    -4.066093   -3.039243    1.807654    0.006660    0.003350   -0.002634
H    -2.916377   -4.180138    2.562327    0.001680    0.001206   -0.002182
H     4.907790    0.016251    2.814983    0.001728   -0.001096    0.001788
H     4.436601   -1.605024    2.253272   -0.000272    0.000072    0.001434
H     3.785696    5.746652    1.630113    0.000216   -0.000176    0.002220
H    -7.118014    0.092711    2.014551   -0.000902    0.001164   -0.003236
H    -3.921496   -5.801779    1.279364    0.001722   -0.000122   -0.001984
H     6.975942   -0.404221    1.981369   -0.001198    0.001186    0.000392
C     1.297869   -1.111960    3.807274    0.002264    0.002824    0.000272
H     1.993807   -0.454759    4.324090    0.004962    0.001024   -0.000858
H     0.643266   -1.636865    4.512510   -0.000048    0.006204    0.000364
O     0.416212   -3.599112    2.586438    0.000440   -0.003032    0.002070
C    -0.793562    0.261914    3.298285    0.000986    0.002400    0.000040
H    -1.474075   -0.506930    3.660725    0.007088   -0.000430    0.002768
H    -0.489468    0.940102    4.100106    0.000480    0.007520   -0.001736
O    -0.671182    2.986400    2.944677    0.000848    0.001626    0.000562
C     0.462130   -0.409801    2.722114   -0.001658   -0.001524   -0.001200
O     0.183672   -1.428078    1.813774    0.015220   -0.006888    0.006046
H    -1.116236   -0.889153    0.572863   -0.070694    0.036248   -0.079740
O    -1.551414   -0.363005   -0.086426   -0.036936   -0.012528   -0.006250
H    -0.099155    0.655862   -0.683801    1.554016    1.120070   -0.498208
O     0.391568    0.992647   -0.594574   -0.049498   -0.029818    0.035452
H     0.841298    0.841244    0.294682    0.092510   -0.010662    0.068608
O     1.223989    0.586332    2.061103   -0.004646   -0.003262   -0.018226
H     2.152429    0.297860    2.059944    0.009236    0.011646    0.027150
H     0.085646    1.946117   -0.611272   -0.066836    0.037834   -0.029384
H    -2.041435   -0.959712   -0.626178   -0.038548   -0.031086    0.168036
139
* Frequency(6) -890.7100
C     0.681584    4.795417   -0.300792    0.001730    0.001642    0.000944
C    -4.311949    3.219778    0.366999    0.000548   -0.000498    0.002340
C    -5.086281   -1.846482   -0.498371   -0.001902   -0.001542    0.000308
C    -0.780665   -4.865824   -0.648150    0.001164    0.003574   -0.000574
C     4.141567   -3.178055    0.091563    0.000376    0.000572   -0.001868
C     5.098965    1.900852   -0.500034   -0.000900    0.000262   -0.000126
O    -0.217361    3.707915   -0.169457   -0.000784   -0.010730   -0.003698
O    -4.273838    2.159621   -0.536558   -0.003132   -0.000806   -0.002182
O    -3.712427   -2.026522   -0.754963   -0.012282   -0.009214   -0.004658
O     0.085407   -3.772842   -0.471617   -0.000558   -0.002246   -0.002324
O     4.085705   -2.049363   -0.728272   -0.001464   -0.000780    0.001120
O     3.729481    2.104839   -0.699153   -0.000536   -0.001870   -0.000122
C     1.334950    4.764401   -1.696791    0.000276    0.002100   -0.000304
C    -3.908926    4.496236   -0.400626    0.000890   -0.000334    0.000254
C    -5.706952   -1.061119   -1.667212   -0.000490    0.001252    0.000534
C    -1.471694   -4.719645   -2.016575    0.000800    0.002170   -0.000170
C     3.778484   -4.396208   -0.775249    0.000808   -0.000358   -0.000094
C     5.661379    1.159816   -1.725267    0.000142    0.000760   -0.000186
O     0.383148    4.683489   -2.722839   -0.001130   -0.002510    0.000500
O    -4.752676    4.743319   -1.489612    0.000332   -0.000136   -0.000122
O    -5.573978   -1.727988   -2.892549    0.000142    0.000380    0.000628
O    -0.573440   -4.700053   -3.093714   -0.000648   -0.000230    0.000738
O     4.623345   -4.527572   -1.884182   -0.000038   -0.000090    0.000120
O     5.526257    1.902033   -2.904686   -0.000194   -0.000134   -0.000178
C     2.259950    3.548221   -1.823377    0.002238    0.001740   -0.002666
C    -2.445151    4.390913   -0.870860    0.000294    0.000060   -0.000336
C    -5.062568    0.330317   -1.719094   -0.000182   -0.000756    0.001366
C    -2.236457   -3.391923   -1.994730   -0.000464    0.001144    0.001264
C     2.315270   -4.274008   -1.218644    0.000190   -0.000266   -0.000090
C     4.941000   -0.193390   -1.837138    0.000048   -0.000264   -0.000520
O     3.075605    3.627196   -2.970100    0.000998   -0.000426   -0.000942
O    -2.020923    5.607788   -1.448192    0.000196   -0.000360   -0.000082
O    -5.688216    1.150492   -2.675386    0.000970   -0.000812    0.000976
O    -2.998825   -3.184387   -3.157390   -0.000254   -0.001828    0.000590
O     1.910194   -5.427791   -1.926758   -0.000386   -0.000150   -0.000122
O     5.497482   -0.989108   -2.853337    0.000224   -0.000450   -0.000736
C     3.198192    3.420702   -0.617057    0.000262    0.000170    0.000134
C    -1.520820    4.026962    0.304027    0.001008   -0.003210   -0.001734
C    -5.147576    1.049119   -0.365143    0.001564    0.000314   -0.000364
C    -3.190533   -3.344878   -0.795987   -0.000620   -0.000792    0.000510
C     1.392239   -4.058454   -0.009165    0.001432   -0.000288    0.001342
C     5.016137   -0.988539   -0.525057    0.001028    0.000478    0.000282
C     2.478538    3.631769    0.728256   -0.000574    0.000024    0.001002
C    -2.100007    2.777455    0.976926    0.001240   -0.005438   -0.002122
C    -4.741686    0.135237    0.811513    0.002866    0.000650   -0.000816
C    -2.479156   -3.724011    0.518529   -0.000920   -0.000916   -0.001300
C     1.913625   -2.871783    0.802518    0.000658   -0.001574    0.001902
C     4.660800   -0.109282    0.690098    0.000818    0.000374    0.000330
O     1.648649    4.790494    0.705994   -0.002238    0.000162    0.000416
O    -3.419113    3.026267    1.446584   -0.000260    0.001376    0.000580
O    -5.304435   -1.179142    0.705409   -0.002960    0.000928    0.000042
O    -1.753865   -4.940769    0.357649   -0.001852    0.000988    0.000602
O     3.257665   -3.091357    1.187210   -0.000460    0.000294    0.000836
O     5.330995    1.148287    0.660989   -0.000570    0.000214    0.000752
C     3.492521    3.843299    1.862449    0.000390   -0.000120    0.000892
C    -1.306998    2.295591    2.193230   -0.003756   -0.000676    0.005224
C    -5.264152    0.651599    2.164313    0.001134   -0.000218   -0.001390
C    -3.484326   -3.950382    1.653785    0.000380   -0.000510   -0.001842
C     1.091249   -2.644485    2.124540   -0.005328    0.005798   -0.002168
C     5.063335   -0.738680    2.034515   -0.000484    0.000148    0.000158
O     4.330602    4.946446    1.629212    0.000928    0.000870   -0.000158
O    -1.465987    0.984029    2.282689   -0.000726    0.001110    0.005522
O    -6.642063    0.925956    2.139285    0.001574   -0.000696   -0.000258
O    -4.405981   -4.967128    1.354677    0.000780    0.000556    0.000676
O     2.033762   -2.023961    3.033832    0.000248    0.000520    0.001294
O     6.396778   -1.179292    2.036353    0.000674   -0.000392    0.000092
H     0.145512    5.742222   -0.175726   -0.000918   -0.001784   -0.002102
H    -5.303956    3.337792    0.820105   -0.000752   -0.001676    0.000926
H    -5.587496   -2.816271   -0.385058   -0.004352   -0.002494    0.003422
H    -0.234661   -5.815021   -0.591121   -0.000698    0.001440    0.004590
H     5.137288   -3.302817    0.536699   -0.000862   -0.000914    0.000374
H     5.631855    2.846844   -0.344313    0.001350   -0.001686   -0.000276
H     1.941120    5.679030   -1.794388   -0.001922    0.002456    0.001550
H    -4.008823    5.352395    0.275608   -0.003940   -0.001322    0.001462
H    -6.782694   -0.955440   -1.488840   -0.001126   -0.000958    0.000596
H    -2.177802   -5.556133   -2.134012   -0.003302    0.004948    0.001832
H     3.896943   -5.302254   -0.171551   -0.001724   -0.000054    0.000592
H     6.733498    0.987291   -1.582794   -0.000350   -0.000668    0.001374
H    -0.392386    5.226842   -2.494497    0.005266    0.007498   -0.008502
H    -4.905984    3.910923   -1.966727   -0.002560    0.000054    0.002118
H    -4.676526   -2.103010   -2.978693    0.000312    0.002146    0.003390
H     0.290245   -5.057238   -2.812627    0.002430    0.001032    0.002168
H     4.756364   -3.651860   -2.287003   -0.001216    0.000690   -0.000884
H     4.656917    2.349977   -2.926312   -0.000690    0.002540    0.000288
H     1.648204    2.642229   -1.886956    0.007460    0.004366   -0.024122
H    -2.382980    3.588918   -1.621059   -0.015858    0.000696   -0.002522
H    -3.998093    0.208211   -1.964867    0.001942   -0.013454    0.018598
H    -1.486380   -2.596511   -1.889507   -0.026300    0.020956    0.022134
H     2.218417   -3.393612   -1.871682   -0.004066   -0.002362   -0.000978
H     3.877341   -0.006572   -2.048521    0.001090   -0.005612   -0.006010
H     2.506217    3.792580   -3.737010    0.003130    0.003562   -0.001066
H    -2.770523    5.977375   -1.942660    0.003152    0.004300    0.001532
H    -5.813601    0.630671   -3.485044    0.001576   -0.000214   -0.000418
H    -2.444141   -3.398415   -3.924508    0.008718    0.003572    0.002408
H     2.662828   -5.715646   -2.472774    0.001266    0.002224   -0.000952
H     5.632640   -0.426923   -3.633360   -0.000322    0.000816    0.000352
H     3.997324    4.166057   -0.713262   -0.002748    0.002120    0.002600
H    -1.475254    4.848194    1.027010   -0.001342   -0.007382    0.000980
H    -6.175084    1.406211   -0.209511    0.000690    0.000584    0.002062
H    -4.001482   -4.064692   -0.969134   -0.003944   -0.000924    0.000846
H     1.383236   -4.938995    0.645092   -0.001688   -0.000590    0.001388
H     6.026405   -1.399723   -0.399552    0.000514    0.000480    0.000334
H     1.874296    2.751585    0.975507    0.000510    0.005356    0.027404
H    -2.147257    1.944040    0.261588   -0.010822   -0.044492    0.031990
H    -3.647081    0.060623    0.844705    0.010398   -0.009296   -0.029060
H    -1.776660   -2.938622    0.820058   -0.012534    0.018034   -0.021156
H     1.849581   -1.967963    0.185063   -0.002184   -0.008064   -0.002326
H     3.577072    0.059388    0.668521    0.001682   -0.004744    0.007578
H     4.144212    2.969612    1.931004    0.003338    0.001670    0.002400
H     2.940625    3.959728    2.802147    0.001822    0.000124    0.002382
H    -5.032221   -0.108322    2.919189    0.003740   -0.000262   -0.001858
H    -4.763006    1.580654    2.433014    0.000728   -0.000332   -0.001436
H    -4.066030   -3.039212    1.807629    0.006660    0.003350   -0.002634
H    -2.916361   -4.180126    2.562306    0.001680    0.001206   -0.002182
H     4.907807    0.016241    2.815000    0.001728   -0.001096    0.001788
H     4.436598   -1.605023    2.253285   -0.000272    0.000072    0.001434
H     3.785698    5.746651    1.630134    0.000216   -0.000176    0.002220
H    -7.118023    0.092722    2.014520   -0.000902    0.001164   -0.003236
H    -3.921479   -5.801781    1.279345    0.001722   -0.000122   -0.001984
H     6.975930   -0.404209    1.981373   -0.001198    0.001186    0.000392
C     1.297891   -1.111933    3.807277    0.002264    0.002824    0.000272
H     1.993854   -0.454749    4.324082    0.004962    0.001024   -0.000858
H     0.643265   -1.636806    4.512513   -0.000048    0.006204    0.000364
O     0.416216   -3.599141    2.586458    0.000440   -0.003032    0.002070
C    -0.793553    0.261937    3.298285    0.000986    0.002400    0.000040
H    -1.474008   -0.506934    3.660751    0.007088   -0.000430    0.002768
H    -0.489464    0.940174    4.100089    0.000480    0.007520   -0.001736
O    -0.671174    2.986415    2.944682    0.000848    0.001626    0.000562
C     0.462115   -0.409816    2.722102   -0.001658   -0.001524   -0.001200
O     0.183817   -1.428144    1.813832    0.015220   -0.006888    0.006046
H    -1.116908   -0.888809    0.572104   -0.070694    0.036248   -0.079740
O    -1.551765   -0.363124   -0.086485   -0.036936   -0.012528   -0.006250
H    -0.084369    0.666519   -0.688541    1.554016    1.120070   -0.498208
O     0.391097    0.992363   -0.594237   -0.049498   -0.029818    0.035452
H     0.842178    0.841143    0.295335    0.092510   -0.010662    0.068608
O     1.223944    0.586301    2.060930   -0.004646   -0.003262   -0.018226
H     2.152517    0.297971    2.060202    0.009236    0.011646    0.027150
H     0.085010    1.946477   -0.611551   -0.066836    0.037834   -0.029384
H    -2.041802   -0.960008   -0.624579   -0.038548   -0.031086    0.168036
139
* Frequency(6) -890.7100
C     0.681536    4.795370   -0.300818    0.001730    0.001642    0.000944
C    -4.311964    3.219792    0.366933    0.000548   -0.000498    0.002340
C    -5.086228   -1.846438   -0.498379   -0.001902   -0.001542    0.000308
C    -0.780698   -4.865925   -0.648134    0.001164    0.003574   -0.000574
C     4.141557   -3.178072    0.091616    0.000376    0.000572   -0.001868
C     5.098991    1.900845   -0.500030   -0.000900    0.000262   -0.000126
O    -0.217339    3.708219   -0.169352   -0.000784   -0.010730   -0.003698
O    -4.273750    2.159644   -0.536496   -0.003132   -0.000806   -0.002182
O    -3.712080   -2.026261   -0.754831   -0.012282   -0.009214   -0.004658
O     0.085423   -3.772779   -0.471551   -0.000558   -0.002246   -0.002324
O     4.085747   -2.049341   -0.728304   -0.001464   -0.000780    0.001120
O     3.729496    2.104892   -0.699149   -0.000536   -0.001870   -0.000122
C     1.334942    4.764342   -1.696782    0.000276    0.002100   -0.000304
C    -3.908951    4.496246   -0.400634    0.000890   -0.000334    0.000254
C    -5.706938   -1.061155   -1.667227   -0.000490    0.001252    0.000534
C    -1.471717   -4.719706   -2.016570    0.000800    0.002170   -0.000170
C     3.778461   -4.396198   -0.775246    0.000808   -0.000358   -0.000094
C     5.661375    1.159795   -1.725262    0.000142    0.000760   -0.000186
O     0.383180    4.683559   -2.722853   -0.001130   -0.002510    0.000500
O    -4.752686    4.743322   -1.489608    0.000332   -0.000136   -0.000122
O    -5.573982   -1.727999   -2.892567    0.000142    0.000380    0.000628
O    -0.573422   -4.700047   -3.093734   -0.000648   -0.000230    0.000738
O     4.623346   -4.527570   -1.884186   -0.000038   -0.000090    0.000120
O     5.526263    1.902037   -2.904681   -0.000194   -0.000134   -0.000178
C     2.259886    3.548172   -1.823302    0.002238    0.001740   -0.002666
C    -2.445160    4.390911   -0.870851    0.000294    0.000060   -0.000336
C    -5.062563    0.330339   -1.719132   -0.000182   -0.000756    0.001366
C    -2.236444   -3.391955   -1.994766   -0.000464    0.001144    0.001264
C     2.315265   -4.274000   -1.218642    0.000190   -0.000266   -0.000090
C     4.940998   -0.193383   -1.837124    0.000048   -0.000264   -0.000520
O     3.075577    3.627208   -2.970073    0.000998   -0.000426   -0.000942
O    -2.020928    5.607799   -1.448189    0.000196   -0.000360   -0.000082
O    -5.688243    1.150515   -2.675413    0.000970   -0.000812    0.000976
O    -2.998817   -3.184335   -3.157407   -0.000254   -0.001828    0.000590
O     1.910205   -5.427787   -1.926754   -0.000386   -0.000150   -0.000122
O     5.497476   -0.989095   -2.853316    0.000224   -0.000450   -0.000736
C     3.198185    3.420697   -0.617061    0.000262    0.000170    0.000134
C    -1.520849    4.027053    0.304076    0.001008   -0.003210   -0.001734
C    -5.147621    1.049110   -0.365133    0.001564    0.000314   -0.000364
C    -3.190516   -3.344856   -0.796002   -0.000620   -0.000792    0.000510
C     1.392199   -4.058446   -0.009203    0.001432   -0.000288    0.001342
C     5.016107   -0.988553   -0.525065    0.001028    0.000478    0.000282
C     2.478554    3.631769    0.728227   -0.000574    0.000024    0.001002
C    -2.100043    2.777609    0.976986    0.001240   -0.005438   -0.002122
C    -4.741767    0.135218    0.811536    0.002866    0.000650   -0.000816
C    -2.479130   -3.723985    0.518565   -0.000920   -0.000916   -0.001300
C     1.913606   -2.871738    0.802465    0.000658   -0.001574    0.001902
C     4.660777   -0.109292    0.690089    0.000818    0.000374    0.000330
O     1.648713    4.790489    0.705982   -0.002238    0.000162    0.000416
O    -3.419105    3.026228    1.446568   -0.000260    0.001376    0.000580
O    -5.304352   -1.179169    0.705407   -0.002960    0.000928    0.000042
O    -1.753813   -4.940797    0.357632   -0.001852    0.000988    0.000602
O     3.257678   -3.091366    1.187186   -0.000460    0.000294    0.000836
O     5.331011    1.148281    0.660968   -0.000570    0.000214    0.000752
C     3.492510    3.843303    1.862424    0.000390   -0.000120    0.000892
C    -1.306892    2.295610    2.193082   -0.003756   -0.000676    0.005224
C    -5.264185    0.651605    2.164352    0.001134   -0.000218   -0.001390
C    -3.484337   -3.950367    1.653837    0.000380   -0.000510   -0.001842
C     1.091399   -2.644649    2.124601   -0.005328    0.005798   -0.002168
C     5.063349   -0.738685    2.034511   -0.000484    0.000148    0.000158
O     4.330575    4.946422    1.629216    0.000928    0.000870   -0.000158
O    -1.465967    0.983998    2.282533   -0.000726    0.001110    0.005522
O    -6.642108    0.925976    2.139292    0.001574   -0.000696   -0.000258
O    -4.406003   -4.967144    1.354658    0.000780    0.000556    0.000676
O     2.033754   -2.023975    3.033796    0.000248    0.000520    0.001294
O     6.396759   -1.179281    2.036350    0.000674   -0.000392    0.000092
H     0.145538    5.742272   -0.175667   -0.000918   -0.001784   -0.002102
H    -5.303935    3.337840    0.820079   -0.000752   -0.001676    0.000926
H    -5.587373   -2.816200   -0.385155   -0.004352   -0.002494    0.003422
H    -0.234642   -5.815061   -0.591251   -0.000698    0.001440    0.004590
H     5.137313   -3.302791    0.536689   -0.000862   -0.000914    0.000374
H     5.631817    2.846892   -0.344305    0.001350   -0.001686   -0.000276
H     1.941174    5.678960   -1.794432   -0.001922    0.002456    0.001550
H    -4.008712    5.352432    0.275567   -0.003940   -0.001322    0.001462
H    -6.782662   -0.955413   -1.488857   -0.001126   -0.000958    0.000596
H    -2.177708   -5.556273   -2.134064   -0.003302    0.004948    0.001832
H     3.896991   -5.302252   -0.171567   -0.001724   -0.000054    0.000592
H     6.733508    0.987310   -1.582833   -0.000350   -0.000668    0.001374
H    -0.392535    5.226630   -2.494256    0.005266    0.007498   -0.008502
H    -4.905912    3.910921   -1.966787   -0.002560    0.000054    0.002118
H    -4.676535   -2.103071   -2.978788    0.000312    0.002146    0.003390
H     0.290176   -5.057267   -2.812688    0.002430    0.001032    0.002168
H     4.756398   -3.651880   -2.286978   -0.001216    0.000690   -0.000884
H     4.656937    2.349905   -2.926320   -0.000690    0.002540    0.000288
H     1.647993    2.642105   -1.886274    0.007460    0.004366   -0.024122
H    -2.382532    3.588898   -1.620987   -0.015858    0.000696   -0.002522
H    -3.998148    0.208592   -1.965393    0.001942   -0.013454    0.018598
H    -1.485636   -2.597104   -1.890133   -0.026300    0.020956    0.022134
H     2.218532   -3.393545   -1.871654   -0.004066   -0.002362   -0.000978
H     3.877310   -0.006414   -2.048351    0.001090   -0.005612   -0.006010
H     2.506128    3.792480   -3.736980    0.003130    0.003562   -0.001066
H    -2.770612    5.977253   -1.942703    0.003152    0.004300    0.001532
H    -5.813646    0.630677   -3.485032    0.001576   -0.000214   -0.000418
H    -2.444388   -3.398516   -3.924576    0.008718    0.003572    0.002408
H     2.662792   -5.715709   -2.472747    0.001266    0.002224   -0.000952
H     5.632649   -0.426946   -3.633370   -0.000322    0.000816    0.000352
H     3.997402    4.165998   -0.713336   -0.002748    0.002120    0.002600
H    -1.475216    4.848403    1.026982   -0.001342   -0.007382    0.000980
H    -6.175104    1.406194   -0.209569    0.000690    0.000584    0.002062
H    -4.001370   -4.064666   -0.969158   -0.003944   -0.000924    0.000846
H     1.383284   -4.938978    0.645053   -0.001688   -0.000590    0.001388
H     6.026391   -1.399736   -0.399562    0.000514    0.000480    0.000334
H     1.874281    2.751434    0.974732    0.000510    0.005356    0.027404
H    -2.146951    1.945298    0.260683   -0.010822   -0.044492    0.031990
H    -3.647375    0.060885    0.845527    0.010398   -0.009296   -0.029060
H    -1.776305   -2.939132    0.820656   -0.012534    0.018034   -0.021156
H     1.849643   -1.967735    0.185128   -0.002184   -0.008064   -0.002326
H     3.577024    0.059522    0.668307    0.001682   -0.004744    0.007578
H     4.144118    2.969564    1.930936    0.003338    0.001670    0.002400
H     2.940573    3.959725    2.802079    0.001822    0.000124    0.002382
H    -5.032327   -0.108315    2.919241    0.003740   -0.000262   -0.001858
H    -4.763027    1.580664    2.433055    0.000728   -0.000332   -0.001436
H    -4.066218   -3.039306    1.807704    0.006660    0.003350   -0.002634
H    -2.916409   -4.180160    2.562368    0.001680    0.001206   -0.002182
H     4.907758    0.016272    2.814949    0.001728   -0.001096    0.001788
H     4.436606   -1.605025    2.253245   -0.000272    0.000072    0.001434
H     3.785692    5.746656    1.630072    0.000216   -0.000176    0.002220
H    -7.117997    0.092689    2.014612   -0.000902    0.001164   -0.003236
H    -3.921528   -5.801777    1.279401    0.001722   -0.000122   -0.001984
H     6.975964   -0.404243    1.981362   -0.001198    0.001186    0.000392
C     1.297827   -1.112013    3.807269    0.002264    0.002824    0.000272
H     1.993713   -0.454778    4.324106    0.004962    0.001024   -0.000858
H     0.643267   -1.636981    4.512503   -0.000048    0.006204    0.000364
O     0.416204   -3.599055    2.586399    0.000440   -0.003032    0.002070
C    -0.793581    0.261869    3.298284    0.000986    0.002400    0.000040
H    -1.474208   -0.506922    3.660673    0.007088   -0.000430    0.002768
H    -0.489477    0.939961    4.100139    0.000480    0.007520   -0.001736
O    -0.671198    2.986369    2.944666    0.000848    0.001626    0.000562
C     0.462162   -0.409772    2.722136   -0.001658   -0.001524   -0.001200
O     0.183386   -1.427949    1.813661    0.015220   -0.006888    0.006046
H    -1.114909   -0.889834    0.574360   -0.070694    0.036248   -0.079740
O    -1.550721   -0.362769   -0.086308   -0.036936   -0.012528   -0.006250
H    -0.128323    0.634839   -0.674450    1.554016    1.120070   -0.498208
O     0.392497    0.993207   -0.595240   -0.049498   -0.029818    0.035452
H     0.839561    0.841445    0.293394    0.092510   -0.010662    0.068608
O     1.224076    0.586393    2.061445   -0.004646   -0.003262   -0.018226
H     2.152255    0.297642    2.059434    0.009236    0.011646    0.027150
H     0.086901    1.945407   -0.610720   -0.066836    0.037834   -0.029384
H    -2.040711   -0.959129   -0.629332   -0.038548   -0.031086    0.168036
139
* Frequency(6) -890.7100
C     0.681426    4.795267   -0.300878    0.001730    0.001642    0.000944
C    -4.311999    3.219824    0.366786    0.000548   -0.000498    0.002340
C    -5.086108   -1.846341   -0.498399   -0.001902   -0.001542    0.000308
C    -0.780771   -4.866151   -0.648098    0.001164    0.003574   -0.000574
C     4.141533   -3.178108    0.091734    0.000376    0.000572   -0.001868
C     5.099047    1.900828   -0.500022   -0.000900    0.000262   -0.000126
O    -0.217290    3.708895   -0.169119   -0.000784   -0.010730   -0.003698
O    -4.273553    2.159694   -0.536359   -0.003132   -0.000806   -0.002182
O    -3.711306   -2.025681   -0.754537   -0.012282   -0.009214   -0.004658
O     0.085458   -3.772637   -0.471404   -0.000558   -0.002246   -0.002324
O     4.085839   -2.049292   -0.728375   -0.001464   -0.000780    0.001120
O     3.729530    2.105009   -0.699141   -0.000536   -0.001870   -0.000122
C     1.334925    4.764210   -1.696763    0.000276    0.002100   -0.000304
C    -3.909007    4.496267   -0.400650    0.000890   -0.000334    0.000254
C    -5.706907   -1.061234   -1.667260   -0.000490    0.001252    0.000534
C    -1.471767   -4.719843   -2.016560    0.000800    0.002170   -0.000170
C     3.778410   -4.396175   -0.775240    0.000808   -0.000358   -0.000094
C     5.661366    1.159747   -1.725250    0.000142    0.000760   -0.000186
O     0.383251    4.683718   -2.722884   -0.001130   -0.002510    0.000500
O    -4.752707    4.743331   -1.489600    0.000332   -0.000136   -0.000122
O    -5.573991   -1.728023   -2.892606    0.000142    0.000380    0.000628
O    -0.573381   -4.700032   -3.093781   -0.000648   -0.000230    0.000738
O     4.623348   -4.527564   -1.884193   -0.000038   -0.000090    0.000120
O     5.526275    1.902045   -2.904670   -0.000194   -0.000134   -0.000178
C     2.259745    3.548062   -1.823134    0.002238    0.001740   -0.002666
C    -2.445178    4.390907   -0.870830    0.000294    0.000060   -0.000336
C    -5.062552    0.330386   -1.719218   -0.000182   -0.000756    0.001366
C    -2.236414   -3.392027   -1.994846   -0.000464    0.001144    0.001264
C     2.315253   -4.273983   -1.218636    0.000190   -0.000266   -0.000090
C     4.940995   -0.193366   -1.837091    0.000048   -0.000264   -0.000520
O     3.075514    3.627235   -2.970014    0.000998   -0.000426   -0.000942
O    -2.020941    5.607821   -1.448184    0.000196   -0.000360   -0.000082
O    -5.688304    1.150566   -2.675475    0.000970   -0.000812    0.000976
O    -2.998801   -3.184220   -3.157444   -0.000254   -0.001828    0.000590
O     1.910230   -5.427778   -1.926746   -0.000386   -0.000150   -0.000122
O     5.497462   -0.989067   -2.853270    0.000224   -0.000450   -0.000736
C     3.198168    3.420687   -0.617069    0.000262    0.000170    0.000134
C    -1.520912    4.027255    0.304185    0.001008   -0.003210   -0.001734
C    -5.147719    1.049090   -0.365110    0.001564    0.000314   -0.000364
C    -3.190477   -3.344806   -0.796034   -0.000620   -0.000792    0.000510
C     1.392109   -4.058428   -0.009287    0.001432   -0.000288    0.001342
C     5.016043   -0.988583   -0.525082    0.001028    0.000478    0.000282
C     2.478590    3.631767    0.728164   -0.000574    0.000024    0.001002
C    -2.100121    2.777952    0.977120    0.001240   -0.005438   -0.002122
C    -4.741948    0.135177    0.811588    0.002866    0.000650   -0.000816
C    -2.479072   -3.723927    0.518647   -0.000920   -0.000916   -0.001300
C     1.913564   -2.871639    0.802345    0.000658   -0.001574    0.001902
C     4.660726   -0.109316    0.690068    0.000818    0.000374    0.000330
O     1.648854    4.790479    0.705956   -0.002238    0.000162    0.000416
O    -3.419089    3.026141    1.446531   -0.000260    0.001376    0.000580
O    -5.304165   -1.179227    0.705405   -0.002960    0.000928    0.000042
O    -1.753696   -4.940860    0.357594   -0.001852    0.000988    0.000602
O     3.257707   -3.091384    1.187133   -0.000460    0.000294    0.000836
O     5.331047    1.148267    0.660921   -0.000570    0.000214    0.000752
C     3.492485    3.843310    1.862368    0.000390   -0.000120    0.000892
C    -1.306655    2.295653    2.192753   -0.003756   -0.000676    0.005224
C    -5.264256    0.651619    2.164440    0.001134   -0.000218   -0.001390
C    -3.484361   -3.950335    1.653953    0.000380   -0.000510   -0.001842
C     1.091735   -2.645014    2.124738   -0.005328    0.005798   -0.002168
C     5.063379   -0.738694    2.034501   -0.000484    0.000148    0.000158
O     4.330517    4.946367    1.629226    0.000928    0.000870   -0.000158
O    -1.465921    0.983928    2.282185   -0.000726    0.001110    0.005522
O    -6.642207    0.926020    2.139309    0.001574   -0.000696   -0.000258
O    -4.406052   -4.967179    1.354615    0.000780    0.000556    0.000676
O     2.033739   -2.024008    3.033714    0.000248    0.000520    0.001294
O     6.396717   -1.179256    2.036345    0.000674   -0.000392    0.000092
H     0.145596    5.742385   -0.175534   -0.000918   -0.001784   -0.002102
H    -5.303888    3.337945    0.820020   -0.000752   -0.001676    0.000926
H    -5.587099   -2.816043   -0.385371   -0.004352   -0.002494    0.003422
H    -0.234598   -5.815152   -0.591540   -0.000698    0.001440    0.004590
H     5.137367   -3.302733    0.536665   -0.000862   -0.000914    0.000374
H     5.631732    2.846998   -0.344288    0.001350   -0.001686   -0.000276
H     1.941295    5.678805   -1.794530   -0.001922    0.002456    0.001550
H    -4.008464    5.352516    0.275474   -0.003940   -0.001322    0.001462
H    -6.782591   -0.955353   -1.488895   -0.001126   -0.000958    0.000596
H    -2.177500   -5.556585   -2.134179   -0.003302    0.004948    0.001832
H     3.897100   -5.302249   -0.171605   -0.001724   -0.000054    0.000592
H     6.733530    0.987352   -1.582919   -0.000350   -0.000668    0.001374
H    -0.392867    5.226158   -2.493720    0.005266    0.007498   -0.008502
H    -4.905750    3.910918   -1.966921   -0.002560    0.000054    0.002118
H    -4.676555   -2.103206   -2.979002    0.000312    0.002146    0.003390
H     0.290023   -5.057332   -2.812825    0.002430    0.001032    0.002168
H     4.756475   -3.651923   -2.286923   -0.001216    0.000690   -0.000884
H     4.656980    2.349745   -2.926338   -0.000690    0.002540    0.000288
H     1.647523    2.641830   -1.884753    0.007460    0.004366   -0.024122
H    -2.381532    3.588854   -1.620828   -0.015858    0.000696   -0.002522
H    -3.998270    0.209440   -1.966565    0.001942   -0.013454    0.018598
H    -1.483978   -2.598425   -1.891527   -0.026300    0.020956    0.022134
H     2.218788   -3.393396   -1.871593   -0.004066   -0.002362   -0.000978
H     3.877242   -0.006060   -2.047973    0.001090   -0.005612   -0.006010
H     2.505931    3.792255   -3.736912    0.003130    0.003562   -0.001066
H    -2.770810    5.976982   -1.942800    0.003152    0.004300    0.001532
H    -5.813745    0.630691   -3.485006    0.001576   -0.000214   -0.000418
H    -2.444937   -3.398741   -3.924728    0.008718    0.003572    0.002408
H     2.662712   -5.715849   -2.472687    0.001266    0.002224   -0.000952
H     5.632669   -0.426998   -3.633392   -0.000322    0.000816    0.000352
H     3.997575    4.165864   -0.713499   -0.002748    0.002120    0.002600
H    -1.475132    4.848868    1.026920   -0.001342   -0.007382    0.000980
H    -6.175147    1.406157   -0.209699    0.000690    0.000584    0.002062
H    -4.001122   -4.064608   -0.969211   -0.003944   -0.000924    0.000846
H     1.383390   -4.938941    0.644965   -0.001688   -0.000590    0.001388
H     6.026358   -1.399766   -0.399583    0.000514    0.000480    0.000334
H     1.874249    2.751096    0.973005    0.000510    0.005356    0.027404
H    -2.146269    1.948102    0.258668   -0.010822   -0.044492    0.031990
H    -3.648030    0.061471    0.847358    0.010398   -0.009296   -0.029060
H    -1.775516   -2.940268    0.821989   -0.012534    0.018034   -0.021156
H     1.849781   -1.967227    0.185275   -0.002184   -0.008064   -0.002326
H     3.576918    0.059821    0.667829    0.001682   -0.004744    0.007578
H     4.143908    2.969459    1.930785    0.003338    0.001670    0.002400
H     2.940458    3.959717    2.801929    0.001822    0.000124    0.002382
H    -5.032563   -0.108298    2.919359    0.003740   -0.000262   -0.001858
H    -4.763073    1.580685    2.433145    0.000728   -0.000332   -0.001436
H    -4.066638   -3.039517    1.807870    0.006660    0.003350   -0.002634
H    -2.916514   -4.180236    2.562505    0.001680    0.001206   -0.002182
H     4.907649    0.016341    2.814836    0.001728   -0.001096    0.001788
H     4.436623   -1.605029    2.253154   -0.000272    0.000072    0.001434
H     3.785679    5.746667    1.629932    0.000216   -0.000176    0.002220
H    -7.117940    0.092616    2.014816   -0.000902    0.001164   -0.003236
H    -3.921637   -5.801769    1.279526    0.001722   -0.000122   -0.001984
H     6.976040   -0.404318    1.981337   -0.001198    0.001186    0.000392
C     1.297684   -1.112191    3.807252    0.002264    0.002824    0.000272
H     1.993401   -0.454842    4.324160    0.004962    0.001024   -0.000858
H     0.643270   -1.637372    4.512480   -0.000048    0.006204    0.000364
O     0.416176   -3.598864    2.586269    0.000440   -0.003032    0.002070
C    -0.793643    0.261718    3.298281    0.000986    0.002400    0.000040
H    -1.474655   -0.506895    3.660499    0.007088   -0.000430    0.002768
H    -0.489507    0.939487    4.100248    0.000480    0.007520   -0.001736
O    -0.671252    2.986267    2.944631    0.000848    0.001626    0.000562
C     0.462266   -0.409676    2.722212   -0.001658   -0.001524   -0.001200
O     0.182427   -1.427515    1.813280    0.015220   -0.006888    0.006046
H    -1.110454   -0.892118    0.579385   -0.070694    0.036248   -0.079740
O    -1.548393   -0.361980   -0.085914   -0.036936   -0.012528   -0.006250
H    -0.226253    0.564255   -0.643054    1.554016    1.120070   -0.498208
O     0.395616    0.995086   -0.597474   -0.049498   -0.029818    0.035452
H     0.833732    0.842116    0.289071    0.092510   -0.010662    0.068608
O     1.224369    0.586599    2.062594   -0.004646   -0.003262   -0.018226
H     2.151673    0.296908    2.057723    0.009236    0.011646    0.027150
H     0.091113    1.943022   -0.608868   -0.066836    0.037834   -0.029384
H    -2.038282   -0.957170   -0.639921   -0.038548   -0.031086    0.168036
139
* Frequency(6) -890.7100
C     0.681269    4.795118   -0.300964    0.001730    0.001642    0.000944
C    -4.312049    3.219869    0.366573    0.000548   -0.000498    0.002340
C    -5.085935   -1.846201   -0.498427   -0.001902   -0.001542    0.000308
C    -0.780877   -4.866476   -0.648046    0.001164    0.003574   -0.000574
C     4.141499   -3.178160    0.091904    0.000376    0.000572   -0.001868
C     5.099129    1.900805   -0.500011   -0.000900    0.000262   -0.000126
O    -0.217219    3.709871   -0.168783   -0.000784   -0.010730   -0.003698
O    -4.273268    2.159768   -0.536160   -0.003132   -0.000806   -0.002182
O    -3.710189   -2.024843   -0.754114   -0.012282   -0.009214   -0.004658
O     0.085509   -3.772433   -0.471193   -0.000558   -0.002246   -0.002324
O     4.085972   -2.049221   -0.728476   -0.001464   -0.000780    0.001120
O     3.729579    2.105179   -0.699130   -0.000536   -0.001870   -0.000122
C     1.334900    4.764019   -1.696736    0.000276    0.002100   -0.000304
C    -3.909088    4.496297   -0.400673    0.000890   -0.000334    0.000254
C    -5.706863   -1.061347   -1.667309   -0.000490    0.001252    0.000534
C    -1.471840   -4.720041   -2.016544    0.000800    0.002170   -0.000170
C     3.778337   -4.396143   -0.775232    0.000808   -0.000358   -0.000094
C     5.661353    1.159678   -1.725233    0.000142    0.000760   -0.000186
O     0.383354    4.683946   -2.722930   -0.001130   -0.002510    0.000500
O    -4.752737    4.743343   -1.489589    0.000332   -0.000136   -0.000122
O    -5.574004   -1.728058   -2.892663    0.000142    0.000380    0.000628
O    -0.573322   -4.700011   -3.093848   -0.000648   -0.000230    0.000738
O     4.623352   -4.527556   -1.884204   -0.000038   -0.000090    0.000120
O     5.526293    1.902058   -2.904654   -0.000194   -0.000134   -0.000178
C     2.259542    3.547904   -1.822891    0.002238    0.001740   -0.002666
C    -2.445205    4.390902   -0.870799    0.000294    0.000060   -0.000336
C    -5.062535    0.330455   -1.719342   -0.000182   -0.000756    0.001366
C    -2.236372   -3.392131   -1.994960   -0.000464    0.001144    0.001264
C     2.315236   -4.273959   -1.218628    0.000190   -0.000266   -0.000090
C     4.940991   -0.193342   -1.837044    0.000048   -0.000264   -0.000520
O     3.075423    3.627274   -2.969928    0.000998   -0.000426   -0.000942
O    -2.020958    5.607854   -1.448177    0.000196   -0.000360   -0.000082
O    -5.688392    1.150640   -2.675563    0.000970   -0.000812    0.000976
O    -2.998778   -3.184054   -3.157498   -0.000254   -0.001828    0.000590
O     1.910265   -5.427764   -1.926735   -0.000386   -0.000150   -0.000122
O     5.497441   -0.989026   -2.853203    0.000224   -0.000450   -0.000736
C     3.198145    3.420671   -0.617082    0.000262    0.000170    0.000134
C    -1.521004    4.027547    0.304343    0.001008   -0.003210   -0.001734
C    -5.147861    1.049061   -0.365077    0.001564    0.000314   -0.000364
C    -3.190420   -3.344734   -0.796080   -0.000620   -0.000792    0.000510
C     1.391979   -4.058402   -0.009409    0.001432   -0.000288    0.001342
C     5.015949   -0.988626   -0.525108    0.001028    0.000478    0.000282
C     2.478642    3.631765    0.728073   -0.000574    0.000024    0.001002
C    -2.100233    2.778446    0.977313    0.001240   -0.005438   -0.002122
C    -4.742209    0.135118    0.811662    0.002866    0.000650   -0.000816
C    -2.478988   -3.723844    0.518765   -0.000920   -0.000916   -0.001300
C     1.913505   -2.871496    0.802172    0.000658   -0.001574    0.001902
C     4.660651   -0.109350    0.690038    0.000818    0.000374    0.000330
O     1.649057    4.790464    0.705918   -0.002238    0.000162    0.000416
O    -3.419065    3.026016    1.446479   -0.000260    0.001376    0.000580
O    -5.303896   -1.179311    0.705401   -0.002960    0.000928    0.000042
O    -1.753528   -4.940949    0.357539   -0.001852    0.000988    0.000602
O     3.257748   -3.091411    1.187057   -0.000460    0.000294    0.000836
O     5.331099    1.148248    0.660852   -0.000570    0.000214    0.000752
C     3.492450    3.843321    1.862287    0.000390   -0.000120    0.000892
C    -1.306314    2.295714    2.192278   -0.003756   -0.000676    0.005224
C    -5.264359    0.651639    2.164566    0.001134   -0.000218   -0.001390
C    -3.484396   -3.950289    1.654120    0.000380   -0.000510   -0.001842
C     1.092219   -2.645541    2.124935   -0.005328    0.005798   -0.002168
C     5.063423   -0.738707    2.034486   -0.000484    0.000148    0.000158
O     4.330433    4.946288    1.629241    0.000928    0.000870   -0.000158
O    -1.465855    0.983827    2.281683   -0.000726    0.001110    0.005522
O    -6.642350    0.926083    2.139332    0.001574   -0.000696   -0.000258
O    -4.406123   -4.967229    1.354554    0.000780    0.000556    0.000676
O     2.033716   -2.024055    3.033597    0.000248    0.000520    0.001294
O     6.396655   -1.179220    2.036336    0.000674   -0.000392    0.000092
H     0.145679    5.742547   -0.175343   -0.000918   -0.001784   -0.002102
H    -5.303819    3.338098    0.819936   -0.000752   -0.001676    0.000926
H    -5.586703   -2.815816   -0.385682   -0.004352   -0.002494    0.003422
H    -0.234534   -5.815283   -0.591957   -0.000698    0.001440    0.004590
H     5.137445   -3.302650    0.536631   -0.000862   -0.000914    0.000374
H     5.631609    2.847151   -0.344263    0.001350   -0.001686   -0.000276
H     1.941470    5.678582   -1.794671   -0.001922    0.002456    0.001550
H    -4.008105    5.352636    0.275342   -0.003940   -0.001322    0.001462
H    -6.782489   -0.955266   -1.488949   -0.001126   -0.000958    0.000596
H    -2.177200   -5.557035   -2.134346   -0.003302    0.004948    0.001832
H     3.897257   -5.302244   -0.171658   -0.001724   -0.000054    0.000592
H     6.733562    0.987413   -1.583044   -0.000350   -0.000668    0.001374
H    -0.393346    5.225476   -2.492947    0.005266    0.007498   -0.008502
H    -4.905517    3.910913   -1.967113   -0.002560    0.000054    0.002118
H    -4.676583   -2.103402   -2.979310    0.000312    0.002146    0.003390
H     0.289802   -5.057426   -2.813022    0.002430    0.001032    0.002168
H     4.756585   -3.651986   -2.286842   -0.001216    0.000690   -0.000884
H     4.657043    2.349514   -2.926364   -0.000690    0.002540    0.000288
H     1.646845    2.641433   -1.882560    0.007460    0.004366   -0.024122
H    -2.380091    3.588791   -1.620599   -0.015858    0.000696   -0.002522
H    -3.998446    0.210663   -1.968256    0.001942   -0.013454    0.018598
H    -1.481587   -2.600330   -1.893540   -0.026300    0.020956    0.022134
H     2.219158   -3.393181   -1.871504   -0.004066   -0.002362   -0.000978
H     3.877143   -0.005550   -2.047426    0.001090   -0.005612   -0.006010
H     2.505646    3.791931   -3.736816    0.003130    0.003562   -0.001066
H    -2.771097    5.976591   -1.942939    0.003152    0.004300    0.001532
H    -5.813888    0.630710   -3.484968    0.001576   -0.000214   -0.000418
H    -2.445730   -3.399066   -3.924947    0.008718    0.003572    0.002408
H     2.662597   -5.716052   -2.472601    0.001266    0.002224   -0.000952
H     5.632698   -0.427072   -3.633424   -0.000322    0.000816    0.000352
H     3.997825    4.165671   -0.713736   -0.002748    0.002120    0.002600
H    -1.475010    4.849539    1.026831   -0.001342   -0.007382    0.000980
H    -6.175210    1.406104   -0.209887    0.000690    0.000584    0.002062
H    -4.000763   -4.064524   -0.969288   -0.003944   -0.000924    0.000846
H     1.383544   -4.938887    0.644839   -0.001688   -0.000590    0.001388
H     6.026312   -1.399810   -0.399613    0.000514    0.000480    0.000334
H     1.874203    2.750609    0.970513    0.000510    0.005356    0.027404
H    -2.145285    1.952147    0.255759   -0.010822   -0.044492    0.031990
H    -3.648976    0.062316    0.850000    0.010398   -0.009296   -0.029060
H    -1.774376   -2.941908    0.823913   -0.012534    0.018034   -0.021156
H     1.849979   -1.966493    0.185487   -0.002184   -0.008064   -0.002326
H     3.576765    0.060253    0.667140    0.001682   -0.004744    0.007578
H     4.143604    2.969307    1.930567    0.003338    0.001670    0.002400
H     2.940293    3.959706    2.801713    0.001822    0.000124    0.002382
H    -5.032903   -0.108275    2.919527    0.003740   -0.000262   -0.001858
H    -4.763139    1.580715    2.433276    0.000728   -0.000332   -0.001436
H    -4.067244   -3.039822    1.808109    0.006660    0.003350   -0.002634
H    -2.916667   -4.180346    2.562704    0.001680    0.001206   -0.002182
H     4.907492    0.016440    2.814674    0.001728   -0.001096    0.001788
H     4.436648   -1.605036    2.253024   -0.000272    0.000072    0.001434
H     3.785659    5.746683    1.629730    0.000216   -0.000176    0.002220
H    -7.117858    0.092510    2.015110   -0.000902    0.001164   -0.003236
H    -3.921793   -5.801758    1.279707    0.001722   -0.000122   -0.001984
H     6.976148   -0.404425    1.981301   -0.001198    0.001186    0.000392
C     1.297478   -1.112448    3.807227    0.002264    0.002824    0.000272
H     1.992950   -0.454935    4.324238    0.004962    0.001024   -0.000858
H     0.643274   -1.637937    4.512447   -0.000048    0.006204    0.000364
O     0.416136   -3.598588    2.586081    0.000440   -0.003032    0.002070
C    -0.793733    0.261500    3.298278    0.000986    0.002400    0.000040
H    -1.475299   -0.506856    3.660247    0.007088   -0.000430    0.002768
H    -0.489551    0.938804    4.100406    0.000480    0.007520   -0.001736
O    -0.671329    2.986119    2.944580    0.000848    0.001626    0.000562
C     0.462417   -0.409538    2.722321   -0.001658   -0.001524   -0.001200
O     0.181043   -1.426888    1.812730    0.015220   -0.006888    0.006046
H    -1.104026   -0.895414    0.586635   -0.070694    0.036248   -0.079740
O    -1.545035   -0.360841   -0.085346   -0.036936   -0.012528   -0.006250
H    -0.367547    0.462416   -0.597756    1.554016    1.120070   -0.498208
O     0.400117    0.997797   -0.600697   -0.049498   -0.029818    0.035452
H     0.825320    0.843086    0.282833    0.092510   -0.010662    0.068608
O     1.224791    0.586896    2.064251   -0.004646   -0.003262   -0.018226
H     2.150834    0.295849    2.055255    0.009236    0.011646    0.027150
H     0.097189    1.939582   -0.606197   -0.066836    0.037834   -0.029384
H    -2.034777   -0.954343   -0.655199   -0.038548   -0.031086    0.168036
139
* Frequency(6) -890.7100
C     0.681081    4.794939   -0.301067    0.001730    0.001642    0.000944
C    -4.312108    3.219923    0.366318    0.000548   -0.000498    0.002340
C    -5.085728   -1.846033   -0.498460   -0.001902   -0.001542    0.000308
C    -0.781004   -4.866865   -0.647983    0.001164    0.003574   -0.000574
C     4.141458   -3.178222    0.092107    0.000376    0.000572   -0.001868
C     5.099227    1.900776   -0.499997   -0.000900    0.000262   -0.000126
O    -0.217133    3.711040   -0.168380   -0.000784   -0.010730   -0.003698
O    -4.272926    2.159856   -0.535923   -0.003132   -0.000806   -0.002182
O    -3.708851   -2.023839   -0.753606   -0.012282   -0.009214   -0.004658
O     0.085570   -3.772188   -0.470940   -0.000558   -0.002246   -0.002324
O     4.086132   -2.049136   -0.728598   -0.001464   -0.000780    0.001120
O     3.729637    2.105383   -0.699117   -0.000536   -0.001870   -0.000122
C     1.334870    4.763790   -1.696703    0.000276    0.002100   -0.000304
C    -3.909185    4.496334   -0.400700    0.000890   -0.000334    0.000254
C    -5.706809   -1.061484   -1.667367   -0.000490    0.001252    0.000534
C    -1.471927   -4.720277   -2.016526    0.000800    0.002170   -0.000170
C     3.778249   -4.396104   -0.775221    0.000808   -0.000358   -0.000094
C     5.661337    1.159595   -1.725213    0.000142    0.000760   -0.000186
O     0.383477    4.684219   -2.722984   -0.001130   -0.002510    0.000500
O    -4.752773    4.743358   -1.489576    0.000332   -0.000136   -0.000122
O    -5.574020   -1.728099   -2.892732    0.000142    0.000380    0.000628
O    -0.573251   -4.699986   -3.093928   -0.000648   -0.000230    0.000738
O     4.623356   -4.527546   -1.884217   -0.000038   -0.000090    0.000120
O     5.526314    1.902072   -2.904634   -0.000194   -0.000134   -0.000178
C     2.259298    3.547714   -1.822601    0.002238    0.001740   -0.002666
C    -2.445237    4.390895   -0.870762    0.000294    0.000060   -0.000336
C    -5.062515    0.330537   -1.719491   -0.000182   -0.000756    0.001366
C    -2.236322   -3.392256   -1.995098   -0.000464    0.001144    0.001264
C     2.315215   -4.273930   -1.218618    0.000190   -0.000266   -0.000090
C     4.940986   -0.193313   -1.836987    0.000048   -0.000264   -0.000520
O     3.075314    3.627320   -2.969825    0.000998   -0.000426   -0.000942
O    -2.020980    5.607893   -1.448168    0.000196   -0.000360   -0.000082
O    -5.688498    1.150728   -2.675670    0.000970   -0.000812    0.000976
O    -2.998751   -3.183854   -3.157562   -0.000254   -0.001828    0.000590
O     1.910307   -5.427748   -1.926722   -0.000386   -0.000150   -0.000122
O     5.497417   -0.988977   -2.853122    0.000224   -0.000450   -0.000736
C     3.198116    3.420653   -0.617096    0.000262    0.000170    0.000134
C    -1.521114    4.027897    0.304532    0.001008   -0.003210   -0.001734
C    -5.148032    1.049027   -0.365037    0.001564    0.000314   -0.000364
C    -3.190353   -3.344648   -0.796136   -0.000620   -0.000792    0.000510
C     1.391822   -4.058371   -0.009556    0.001432   -0.000288    0.001342
C     5.015837   -0.988678   -0.525139    0.001028    0.000478    0.000282
C     2.478705    3.631762    0.727964   -0.000574    0.000024    0.001002
C    -2.100369    2.779039    0.977544    0.001240   -0.005438   -0.002122
C    -4.742521    0.135047    0.811751    0.002866    0.000650   -0.000816
C    -2.478888   -3.723744    0.518907   -0.000920   -0.000916   -0.001300
C     1.913433   -2.871325    0.801965    0.000658   -0.001574    0.001902
C     4.660562   -0.109390    0.690002    0.000818    0.000374    0.000330
O     1.649301    4.790446    0.705873   -0.002238    0.000162    0.000416
O    -3.419037    3.025866    1.446415   -0.000260    0.001376    0.000580
O    -5.303574   -1.179413    0.705396   -0.002960    0.000928    0.000042
O    -1.753326   -4.941057    0.357474   -0.001852    0.000988    0.000602
O     3.257799   -3.091443    1.186966   -0.000460    0.000294    0.000836
O     5.331161    1.148224    0.660770   -0.000570    0.000214    0.000752
C     3.492407    3.843334    1.862189    0.000390   -0.000120    0.000892
C    -1.305904    2.295788    2.191709   -0.003756   -0.000676    0.005224
C    -5.264483    0.651662    2.164718    0.001134   -0.000218   -0.001390
C    -3.484437   -3.950233    1.654321    0.000380   -0.000510   -0.001842
C     1.092800   -2.646173    2.125171   -0.005328    0.005798   -0.002168
C     5.063476   -0.738723    2.034469   -0.000484    0.000148    0.000158
O     4.330331    4.946193    1.629258    0.000928    0.000870   -0.000158
O    -1.465776    0.983706    2.281081   -0.000726    0.001110    0.005522
O    -6.642521    0.926159    2.139360    0.001574   -0.000696   -0.000258
O    -4.406208   -4.967290    1.354480    0.000780    0.000556    0.000676
O     2.033689   -2.024112    3.033456    0.000248    0.000520    0.001294
O     6.396582   -1.179178    2.036326    0.000674   -0.000392    0.000092
H     0.145779    5.742741   -0.175114   -0.000918   -0.001784   -0.002102
H    -5.303737    3.338280    0.819835   -0.000752   -0.001676    0.000926
H    -5.586229   -2.815545   -0.386055   -0.004352   -0.002494    0.003422
H    -0.234458   -5.815440   -0.592458   -0.000698    0.001440    0.004590
H     5.137539   -3.302551    0.536591   -0.000862   -0.000914    0.000374
H     5.631462    2.847335   -0.344233    0.001350   -0.001686   -0.000276
H     1.941679    5.678314   -1.794840   -0.001922    0.002456    0.001550
H    -4.007676    5.352780    0.275182   -0.003940   -0.001322    0.001462
H    -6.782366   -0.955161   -1.489014   -0.001126   -0.000958    0.000596
H    -2.176840   -5.557574   -2.134545   -0.003302    0.004948    0.001832
H     3.897445   -5.302238   -0.171723   -0.001724   -0.000054    0.000592
H     6.733600    0.987486   -1.583194   -0.000350   -0.000668    0.001374
H    -0.393920    5.224659   -2.492021    0.005266    0.007498   -0.008502
H    -4.905238    3.910907   -1.967344   -0.002560    0.000054    0.002118
H    -4.676617   -2.103635   -2.979680    0.000312    0.002146    0.003390
H     0.289537   -5.057539   -2.813258    0.002430    0.001032    0.002168
H     4.756718   -3.652061   -2.286746   -0.001216    0.000690   -0.000884
H     4.657118    2.349237   -2.926395   -0.000690    0.002540    0.000288
H     1.646032    2.640958   -1.879932    0.007460    0.004366   -0.024122
H    -2.378363    3.588715   -1.620324   -0.015858    0.000696   -0.002522
H    -3.998658    0.212129   -1.970283    0.001942   -0.013454    0.018598
H    -1.478721   -2.602614   -1.895952   -0.026300    0.020956    0.022134
H     2.219601   -3.392924   -1.871397   -0.004066   -0.002362   -0.000978
H     3.877024   -0.004938   -2.046771    0.001090   -0.005612   -0.006010
H     2.505305    3.791543   -3.736699    0.003130    0.003562   -0.001066
H    -2.771440    5.976123   -1.943106    0.003152    0.004300    0.001532
H    -5.814060    0.630734   -3.484922    0.001576   -0.000214   -0.000418
H    -2.446680   -3.399455   -3.925209    0.008718    0.003572    0.002408
H     2.662459   -5.716294   -2.472497    0.001266    0.002224   -0.000952
H     5.632733   -0.427161   -3.633463   -0.000322    0.000816    0.000352
H     3.998125    4.165440   -0.714019   -0.002748    0.002120    0.002600
H    -1.474863    4.850344    1.026724   -0.001342   -0.007382    0.000980
H    -6.175285    1.406041   -0.210111    0.000690    0.000584    0.002062
H    -4.000333   -4.064423   -0.969380   -0.003944   -0.000924    0.000846
H     1.383728   -4.938823    0.644688   -0.001688   -0.000590    0.001388
H     6.026256   -1.399862   -0.399650    0.000514    0.000480    0.000334
H     1.874147    2.750026    0.967527    0.000510    0.005356    0.027404
H    -2.144105    1.956996    0.252273   -0.010822   -0.044492    0.031990
H    -3.650109    0.063329    0.853167    0.010398   -0.009296   -0.029060
H    -1.773010   -2.943873    0.826218   -0.012534    0.018034   -0.021156
H     1.850217   -1.965615    0.185740   -0.002184   -0.008064   -0.002326
H     3.576582    0.060770    0.666315    0.001682   -0.004744    0.007578
H     4.143240    2.969125    1.930305    0.003338    0.001670    0.002400
H     2.940094    3.959692    2.801453    0.001822    0.000124    0.002382
H    -5.033311   -0.108246    2.919730    0.003740   -0.000262   -0.001858
H    -4.763218    1.580751    2.433432    0.000728   -0.000332   -0.001436
H    -4.067969   -3.040187    1.808396    0.006660    0.003350   -0.002634
H    -2.916850   -4.180478    2.562941    0.001680    0.001206   -0.002182
H     4.907304    0.016560    2.814479    0.001728   -0.001096    0.001788
H     4.436677   -1.605044    2.252868   -0.000272    0.000072    0.001434
H     3.785635    5.746702    1.629488    0.000216   -0.000176    0.002220
H    -7.117760    0.092383    2.015463   -0.000902    0.001164   -0.003236
H    -3.921981   -5.801745    1.279923    0.001722   -0.000122   -0.001984
H     6.976279   -0.404555    1.981259   -0.001198    0.001186    0.000392
C     1.297231   -1.112755    3.807198    0.002264    0.002824    0.000272
H     1.992409   -0.455047    4.324332    0.004962    0.001024   -0.000858
H     0.643279   -1.638613    4.512407   -0.000048    0.006204    0.000364
O     0.416088   -3.598258    2.585855    0.000440   -0.003032    0.002070
C    -0.793840    0.261238    3.298273    0.000986    0.002400    0.000040
H    -1.476072   -0.506809    3.659945    0.007088   -0.000430    0.002768
H    -0.489603    0.937984    4.100595    0.000480    0.007520   -0.001736
O    -0.671421    2.985942    2.944518    0.000848    0.001626    0.000562
C     0.462597   -0.409372    2.722452   -0.001658   -0.001524   -0.001200
O     0.179385   -1.426138    1.812071    0.015220   -0.006888    0.006046
H    -1.096323   -0.899364    0.595324   -0.070694    0.036248   -0.079740
O    -1.541010   -0.359476   -0.084665   -0.036936   -0.012528   -0.006250
H    -0.536893    0.340358   -0.543465    1.554016    1.120070   -0.498208
O     0.405511    1.001046   -0.604561   -0.049498   -0.029818    0.035452
H     0.815239    0.844248    0.275356    0.092510   -0.010662    0.068608
O     1.225297    0.587251    2.066237   -0.004646   -0.003262   -0.018226
H     2.149827    0.294580    2.052296    0.009236    0.011646    0.027150
H     0.104473    1.935460   -0.602995   -0.066836    0.037834   -0.029384
H    -2.030577   -0.950956   -0.673511   -0.038548   -0.031086    0.168036
139
* Frequency(6) -890.7100
C     0.680881    4.794749   -0.301175    0.001730    0.001642    0.000944
C    -4.312172    3.219981    0.366048    0.000548   -0.000498    0.002340
C    -5.085508   -1.845855   -0.498496   -0.001902   -0.001542    0.000308
C    -0.781138   -4.867277   -0.647917    0.001164    0.003574   -0.000574
C     4.141414   -3.178288    0.092323    0.000376    0.000572   -0.001868
C     5.099331    1.900746   -0.499983   -0.000900    0.000262   -0.000126
O    -0.217043    3.712276   -0.167954   -0.000784   -0.010730   -0.003698
O    -4.272566    2.159948   -0.535671   -0.003132   -0.000806   -0.002182
O    -3.707435   -2.022777   -0.753070   -0.012282   -0.009214   -0.004658
O     0.085634   -3.771930   -0.470672   -0.000558   -0.002246   -0.002324
O     4.086300   -2.049046   -0.728728   -0.001464   -0.000780    0.001120
O     3.729699    2.105599   -0.699103   -0.000536   -0.001870   -0.000122
C     1.334838    4.763548   -1.696667    0.000276    0.002100   -0.000304
C    -3.909287    4.496372   -0.400730    0.000890   -0.000334    0.000254
C    -5.706753   -1.061628   -1.667429   -0.000490    0.001252    0.000534
C    -1.472019   -4.720527   -2.016506    0.000800    0.002170   -0.000170
C     3.778155   -4.396062   -0.775211    0.000808   -0.000358   -0.000094
C     5.661321    1.159507   -1.725191    0.000142    0.000760   -0.000186
O     0.383607    4.684509   -2.723042   -0.001130   -0.002510    0.000500
O    -4.752811    4.743374   -1.489562    0.000332   -0.000136   -0.000122
O    -5.574036   -1.728143   -2.892804    0.000142    0.000380    0.000628
O    -0.573177   -4.699960   -3.094014   -0.000648   -0.000230    0.000738
O     4.623360   -4.527536   -1.884231   -0.000038   -0.000090    0.000120
O     5.526336    1.902088   -2.904614   -0.000194   -0.000134   -0.000178
C     2.259040    3.547514   -1.822293    0.002238    0.001740   -0.002666
C    -2.445271    4.390889   -0.870724    0.000294    0.000060   -0.000336
C    -5.062495    0.330625   -1.719649   -0.000182   -0.000756    0.001366
C    -2.236268   -3.392388   -1.995244   -0.000464    0.001144    0.001264
C     2.315193   -4.273900   -1.218608    0.000190   -0.000266   -0.000090
C     4.940980   -0.193283   -1.836927    0.000048   -0.000264   -0.000520
O     3.075200    3.627370   -2.969717    0.000998   -0.000426   -0.000942
O    -2.021002    5.607935   -1.448158    0.000196   -0.000360   -0.000082
O    -5.688610    1.150822   -2.675782    0.000970   -0.000812    0.000976
O    -2.998721   -3.183644   -3.157630   -0.000254   -0.001828    0.000590
O     1.910351   -5.427730   -1.926708   -0.000386   -0.000150   -0.000122
O     5.497391   -0.988925   -2.853038    0.000224   -0.000450   -0.000736
C     3.198086    3.420633   -0.617112    0.000262    0.000170    0.000134
C    -1.521230    4.028267    0.304732    0.001008   -0.003210   -0.001734
C    -5.148212    1.048991   -0.364995    0.001564    0.000314   -0.000364
C    -3.190281   -3.344556   -0.796194   -0.000620   -0.000792    0.000510
C     1.391658   -4.058337   -0.009710    0.001432   -0.000288    0.001342
C     5.015719   -0.988734   -0.525171    0.001028    0.000478    0.000282
C     2.478771    3.631760    0.727848   -0.000574    0.000024    0.001002
C    -2.100511    2.779665    0.977788    0.001240   -0.005438   -0.002122
C    -4.742851    0.134973    0.811845    0.002866    0.000650   -0.000816
C    -2.478782   -3.723638    0.519057   -0.000920   -0.000916   -0.001300
C     1.913357   -2.871143    0.801745    0.000658   -0.001574    0.001902
C     4.660468   -0.109434    0.689964    0.000818    0.000374    0.000330
O     1.649559    4.790428    0.705825   -0.002238    0.000162    0.000416
O    -3.419007    3.025708    1.446349   -0.000260    0.001376    0.000580
O    -5.303232   -1.179519    0.705392   -0.002960    0.000928    0.000042
O    -1.753112   -4.941171    0.357404   -0.001852    0.000988    0.000602
O     3.257851   -3.091477    1.186870   -0.000460    0.000294    0.000836
O     5.331227    1.148200    0.660684   -0.000570    0.000214    0.000752
C     3.492363    3.843348    1.862087    0.000390   -0.000120    0.000892
C    -1.305472    2.295866    2.191107   -0.003756   -0.000676    0.005224
C    -5.264613    0.651688    2.164878    0.001134   -0.000218   -0.001390
C    -3.484481   -3.950175    1.654533    0.000380   -0.000510   -0.001842
C     1.093414   -2.646841    2.125421   -0.005328    0.005798   -0.002168
C     5.063532   -0.738741    2.034451   -0.000484    0.000148    0.000158
O     4.330225    4.946093    1.629276    0.000928    0.000870   -0.000158
O    -1.465692    0.983578    2.280445   -0.000726    0.001110    0.005522
O    -6.642703    0.926239    2.139390    0.001574   -0.000696   -0.000258
O    -4.406298   -4.967354    1.354402    0.000780    0.000556    0.000676
O     2.033661   -2.024172    3.033306    0.000248    0.000520    0.001294
O     6.396504   -1.179132    2.036316    0.000674   -0.000392    0.000092
H     0.145885    5.742947   -0.174872   -0.000918   -0.001784   -0.002102
H    -5.303651    3.338474    0.819729   -0.000752   -0.001676    0.000926
H    -5.585727   -2.815257   -0.386449   -0.004352   -0.002494    0.003422
H    -0.234378   -5.815606   -0.592986   -0.000698    0.001440    0.004590
H     5.137639   -3.302445    0.536547   -0.000862   -0.000914    0.000374
H     5.631306    2.847529   -0.344201    0.001350   -0.001686   -0.000276
H     1.941901    5.678032   -1.795018   -0.001922    0.002456    0.001550
H    -4.007222    5.352932    0.275014   -0.003940   -0.001322    0.001462
H    -6.782236   -0.955051   -1.489082   -0.001126   -0.000958    0.000596
H    -2.176460   -5.558144   -2.134757   -0.003302    0.004948    0.001832
H     3.897643   -5.302232   -0.171791   -0.001724   -0.000054    0.000592
H     6.733640    0.987562   -1.583352   -0.000350   -0.000668    0.001374
H    -0.394526    5.223795   -2.491041    0.005266    0.007498   -0.008502
H    -4.904944    3.910901   -1.967588   -0.002560    0.000054    0.002118
H    -4.676653   -2.103883   -2.980070    0.000312    0.002146    0.003390
H     0.289257   -5.057657   -2.813508    0.002430    0.001032    0.002168
H     4.756858   -3.652141   -2.286644   -0.001216    0.000690   -0.000884
H     4.657198    2.348945   -2.926429   -0.000690    0.002540    0.000288
H     1.645172    2.640454   -1.877152    0.007460    0.004366   -0.024122
H    -2.376535    3.588635   -1.620034   -0.015858    0.000696   -0.002522
H    -3.998882    0.213679   -1.972425    0.001942   -0.013454    0.018598
H    -1.475691   -2.605028   -1.898502   -0.026300    0.020956    0.022134
H     2.220069   -3.392652   -1.871285   -0.004066   -0.002362   -0.000978
H     3.876898   -0.004292   -2.046079    0.001090   -0.005612   -0.006010
H     2.504945    3.791133   -3.736577    0.003130    0.003562   -0.001066
H    -2.771804    5.975627   -1.943282    0.003152    0.004300    0.001532
H    -5.814242    0.630758   -3.484874    0.001576   -0.000214   -0.000418
H    -2.447684   -3.399867   -3.925487    0.008718    0.003572    0.002408
H     2.662313   -5.716550   -2.472387    0.001266    0.002224   -0.000952
H     5.632771   -0.427255   -3.633503   -0.000322    0.000816    0.000352
H     3.998441    4.165196   -0.714319   -0.002748    0.002120    0.002600
H    -1.474709    4.851194    1.026612   -0.001342   -0.007382    0.000980
H    -6.175365    1.405973   -0.210349    0.000690    0.000584    0.002062
H    -3.999879   -4.064317   -0.969478   -0.003944   -0.000924    0.000846
H     1.383922   -4.938755    0.644528   -0.001688   -0.000590    0.001388
H     6.026196   -1.399918   -0.399688    0.000514    0.000480    0.000334
H     1.874089    2.749408    0.964369    0.000510    0.005356    0.027404
H    -2.142859    1.962122    0.248587   -0.010822   -0.044492    0.031990
H    -3.651307    0.064401    0.856515    0.010398   -0.009296   -0.029060
H    -1.771566   -2.945951    0.828656   -0.012534    0.018034   -0.021156
H     1.850469   -1.964685    0.186008   -0.002184   -0.008064   -0.002326
H     3.576388    0.061316    0.665441    0.001682   -0.004744    0.007578
H     4.142856    2.968933    1.930029    0.003338    0.001670    0.002400
H     2.939884    3.959678    2.801179    0.001822    0.000124    0.002382
H    -5.033741   -0.108216    2.919944    0.003740   -0.000262   -0.001858
H    -4.763302    1.580789    2.433598    0.000728   -0.000332   -0.001436
H    -4.068737   -3.040573    1.808700    0.006660    0.003350   -0.002634
H    -2.917044   -4.180616    2.563193    0.001680    0.001206   -0.002182
H     4.907104    0.016686    2.814273    0.001728   -0.001096    0.001788
H     4.436709   -1.605052    2.252702   -0.000272    0.000072    0.001434
H     3.785611    5.746722    1.629232    0.000216   -0.000176    0.002220
H    -7.117656    0.092249    2.015835   -0.000902    0.001164   -0.003236
H    -3.922179   -5.801731    1.280151    0.001722   -0.000122   -0.001984
H     6.976417   -0.404691    1.981213   -0.001198    0.001186    0.000392
C     1.296971   -1.113081    3.807166    0.002264    0.002824    0.000272
H     1.991837   -0.455165    4.324430    0.004962    0.001024   -0.000858
H     0.643285   -1.639327    4.512365   -0.000048    0.006204    0.000364
O     0.416038   -3.597908    2.585617    0.000440   -0.003032    0.002070
C    -0.793954    0.260962    3.298269    0.000986    0.002400    0.000040
H    -1.476888   -0.506759    3.659627    0.007088   -0.000430    0.002768
H    -0.489659    0.937118    4.100795    0.000480    0.007520   -0.001736
O    -0.671519    2.985754    2.944454    0.000848    0.001626    0.000562
C     0.462789   -0.409196    2.722590   -0.001658   -0.001524   -0.001200
O     0.177631   -1.425344    1.811375    0.015220   -0.006888    0.006046
H    -1.088177   -0.903540    0.604512   -0.070694    0.036248   -0.079740
O    -1.536754   -0.358032   -0.083945   -0.036936   -0.012528   -0.006250
H    -0.715941    0.211308   -0.486063    1.554016    1.120070   -0.498208
O     0.411213    1.004482   -0.608645   -0.049498   -0.029818    0.035452
H     0.804581    0.845476    0.267452    0.092510   -0.010662    0.068608
O     1.225833    0.587627    2.068337   -0.004646   -0.003262   -0.018226
H     2.148763    0.293238    2.049168    0.009236    0.011646    0.027150
H     0.112173    1.931100   -0.599609   -0.066836    0.037834   -0.029384
H    -2.026135   -0.947374   -0.692871   -0.038548   -0.031086    0.168036
139
* Frequency(6) -890.7100
C     0.680693    4.794570   -0.301278    0.001730    0.001642    0.000944
C    -4.312231    3.220035    0.365793    0.000548   -0.000498    0.002340
C    -5.085301   -1.845687   -0.498529   -0.001902   -0.001542    0.000308
C    -0.781265   -4.867666   -0.647854    0.001164    0.003574   -0.000574
C     4.141373   -3.178350    0.092526    0.000376    0.000572   -0.001868
C     5.099429    1.900717   -0.499969   -0.000900    0.000262   -0.000126
O    -0.216957    3.713445   -0.167551   -0.000784   -0.010730   -0.003698
O    -4.272224    2.160036   -0.535434   -0.003132   -0.000806   -0.002182
O    -3.706097   -2.021773   -0.752562   -0.012282   -0.009214   -0.004658
O     0.085695   -3.771685   -0.470419   -0.000558   -0.002246   -0.002324
O     4.086460   -2.048961   -0.728850   -0.001464   -0.000780    0.001120
O     3.729757    2.105803   -0.699090   -0.000536   -0.001870   -0.000122
C     1.334808    4.763319   -1.696634    0.000276    0.002100   -0.000304
C    -3.909384    4.496409   -0.400757    0.000890   -0.000334    0.000254
C    -5.706699   -1.061765   -1.667487   -0.000490    0.001252    0.000534
C    -1.472106   -4.720763   -2.016488    0.000800    0.002170   -0.000170
C     3.778067   -4.396023   -0.775200    0.000808   -0.000358   -0.000094
C     5.661305    1.159424   -1.725171    0.000142    0.000760   -0.000186
O     0.383730    4.684782   -2.723096   -0.001130   -0.002510    0.000500
O    -4.752847    4.743389   -1.489549    0.000332   -0.000136   -0.000122
O    -5.574052   -1.728184   -2.892873    0.000142    0.000380    0.000628
O    -0.573106   -4.699935   -3.094094   -0.000648   -0.000230    0.000738
O     4.623364   -4.527526   -1.884244   -0.000038   -0.000090    0.000120
O     5.526357    1.902102   -2.904594   -0.000194   -0.000134   -0.000178
C     2.258796    3.547324   -1.822003    0.002238    0.001740   -0.002666
C    -2.445303    4.390882   -0.870687    0.000294    0.000060   -0.000336
C    -5.062475    0.330707   -1.719798   -0.000182   -0.000756    0.001366
C    -2.236218   -3.392513   -1.995382   -0.000464    0.001144    0.001264
C     2.315172   -4.273871   -1.218598    0.000190   -0.000266   -0.000090
C     4.940975   -0.193254   -1.836870    0.000048   -0.000264   -0.000520
O     3.075091    3.627416   -2.969614    0.000998   -0.000426   -0.000942
O    -2.021024    5.607974   -1.448149    0.000196   -0.000360   -0.000082
O    -5.688716    1.150910   -2.675889    0.000970   -0.000812    0.000976
O    -2.998694   -3.183444   -3.157694   -0.000254   -0.001828    0.000590
O     1.910393   -5.427714   -1.926695   -0.000386   -0.000150   -0.000122
O     5.497367   -0.988876   -2.852957    0.000224   -0.000450   -0.000736
C     3.198057    3.420615   -0.617126    0.000262    0.000170    0.000134
C    -1.521340    4.028617    0.304921    0.001008   -0.003210   -0.001734
C    -5.148383    1.048957   -0.364955    0.001564    0.000314   -0.000364
C    -3.190214   -3.344470   -0.796250   -0.000620   -0.000792    0.000510
C     1.391501   -4.058306   -0.009857    0.001432   -0.000288    0.001342
C     5.015607   -0.988786   -0.525202    0.001028    0.000478    0.000282
C     2.478834    3.631757    0.727739   -0.000574    0.000024    0.001002
C    -2.100647    2.780258    0.978019    0.001240   -0.005438   -0.002122
C    -4.743163    0.134902    0.811934    0.002866    0.000650   -0.000816
C    -2.478682   -3.723538    0.519199   -0.000920   -0.000916   -0.001300
C     1.913285   -2.870972    0.801538    0.000658   -0.001574    0.001902
C     4.660379   -0.109474    0.689928    0.000818    0.000374    0.000330
O     1.649803    4.790410    0.705780   -0.002238    0.000162    0.000416
O    -3.418979    3.025558    1.446285   -0.000260    0.001376    0.000580
O    -5.302910   -1.179621    0.705387   -0.002960    0.000928    0.000042
O    -1.752910   -4.941279    0.357339   -0.001852    0.000988    0.000602
O     3.257902   -3.091509    1.186779   -0.000460    0.000294    0.000836
O     5.331289    1.148176    0.660602   -0.000570    0.000214    0.000752
C     3.492320    3.843361    1.861989    0.000390   -0.000120    0.000892
C    -1.305062    2.295940    2.190538   -0.003756   -0.000676    0.005224
C    -5.264737    0.651711    2.165030    0.001134   -0.000218   -0.001390
C    -3.484522   -3.950119    1.654734    0.000380   -0.000510   -0.001842
C     1.093995   -2.647473    2.125657   -0.005328    0.005798   -0.002168
C     5.063585   -0.738757    2.034434   -0.000484    0.000148    0.000158
O     4.330123    4.945998    1.629293    0.000928    0.000870   -0.000158
O    -1.465613    0.983457    2.279843   -0.000726    0.001110    0.005522
O    -6.642874    0.926315    2.139418    0.001574   -0.000696   -0.000258
O    -4.406383   -4.967415    1.354328    0.000780    0.000556    0.000676
O     2.033634   -2.024229    3.033165    0.000248    0.000520    0.001294
O     6.396431   -1.179090    2.036306    0.000674   -0.000392    0.000092
H     0.145985    5.743141   -0.174643   -0.000918   -0.001784   -0.002102
H    -5.303569    3.338656    0.819628   -0.000752   -0.001676    0.000926
H    -5.585253   -2.814986   -0.386822   -0.004352   -0.002494    0.003422
H    -0.234302   -5.815763   -0.593487   -0.000698    0.001440    0.004590
H     5.137733   -3.302346    0.536507   -0.000862   -0.000914    0.000374
H     5.631159    2.847713   -0.344171    0.001350   -0.001686   -0.000276
H     1.942110    5.677764   -1.795187   -0.001922    0.002456    0.001550
H    -4.006793    5.353076    0.274854   -0.003940   -0.001322    0.001462
H    -6.782113   -0.954946   -1.489147   -0.001126   -0.000958    0.000596
H    -2.176100   -5.558683   -2.134956   -0.003302    0.004948    0.001832
H     3.897831   -5.302226   -0.171856   -0.001724   -0.000054    0.000592
H     6.733678    0.987635   -1.583502   -0.000350   -0.000668    0.001374
H    -0.395100    5.222978   -2.490115    0.005266    0.007498   -0.008502
H    -4.904665    3.910895   -1.967819   -0.002560    0.000054    0.002118
H    -4.676687   -2.104116   -2.980440    0.000312    0.002146    0.003390
H     0.288992   -5.057770   -2.813744    0.002430    0.001032    0.002168
H     4.756991   -3.652216   -2.286548   -0.001216    0.000690   -0.000884
H     4.657273    2.348668   -2.926460   -0.000690    0.002540    0.000288
H     1.644359    2.639979   -1.874524    0.007460    0.004366   -0.024122
H    -2.374807    3.588559   -1.619759   -0.015858    0.000696   -0.002522
H    -3.999094    0.215145   -1.974452    0.001942   -0.013454    0.018598
H    -1.472825   -2.607312   -1.900914   -0.026300    0.020956    0.022134
H     2.220512   -3.392395   -1.871178   -0.004066   -0.002362   -0.000978
H     3.876779   -0.003680   -2.045424    0.001090   -0.005612   -0.006010
H     2.504604    3.790745   -3.736460    0.003130    0.003562   -0.001066
H    -2.772147    5.975159   -1.943449    0.003152    0.004300    0.001532
H    -5.814414    0.630782   -3.484828    0.001576   -0.000214   -0.000418
H    -2.448634   -3.400256   -3.925749    0.008718    0.003572    0.002408
H     2.662175   -5.716792   -2.472283    0.001266    0.002224   -0.000952
H     5.632806   -0.427344   -3.633542   -0.000322    0.000816    0.000352
H     3.998741    4.164965   -0.714602   -0.002748    0.002120    0.002600
H    -1.474562    4.851999    1.026505   -0.001342   -0.007382    0.000980
H    -6.175440    1.405910   -0.210573    0.000690    0.000584    0.002062
H    -3.999449   -4.064216   -0.969570   -0.003944   -0.000924    0.000846
H     1.384106   -4.938691    0.644377   -0.001688   -0.000590    0.001388
H     6.026140   -1.399970   -0.399725    0.000514    0.000480    0.000334
H     1.874033    2.748825    0.961383    0.000510    0.005356    0.027404
H    -2.141679    1.966971    0.245101   -0.010822   -0.044492    0.031990
H    -3.652440    0.065414    0.859682    0.010398   -0.009296   -0.029060
H    -1.770200   -2.947916    0.830961   -0.012534    0.018034   -0.021156
H     1.850707   -1.963807    0.186261   -0.002184   -0.008064   -0.002326
H     3.576205    0.061833    0.664616    0.001682   -0.004744    0.007578
H     4.142492    2.968751    1.929767    0.003338    0.001670    0.002400
H     2.939685    3.959664    2.800919    0.001822    0.000124    0.002382
H    -5.034149   -0.108187    2.920147    0.003740   -0.000262   -0.001858
H    -4.763381    1.580825    2.433754    0.000728   -0.000332   -0.001436
H    -4.069462   -3.040938    1.808987    0.006660    0.003350   -0.002634
H    -2.917227   -4.180748    2.563430    0.001680    0.001206   -0.002182
H     4.906916    0.016806    2.814078    0.001728   -0.001096    0.001788
H     4.436738   -1.605060    2.252546   -0.000272    0.000072    0.001434
H     3.785587    5.746741    1.628990    0.000216   -0.000176    0.002220
H    -7.117558    0.092122    2.016188   -0.000902    0.001164   -0.003236
H    -3.922367   -5.801718    1.280367    0.001722   -0.000122   -0.001984
H     6.976548   -0.404821    1.981171   -0.001198    0.001186    0.000392
C     1.296724   -1.113388    3.807137    0.002264    0.002824    0.000272
H     1.991296   -0.455277    4.324524    0.004962    0.001024   -0.000858
H     0.643290   -1.640003    4.512325   -0.000048    0.006204    0.000364
O     0.415990   -3.597578    2.585391    0.000440   -0.003032    0.002070
C    -0.794061    0.260700    3.298264    0.000986    0.002400    0.000040
H    -1.477661   -0.506712    3.659325    0.007088   -0.000430    0.002768
H    -0.489711    0.936298    4.100984    0.000480    0.007520   -0.001736
O    -0.671611    2.985577    2.944392    0.000848    0.001626    0.000562
C     0.462969   -0.409030    2.722721   -0.001658   -0.001524   -0.001200
O     0.175973   -1.424594    1.810716    0.015220   -0.006888    0.006046
H    -1.080474   -0.907490    0.613201   -0.070694    0.036248   -0.079740
O    -1.532729   -0.356667   -0.083264   -0.036936   -0.012528   -0.006250
H    -0.885287    0.089250   -0.431772    1.554016    1.120070   -0.498208
O     0.416607    1.007731   -0.612509   -0.049498   -0.029818    0.035452
H     0.794500    0.846638    0.259975    0.092510   -0.010662    0.068608
O     1.226339    0.587982    2.070323   -0.004646   -0.003262   -0.018226
H     2.147756    0.291969    2.046209    0.009236    0.011646    0.027150
H     0.119457    1.926978   -0.596407   -0.066836    0.037834   -0.029384
H    -2.021935   -0.943987   -0.711183   -0.038548   -0.031086    0.168036
139
* Frequency(6) -890.7100
C     0.680536    4.794421   -0.301364    0.001730    0.001642    0.000944
C    -4.312281    3.220080    0.365580    0.000548   -0.000498    0.002340
C    -5.085128   -1.845547   -0.498557   -0.001902   -0.001542    0.000308
C    -0.781371   -4.867991   -0.647802    0.001164    0.003574   -0.000574
C     4.141339   -3.178402    0.092696    0.000376    0.000572   -0.001868
C     5.099511    1.900694   -0.499958   -0.000900    0.000262   -0.000126
O    -0.216886    3.714421   -0.167215   -0.000784   -0.010730   -0.003698
O    -4.271939    2.160110   -0.535235   -0.003132   -0.000806   -0.002182
O    -3.704980   -2.020935   -0.752139   -0.012282   -0.009214   -0.004658
O     0.085746   -3.771481   -0.470208   -0.000558   -0.002246   -0.002324
O     4.086593   -2.048890   -0.728951   -0.001464   -0.000780    0.001120
O     3.729806    2.105973   -0.699079   -0.000536   -0.001870   -0.000122
C     1.334783    4.763128   -1.696607    0.000276    0.002100   -0.000304
C    -3.909465    4.496439   -0.400780    0.000890   -0.000334    0.000254
C    -5.706655   -1.061878   -1.667536   -0.000490    0.001252    0.000534
C    -1.472179   -4.720961   -2.016472    0.000800    0.002170   -0.000170
C     3.777994   -4.395991   -0.775192    0.000808   -0.000358   -0.000094
C     5.661292    1.159355   -1.725154    0.000142    0.000760   -0.000186
O     0.383833    4.685010   -2.723142   -0.001130   -0.002510    0.000500
O    -4.752877    4.743401   -1.489538    0.000332   -0.000136   -0.000122
O    -5.574065   -1.728219   -2.892930    0.000142    0.000380    0.000628
O    -0.573047   -4.699914   -3.094161   -0.000648   -0.000230    0.000738
O     4.623368   -4.527518   -1.884255   -0.000038   -0.000090    0.000120
O     5.526375    1.902115   -2.904578   -0.000194   -0.000134   -0.000178
C     2.258593    3.547166   -1.821760    0.002238    0.001740   -0.002666
C    -2.445330    4.390877   -0.870656    0.000294    0.000060   -0.000336
C    -5.062458    0.330776   -1.719922   -0.000182   -0.000756    0.001366
C    -2.236176   -3.392617   -1.995496   -0.000464    0.001144    0.001264
C     2.315155   -4.273847   -1.218590    0.000190   -0.000266   -0.000090
C     4.940971   -0.193230   -1.836823    0.000048   -0.000264   -0.000520
O     3.075000    3.627455   -2.969528    0.000998   -0.000426   -0.000942
O    -2.021041    5.608007   -1.448142    0.000196   -0.000360   -0.000082
O    -5.688804    1.150984   -2.675977    0.000970   -0.000812    0.000976
O    -2.998671   -3.183278   -3.157748   -0.000254   -0.001828    0.000590
O     1.910428   -5.427700   -1.926684   -0.000386   -0.000150   -0.000122
O     5.497346   -0.988835   -2.852890    0.000224   -0.000450   -0.000736
C     3.198034    3.420599   -0.617139    0.000262    0.000170    0.000134
C    -1.521432    4.028909    0.305079    0.001008   -0.003210   -0.001734
C    -5.148525    1.048928   -0.364922    0.001564    0.000314   -0.000364
C    -3.190157   -3.344398   -0.796296   -0.000620   -0.000792    0.000510
C     1.391371   -4.058280   -0.009979    0.001432   -0.000288    0.001342
C     5.015513   -0.988829   -0.525228    0.001028    0.000478    0.000282
C     2.478886    3.631755    0.727648   -0.000574    0.000024    0.001002
C    -2.100759    2.780752    0.978212    0.001240   -0.005438   -0.002122
C    -4.743424    0.134843    0.812008    0.002866    0.000650   -0.000816
C    -2.478598   -3.723455    0.519317   -0.000920   -0.000916   -0.001300
C     1.913226   -2.870829    0.801365    0.000658   -0.001574    0.001902
C     4.660304   -0.109508    0.689898    0.000818    0.000374    0.000330
O     1.650006    4.790395    0.705742   -0.002238    0.000162    0.000416
O    -3.418955    3.025433    1.446233   -0.000260    0.001376    0.000580
O    -5.302641   -1.179705    0.705383   -0.002960    0.000928    0.000042
O    -1.752742   -4.941368    0.357284   -0.001852    0.000988    0.000602
O     3.257943   -3.091536    1.186703   -0.000460    0.000294    0.000836
O     5.331341    1.148157    0.660533   -0.000570    0.000214    0.000752
C     3.492285    3.843372    1.861908    0.000390   -0.000120    0.000892
C    -1.304721    2.296001    2.190063   -0.003756   -0.000676    0.005224
C    -5.264840    0.651731    2.165156    0.001134   -0.000218   -0.001390
C    -3.484557   -3.950073    1.654901    0.000380   -0.000510   -0.001842
C     1.094479   -2.648000    2.125854   -0.005328    0.005798   -0.002168
C     5.063629   -0.738770    2.034419   -0.000484    0.000148    0.000158
O     4.330039    4.945919    1.629308    0.000928    0.000870   -0.000158
O    -1.465547    0.983356    2.279341   -0.000726    0.001110    0.005522
O    -6.643017    0.926378    2.139441    0.001574   -0.000696   -0.000258
O    -4.406454   -4.967465    1.354267    0.000780    0.000556    0.000676
O     2.033611   -2.024276    3.033048    0.000248    0.000520    0.001294
O     6.396369   -1.179054    2.036297    0.000674   -0.000392    0.000092
H     0.146068    5.743303   -0.174452   -0.000918   -0.001784   -0.002102
H    -5.303500    3.338809    0.819544   -0.000752   -0.001676    0.000926
H    -5.584857   -2.814759   -0.387133   -0.004352   -0.002494    0.003422
H    -0.234238   -5.815894   -0.593904   -0.000698    0.001440    0.004590
H     5.137811   -3.302263    0.536473   -0.000862   -0.000914    0.000374
H     5.631036    2.847866   -0.344146    0.001350   -0.001686   -0.000276
H     1.942285    5.677541   -1.795328   -0.001922    0.002456    0.001550
H    -4.006434    5.353196    0.274722   -0.003940   -0.001322    0.001462
H    -6.782011   -0.954859   -1.489201   -0.001126   -0.000958    0.000596
H    -2.175800   -5.559133   -2.135123   -0.003302    0.004948    0.001832
H     3.897988   -5.302221   -0.171909   -0.001724   -0.000054    0.000592
H     6.733710    0.987696   -1.583627   -0.000350   -0.000668    0.001374
H    -0.395579    5.222296   -2.489342    0.005266    0.007498   -0.008502
H    -4.904432    3.910890   -1.968011   -0.002560    0.000054    0.002118
H    -4.676715   -2.104312   -2.980748    0.000312    0.002146    0.003390
H     0.288771   -5.057864   -2.813941    0.002430    0.001032    0.002168
H     4.757101   -3.652279   -2.286467   -0.001216    0.000690   -0.000884
H     4.657336    2.348437   -2.926486   -0.000690    0.002540    0.000288
H     1.643681    2.639582   -1.872331    0.007460    0.004366   -0.024122
H    -2.373366    3.588496   -1.619530   -0.015858    0.000696   -0.002522
H    -3.999270    0.216368   -1.976143    0.001942   -0.013454    0.018598
H    -1.470434   -2.609217   -1.902927   -0.026300    0.020956    0.022134
H     2.220882   -3.392180   -1.871089   -0.004066   -0.002362   -0.000978
H     3.876680   -0.003170   -2.044877    0.001090   -0.005612   -0.006010
H     2.504319    3.790421   -3.736364    0.003130    0.003562   -0.001066
H    -2.772434    5.974768   -1.943588    0.003152    0.004300    0.001532
H    -5.814557    0.630801   -3.484790    0.001576   -0.000214   -0.000418
H    -2.449427   -3.400581   -3.925968    0.008718    0.003572    0.002408
H     2.662060   -5.716995   -2.472197    0.001266    0.002224   -0.000952
H     5.632835   -0.427418   -3.633574   -0.000322    0.000816    0.000352
H     3.998991    4.164772   -0.714839   -0.002748    0.002120    0.002600
H    -1.474440    4.852670    1.026416   -0.001342   -0.007382    0.000980
H    -6.175503    1.405857   -0.210761    0.000690    0.000584    0.002062
H    -3.999090   -4.064132   -0.969647   -0.003944   -0.000924    0.000846
H     1.384260   -4.938637    0.644251   -0.001688   -0.000590    0.001388
H     6.026094   -1.400014   -0.399755    0.000514    0.000480    0.000334
H     1.873987    2.748338    0.958891    0.000510    0.005356    0.027404
H    -2.140695    1.971016    0.242192   -0.010822   -0.044492    0.031990
H    -3.653386    0.066259    0.862324    0.010398   -0.009296   -0.029060
H    -1.769060   -2.949556    0.832885   -0.012534    0.018034   -0.021156
H     1.850905   -1.963073    0.186473   -0.002184   -0.008064   -0.002326
H     3.576052    0.062265    0.663927    0.001682   -0.004744    0.007578
H     4.142188    2.968599    1.929549    0.003338    0.001670    0.002400
H     2.939520    3.959653    2.800703    0.001822    0.000124    0.002382
H    -5.034489   -0.108164    2.920315    0.003740   -0.000262   -0.001858
H    -4.763447    1.580855    2.433885    0.000728   -0.000332   -0.001436
H    -4.070068   -3.041243    1.809226    0.006660    0.003350   -0.002634
H    -2.917380   -4.180858    2.563629    0.001680    0.001206   -0.002182
H     4.906759    0.016905    2.813916    0.001728   -0.001096    0.001788
H     4.436763   -1.605067    2.252416   -0.000272    0.000072    0.001434
H     3.785567    5.746757    1.628788    0.000216   -0.000176    0.002220
H    -7.117476    0.092016    2.016482   -0.000902    0.001164   -0.003236
H    -3.922523   -5.801707    1.280548    0.001722   -0.000122   -0.001984
H     6.976656   -0.404928    1.981135   -0.001198    0.001186    0.000392
C     1.296518   -1.113645    3.807112    0.002264    0.002824    0.000272
H     1.990845   -0.455370    4.324602    0.004962    0.001024   -0.000858
H     0.643294   -1.640568    4.512292   -0.000048    0.006204    0.000364
O     0.415950   -3.597302    2.585203    0.000440   -0.003032    0.002070
C    -0.794151    0.260482    3.298261    0.000986    0.002400    0.000040
H    -1.478305   -0.506673    3.659073    0.007088   -0.000430    0.002768
H    -0.489755    0.935615    4.101142    0.000480    0.007520   -0.001736
O    -0.671688    2.985429    2.944341    0.000848    0.001626    0.000562
C     0.463120   -0.408892    2.722830   -0.001658   -0.001524   -0.001200
O     0.174589   -1.423967    1.810166    0.015220   -0.006888    0.006046
H    -1.074046   -0.910786    0.620451   -0.070694    0.036248   -0.079740
O    -1.529371   -0.355528   -0.082696   -0.036936   -0.012528   -0.006250
H    -1.026581   -0.012589   -0.386474    1.554016    1.120070   -0.498208
O     0.421108    1.010442   -0.615732   -0.049498   -0.029818    0.035452
H     0.786088    0.847608    0.253737    0.092510   -0.010662    0.068608
O     1.226761    0.588279    2.071980   -0.004646   -0.003262   -0.018226
H     2.146917    0.290910    2.043741    0.009236    0.011646    0.027150
H     0.125533    1.923538   -0.593736   -0.066836    0.037834   -0.029384
H    -2.018430   -0.941160   -0.726461   -0.038548   -0.031086    0.168036
139
* Frequency(6) -890.7100
C     0.680426    4.794318   -0.301424    0.001730    0.001642    0.000944
C    -4.312316    3.220112    0.365433    0.000548   -0.000498    0.002340
C    -5.085008   -1.845450   -0.498577   -0.001902   -0.001542    0.000308
C    -0.781444   -4.868217   -0.647766    0.001164    0.003574   -0.000574
C     4.141315   -3.178438    0.092814    0.000376    0.000572   -0.001868
C     5.099567    1.900677   -0.499950   -0.000900    0.000262   -0.000126
O    -0.216837    3.715097   -0.166982   -0.000784   -0.010730   -0.003698
O    -4.271742    2.160160   -0.535098   -0.003132   -0.000806   -0.002182
O    -3.704206   -2.020355   -0.751845   -0.012282   -0.009214   -0.004658
O     0.085781   -3.771339   -0.470061   -0.000558   -0.002246   -0.002324
O     4.086685   -2.048841   -0.729022   -0.001464   -0.000780    0.001120
O     3.729840    2.106090   -0.699071   -0.000536   -0.001870   -0.000122
C     1.334766    4.762996   -1.696588    0.000276    0.002100   -0.000304
C    -3.909521    4.496460   -0.400796    0.000890   -0.000334    0.000254
C    -5.706624   -1.061957   -1.667569   -0.000490    0.001252    0.000534
C    -1.472229   -4.721098   -2.016462    0.000800    0.002170   -0.000170
C     3.777943   -4.395968   -0.775186    0.000808   -0.000358   -0.000094
C     5.661283    1.159307   -1.725142    0.000142    0.000760   -0.000186
O     0.383904    4.685169   -2.723173   -0.001130   -0.002510    0.000500
O    -4.752898    4.743410   -1.489530    0.000332   -0.000136   -0.000122
O    -5.574074   -1.728243   -2.892969    0.000142    0.000380    0.000628
O    -0.573006   -4.699899   -3.094208   -0.000648   -0.000230    0.000738
O     4.623370   -4.527512   -1.884262   -0.000038   -0.000090    0.000120
O     5.526387    1.902123   -2.904567   -0.000194   -0.000134   -0.000178
C     2.258452    3.547056   -1.821592    0.002238    0.001740   -0.002666
C    -2.445348    4.390873   -0.870635    0.000294    0.000060   -0.000336
C    -5.062447    0.330823   -1.720008   -0.000182   -0.000756    0.001366
C    -2.236146   -3.392689   -1.995576   -0.000464    0.001144    0.001264
C     2.315143   -4.273830   -1.218584    0.000190   -0.000266   -0.000090
C     4.940968   -0.193213   -1.836790    0.000048   -0.000264   -0.000520
O     3.074937    3.627482   -2.969469    0.000998   -0.000426   -0.000942
O    -2.021054    5.608029   -1.448137    0.000196   -0.000360   -0.000082
O    -5.688865    1.151035   -2.676039    0.000970   -0.000812    0.000976
O    -2.998655   -3.183163   -3.157785   -0.000254   -0.001828    0.000590
O     1.910453   -5.427691   -1.926676   -0.000386   -0.000150   -0.000122
O     5.497332   -0.988807   -2.852844    0.000224   -0.000450   -0.000736
C     3.198017    3.420589   -0.617147    0.000262    0.000170    0.000134
C    -1.521495    4.029111    0.305188    0.001008   -0.003210   -0.001734
C    -5.148623    1.048908   -0.364899    0.001564    0.000314   -0.000364
C    -3.190118   -3.344348   -0.796328   -0.000620   -0.000792    0.000510
C     1.391281   -4.058262   -0.010063    0.001432   -0.000288    0.001342
C     5.015449   -0.988859   -0.525245    0.001028    0.000478    0.000282
C     2.478922    3.631753    0.727585   -0.000574    0.000024    0.001002
C    -2.100837    2.781095    0.978346    0.001240   -0.005438   -0.002122
C    -4.743605    0.134802    0.812060    0.002866    0.000650   -0.000816
C    -2.478540   -3.723397    0.519399   -0.000920   -0.000916   -0.001300
C     1.913184   -2.870730    0.801245    0.000658   -0.001574    0.001902
C     4.660253   -0.109532    0.689877    0.000818    0.000374    0.000330
O     1.650147    4.790385    0.705716   -0.002238    0.000162    0.000416
O    -3.418939    3.025346    1.446196   -0.000260    0.001376    0.000580
O    -5.302454   -1.179763    0.705381   -0.002960    0.000928    0.000042
O    -1.752625   -4.941431    0.357246   -0.001852    0.000988    0.000602
O     3.257972   -3.091554    1.186650   -0.000460    0.000294    0.000836
O     5.331377    1.148143    0.660486   -0.000570    0.000214    0.000752
C     3.492260    3.843379    1.861852    0.000390   -0.000120    0.000892
C    -1.304484    2.296044    2.189734   -0.003756   -0.000676    0.005224
C    -5.264911    0.651745    2.165244    0.001134   -0.000218   -0.001390
C    -3.484581   -3.950041    1.655017    0.000380   -0.000510   -0.001842
C     1.094815   -2.648365    2.125991   -0.005328    0.005798   -0.002168
C     5.063659   -0.738779    2.034409   -0.000484    0.000148    0.000158
O     4.329981    4.945864    1.629318    0.000928    0.000870   -0.000158
O    -1.465501    0.983286    2.278993   -0.000726    0.001110    0.005522
O    -6.643116    0.926422    2.139458    0.001574   -0.000696   -0.000258
O    -4.406503   -4.967500    1.354224    0.000780    0.000556    0.000676
O     2.033596   -2.024309    3.032966    0.000248    0.000520    0.001294
O     6.396327   -1.179029    2.036292    0.000674   -0.000392    0.000092
H     0.146126    5.743416   -0.174319   -0.000918   -0.001784   -0.002102
H    -5.303453    3.338914    0.819485   -0.000752   -0.001676    0.000926
H    -5.584583   -2.814602   -0.387349   -0.004352   -0.002494    0.003422
H    -0.234194   -5.815985   -0.594193   -0.000698    0.001440    0.004590
H     5.137865   -3.302205    0.536449   -0.000862   -0.000914    0.000374
H     5.630951    2.847972   -0.344129    0.001350   -0.001686   -0.000276
H     1.942406    5.677386   -1.795426   -0.001922    0.002456    0.001550
H    -4.006186    5.353280    0.274629   -0.003940   -0.001322    0.001462
H    -6.781940   -0.954799   -1.489239   -0.001126   -0.000958    0.000596
H    -2.175592   -5.559445   -2.135238   -0.003302    0.004948    0.001832
H     3.898097   -5.302218   -0.171947   -0.001724   -0.000054    0.000592
H     6.733732    0.987738   -1.583713   -0.000350   -0.000668    0.001374
H    -0.395911    5.221824   -2.488806    0.005266    0.007498   -0.008502
H    -4.904270    3.910887   -1.968145   -0.002560    0.000054    0.002118
H    -4.676735   -2.104447   -2.980962    0.000312    0.002146    0.003390
H     0.288618   -5.057929   -2.814078    0.002430    0.001032    0.002168
H     4.757178   -3.652322   -2.286412   -0.001216    0.000690   -0.000884
H     4.657379    2.348277   -2.926504   -0.000690    0.002540    0.000288
H     1.643211    2.639307   -1.870810    0.007460    0.004366   -0.024122
H    -2.372366    3.588452   -1.619371   -0.015858    0.000696   -0.002522
H    -3.999392    0.217216   -1.977315    0.001942   -0.013454    0.018598
H    -1.468776   -2.610538   -1.904321   -0.026300    0.020956    0.022134
H     2.221138   -3.392031   -1.871028   -0.004066   -0.002362   -0.000978
H     3.876612   -0.002816   -2.044499    0.001090   -0.005612   -0.006010
H     2.504122    3.790196   -3.736296    0.003130    0.003562   -0.001066
H    -2.772632    5.974497   -1.943685    0.003152    0.004300    0.001532
H    -5.814656    0.630815   -3.484764    0.001576   -0.000214   -0.000418
H    -2.449976   -3.400806   -3.926120    0.008718    0.003572    0.002408
H     2.661980   -5.717135   -2.472137    0.001266    0.002224   -0.000952
H     5.632855   -0.427470   -3.633596   -0.000322    0.000816    0.000352
H     3.999164    4.164638   -0.715002   -0.002748    0.002120    0.002600
H    -1.474356    4.853135    1.026354   -0.001342   -0.007382    0.000980
H    -6.175546    1.405820   -0.210891    0.000690    0.000584    0.002062
H    -3.998842   -4.064074   -0.969700   -0.003944   -0.000924    0.000846
H     1.384366   -4.938600    0.644163   -0.001688   -0.000590    0.001388
H     6.026061   -1.400044   -0.399776    0.000514    0.000480    0.000334
H     1.873955    2.748000    0.957164    0.000510    0.005356    0.027404
H    -2.140013    1.973820    0.240177   -0.010822   -0.044492    0.031990
H    -3.654041    0.066845    0.864155    0.010398   -0.009296   -0.029060
H    -1.768271   -2.950692    0.834218   -0.012534    0.018034   -0.021156
H     1.851043   -1.962565    0.186620   -0.002184   -0.008064   -0.002326
H     3.575946    0.062564    0.663449    0.001682   -0.004744    0.007578
H     4.141978    2.968494    1.929398    0.003338    0.001670    0.002400
H     2.939405    3.959645    2.800553    0.001822    0.000124    0.002382
H    -5.034725   -0.108147    2.920433    0.003740   -0.000262   -0.001858
H    -4.763493    1.580876    2.433975    0.000728   -0.000332   -0.001436
H    -4.070488   -3.041454    1.809392    0.006660    0.003350   -0.002634
H    -2.917485   -4.180934    2.563766    0.001680    0.001206   -0.002182
H     4.906650    0.016974    2.813803    0.001728   -0.001096    0.001788
H     4.436780   -1.605071    2.252325   -0.000272    0.000072    0.001434
H     3.785554    5.746768    1.628648    0.000216   -0.000176    0.002220
H    -7.117419    0.091943    2.016686   -0.000902    0.001164   -0.003236
H    -3.922632   -5.801699    1.280673    0.001722   -0.000122   -0.001984
H     6.976732   -0.405003    1.981110   -0.001198    0.001186    0.000392
C     1.296375   -1.113823    3.807095    0.002264    0.002824    0.000272
H     1.990533   -0.455434    4.324656    0.004962    0.001024   -0.000858
H     0.643297   -1.640959    4.512269   -0.000048    0.006204    0.000364
O     0.415922   -3.597111    2.585073    0.000440   -0.003032    0.002070
C    -0.794213    0.260331    3.298258    0.000986    0.002400    0.000040
H    -1.478752   -0.506646    3.658899    0.007088   -0.000430    0.002768
H    -0.489785    0.935141    4.101251    0.000480    0.007520   -0.001736
O    -0.671742    2.985327    2.944306    0.000848    0.001626    0.000562
C     0.463224   -0.408796    2.722906   -0.001658   -0.001524   -0.001200
O     0.173630   -1.423533    1.809785    0.015220   -0.006888    0.006046
H    -1.069591   -0.913070    0.625476   -0.070694    0.036248   -0.079740
O    -1.527043   -0.354739   -0.082302   -0.036936   -0.012528   -0.006250
H    -1.124511   -0.083173   -0.355078    1.554016    1.120070   -0.498208
O     0.424227    1.012321   -0.617966   -0.049498   -0.029818    0.035452
H     0.780259    0.848279    0.249414    0.092510   -0.010662    0.068608
O     1.227054    0.588485    2.073129   -0.004646   -0.003262   -0.018226
H     2.146335    0.290176    2.042030    0.009236    0.011646    0.027150
H     0.129745    1.921153   -0.591884   -0.066836    0.037834   -0.029384
H    -2.016001   -0.939201   -0.737050   -0.038548   -0.031086    0.168036
139
* Frequency(6) -890.7100
C     0.680378    4.794271   -0.301450    0.001730    0.001642    0.000944
C    -4.312331    3.220126    0.365367    0.000548   -0.000498    0.002340
C    -5.084955   -1.845406   -0.498585   -0.001902   -0.001542    0.000308
C    -0.781477   -4.868318   -0.647750    0.001164    0.003574   -0.000574
C     4.141305   -3.178455    0.092867    0.000376    0.000572   -0.001868
C     5.099593    1.900670   -0.499946   -0.000900    0.000262   -0.000126
O    -0.216815    3.715401   -0.166877   -0.000784   -0.010730   -0.003698
O    -4.271654    2.160183   -0.535036   -0.003132   -0.000806   -0.002182
O    -3.703859   -2.020094   -0.751713   -0.012282   -0.009214   -0.004658
O     0.085797   -3.771276   -0.469995   -0.000558   -0.002246   -0.002324
O     4.086727   -2.048819   -0.729054   -0.001464   -0.000780    0.001120
O     3.729855    2.106143   -0.699067   -0.000536   -0.001870   -0.000122
C     1.334758    4.762937   -1.696579    0.000276    0.002100   -0.000304
C    -3.909546    4.496470   -0.400804    0.000890   -0.000334    0.000254
C    -5.706610   -1.061993   -1.667584   -0.000490    0.001252    0.000534
C    -1.472252   -4.721159   -2.016457    0.000800    0.002170   -0.000170
C     3.777920   -4.395958   -0.775183    0.000808   -0.000358   -0.000094
C     5.661279    1.159286   -1.725137    0.000142    0.000760   -0.000186
O     0.383936    4.685239   -2.723187   -0.001130   -0.002510    0.000500
O    -4.752908    4.743413   -1.489526    0.000332   -0.000136   -0.000122
O    -5.574078   -1.728254   -2.892987    0.000142    0.000380    0.000628
O    -0.572988   -4.699893   -3.094228   -0.000648   -0.000230    0.000738
O     4.623371   -4.527510   -1.884266   -0.000038   -0.000090    0.000120
O     5.526393    1.902127   -2.904562   -0.000194   -0.000134   -0.000178
C     2.258388    3.547007   -1.821517    0.002238    0.001740   -0.002666
C    -2.445357    4.390871   -0.870626    0.000294    0.000060   -0.000336
C    -5.062442    0.330845   -1.720046   -0.000182   -0.000756    0.001366
C    -2.236133   -3.392721   -1.995612   -0.000464    0.001144    0.001264
C     2.315138   -4.273822   -1.218582    0.000190   -0.000266   -0.000090
C     4.940966   -0.193206   -1.836776    0.000048   -0.000264   -0.000520
O     3.074909    3.627494   -2.969442    0.000998   -0.000426   -0.000942
O    -2.021059    5.608040   -1.448134    0.000196   -0.000360   -0.000082
O    -5.688892    1.151058   -2.676066    0.000970   -0.000812    0.000976
O    -2.998647   -3.183111   -3.157802   -0.000254   -0.001828    0.000590
O     1.910464   -5.427687   -1.926672   -0.000386   -0.000150   -0.000122
O     5.497326   -0.988794   -2.852823    0.000224   -0.000450   -0.000736
C     3.198010    3.420584   -0.617151    0.000262    0.000170    0.000134
C    -1.521524    4.029202    0.305237    0.001008   -0.003210   -0.001734
C    -5.148668    1.048899   -0.364889    0.001564    0.000314   -0.000364
C    -3.190101   -3.344326   -0.796343   -0.000620   -0.000792    0.000510
C     1.391241   -4.058254   -0.010101    0.001432   -0.000288    0.001342
C     5.015419   -0.988873   -0.525253    0.001028    0.000478    0.000282
C     2.478938    3.631753    0.727556   -0.000574    0.000024    0.001002
C    -2.100873    2.781249    0.978406    0.001240   -0.005438   -0.002122
C    -4.743686    0.134783    0.812083    0.002866    0.000650   -0.000816
C    -2.478514   -3.723371    0.519435   -0.000920   -0.000916   -0.001300
C     1.913165   -2.870685    0.801192    0.000658   -0.001574    0.001902
C     4.660230   -0.109542    0.689868    0.000818    0.000374    0.000330
O     1.650211    4.790380    0.705704   -0.002238    0.000162    0.000416
O    -3.418931    3.025307    1.446180   -0.000260    0.001376    0.000580
O    -5.302371   -1.179790    0.705379   -0.002960    0.000928    0.000042
O    -1.752573   -4.941459    0.357229   -0.001852    0.000988    0.000602
O     3.257985   -3.091563    1.186626   -0.000460    0.000294    0.000836
O     5.331393    1.148137    0.660465   -0.000570    0.000214    0.000752
C     3.492249    3.843383    1.861827    0.000390   -0.000120    0.000892
C    -1.304378    2.296063    2.189586   -0.003756   -0.000676    0.005224
C    -5.264944    0.651751    2.165283    0.001134   -0.000218   -0.001390
C    -3.484592   -3.950026    1.655069    0.000380   -0.000510   -0.001842
C     1.094965   -2.648529    2.126052   -0.005328    0.005798   -0.002168
C     5.063673   -0.738784    2.034405   -0.000484    0.000148    0.000158
O     4.329954    4.945840    1.629322    0.000928    0.000870   -0.000158
O    -1.465481    0.983255    2.278837   -0.000726    0.001110    0.005522
O    -6.643161    0.926442    2.139465    0.001574   -0.000696   -0.000258
O    -4.406525   -4.967516    1.354205    0.000780    0.000556    0.000676
O     2.033588   -2.024323    3.032930    0.000248    0.000520    0.001294
O     6.396308   -1.179018    2.036289    0.000674   -0.000392    0.000092
H     0.146152    5.743466   -0.174260   -0.000918   -0.001784   -0.002102
H    -5.303432    3.338962    0.819459   -0.000752   -0.001676    0.000926
H    -5.584460   -2.814531   -0.387446   -0.004352   -0.002494    0.003422
H    -0.234175   -5.816025   -0.594323   -0.000698    0.001440    0.004590
H     5.137890   -3.302179    0.536439   -0.000862   -0.000914    0.000374
H     5.630913    2.848020   -0.344121    0.001350   -0.001686   -0.000276
H     1.942460    5.677316   -1.795470   -0.001922    0.002456    0.001550
H    -4.006075    5.353317    0.274588   -0.003940   -0.001322    0.001462
H    -6.781908   -0.954772   -1.489256   -0.001126   -0.000958    0.000596
H    -2.175498   -5.559585   -2.135290   -0.003302    0.004948    0.001832
H     3.898145   -5.302216   -0.171963   -0.001724   -0.000054    0.000592
H     6.733742    0.987757   -1.583752   -0.000350   -0.000668    0.001374
H    -0.396060    5.221612   -2.488565    0.005266    0.007498   -0.008502
H    -4.904198    3.910885   -1.968205   -0.002560    0.000054    0.002118
H    -4.676744   -2.104508   -2.981057    0.000312    0.002146    0.003390
H     0.288549   -5.057958   -2.814139    0.002430    0.001032    0.002168
H     4.757212   -3.652342   -2.286387   -0.001216    0.000690   -0.000884
H     4.657399    2.348205   -2.926512   -0.000690    0.002540    0.000288
H     1.643000    2.639183   -1.870128    0.007460    0.004366   -0.024122
H    -2.371918    3.588432   -1.619299   -0.015858    0.000696   -0.002522
H    -3.999447    0.217597   -1.977841    0.001942   -0.013454    0.018598
H    -1.468032   -2.611131   -1.904947   -0.026300    0.020956    0.022134
H     2.221253   -3.391964   -1.871000   -0.004066   -0.002362   -0.000978
H     3.876581   -0.002658   -2.044329    0.001090   -0.005612   -0.006010
H     2.504033    3.790096   -3.736266    0.003130    0.003562   -0.001066
H    -2.772721    5.974375   -1.943728    0.003152    0.004300    0.001532
H    -5.814701    0.630821   -3.484752    0.001576   -0.000214   -0.000418
H    -2.450223   -3.400907   -3.926188    0.008718    0.003572    0.002408
H     2.661944   -5.717198   -2.472110    0.001266    0.002224   -0.000952
H     5.632864   -0.427493   -3.633606   -0.000322    0.000816    0.000352
H     3.999242    4.164579   -0.715076   -0.002748    0.002120    0.002600
H    -1.474318    4.853344    1.026326   -0.001342   -0.007382    0.000980
H    -6.175566    1.405803   -0.210949    0.000690    0.000584    0.002062
H    -3.998730   -4.064048   -0.969724   -0.003944   -0.000924    0.000846
H     1.384414   -4.938583    0.644124   -0.001688   -0.000590    0.001388
H     6.026047   -1.400057   -0.399786    0.000514    0.000480    0.000334
H     1.873940    2.747849    0.956389    0.000510    0.005356    0.027404
H    -2.139707    1.975078    0.239272   -0.010822   -0.044492    0.031990
H    -3.654335    0.067107    0.864977    0.010398   -0.009296   -0.029060
H    -1.767916   -2.951202    0.834816   -0.012534    0.018034   -0.021156
H     1.851105   -1.962337    0.186685   -0.002184   -0.008064   -0.002326
H     3.575898    0.062698    0.663235    0.001682   -0.004744    0.007578
H     4.141884    2.968446    1.929330    0.003338    0.001670    0.002400
H     2.939353    3.959642    2.800485    0.001822    0.000124    0.002382
H    -5.034831   -0.108140    2.920485    0.003740   -0.000262   -0.001858
H    -4.763514    1.580886    2.434016    0.000728   -0.000332   -0.001436
H    -4.070676   -3.041548    1.809467    0.006660    0.003350   -0.002634
H    -2.917533   -4.180968    2.563828    0.001680    0.001206   -0.002182
H     4.906601    0.017005    2.813752    0.001728   -0.001096    0.001788
H     4.436788   -1.605073    2.252285   -0.000272    0.000072    0.001434
H     3.785548    5.746773    1.628586    0.000216   -0.000176    0.002220
H    -7.117393    0.091910    2.016778   -0.000902    0.001164   -0.003236
H    -3.922681   -5.801695    1.280729    0.001722   -0.000122   -0.001984
H     6.976766   -0.405037    1.981099   -0.001198    0.001186    0.000392
C     1.296311   -1.113903    3.807087    0.002264    0.002824    0.000272
H     1.990392   -0.455463    4.324680    0.004962    0.001024   -0.000858
H     0.643299   -1.641134    4.512259   -0.000048    0.006204    0.000364
O     0.415910   -3.597025    2.585014    0.000440   -0.003032    0.002070
C    -0.794241    0.260263    3.298257    0.000986    0.002400    0.000040
H    -1.478952   -0.506634    3.658821    0.007088   -0.000430    0.002768
H    -0.489798    0.934928    4.101301    0.000480    0.007520   -0.001736
O    -0.671766    2.985281    2.944290    0.000848    0.001626    0.000562
C     0.463271   -0.408752    2.722940   -0.001658   -0.001524   -0.001200
O     0.173199   -1.423338    1.809614    0.015220   -0.006888    0.006046
H    -1.067592   -0.914095    0.627732   -0.070694    0.036248   -0.079740
O    -1.525999   -0.354384   -0.082125   -0.036936   -0.012528   -0.006250
H    -1.168465   -0.114853   -0.340987    1.554016    1.120070   -0.498208
O     0.425627    1.013165   -0.618969   -0.049498   -0.029818    0.035452
H     0.777642    0.848581    0.247473    0.092510   -0.010662    0.068608
O     1.227186    0.588577    2.073644   -0.004646   -0.003262   -0.018226
H     2.146073    0.289847    2.041262    0.009236    0.011646    0.027150
H     0.131636    1.920083   -0.591053   -0.066836    0.037834   -0.029384
H    -2.014910   -0.938322   -0.741803   -0.038548   -0.031086    0.168036
139
* Frequency(6) -890.7100
C     0.680394    4.794287   -0.301441    0.001730    0.001642    0.000944
C    -4.312326    3.220121    0.365389    0.000548   -0.000498    0.002340
C    -5.084973   -1.845421   -0.498583   -0.001902   -0.001542    0.000308
C    -0.781466   -4.868284   -0.647755    0.001164    0.003574   -0.000574
C     4.141308   -3.178449    0.092849    0.000376    0.000572   -0.001868
C     5.099584    1.900672   -0.499947   -0.000900    0.000262   -0.000126
O    -0.216822    3.715299   -0.166912   -0.000784   -0.010730   -0.003698
O    -4.271683    2.160175   -0.535057   -0.003132   -0.000806   -0.002182
O    -3.703976   -2.020182   -0.751758   -0.012282   -0.009214   -0.004658
O     0.085791   -3.771297   -0.470017   -0.000558   -0.002246   -0.002324
O     4.086713   -2.048826   -0.729043   -0.001464   -0.000780    0.001120
O     3.729850    2.106125   -0.699069   -0.000536   -0.001870   -0.000122
C     1.334760    4.762956   -1.696582    0.000276    0.002100   -0.000304
C    -3.909538    4.496466   -0.400801    0.000890   -0.000334    0.000254
C    -5.706615   -1.061981   -1.667579   -0.000490    0.001252    0.000534
C    -1.472244   -4.721138   -2.016458    0.000800    0.002170   -0.000170
C     3.777928   -4.395962   -0.775184    0.000808   -0.000358   -0.000094
C     5.661281    1.159293   -1.725139    0.000142    0.000760   -0.000186
O     0.383925    4.685216   -2.723183   -0.001130   -0.002510    0.000500
O    -4.752905    4.743412   -1.489528    0.000332   -0.000136   -0.000122
O    -5.574076   -1.728250   -2.892981    0.000142    0.000380    0.000628
O    -0.572994   -4.699895   -3.094221   -0.000648   -0.000230    0.000738
O     4.623371   -4.527510   -1.884265   -0.000038   -0.000090    0.000120
O     5.526391    1.902125   -2.904564   -0.000194   -0.000134   -0.000178
C     2.258410    3.547024   -1.821542    0.002238    0.001740   -0.002666
C    -2.445354    4.390872   -0.870629    0.000294    0.000060   -0.000336
C    -5.062443    0.330838   -1.720033   -0.000182   -0.000756    0.001366
C    -2.236138   -3.392710   -1.995600   -0.000464    0.001144    0.001264
C     2.315140   -4.273825   -1.218582    0.000190   -0.000266   -0.000090
C     4.940967   -0.193208   -1.836781    0.000048   -0.000264   -0.000520
O     3.074918    3.627490   -2.969451    0.000998   -0.000426   -0.000942
O    -2.021058    5.608036   -1.448135    0.000196   -0.000360   -0.000082
O    -5.688883    1.151051   -2.676057    0.000970   -0.000812    0.000976
O    -2.998650   -3.183129   -3.157796   -0.000254   -0.001828    0.000590
O     1.910460   -5.427688   -1.926674   -0.000386   -0.000150   -0.000122
O     5.497328   -0.988798   -2.852830    0.000224   -0.000450   -0.000736
C     3.198012    3.420585   -0.617149    0.000262    0.000170    0.000134
C    -1.521514    4.029171    0.305220    0.001008   -0.003210   -0.001734
C    -5.148653    1.048902   -0.364892    0.001564    0.000314   -0.000364
C    -3.190107   -3.344333   -0.796338   -0.000620   -0.000792    0.000510
C     1.391254   -4.058256   -0.010088    0.001432   -0.000288    0.001342
C     5.015429   -0.988868   -0.525251    0.001028    0.000478    0.000282
C     2.478933    3.631753    0.727566   -0.000574    0.000024    0.001002
C    -2.100861    2.781197    0.978386    0.001240   -0.005438   -0.002122
C    -4.743658    0.134789    0.812075    0.002866    0.000650   -0.000816
C    -2.478523   -3.723380    0.519423   -0.000920   -0.000916   -0.001300
C     1.913172   -2.870700    0.801210    0.000658   -0.001574    0.001902
C     4.660237   -0.109539    0.689871    0.000818    0.000374    0.000330
O     1.650189    4.790382    0.705708   -0.002238    0.000162    0.000416
O    -3.418934    3.025320    1.446185   -0.000260    0.001376    0.000580
O    -5.302399   -1.179781    0.705380   -0.002960    0.000928    0.000042
O    -1.752591   -4.941449    0.357235   -0.001852    0.000988    0.000602
O     3.257981   -3.091560    1.186634   -0.000460    0.000294    0.000836
O     5.331387    1.148139    0.660472   -0.000570    0.000214    0.000752
C     3.492253    3.843382    1.861835    0.000390   -0.000120    0.000892
C    -1.304414    2.296056    2.189636   -0.003756   -0.000676    0.005224
C    -5.264933    0.651749    2.165270    0.001134   -0.000218   -0.001390
C    -3.484588   -3.950031    1.655052    0.000380   -0.000510   -0.001842
C     1.094915   -2.648474    2.126032   -0.005328    0.005798   -0.002168
C     5.063668   -0.738782    2.034406   -0.000484    0.000148    0.000158
O     4.329963    4.945848    1.629321    0.000928    0.000870   -0.000158
O    -1.465488    0.983265    2.278889   -0.000726    0.001110    0.005522
O    -6.643146    0.926435    2.139463    0.001574   -0.000696   -0.000258
O    -4.406518   -4.967511    1.354212    0.000780    0.000556    0.000676
O     2.033591   -2.024318    3.032942    0.000248    0.000520    0.001294
O     6.396314   -1.179022    2.036290    0.000674   -0.000392    0.000092
H     0.146143    5.743449   -0.174280   -0.000918   -0.001784   -0.002102
H    -5.303439    3.338946    0.819468   -0.000752   -0.001676    0.000926
H    -5.584501   -2.814555   -0.387413   -0.004352   -0.002494    0.003422
H    -0.234181   -5.816012   -0.594279   -0.000698    0.001440    0.004590
H     5.137881   -3.302188    0.536442   -0.000862   -0.000914    0.000374
H     5.630926    2.848004   -0.344123    0.001350   -0.001686   -0.000276
H     1.942442    5.677340   -1.795455   -0.001922    0.002456    0.001550
H    -4.006112    5.353305    0.274602   -0.003940   -0.001322    0.001462
H    -6.781919   -0.954781   -1.489250   -0.001126   -0.000958    0.000596
H    -2.175530   -5.559538   -2.135273   -0.003302    0.004948    0.001832
H     3.898129   -5.302217   -0.171958   -0.001724   -0.000054    0.000592
H     6.733739    0.987751   -1.583739   -0.000350   -0.000668    0.001374
H    -0.396010    5.221683   -2.488646    0.005266    0.007498   -0.008502
H    -4.904222    3.910886   -1.968185   -0.002560    0.000054    0.002118
H    -4.676741   -2.104487   -2.981025    0.000312    0.002146    0.003390
H     0.288573   -5.057948   -2.814119    0.002430    0.001032    0.002168
H     4.757201   -3.652335   -2.286395   -0.001216    0.000690   -0.000884
H     4.657392    2.348229   -2.926510   -0.000690    0.002540    0.000288
H     1.643071    2.639225   -1.870358    0.007460    0.004366   -0.024122
H    -2.372069    3.588439   -1.619323   -0.015858    0.000696   -0.002522
H    -3.999429    0.217469   -1.977664    0.001942   -0.013454    0.018598
H    -1.468283   -2.610931   -1.904737   -0.026300    0.020956    0.022134
H     2.221215   -3.391987   -1.871009   -0.004066   -0.002362   -0.000978
H     3.876591   -0.002711   -2.044386    0.001090   -0.005612   -0.006010
H     2.504063    3.790129   -3.736276    0.003130    0.003562   -0.001066
H    -2.772691    5.974416   -1.943714    0.003152    0.004300    0.001532
H    -5.814686    0.630819   -3.484756    0.001576   -0.000214   -0.000418
H    -2.450140   -3.400873   -3.926165    0.008718    0.003572    0.002408
H     2.661956   -5.717177   -2.472119    0.001266    0.002224   -0.000952
H     5.632861   -0.427485   -3.633602   -0.000322    0.000816    0.000352
H     3.999215    4.164599   -0.715051   -0.002748    0.002120    0.002600
H    -1.474331    4.853274    1.026335   -0.001342   -0.007382    0.000980
H    -6.175559    1.405809   -0.210930    0.000690    0.000584    0.002062
H    -3.998768   -4.064056   -0.969716   -0.003944   -0.000924    0.000846
H     1.384398   -4.938589    0.644137   -0.001688   -0.000590    0.001388
H     6.026052   -1.400053   -0.399782    0.000514    0.000480    0.000334
H     1.873945    2.747900    0.956650    0.000510    0.005356    0.027404
H    -2.139810    1.974655    0.239576   -0.010822   -0.044492    0.031990
H    -3.654236    0.067019    0.864701    0.010398   -0.009296   -0.029060
H    -1.768035   -2.951031    0.834615   -0.012534    0.018034   -0.021156
H     1.851084   -1.962414    0.186663   -0.002184   -0.008064   -0.002326
H     3.575914    0.062653    0.663307    0.001682   -0.004744    0.007578
H     4.141915    2.968462    1.929353    0.003338    0.001670    0.002400
H     2.939371    3.959643    2.800508    0.001822    0.000124    0.002382
H    -5.034795   -0.108142    2.920467    0.003740   -0.000262   -0.001858
H    -4.763507    1.580883    2.434002    0.000728   -0.000332   -0.001436
H    -4.070613   -3.041517    1.809442    0.006660    0.003350   -0.002634
H    -2.917517   -4.180956    2.563807    0.001680    0.001206   -0.002182
H     4.906618    0.016995    2.813769    0.001728   -0.001096    0.001788
H     4.436785   -1.605072    2.252298   -0.000272    0.000072    0.001434
H     3.785550    5.746772    1.628607    0.000216   -0.000176    0.002220
H    -7.117402    0.091921    2.016747   -0.000902    0.001164   -0.003236
H    -3.922664   -5.801697    1.280710    0.001722   -0.000122   -0.001984
H     6.976754   -0.405025    1.981103   -0.001198    0.001186    0.000392
C     1.296333   -1.113876    3.807090    0.002264    0.002824    0.000272
H     1.990439   -0.455453    4.324672    0.004962    0.001024   -0.000858
H     0.643298   -1.641075    4.512262   -0.000048    0.006204    0.000364
O     0.415914   -3.597054    2.585034    0.000440   -0.003032    0.002070
C    -0.794232    0.260286    3.298257    0.000986    0.002400    0.000040
H    -1.478885   -0.506638    3.658847    0.007088   -0.000430    0.002768
H    -0.489794    0.935000    4.101284    0.000480    0.007520   -0.001736
O    -0.671758    2.985296    2.944295    0.000848    0.001626    0.000562
C     0.463256   -0.408767    2.722928   -0.001658   -0.001524   -0.001200
O     0.173344   -1.423404    1.809672    0.015220   -0.006888    0.006046
H    -1.068264   -0.913751    0.626973   -0.070694    0.036248   -0.079740
O    -1.526350   -0.354503   -0.082184   -0.036936   -0.012528   -0.006250
H    -1.153679   -0.104196   -0.345727    1.554016    1.120070   -0.498208
O     0.425156    1.012881   -0.618632   -0.049498   -0.029818    0.035452
H     0.778522    0.848480    0.248126    0.092510   -0.010662    0.068608
O     1.227141    0.588546    2.073471   -0.004646   -0.003262   -0.018226
H     2.146161    0.289958    2.041520    0.009236    0.011646    0.027150
H     0.131000    1.920443   -0.591332   -0.066836    0.037834   -0.029384
H    -2.015277   -0.938618   -0.740204   -0.038548   -0.031086    0.168036
139
* Frequency(6) -890.7100
C     0.680474    4.794363   -0.301398    0.001730    0.001642    0.000944
C    -4.312301    3.220098    0.365497    0.000548   -0.000498    0.002340
C    -5.085061   -1.845492   -0.498568   -0.001902   -0.001542    0.000308
C    -0.781412   -4.868118   -0.647782    0.001164    0.003574   -0.000574
C     4.141326   -3.178423    0.092762    0.000376    0.000572   -0.001868
C     5.099543    1.900684   -0.499953   -0.000900    0.000262   -0.000126
O    -0.216858    3.714802   -0.167083   -0.000784   -0.010730   -0.003698
O    -4.271828    2.160138   -0.535158   -0.003132   -0.000806   -0.002182
O    -3.704544   -2.020608   -0.751973   -0.012282   -0.009214   -0.004658
O     0.085765   -3.771401   -0.470125   -0.000558   -0.002246   -0.002324
O     4.086645   -2.048862   -0.728991   -0.001464   -0.000780    0.001120
O     3.729825    2.106039   -0.699074   -0.000536   -0.001870   -0.000122
C     1.334773    4.763054   -1.696596    0.000276    0.002100   -0.000304
C    -3.909497    4.496451   -0.400789    0.000890   -0.000334    0.000254
C    -5.706637   -1.061923   -1.667554   -0.000490    0.001252    0.000534
C    -1.472207   -4.721038   -2.016466    0.000800    0.002170   -0.000170
C     3.777965   -4.395978   -0.775188    0.000808   -0.000358   -0.000094
C     5.661287    1.159328   -1.725148    0.000142    0.000760   -0.000186
O     0.383873    4.685099   -2.723160   -0.001130   -0.002510    0.000500
O    -4.752889    4.743406   -1.489533    0.000332   -0.000136   -0.000122
O    -5.574070   -1.728232   -2.892952    0.000142    0.000380    0.000628
O    -0.573024   -4.699906   -3.094187   -0.000648   -0.000230    0.000738
O     4.623369   -4.527515   -1.884259   -0.000038   -0.000090    0.000120
O     5.526382    1.902119   -2.904572   -0.000194   -0.000134   -0.000178
C     2.258513    3.547104   -1.821666    0.002238    0.001740   -0.002666
C    -2.445340    4.390874   -0.870645    0.000294    0.000060   -0.000336
C    -5.062452    0.330803   -1.719970   -0.000182   -0.000756    0.001366
C    -2.236159   -3.392657   -1.995541   -0.000464    0.001144    0.001264
C     2.315148   -4.273837   -1.218587    0.000190   -0.000266   -0.000090
C     4.940969   -0.193221   -1.836805    0.000048   -0.000264   -0.000520
O     3.074965    3.627470   -2.969495    0.000998   -0.000426   -0.000942
O    -2.021048    5.608019   -1.448139    0.000196   -0.000360   -0.000082
O    -5.688838    1.151013   -2.676012    0.000970   -0.000812    0.000976
O    -2.998662   -3.183213   -3.157769   -0.000254   -0.001828    0.000590
O     1.910442   -5.427695   -1.926679   -0.000386   -0.000150   -0.000122
O     5.497338   -0.988819   -2.852864    0.000224   -0.000450   -0.000736
C     3.198024    3.420593   -0.617143    0.000262    0.000170    0.000134
C    -1.521467    4.029023    0.305140    0.001008   -0.003210   -0.001734
C    -5.148580    1.048917   -0.364909    0.001564    0.000314   -0.000364
C    -3.190135   -3.344370   -0.796314   -0.000620   -0.000792    0.000510
C     1.391320   -4.058270   -0.010026    0.001432   -0.000288    0.001342
C     5.015477   -0.988846   -0.525238    0.001028    0.000478    0.000282
C     2.478906    3.631754    0.727612   -0.000574    0.000024    0.001002
C    -2.100803    2.780945    0.978288    0.001240   -0.005438   -0.002122
C    -4.743526    0.134820    0.812037    0.002866    0.000650   -0.000816
C    -2.478565   -3.723423    0.519363   -0.000920   -0.000916   -0.001300
C     1.913202   -2.870773    0.801298    0.000658   -0.001574    0.001902
C     4.660275   -0.109522    0.689886    0.000818    0.000374    0.000330
O     1.650086    4.790390    0.705727   -0.002238    0.000162    0.000416
O    -3.418946    3.025384    1.446212   -0.000260    0.001376    0.000580
O    -5.302536   -1.179738    0.705382   -0.002960    0.000928    0.000042
O    -1.752676   -4.941403    0.357263   -0.001852    0.000988    0.000602
O     3.257960   -3.091546    1.186673   -0.000460    0.000294    0.000836
O     5.331361    1.148149    0.660507   -0.000570    0.000214    0.000752
C     3.492271    3.843376    1.861877    0.000390   -0.000120    0.000892
C    -1.304587    2.296025    2.189877   -0.003756   -0.000676    0.005224
C    -5.264880    0.651739    2.165205    0.001134   -0.000218   -0.001390
C    -3.484570   -3.950055    1.654967    0.000380   -0.000510   -0.001842
C     1.094668   -2.648206    2.125931   -0.005328    0.005798   -0.002168
C     5.063646   -0.738775    2.034414   -0.000484    0.000148    0.000158
O     4.330006    4.945888    1.629313    0.000928    0.000870   -0.000158
O    -1.465521    0.983317    2.279145   -0.000726    0.001110    0.005522
O    -6.643073    0.926403    2.139451    0.001574   -0.000696   -0.000258
O    -4.406482   -4.967485    1.354243    0.000780    0.000556    0.000676
O     2.033602   -2.024294    3.033002    0.000248    0.000520    0.001294
O     6.396346   -1.179040    2.036294    0.000674   -0.000392    0.000092
H     0.146101    5.743367   -0.174377   -0.000918   -0.001784   -0.002102
H    -5.303474    3.338868    0.819511   -0.000752   -0.001676    0.000926
H    -5.584703   -2.814670   -0.387255   -0.004352   -0.002494    0.003422
H    -0.234213   -5.815945   -0.594067   -0.000698    0.001440    0.004590
H     5.137842   -3.302230    0.536459   -0.000862   -0.000914    0.000374
H     5.630988    2.847926   -0.344136    0.001350   -0.001686   -0.000276
H     1.942353    5.677453   -1.795383   -0.001922    0.002456    0.001550
H    -4.006295    5.353243    0.274670   -0.003940   -0.001322    0.001462
H    -6.781971   -0.954825   -1.489223   -0.001126   -0.000958    0.000596
H    -2.175682   -5.559309   -2.135188   -0.003302    0.004948    0.001832
H     3.898049   -5.302219   -0.171930   -0.001724   -0.000054    0.000592
H     6.733723    0.987720   -1.583676   -0.000350   -0.000668    0.001374
H    -0.395766    5.222030   -2.489040    0.005266    0.007498   -0.008502
H    -4.904341    3.910888   -1.968087   -0.002560    0.000054    0.002118
H    -4.676726   -2.104388   -2.980868    0.000312    0.002146    0.003390
H     0.288685   -5.057900   -2.814018    0.002430    0.001032    0.002168
H     4.757144   -3.652303   -2.286436   -0.001216    0.000690   -0.000884
H     4.657360    2.348347   -2.926496   -0.000690    0.002540    0.000288
H     1.643416    2.639427   -1.871474    0.007460    0.004366   -0.024122
H    -2.372802    3.588471   -1.619440   -0.015858    0.000696   -0.002522
H    -3.999339    0.216846   -1.976803    0.001942   -0.013454    0.018598
H    -1.469500   -2.609961   -1.903712   -0.026300    0.020956    0.022134
H     2.221026   -3.392096   -1.871054   -0.004066   -0.002362   -0.000978
H     3.876642   -0.002971   -2.044664    0.001090   -0.005612   -0.006010
H     2.504208    3.790294   -3.736326    0.003130    0.003562   -0.001066
H    -2.772546    5.974615   -1.943643    0.003152    0.004300    0.001532
H    -5.814613    0.630809   -3.484776    0.001576   -0.000214   -0.000418
H    -2.449736   -3.400708   -3.926054    0.008718    0.003572    0.002408
H     2.662015   -5.717074   -2.472163    0.001266    0.002224   -0.000952
H     5.632846   -0.427447   -3.633586   -0.000322    0.000816    0.000352
H     3.999088    4.164697   -0.714931   -0.002748    0.002120    0.002600
H    -1.474393    4.852932    1.026381   -0.001342   -0.007382    0.000980
H    -6.175527    1.405836   -0.210834    0.000690    0.000584    0.002062
H    -3.998950   -4.064099   -0.969677   -0.003944   -0.000924    0.000846
H     1.384320   -4.938616    0.644201   -0.001688   -0.000590    0.001388
H     6.026075   -1.400031   -0.399767    0.000514    0.000480    0.000334
H     1.873969    2.748148    0.957918    0.000510    0.005356    0.027404
H    -2.140311    1.972596    0.241057   -0.010822   -0.044492    0.031990
H    -3.653755    0.066589    0.863356    0.010398   -0.009296   -0.029060
H    -1.768615   -2.950196    0.833636   -0.012534    0.018034   -0.021156
H     1.850983   -1.962787    0.186556   -0.002184   -0.008064   -0.002326
H     3.575992    0.062433    0.663658    0.001682   -0.004744    0.007578
H     4.142070    2.968540    1.929464    0.003338    0.001670    0.002400
H     2.939455    3.959649    2.800618    0.001822    0.000124    0.002382
H    -5.034622   -0.108154    2.920381    0.003740   -0.000262   -0.001858
H    -4.763473    1.580867    2.433936    0.000728   -0.000332   -0.001436
H    -4.070304   -3.041362    1.809320    0.006660    0.003350   -0.002634
H    -2.917439   -4.180900    2.563706    0.001680    0.001206   -0.002182
H     4.906698    0.016944    2.813852    0.001728   -0.001096    0.001788
H     4.436773   -1.605069    2.252365   -0.000272    0.000072    0.001434
H     3.785560    5.746764    1.628710    0.000216   -0.000176    0.002220
H    -7.117444    0.091975    2.016597   -0.000902    0.001164   -0.003236
H    -3.922585   -5.801702    1.280618    0.001722   -0.000122   -0.001984
H     6.976699   -0.404971    1.981121   -0.001198    0.001186    0.000392
C     1.296438   -1.113745    3.807102    0.002264    0.002824    0.000272
H     1.990669   -0.455406    4.324632    0.004962    0.001024   -0.000858
H     0.643296   -1.640788    4.512279   -0.000048    0.006204    0.000364
O     0.415934   -3.597195    2.585129    0.000440   -0.003032    0.002070
C    -0.794186    0.260397    3.298259    0.000986    0.002400    0.000040
H    -1.478557   -0.506658    3.658975    0.007088   -0.000430    0.002768
H    -0.489772    0.935348    4.101204    0.000480    0.007520   -0.001736
O    -0.671718    2.985372    2.944321    0.000848    0.001626    0.000562
C     0.463179   -0.408837    2.722873   -0.001658   -0.001524   -0.001200
O     0.174048   -1.423723    1.809951    0.015220   -0.006888    0.006046
H    -1.071536   -0.912073    0.623282   -0.070694    0.036248   -0.079740
O    -1.528059   -0.355083   -0.082474   -0.036936   -0.012528   -0.006250
H    -1.081757   -0.052357   -0.368785    1.554016    1.120070   -0.498208
O     0.422865    1.011501   -0.616991   -0.049498   -0.029818    0.035452
H     0.782804    0.847986    0.251301    0.092510   -0.010662    0.068608
O     1.226926    0.588395    2.072627   -0.004646   -0.003262   -0.018226
H     2.146589    0.290497    2.042777    0.009236    0.011646    0.027150
H     0.127907    1.922194   -0.592692   -0.066836    0.037834   -0.029384
H    -2.017061   -0.940057   -0.732427   -0.038548   -0.031086    0.168036
139
* Frequency(6) -890.7100
C     0.680609    4.794491   -0.301324    0.001730    0.001642    0.000944
C    -4.312258    3.220059    0.365680    0.000548   -0.000498    0.002340
C    -5.085209   -1.845613   -0.498544   -0.001902   -0.001542    0.000308
C    -0.781321   -4.867839   -0.647827    0.001164    0.003574   -0.000574
C     4.141355   -3.178378    0.092617    0.000376    0.000572   -0.001868
C     5.099472    1.900705   -0.499963   -0.000900    0.000262   -0.000126
O    -0.216919    3.713965   -0.167372   -0.000784   -0.010730   -0.003698
O    -4.272073    2.160075   -0.535328   -0.003132   -0.000806   -0.002182
O    -3.705503   -2.021327   -0.752337   -0.012282   -0.009214   -0.004658
O     0.085722   -3.771576   -0.470306   -0.000558   -0.002246   -0.002324
O     4.086531   -2.048923   -0.728904   -0.001464   -0.000780    0.001120
O     3.729783    2.105893   -0.699084   -0.000536   -0.001870   -0.000122
C     1.334795    4.763218   -1.696620    0.000276    0.002100   -0.000304
C    -3.909427    4.496425   -0.400770    0.000890   -0.000334    0.000254
C    -5.706676   -1.061825   -1.667513   -0.000490    0.001252    0.000534
C    -1.472145   -4.720868   -2.016479    0.000800    0.002170   -0.000170
C     3.778028   -4.396006   -0.775196    0.000808   -0.000358   -0.000094
C     5.661298    1.159388   -1.725162    0.000142    0.000760   -0.000186
O     0.383785    4.684904   -2.723120   -0.001130   -0.002510    0.000500
O    -4.752863    4.743395   -1.489543    0.000332   -0.000136   -0.000122
O    -5.574059   -1.728203   -2.892903    0.000142    0.000380    0.000628
O    -0.573075   -4.699924   -3.094130   -0.000648   -0.000230    0.000738
O     4.623366   -4.527522   -1.884250   -0.000038   -0.000090    0.000120
O     5.526367    1.902109   -2.904586   -0.000194   -0.000134   -0.000178
C     2.258688    3.547240   -1.821874    0.002238    0.001740   -0.002666
C    -2.445317    4.390879   -0.870671    0.000294    0.000060   -0.000336
C    -5.062466    0.330744   -1.719864   -0.000182   -0.000756    0.001366
C    -2.236195   -3.392568   -1.995443   -0.000464    0.001144    0.001264
C     2.315163   -4.273858   -1.218594    0.000190   -0.000266   -0.000090
C     4.940973   -0.193241   -1.836845    0.000048   -0.000264   -0.000520
O     3.075042    3.627437   -2.969568    0.000998   -0.000426   -0.000942
O    -2.021033    5.607991   -1.448145    0.000196   -0.000360   -0.000082
O    -5.688763    1.150950   -2.675936    0.000970   -0.000812    0.000976
O    -2.998681   -3.183356   -3.157723   -0.000254   -0.001828    0.000590
O     1.910412   -5.427707   -1.926689   -0.000386   -0.000150   -0.000122
O     5.497356   -0.988854   -2.852922    0.000224   -0.000450   -0.000736
C     3.198045    3.420606   -0.617133    0.000262    0.000170    0.000134
C    -1.521389    4.028772    0.305005    0.001008   -0.003210   -0.001734
C    -5.148458    1.048941   -0.364938    0.001564    0.000314   -0.000364
C    -3.190184   -3.344432   -0.796275   -0.000620   -0.000792    0.000510
C     1.391432   -4.058292   -0.009921    0.001432   -0.000288    0.001342
C     5.015557   -0.988809   -0.525216    0.001028    0.000478    0.000282
C     2.478861    3.631756    0.727691   -0.000574    0.000024    0.001002
C    -2.100707    2.780521    0.978122    0.001240   -0.005438   -0.002122
C    -4.743302    0.134870    0.811973    0.002866    0.000650   -0.000816
C    -2.478637   -3.723494    0.519261   -0.000920   -0.000916   -0.001300
C     1.913254   -2.870896    0.801446    0.000658   -0.001574    0.001902
C     4.660339   -0.109492    0.689912    0.000818    0.000374    0.000330
O     1.649911    4.790402    0.705760   -0.002238    0.000162    0.000416
O    -3.418966    3.025491    1.446257   -0.000260    0.001376    0.000580
O    -5.302767   -1.179665    0.705385   -0.002960    0.000928    0.000042
O    -1.752821   -4.941326    0.357310   -0.001852    0.000988    0.000602
O     3.257924   -3.091523    1.186738   -0.000460    0.000294    0.000836
O     5.331317    1.148166    0.660565   -0.000570    0.000214    0.000752
C     3.492301    3.843367    1.861946    0.000390   -0.000120    0.000892
C    -1.304881    2.295972    2.190285   -0.003756   -0.000676    0.005224
C    -5.264792    0.651722    2.165097    0.001134   -0.000218   -0.001390
C    -3.484541   -3.950094    1.654823    0.000380   -0.000510   -0.001842
C     1.094252   -2.647753    2.125762   -0.005328    0.005798   -0.002168
C     5.063608   -0.738764    2.034426   -0.000484    0.000148    0.000158
O     4.330079    4.945956    1.629301    0.000928    0.000870   -0.000158
O    -1.465578    0.983403    2.279576   -0.000726    0.001110    0.005522
O    -6.642950    0.926349    2.139430    0.001574   -0.000696   -0.000258
O    -4.406421   -4.967442    1.354296    0.000780    0.000556    0.000676
O     2.033622   -2.024254    3.033103    0.000248    0.000520    0.001294
O     6.396398   -1.179071    2.036301    0.000674   -0.000392    0.000092
H     0.146029    5.743228   -0.174541   -0.000918   -0.001784   -0.002102
H    -5.303532    3.338737    0.819583   -0.000752   -0.001676    0.000926
H    -5.585042   -2.814865   -0.386988   -0.004352   -0.002494    0.003422
H    -0.234268   -5.815833   -0.593709   -0.000698    0.001440    0.004590
H     5.137774   -3.302302    0.536489   -0.000862   -0.000914    0.000374
H     5.631094    2.847794   -0.344158    0.001350   -0.001686   -0.000276
H     1.942203    5.677645   -1.795262   -0.001922    0.002456    0.001550
H    -4.006602    5.353140    0.274784   -0.003940   -0.001322    0.001462
H    -6.782059   -0.954900   -1.489176   -0.001126   -0.000958    0.000596
H    -2.175940   -5.558923   -2.135045   -0.003302    0.004948    0.001832
H     3.897915   -5.302223   -0.171884   -0.001724   -0.000054    0.000592
H     6.733695    0.987668   -1.583568   -0.000350   -0.000668    0.001374
H    -0.395355    5.222615   -2.489703    0.005266    0.007498   -0.008502
H    -4.904541    3.910892   -1.967921   -0.002560    0.000054    0.002118
H    -4.676702   -2.104220   -2.980604    0.000312    0.002146    0.003390
H     0.288875   -5.057820   -2.813849    0.002430    0.001032    0.002168
H     4.757049   -3.652249   -2.286505   -0.001216    0.000690   -0.000884
H     4.657306    2.348545   -2.926474   -0.000690    0.002540    0.000288
H     1.643998    2.639767   -1.873356    0.007460    0.004366   -0.024122
H    -2.374040    3.588525   -1.619637   -0.015858    0.000696   -0.002522
H    -3.999187    0.215796   -1.975352    0.001942   -0.013454    0.018598
H    -1.471552   -2.608326   -1.901985   -0.026300    0.020956    0.022134
H     2.220709   -3.392280   -1.871131   -0.004066   -0.002362   -0.000978
H     3.876727   -0.003409   -2.045133    0.001090   -0.005612   -0.006010
H     2.504452    3.790572   -3.736409    0.003130    0.003562   -0.001066
H    -2.772300    5.974951   -1.943523    0.003152    0.004300    0.001532
H    -5.814490    0.630792   -3.484808    0.001576   -0.000214   -0.000418
H    -2.449056   -3.400429   -3.925866    0.008718    0.003572    0.002408
H     2.662114   -5.716900   -2.472237    0.001266    0.002224   -0.000952
H     5.632821   -0.427383   -3.633559   -0.000322    0.000816    0.000352
H     3.998874    4.164862   -0.714728   -0.002748    0.002120    0.002600
H    -1.474498    4.852356    1.026457   -0.001342   -0.007382    0.000980
H    -6.175473    1.405881   -0.210673    0.000690    0.000584    0.002062
H    -3.999258   -4.064171   -0.969611   -0.003944   -0.000924    0.000846
H     1.384188   -4.938662    0.644310   -0.001688   -0.000590    0.001388
H     6.026116   -1.399993   -0.399741    0.000514    0.000480    0.000334
H     1.874008    2.748566    0.960057    0.000510    0.005356    0.027404
H    -2.141156    1.969124    0.243553   -0.010822   -0.044492    0.031990
H    -3.652943    0.065863    0.861088    0.010398   -0.009296   -0.029060
H    -1.769594   -2.948789    0.831985   -0.012534    0.018034   -0.021156
H     1.850813   -1.963416    0.186374   -0.002184   -0.008064   -0.002326
H     3.576123    0.062063    0.664249    0.001682   -0.004744    0.007578
H     4.142330    2.968670    1.929651    0.003338    0.001670    0.002400
H     2.939597    3.959658    2.800804    0.001822    0.000124    0.002382
H    -5.034330   -0.108175    2.920236    0.003740   -0.000262   -0.001858
H    -4.763417    1.580841    2.433824    0.000728   -0.000332   -0.001436
H    -4.069785   -3.041100    1.809114    0.006660    0.003350   -0.002634
H    -2.917308   -4.180806    2.563536    0.001680    0.001206   -0.002182
H     4.906833    0.016859    2.813992    0.001728   -0.001096    0.001788
H     4.436751   -1.605063    2.252477   -0.000272    0.000072    0.001434
H     3.785577    5.746750    1.628883    0.000216   -0.000176    0.002220
H    -7.117514    0.092066    2.016345   -0.000902    0.001164   -0.003236
H    -3.922450   -5.801712    1.280464    0.001722   -0.000122   -0.001984
H     6.976606   -0.404878    1.981152   -0.001198    0.001186    0.000392
C     1.296614   -1.113525    3.807124    0.002264    0.002824    0.000272
H     1.991056   -0.455326    4.324565    0.004962    0.001024   -0.000858
H     0.643292   -1.640304    4.512308   -0.000048    0.006204    0.000364
O     0.415968   -3.597431    2.585291    0.000440   -0.003032    0.002070
C    -0.794109    0.260584    3.298262    0.000986    0.002400    0.000040
H    -1.478004   -0.506692    3.659191    0.007088   -0.000430    0.002768
H    -0.489734    0.935934    4.101068    0.000480    0.007520   -0.001736
O    -0.671652    2.985498    2.944365    0.000848    0.001626    0.000562
C     0.463049   -0.408956    2.722779   -0.001658   -0.001524   -0.001200
O     0.175236   -1.424260    1.810423    0.015220   -0.006888    0.006046
H    -1.077053   -0.909244    0.617060   -0.070694    0.036248   -0.079740
O    -1.530942   -0.356061   -0.082961   -0.036936   -0.012528   -0.006250
H    -0.960491    0.035047   -0.407662    1.554016    1.120070   -0.498208
O     0.419003    1.009174   -0.614224   -0.049498   -0.029818    0.035452
H     0.790023    0.847154    0.256655    0.092510   -0.010662    0.068608
O     1.226564    0.588140    2.071205   -0.004646   -0.003262   -0.018226
H     2.147309    0.291405    2.044895    0.009236    0.011646    0.027150
H     0.122691    1.925147   -0.594985   -0.066836    0.037834   -0.029384
H    -2.020069   -0.942482   -0.719314   -0.038548   -0.031086    0.168036
139
* Frequency(6) -890.7100
C     0.680784    4.794657   -0.301228    0.001730    0.001642    0.000944
C    -4.312202    3.220009    0.365917    0.000548   -0.000498    0.002340
C    -5.085402   -1.845769   -0.498513   -0.001902   -0.001542    0.000308
C    -0.781203   -4.867477   -0.647885    0.001164    0.003574   -0.000574
C     4.141393   -3.178320    0.092427    0.000376    0.000572   -0.001868
C     5.099381    1.900731   -0.499976   -0.000900    0.000262   -0.000126
O    -0.216999    3.712877   -0.167747   -0.000784   -0.010730   -0.003698
O    -4.272390    2.159994   -0.535549   -0.003132   -0.000806   -0.002182
O    -3.706747   -2.022261   -0.752809   -0.012282   -0.009214   -0.004658
O     0.085665   -3.771804   -0.470542   -0.000558   -0.002246   -0.002324
O     4.086382   -2.049002   -0.728790   -0.001464   -0.000780    0.001120
O     3.729729    2.105704   -0.699096   -0.000536   -0.001870   -0.000122
C     1.334823    4.763430   -1.696650    0.000276    0.002100   -0.000304
C    -3.909337    4.496391   -0.400744    0.000890   -0.000334    0.000254
C    -5.706725   -1.061698   -1.667459   -0.000490    0.001252    0.000534
C    -1.472064   -4.720649   -2.016497    0.000800    0.002170   -0.000170
C     3.778110   -4.396042   -0.775205    0.000808   -0.000358   -0.000094
C     5.661313    1.159465   -1.725181    0.000142    0.000760   -0.000186
O     0.383670    4.684649   -2.723070   -0.001130   -0.002510    0.000500
O    -4.752830    4.743381   -1.489555    0.000332   -0.000136   -0.000122
O    -5.574044   -1.728164   -2.892839    0.000142    0.000380    0.000628
O    -0.573140   -4.699947   -3.094055   -0.000648   -0.000230    0.000738
O     4.623362   -4.527531   -1.884238   -0.000038   -0.000090    0.000120
O     5.526347    1.902095   -2.904604   -0.000194   -0.000134   -0.000178
C     2.258915    3.547416   -1.822144    0.002238    0.001740   -0.002666
C    -2.445287    4.390885   -0.870705    0.000294    0.000060   -0.000336
C    -5.062484    0.330667   -1.719725   -0.000182   -0.000756    0.001366
C    -2.236242   -3.392452   -1.995315   -0.000464    0.001144    0.001264
C     2.315182   -4.273885   -1.218603    0.000190   -0.000266   -0.000090
C     4.940978   -0.193268   -1.836898    0.000048   -0.000264   -0.000520
O     3.075144    3.627393   -2.969664    0.000998   -0.000426   -0.000942
O    -2.021013    5.607955   -1.448154    0.000196   -0.000360   -0.000082
O    -5.688664    1.150867   -2.675837    0.000970   -0.000812    0.000976
O    -2.998707   -3.183541   -3.157663   -0.000254   -0.001828    0.000590
O     1.910373   -5.427722   -1.926701   -0.000386   -0.000150   -0.000122
O     5.497379   -0.988900   -2.852996    0.000224   -0.000450   -0.000736
C     3.198071    3.420624   -0.617119    0.000262    0.000170    0.000134
C    -1.521287    4.028447    0.304829    0.001008   -0.003210   -0.001734
C    -5.148300    1.048973   -0.364975    0.001564    0.000314   -0.000364
C    -3.190247   -3.344512   -0.796223   -0.000620   -0.000792    0.000510
C     1.391577   -4.058321   -0.009786    0.001432   -0.000288    0.001342
C     5.015661   -0.988760   -0.525187    0.001028    0.000478    0.000282
C     2.478803    3.631758    0.727792   -0.000574    0.000024    0.001002
C    -2.100581    2.779970    0.977907    0.001240   -0.005438   -0.002122
C    -4.743012    0.134936    0.811891    0.002866    0.000650   -0.000816
C    -2.478730   -3.723587    0.519130   -0.000920   -0.000916   -0.001300
C     1.913320   -2.871055    0.801639    0.000658   -0.001574    0.001902
C     4.660422   -0.109455    0.689945    0.000818    0.000374    0.000330
O     1.649684    4.790419    0.705802   -0.002238    0.000162    0.000416
O    -3.418992    3.025631    1.446316   -0.000260    0.001376    0.000580
O    -5.303067   -1.179571    0.705389   -0.002960    0.000928    0.000042
O    -1.753009   -4.941226    0.357371   -0.001852    0.000988    0.000602
O     3.257877   -3.091493    1.186823   -0.000460    0.000294    0.000836
O     5.331259    1.148188    0.660642   -0.000570    0.000214    0.000752
C     3.492341    3.843355    1.862037    0.000390   -0.000120    0.000892
C    -1.305261    2.295904    2.190814   -0.003756   -0.000676    0.005224
C    -5.264677    0.651700    2.164956    0.001134   -0.000218   -0.001390
C    -3.484502   -3.950146    1.654636    0.000380   -0.000510   -0.001842
C     1.093712   -2.647166    2.125542   -0.005328    0.005798   -0.002168
C     5.063559   -0.738749    2.034442   -0.000484    0.000148    0.000158
O     4.330173    4.946044    1.629285    0.000928    0.000870   -0.000158
O    -1.465651    0.983516    2.280135   -0.000726    0.001110    0.005522
O    -6.642791    0.926278    2.139404    0.001574   -0.000696   -0.000258
O    -4.406342   -4.967385    1.354364    0.000780    0.000556    0.000676
O     2.033647   -2.024201    3.033234    0.000248    0.000520    0.001294
O     6.396466   -1.179110    2.036311    0.000674   -0.000392    0.000092
H     0.145936    5.743047   -0.174754   -0.000918   -0.001784   -0.002102
H    -5.303609    3.338567    0.819677   -0.000752   -0.001676    0.000926
H    -5.585483   -2.815118   -0.386641   -0.004352   -0.002494    0.003422
H    -0.234339   -5.815687   -0.593244   -0.000698    0.001440    0.004590
H     5.137687   -3.302394    0.536526   -0.000862   -0.000914    0.000374
H     5.631231    2.847624   -0.344186    0.001350   -0.001686   -0.000276
H     1.942008    5.677894   -1.795105   -0.001922    0.002456    0.001550
H    -4.007001    5.353006    0.274932   -0.003940   -0.001322    0.001462
H    -6.782173   -0.954997   -1.489116   -0.001126   -0.000958    0.000596
H    -2.176275   -5.558421   -2.134859   -0.003302    0.004948    0.001832
H     3.897740   -5.302229   -0.171824   -0.001724   -0.000054    0.000592
H     6.733660    0.987600   -1.583429   -0.000350   -0.000668    0.001374
H    -0.394821    5.223375   -2.490565    0.005266    0.007498   -0.008502
H    -4.904800    3.910898   -1.967707   -0.002560    0.000054    0.002118
H    -4.676670   -2.104003   -2.980260    0.000312    0.002146    0.003390
H     0.289121   -5.057715   -2.813629    0.002430    0.001032    0.002168
H     4.756926   -3.652179   -2.286595   -0.001216    0.000690   -0.000884
H     4.657236    2.348802   -2.926445   -0.000690    0.002540    0.000288
H     1.644754    2.640210   -1.875801    0.007460    0.004366   -0.024122
H    -2.375647    3.588596   -1.619892   -0.015858    0.000696   -0.002522
H    -3.998991    0.214433   -1.973468    0.001942   -0.013454    0.018598
H    -1.474217   -2.606203   -1.899742   -0.026300    0.020956    0.022134
H     2.220297   -3.392520   -1.871230   -0.004066   -0.002362   -0.000978
H     3.876837   -0.003977   -2.045742    0.001090   -0.005612   -0.006010
H     2.504769    3.790933   -3.736517    0.003130    0.003562   -0.001066
H    -2.771980    5.975386   -1.943368    0.003152    0.004300    0.001532
H    -5.814330    0.630770   -3.484850    0.001576   -0.000214   -0.000418
H    -2.448173   -3.400067   -3.925622    0.008718    0.003572    0.002408
H     2.662242   -5.716675   -2.472334    0.001266    0.002224   -0.000952
H     5.632789   -0.427301   -3.633523   -0.000322    0.000816    0.000352
H     3.998595    4.165077   -0.714464   -0.002748    0.002120    0.002600
H    -1.474633    4.851608    1.026557   -0.001342   -0.007382    0.000980
H    -6.175403    1.405941   -0.210464    0.000690    0.000584    0.002062
H    -3.999658   -4.064265   -0.969525   -0.003944   -0.000924    0.000846
H     1.384017   -4.938722    0.644450   -0.001688   -0.000590    0.001388
H     6.026168   -1.399945   -0.399707    0.000514    0.000480    0.000334
H     1.874060    2.749108    0.962834    0.000510    0.005356    0.027404
H    -2.142252    1.964615    0.246795   -0.010822   -0.044492    0.031990
H    -3.651890    0.064921    0.858144    0.010398   -0.009296   -0.029060
H    -1.770864   -2.946961    0.829841   -0.012534    0.018034   -0.021156
H     1.850591   -1.964234    0.186138   -0.002184   -0.008064   -0.002326
H     3.576294    0.061582    0.665017    0.001682   -0.004744    0.007578
H     4.142669    2.968839    1.929894    0.003338    0.001670    0.002400
H     2.939782    3.959671    2.801045    0.001822    0.000124    0.002382
H    -5.033951   -0.108201    2.920048    0.003740   -0.000262   -0.001858
H    -4.763343    1.580808    2.433678    0.000728   -0.000332   -0.001436
H    -4.069110   -3.040761    1.808847    0.006660    0.003350   -0.002634
H    -2.917138   -4.180684    2.563315    0.001680    0.001206   -0.002182
H     4.907008    0.016748    2.814173    0.001728   -0.001096    0.001788
H     4.436724   -1.605056    2.252622   -0.000272    0.000072    0.001434
H     3.785598    5.746732    1.629108    0.000216   -0.000176    0.002220
H    -7.117605    0.092184    2.016017   -0.000902    0.001164   -0.003236
H    -3.922276   -5.801724    1.280262    0.001722   -0.000122   -0.001984
H     6.976484   -0.404758    1.981191   -0.001198    0.001186    0.000392
C     1.296844   -1.113239    3.807151    0.002264    0.002824    0.000272
H     1.991559   -0.455222    4.324479    0.004962    0.001024   -0.000858
H     0.643287   -1.639675    4.512345   -0.000048    0.006204    0.000364
O     0.416013   -3.597738    2.585501    0.000440   -0.003032    0.002070
C    -0.794009    0.260827    3.298266    0.000986    0.002400    0.000040
H    -1.477286   -0.506735    3.659471    0.007088   -0.000430    0.002768
H    -0.489686    0.936696    4.100892    0.000480    0.007520   -0.001736
O    -0.671566    2.985663    2.944422    0.000848    0.001626    0.000562
C     0.462881   -0.409111    2.722657   -0.001658   -0.001524   -0.001200
O     0.176778   -1.424958    1.811036    0.015220   -0.006888    0.006046
H    -1.084216   -0.905571    0.608980   -0.070694    0.036248   -0.079740
O    -1.534684   -0.357330   -0.083595   -0.036936   -0.012528   -0.006250
H    -0.803023    0.148543   -0.458145    1.554016    1.120070   -0.498208
O     0.413987    1.006153   -0.610632   -0.049498   -0.029818    0.035452
H     0.799397    0.846074    0.263607    0.092510   -0.010662    0.068608
O     1.226093    0.587810    2.069358   -0.004646   -0.003262   -0.018226
H     2.148245    0.292585    2.047647    0.009236    0.011646    0.027150
H     0.115919    1.928980   -0.597963   -0.066836    0.037834   -0.029384
H    -2.023975   -0.945632   -0.702287   -0.038548   -0.031086    0.168036
139
* Frequency(6) -890.7100
C     0.680981    4.794844   -0.301121    0.001730    0.001642    0.000944
C    -4.312140    3.219952    0.366183    0.000548   -0.000498    0.002340
C    -5.085618   -1.845944   -0.498478   -0.001902   -0.001542    0.000308
C    -0.781071   -4.867071   -0.647950    0.001164    0.003574   -0.000574
C     4.141436   -3.178255    0.092215    0.000376    0.000572   -0.001868
C     5.099279    1.900761   -0.499990   -0.000900    0.000262   -0.000126
O    -0.217088    3.711658   -0.168167   -0.000784   -0.010730   -0.003698
O    -4.272746    2.159902   -0.535797   -0.003132   -0.000806   -0.002182
O    -3.708143   -2.023308   -0.753338   -0.012282   -0.009214   -0.004658
O     0.085602   -3.772059   -0.470806   -0.000558   -0.002246   -0.002324
O     4.086216   -2.049091   -0.728663   -0.001464   -0.000780    0.001120
O     3.729668    2.105491   -0.699110   -0.000536   -0.001870   -0.000122
C     1.334854    4.763669   -1.696685    0.000276    0.002100   -0.000304
C    -3.909236    4.496353   -0.400715    0.000890   -0.000334    0.000254
C    -5.706781   -1.061556   -1.667398   -0.000490    0.001252    0.000534
C    -1.471973   -4.720402   -2.016516    0.000800    0.002170   -0.000170
C     3.778202   -4.396083   -0.775216    0.000808   -0.000358   -0.000094
C     5.661329    1.159551   -1.725202    0.000142    0.000760   -0.000186
O     0.383542    4.684364   -2.723013   -0.001130   -0.002510    0.000500
O    -4.752792    4.743366   -1.489569    0.000332   -0.000136   -0.000122
O    -5.574028   -1.728121   -2.892768    0.000142    0.000380    0.000628
O    -0.573214   -4.699973   -3.093971   -0.000648   -0.000230    0.000738
O     4.623358   -4.527541   -1.884224   -0.000038   -0.000090    0.000120
O     5.526325    1.902080   -2.904624   -0.000194   -0.000134   -0.000178
C     2.259169    3.547614   -1.822447    0.002238    0.001740   -0.002666
C    -2.445254    4.390892   -0.870743    0.000294    0.000060   -0.000336
C    -5.062505    0.330581   -1.719570   -0.000182   -0.000756    0.001366
C    -2.236295   -3.392322   -1.995171   -0.000464    0.001144    0.001264
C     2.315204   -4.273915   -1.218613    0.000190   -0.000266   -0.000090
C     4.940983   -0.193298   -1.836957    0.000048   -0.000264   -0.000520
O     3.075257    3.627345   -2.969771    0.000998   -0.000426   -0.000942
O    -2.020991    5.607914   -1.448163    0.000196   -0.000360   -0.000082
O    -5.688554    1.150775   -2.675726    0.000970   -0.000812    0.000976
O    -2.998736   -3.183749   -3.157596   -0.000254   -0.001828    0.000590
O     1.910329   -5.427739   -1.926715   -0.000386   -0.000150   -0.000122
O     5.497404   -0.988951   -2.853080    0.000224   -0.000450   -0.000736
C     3.198101    3.420643   -0.617104    0.000262    0.000170    0.000134
C    -1.521172    4.028082    0.304632    0.001008   -0.003210   -0.001734
C    -5.148122    1.049009   -0.365016    0.001564    0.000314   -0.000364
C    -3.190317   -3.344602   -0.796165   -0.000620   -0.000792    0.000510
C     1.391740   -4.058354   -0.009633    0.001432   -0.000288    0.001342
C     5.015778   -0.988706   -0.525155    0.001028    0.000478    0.000282
C     2.478738    3.631761    0.727906   -0.000574    0.000024    0.001002
C    -2.100440    2.779352    0.977666    0.001240   -0.005438   -0.002122
C    -4.742686    0.135010    0.811798    0.002866    0.000650   -0.000816
C    -2.478835   -3.723691    0.518982   -0.000920   -0.000916   -0.001300
C     1.913395   -2.871234    0.801855    0.000658   -0.001574    0.001902
C     4.660515   -0.109412    0.689983    0.000818    0.000374    0.000330
O     1.649430    4.790437    0.705849   -0.002238    0.000162    0.000416
O    -3.419022    3.025787    1.446382   -0.000260    0.001376    0.000580
O    -5.303403   -1.179466    0.705394   -0.002960    0.000928    0.000042
O    -1.753219   -4.941114    0.357439   -0.001852    0.000988    0.000602
O     3.257825   -3.091460    1.186918   -0.000460    0.000294    0.000836
O     5.331194    1.148212    0.660727   -0.000570    0.000214    0.000752
C     3.492385    3.843341    1.862138    0.000390   -0.000120    0.000892
C    -1.305688    2.295827    2.191408   -0.003756   -0.000676    0.005224
C    -5.264548    0.651675    2.164798    0.001134   -0.000218   -0.001390
C    -3.484459   -3.950204    1.654427    0.000380   -0.000510   -0.001842
C     1.093107   -2.646507    2.125296   -0.005328    0.005798   -0.002168
C     5.063504   -0.738732    2.034460   -0.000484    0.000148    0.000158
O     4.330278    4.946143    1.629267    0.000928    0.000870   -0.000158
O    -1.465734    0.983642    2.280763   -0.000726    0.001110    0.005522
O    -6.642612    0.926199    2.139375    0.001574   -0.000696   -0.000258
O    -4.406253   -4.967322    1.354441    0.000780    0.000556    0.000676
O     2.033675   -2.024142    3.033381    0.000248    0.000520    0.001294
O     6.396543   -1.179155    2.036321    0.000674   -0.000392    0.000092
H     0.145832    5.742844   -0.174993   -0.000918   -0.001784   -0.002102
H    -5.303694    3.338377    0.819782   -0.000752   -0.001676    0.000926
H    -5.585978   -2.815401   -0.386252   -0.004352   -0.002494    0.003422
H    -0.234418   -5.815523   -0.592722   -0.000698    0.001440    0.004590
H     5.137589   -3.302498    0.536569   -0.000862   -0.000914    0.000374
H     5.631384    2.847432   -0.344217    0.001350   -0.001686   -0.000276
H     1.941790    5.678173   -1.794929   -0.001922    0.002456    0.001550
H    -4.007449    5.352856    0.275098   -0.003940   -0.001322    0.001462
H    -6.782301   -0.955106   -1.489048   -0.001126   -0.000958    0.000596
H    -2.176650   -5.557859   -2.134651   -0.003302    0.004948    0.001832
H     3.897544   -5.302235   -0.171757   -0.001724   -0.000054    0.000592
H     6.733620    0.987524   -1.583273   -0.000350   -0.000668    0.001374
H    -0.394223    5.224227   -2.491531    0.005266    0.007498   -0.008502
H    -4.905091    3.910904   -1.967466   -0.002560    0.000054    0.002118
H    -4.676635   -2.103759   -2.979875    0.000312    0.002146    0.003390
H     0.289397   -5.057598   -2.813383    0.002430    0.001032    0.002168
H     4.756788   -3.652101   -2.286695   -0.001216    0.000690   -0.000884
H     4.657158    2.349091   -2.926412   -0.000690    0.002540    0.000288
H     1.645602    2.640706   -1.878542    0.007460    0.004366   -0.024122
H    -2.377449    3.588675   -1.620179   -0.015858    0.000696   -0.002522
H    -3.998770    0.212904   -1.971354    0.001942   -0.013454    0.018598
H    -1.477206   -2.603821   -1.897227   -0.026300    0.020956    0.022134
H     2.219835   -3.392788   -1.871341   -0.004066   -0.002362   -0.000978
H     3.876961   -0.004615   -2.046425    0.001090   -0.005612   -0.006010
H     2.505125    3.791338   -3.736638    0.003130    0.003562   -0.001066
H    -2.771622    5.975875   -1.943194    0.003152    0.004300    0.001532
H    -5.814151    0.630746   -3.484898    0.001576   -0.000214   -0.000418
H    -2.447182   -3.399661   -3.925348    0.008718    0.003572    0.002408
H     2.662386   -5.716422   -2.472442    0.001266    0.002224   -0.000952
H     5.632752   -0.427208   -3.633483   -0.000322    0.000816    0.000352
H     3.998283    4.165318   -0.714169   -0.002748    0.002120    0.002600
H    -1.474786    4.850769    1.026668   -0.001342   -0.007382    0.000980
H    -6.175325    1.406007   -0.210230    0.000690    0.000584    0.002062
H    -4.000106   -4.064370   -0.969429   -0.003944   -0.000924    0.000846
H     1.383825   -4.938789    0.644608   -0.001688   -0.000590    0.001388
H     6.026226   -1.399890   -0.399669    0.000514    0.000480    0.000334
H     1.874118    2.749717    0.965948    0.000510    0.005356    0.027404
H    -2.143482    1.959559    0.250430   -0.010822   -0.044492    0.031990
H    -3.650708    0.063865    0.854841    0.010398   -0.009296   -0.029060
H    -1.772288   -2.944912    0.827437   -0.012534    0.018034   -0.021156
H     1.850343   -1.965150    0.185874   -0.002184   -0.008064   -0.002326
H     3.576485    0.061043    0.665878    0.001682   -0.004744    0.007578
H     4.143048    2.969029    1.930167    0.003338    0.001670    0.002400
H     2.939989    3.959685    2.801316    0.001822    0.000124    0.002382
H    -5.033526   -0.108231    2.919837    0.003740   -0.000262   -0.001858
H    -4.763260    1.580770    2.433515    0.000728   -0.000332   -0.001436
H    -4.068353   -3.040380    1.808548    0.006660    0.003350   -0.002634
H    -2.916947   -4.180547    2.563067    0.001680    0.001206   -0.002182
H     4.907204    0.016623    2.814376    0.001728   -0.001096    0.001788
H     4.436693   -1.605048    2.252785   -0.000272    0.000072    0.001434
H     3.785623    5.746712    1.629360    0.000216   -0.000176    0.002220
H    -7.117708    0.092316    2.015649   -0.000902    0.001164   -0.003236
H    -3.922080   -5.801738    1.280037    0.001722   -0.000122   -0.001984
H     6.976348   -0.404623    1.981236   -0.001198    0.001186    0.000392
C     1.297101   -1.112918    3.807182    0.002264    0.002824    0.000272
H     1.992123   -0.455106    4.324381    0.004962    0.001024   -0.000858
H     0.643282   -1.638970    4.512386   -0.000048    0.006204    0.000364
O     0.416063   -3.598083    2.585736    0.000440   -0.003032    0.002070
C    -0.793897    0.261100    3.298271    0.000986    0.002400    0.000040
H    -1.476480   -0.506784    3.659786    0.007088   -0.000430    0.002768
H    -0.489631    0.937551    4.100695    0.000480    0.007520   -0.001736
O    -0.671470    2.985848    2.944486    0.000848    0.001626    0.000562
C     0.462693   -0.409284    2.722521   -0.001658   -0.001524   -0.001200
O     0.178508   -1.425741    1.811723    0.015220   -0.006888    0.006046
H    -1.092250   -0.901452    0.599918   -0.070694    0.036248   -0.079740
O    -1.538882   -0.358754   -0.084305   -0.036936   -0.012528   -0.006250
H    -0.626417    0.275833   -0.514764    1.554016    1.120070   -0.498208
O     0.408362    1.002764   -0.606603   -0.049498   -0.029818    0.035452
H     0.809910    0.844862    0.271404    0.092510   -0.010662    0.068608
O     1.225565    0.587439    2.067287   -0.004646   -0.003262   -0.018226
H     2.149295    0.293909    2.050732    0.009236    0.011646    0.027150
H     0.108323    1.933280   -0.601302   -0.066836    0.037834   -0.029384
H    -2.028356   -0.949165   -0.683191   -0.038548   -0.031086    0.168036
