139
Coordinates from ORCA-job job E -262.791053188120
  C           0.68098064347160      4.79484409154683     -0.30112117265792
  C          -4.31214028998990      3.21995202322123      0.36618280592282
  C          -5.08561822103856     -1.84594384589923     -0.49847848262328
  C          -0.78107135694674     -4.86707075776583     -0.64795013343044
  C           4.14143564981943     -3.17825511238140      0.09221520090001
  C           5.09927920714425      1.90076081786281     -0.49998966591130
  O          -0.21708812835834      3.71165846689124     -0.16816711427287
  O          -4.27274635536869      2.15990207339132     -0.53579667262898
  O          -3.70814282877775     -2.02330784065816     -0.75333771361943
  O           0.08560229780181     -3.77205894014966     -0.47080635402853
  O           4.08621590251938     -2.04909067380286     -0.72866267856520
  O           3.72966823715401      2.10549113189644     -0.69910953395463
  C           1.33485398304697      4.76366854808790     -1.69668515020903
  C          -3.90923612956448      4.49635262735041     -0.40071459638455
  C          -5.70678072593232     -1.06155558156557     -1.66739827522439
  C          -1.47197305550970     -4.72040210215807     -2.01651577257633
  C           3.77820184562512     -4.39608294351474     -0.77521648938374
  C           5.66132918120253      1.15955051606714     -1.72520206370336
  O           0.38354168870184      4.68436380903604     -2.72301267642160
  O          -4.75279214503935      4.74336635177347     -1.48956884182039
  O          -5.57402811874719     -1.72812087604064     -2.89276772509262
  O          -0.57321351001405     -4.69997267532349     -3.09397063536496
  O           4.62335787793050     -4.52754059267305     -1.88422399087756
  O           5.52632547721758      1.90207974760164     -2.90462436939627
  C           2.25916940772435      3.54761387284590     -1.82244676919470
  C          -2.44525422088670      4.39089245955835     -0.87074339580478
  C          -5.06250474045723      0.33058098132611     -1.71957043985024
  C          -2.23629451307052     -3.39232175261433     -1.99517091177137
  C           2.31520377161439     -4.27391465013588     -1.21861340622800
  C           4.94098335538497     -0.19329801949258     -1.83695722704416
  O           3.07525687082925      3.62734546042563     -2.96977139347789
  O          -2.02099050049521      5.60791389999728     -1.44816269065607
  O          -5.68855367011529      1.15077467124145     -2.67572561278629
  O          -2.99873609387115     -3.18374890323736     -3.15759554800473
  O           1.91032947075925     -5.42773915619148     -1.92671515674048
  O           5.49740382821227     -0.98895077480137     -2.85308009842870
  C           3.19810100630006      3.42064279313761     -0.61710429737649
  C          -1.52117224817074      4.02808222816147      0.30463200575290
  C          -5.14812236373973      1.04900856331396     -0.36501626981110
  C          -3.19031662714858     -3.34460201709738     -0.79616512568560
  C           1.39173950519193     -4.05835445814533     -0.00963283205320
  C           5.01577815592465     -0.98870598820800     -0.52515536454742
  C           2.47873792327853      3.63176123964769      0.72790559530345
  C          -2.10044027267507      2.77935172002665      0.97766608987019
  C          -4.74268551612063      0.13500952303809      0.81179804957999
  C          -2.47883453051755     -3.72369126361954      0.51898211526694
  C           1.91339453228110     -2.87123376534633      0.80185489536098
  C           4.66051540507997     -0.10941195835106      0.68998305852586
  O           1.64942992698470      4.79043700774137      0.70584860517148
  O          -3.41902210485940      3.02578673352179      1.44638207194931
  O          -5.30340259742519     -1.17946582634715      0.70539352573848
  O          -1.75321930639104     -4.94111382151582      0.35743887818413
  O           3.25782529344091     -3.09145982288994      1.18691791287969
  O           5.33119418135543      1.14821185680862      0.66072709961744
  C           3.49238532004223      3.84334085879711      1.86213792349638
  C          -1.30568780620990      2.29582731970629      2.19140784193646
  C          -5.26454814541262      0.65167471446921      2.16479829127166
  C          -3.48445932870861     -3.95020362775351      1.65442740871924
  C           1.09310657241926     -2.64650672798174      2.12529614977142
  C           5.06350367631468     -0.73873187955646      2.03446033844246
  O           4.33027827314746      4.94614324224017      1.62926743194342
  O          -1.46573355011694      0.98364172730129      2.28076264891394
  O          -6.64261178388503      0.92619902793559      2.13937474268454
  O          -4.40625312462810     -4.96732155131455      1.35444140150828
  O           2.03367514447275     -2.02414179398288      3.03338104788140
  O           6.39654318569449     -1.17915533996457      2.03632067275792
  H           0.14583238123242      5.74284397137537     -0.17499258468769
  H          -5.30369367394716      3.33837707060536      0.81978214295454
  H          -5.58597799856964     -2.81540136382825     -0.38625245296514
  H          -0.23441796932473     -5.81552254682682     -0.59272231895078
  H           5.13758870235190     -3.30249839500036      0.53656947363379
  H           5.63138438086070      2.84743228724504     -0.34421667243492
  H           1.94179049881254      5.67817329349653     -1.79492912456566
  H          -4.00744932386738      5.35285628174129      0.27509772062986
  H          -6.78230064714799     -0.95510564204709     -1.48904779436662
  H          -2.17664981157854     -5.55785881711095     -2.13465110031794
  H           3.89754437871720     -5.30223510016513     -0.17175678956677
  H           6.73361953337572      0.98752404567719     -1.58327258809131
  H          -0.39422292231849      5.22422662728780     -2.49153121803309
  H          -4.90509088528209      3.91090425871845     -1.96746637444934
  H          -4.67663478029728     -2.10375856449660     -2.97987490787330
  H           0.28939723170856     -5.05759773297206     -2.81338333201670
  H           4.75678839151578     -3.65210058961369     -2.28669492594723
  H           4.65715766052387      2.34909117635785     -2.92641227790703
  H           1.64560168693114      2.64070594924784     -1.87854246049685
  H          -2.37744863826142      3.58867467000658     -1.62017932105481
  H          -3.99877016815050      0.21290360619115     -1.97135379767103
  H          -1.47720572270450     -2.60382145019163     -1.89722691376348
  H           2.21983499815097     -3.39278806168828     -1.87134071467159
  H           3.87696148973410     -0.00461514958344     -2.04642493236847
  H           2.50512540713466      3.79133751595069     -3.73663767653369
  H          -2.77162165182337      5.97587460019230     -1.94319368312755
  H          -5.81415064510323      0.63074646120223     -3.48489810691106
  H          -2.44718210826757     -3.39966125263696     -3.92534752393691
  H           2.66238567033997     -5.71642245527653     -2.47244197527135
  H           5.63275197449239     -0.42720803380799     -3.63348327120612
  H           3.99828341335783      4.16531832007125     -0.71416873194822
  H          -1.47478551597965      4.85076877175000      1.02666798023874
  H          -6.17532467092417      1.40600725495177     -0.21023012860961
  H          -4.00010586828265     -4.06437006406884     -0.96942878647695
  H           1.38382516489797     -4.93878903618575      0.64460762919230
  H           6.02622623218880     -1.39989024317003     -0.39966877363791
  H           1.87411838411891      2.74971714652427      0.96594842492152
  H          -2.14348158896577      1.95955944459978      0.25042992015183
  H          -3.65070775090476      0.06386480069316      0.85484068880001
  H          -1.77228775623228     -2.94491222099590      0.82743748887002
  H           1.85034298803643     -1.96515026984757      0.18587355976093
  H           3.57648532671354      0.06104305211789      0.66587758157926
  H           4.14304816505301      2.96902870596066      1.93016682093736
  H           2.93998857512542      3.95968479742344      2.80131580301531
  H          -5.03352589718947     -0.10823141277486      2.91983705938513
  H          -4.76325993090766      1.58076998247892      2.43351453947192
  H          -4.06835252089011     -3.04038045608068      1.80854799472986
  H          -2.91694667646485     -4.18054661640539      2.56306681325014
  H           4.90720386331993      0.01662281900893      2.81437583900720
  H           4.43669331396996     -1.60504839185862      2.25278535598668
  H           3.78562294184214      5.74671197533095      1.62935958198752
  H          -7.11770757964752      0.09231594319343      2.01564855525385
  H          -3.92208032326266     -5.80173787440331      1.28003673405403
  H           6.97634831422364     -0.40462270955663      1.98123624752451
  C           1.29710050842782     -1.11291750458391      3.80718249563315
  H           1.99212322715957     -0.45510578369009      4.32438096647528
  H           0.64328227140484     -1.63897025376941      4.51238607985125
  O           0.41606252287687     -3.59808323139047      2.58573629494333
  C          -0.79389717978772      0.26109967637132      3.29827072492992
  H          -1.47647993192572     -0.50678362720129      3.65978595684265
  H          -0.48963106695723      0.93755084887243      4.10069543975726
  O          -0.67147003923730      2.98584830675055      2.94448562739680
  C           0.46269280033465     -0.40928374301595      2.72252103926778
  O           0.17850834544862     -1.42574075269523      1.81172320589458
  H          -1.09225014422138     -0.90145206870754      0.59991775117701
  O          -1.53888237404629     -0.35875364987558     -0.08430484488432
  H          -0.62641675476667      0.27583304885729     -0.51476440421864
  O           0.40836164597433      1.00276400728058     -0.60660349943582
  H           0.80990981127515      0.84486194730589      0.27140448078542
  O           1.22556472685033      0.58743924121859      2.06728674034009
  H           2.14929534677775      0.29390927793306      2.05073166814445
  H           0.10832313941496      1.93327951515410     -0.60130237654409
  H          -2.02835646353209     -0.94916452540908     -0.68319067977548
