139
 xtb: 6.7.1 (edcfbbe)
C            0.68203875523966        4.79528187577114       -0.30084736725651
C           -4.31189822233621        3.21974271964422        0.36732081479387
C           -5.08638198690077       -1.84639068639382       -0.49820022116760
C           -0.78055247081044       -4.86538083207228       -0.64820530933623
C            4.14159724152429       -3.17802566949100        0.09130172054486
C            5.09902663512387        1.90082893032104       -0.50033477977214
O           -0.21688247418081        3.70404177602461       -0.16954880448401
O           -4.27451881023328        2.15952417418266       -0.53693875039444
O           -3.71378470227737       -2.02765823282710       -0.75577422187660
O            0.08533638084391       -3.77329922468534       -0.47208203651422
O            4.08534551199228       -2.04955437726000       -0.72803920364887
O            3.72923676962837        2.10423574413535       -0.69830263797277
C            1.33496623152521        4.76458900724348       -1.69689868991405
C           -3.90874611348664        4.49617662349193       -0.40058509995235
C           -5.70683706624491       -1.06091006485197       -1.66713898436311
C           -1.47163944729481       -4.71944374214434       -2.01658348916072
C            3.77855347563853       -4.39626574889521       -0.77526120860842
C            5.66142130939675        1.15983845891009       -1.72535237150500
O            0.38294130258569        4.68320738260409       -2.72281703441632
O           -4.75258009887954        4.74329623165678       -1.48958869855349
O           -5.57399715772520       -1.72796510604079       -2.89237149004368
O           -0.57360647939173       -4.70020254756726       -3.09358004276459
O            4.62332287570787       -4.52761893054152       -1.88418094873599
O            5.52630323205458        1.90205024670015       -2.90478252976275
C            2.25993799950496        3.54818318524898       -1.82377906297801
C           -2.44496487891157        4.39075081655525       -0.87095069758864
C           -5.06222405168040        0.33027709009678       -1.71897465430919
C           -2.23626218168096       -3.39173568001161       -1.99450977902064
C            2.31525876437832       -4.27404440618997       -1.21861507413806
C            4.94092822424950       -0.19342018274200       -1.83720861814278
O            3.07590835162175        3.62721211754670       -2.97036414890446
O           -2.02084534160783        5.60773702592890       -1.44807568032943
O           -5.68800813066668        1.15030020408813       -2.67514513576660
O           -2.99884644730293       -3.18474047348300       -3.15719005700765
O            1.91008782788491       -5.42782867424803       -1.92676197984543
O            5.49759838846939       -0.98926076218617       -2.85347003029661
C            3.19820475516171        3.42061363639999       -0.61718421994066
C           -1.52058816166828        4.02617226731516        0.30363115570314
C           -5.14734668268206        1.04920555295276       -0.36518308967218
C           -3.19052144626135       -3.34493061990478       -0.79595492684367
C            1.39237037988848       -4.05850680052202       -0.00894472650868
C            5.01630044805013       -0.98853635103066       -0.52503725459780
C            2.47856022390096        3.63174614752162        0.72838229899622
C           -2.09996000631705        2.77673296226442        0.97663369556399
C           -4.74111132743620        0.13534909881781        0.81135442558621
C           -2.47929552375862       -3.72405232176278        0.51836284010878
C            1.91369476763382       -2.87209756998298        0.80280506130504
C            4.66107932890904       -0.10931580379701        0.69012187138751
O            1.64798942812701        4.79028677514629        0.70610847961596
O           -3.41917908669562        3.02648038763005        1.44656317696760
O           -5.30492143447179       -1.17891316282715        0.70538907283883
O           -1.75421581496472       -4.94044242349605        0.35773481009339
O            3.25754301476874       -3.09131566373301        1.18731455218701
O            5.33068457914897        1.14844031041210        0.66094816007624
C            3.49273461362966        3.84341659485740        1.86261081786959
C           -1.30780912781833        2.29569027948369        2.19440017223504
C           -5.26395878968561        0.65159839926637        2.16415251972328
C           -3.48430830518869       -3.95045202550776        1.65359068354048
C            1.09040521201159       -2.64338570920927        2.12425920701420
C            5.06329361273039       -0.73869522660148        2.03460959410502
O            4.33087583176471        4.94662800099325        1.62907888332888
O           -1.46627873501061        0.98413847865451        2.28387913684616
O           -6.64166651439575        0.92583535951107        2.13917336011598
O           -4.40582072734696       -4.96696423373016        1.35479193300661
O            2.03386643771166       -2.02391535889364        3.03416808843476
O            6.39695106269765       -1.17943551951958        2.03640914688786
H            0.14548879348358        5.74231902241148       -0.17537299927097
H           -5.30379348038011        3.33819863124412        0.81990971454740
H           -5.58639201439740       -2.81570408122110       -0.38579386345268
H           -0.23454313131212       -5.81531898444660       -0.59210604583015
H            5.13745852263274       -3.30265712768232        0.53658553843082
H            5.63159442856254        2.84718073740373       -0.34439208394766
H            1.94154904268636        5.67848282623334       -1.79484884376922
H           -4.00792779357284        5.35273670368137        0.27524226107272
H           -6.78240758242804       -0.95515147724226       -1.48898285639929
H           -2.17710613453025       -5.55720330982016       -2.13444429790611
H            3.89727516030756       -5.30228654090886       -0.17172338189712
H            6.73358498071254        0.98735712136150       -1.58321605426145
H           -0.39353263318962        5.22511124633330       -2.49276778848967
H           -4.90536825835589        3.91094294880415       -1.96718600530264
H           -4.67661076722018       -2.10337356473859       -2.97951332050942
H            0.28969599159767       -5.05735397865487       -2.81308359930982
H            4.75658024658363       -3.65205043392283       -2.28684884358371
H            4.65704586746386        2.34924426583697       -2.92653012977990
H            1.64623866212919        2.64119921097245       -1.88237644713404
H           -2.37931401209025        3.58866526291959       -1.62043837622579
H           -3.99816153191499        0.21142291572152       -1.96902653122170
H           -1.48010990991196       -2.60131042362245       -1.89444419104896
H            2.21919051986889       -3.39307717397910       -1.87143870589235
H            3.87709288742806       -0.00538322875957       -2.04730911406342
H            2.50562855403392        3.79171890085931       -3.73685624344172
H           -2.77113631132630        5.97646083863997       -1.94297283491890
H           -5.81391169900982        0.63078042278343       -3.48494646910536
H           -2.44606239424183       -3.39907741221137       -3.92502682720215
H            2.66251487018608       -5.71613718785375       -2.47255878066492
H            5.63265767045113       -0.42717159439729       -3.63347568137917
H            3.99793542202292        4.16554131871696       -0.71396216481609
H           -1.47464597318562        4.84976359826264        1.02660753506272
H           -6.17522475361812        1.40608590926951       -0.20996540069997
H           -4.00067120286025       -4.06438026807466       -0.96936125993298
H            1.38351610580633       -4.93890551191551        0.64477989576832
H            6.02631004219870       -1.39988233842861       -0.39977110344031
H            1.87465412091163        2.75055338345432        0.96985596248799
H           -2.14479493569477        1.95371172122894        0.25430262795709
H           -3.64930711715210        0.06279095132721        0.85091425189434
H           -1.77400688011661       -2.94241659587809        0.82460321526029
H            1.84983628289266       -1.96633409972145        0.18551637227598
H            3.57671459449248        0.06038409650388        0.66668484245837
H            4.14357148341767        2.96927701082233        1.93041893929670
H            2.94031727686227        3.95979328647456        2.80160759176254
H           -5.03301049508582       -0.10825046433526        2.91956969808769
H           -4.76316799353442        1.58077097802214        2.43333633188321
H           -4.06747349574351       -3.03993068411098        1.80822614344904
H           -2.91671185398563       -4.18038299329221        2.56275672502797
H            4.90756724795945        0.01649541653247        2.81464500223934
H            4.43666505241621       -1.60508135256561        2.25297967552866
H            3.78575781254987        5.74671550856031        1.62970788452021
H           -7.11785098203882        0.09253623143389        2.01526945705180
H           -3.92191459061838       -5.80173737931816        1.27978394468306
H            6.97618646301714       -0.40450052168101        1.98129049480103
C            1.29843624764830       -1.11145003572218        3.80745883575603
H            1.99293409922654       -0.45497802879107        4.32432675088317
H            0.64335838122925       -1.63807292162689        4.51249636198406
O            0.41627544821983       -3.59982356769533        2.58681194397033
C           -0.79334246381889        0.26220781146324        3.29840249422896
H           -1.47544421399416       -0.50685239767200        3.66040476861875
H           -0.48941313186189        0.93859073938411        4.10045657603808
O           -0.67088167460184        2.98677333635307        2.94481321507301
C            0.46203863930081       -0.41005094726053        2.72201866346549
O            0.18687206421131       -1.43040815700876        1.81564991840665
H           -1.09998300284484       -0.89593944362695        0.58698366865190
O           -1.55634557462410       -0.36190067150627       -0.09076188091433
H           -0.42059086600312        0.42734730703317       -0.55031337643564
O            0.37901814822738        0.98488292885757       -0.59195700772251
H            0.81684333380082        0.84284477854783        0.28191814255516
O            1.22273478220347        0.58663170072513        2.05636953499009
H            2.14997463129062        0.29562095221315        2.05369852341318
H            0.09655199151017        1.93915036989286       -0.60336139423632
H           -2.03474461295686       -0.95327402249465       -0.66430798006675
