137
 xtb: 6.7.1 (edcfbbe)
C           -0.22268756741210        3.77706053467942        6.87883129751003
C            1.40678741299849        0.15441544255677       10.33144961653890
C           -0.13992620258057       -4.69212193262339        9.23841335432430
C           -1.60390055801610       -5.59431390905724        4.26248778643679
C           -1.48704823606491       -2.04721273504499        0.37789177023907
C           -1.84417378761587        2.95866967185209        1.94354379217953
O            0.09165284272141        2.42091655508614        7.12498163756330
O            0.35005088699016       -0.71813253591144       10.07615486513213
O           -0.71893109537590       -4.23831574410510        8.03961962158457
O           -1.44172169562651       -4.28505676517023        3.78925592458450
O           -2.02989943311513       -1.06350635861927        1.20266527744145
O           -1.81069918234534        2.59067622473289        3.29598299521085
C           -1.74677548097375        3.94693759380317        6.74256632239172
C            0.79839030874757        1.51203914093211       10.72751126462923
C           -0.99303395743770       -4.15960319719204       10.40243491829195
C           -2.77580914500009       -5.60337926494814        5.25932803344689
C           -2.49371701081061       -3.21437713311468        0.35320157351960
C           -3.18499298606407        2.45993060691311        1.37310264668112
O           -2.45427182470269        3.49077473567835        7.86187286583177
O           -0.02847378365411        1.41624868757852       11.85417798485083
O           -2.31452154826453       -4.61935252467764       10.33885677290689
O           -3.96454615293433       -5.11537114403351        4.69939490506210
O           -3.73837302712987       -2.82362175075102       -0.16141186055892
O           -4.27230175792148        3.01980990263261        2.05694371154399
C           -2.21395969596943        3.14810532989493        5.52375655103867
C            0.01381362102325        2.09231092594569        9.53733189363963
C           -0.93705816705918       -2.62634692135671       10.36738817282277
C           -2.38857773232327       -4.72774284858904        6.45720813132178
C           -2.64042132705442       -3.74626256595848        1.78675473818019
C           -3.20182719401547        0.92804966133496        1.46558330046706
O           -3.57713282329837        3.34704033450601        5.25234303551861
O           -0.45185945787504        3.38830778208418        9.85359230013916
O           -1.57766111997662       -2.06154554428846       11.48149546103079
O           -3.34612947692899       -4.78552537606973        7.48340582300585
O           -3.47138405556305       -4.88709292119689        1.83522515036110
O           -4.32839721640403        0.37835912806808        0.83100891667002
C           -1.43494225458331        3.55213169985096        4.26886976295645
C            0.88219684267855        2.14564554044901        8.26591422825179
C            0.50696305278511       -2.10659984688155       10.34738832077805
C           -1.05041203163276       -5.18743305275304        7.04436221142480
C           -1.27440596268616       -4.10351785303432        2.39515612552962
C           -1.95617724715315        0.30650754565107        0.82214505297282
C            0.08260958426062        3.54969347432597        4.52303049141843
C            1.49879898827421        0.75423198705817        8.06381445092464
C            1.36682454973938       -2.84337511181527        9.29942888830470
C            0.02488331943215       -5.27371548797852        5.94840120845658
C           -0.29676964677421       -2.94018431905700        2.19252676100055
C           -0.66927483150593        0.98896345787608        1.31658835163962
O            0.41850021634254        4.24346808493446        5.73082892443273
O            2.23409190306975        0.34024360538028        9.20247020160435
O            1.18176273574956       -4.25651773471087        9.36978732603968
O           -0.43968382419823       -6.08130841168352        4.86941717973999
O           -0.23863738846299       -2.51244991923916        0.84575552542893
O           -0.77169723966963        2.40933320412288        1.22527814700243
C            0.84508771370963        4.27364379883132        3.40167136979445
C            2.46516321724276        0.65047553734632        6.88654412394577
C            2.87740507153556       -2.65559693121345        9.52375519266116
C            1.30976445201738       -5.93900741973466        6.45426889834984
C            1.12448549150176       -3.26200137473767        2.66107888989297
C            0.55475387912977        0.60969837328354        0.47149020815423
O            0.34868624523740        5.56933281680157        3.16244969237482
O            2.71691966081929       -0.61010683779093        6.63803982531410
O            3.26354734237588       -2.97008205254118       10.83250672508323
O            1.08625359428777       -7.23614566289227        6.93199943941373
O            1.96159333308996       -2.30485029273907        2.28382980665688
O            0.34990118013851        0.84363501523199       -0.89971104005841
H            0.14456222336479        4.39771171862812        7.69345398956645
H            2.07732810750108       -0.22930634500974       11.11180124230457
H           -0.09277873457467       -5.78953348755506        9.26787793312005
H           -1.81445058562809       -6.27527804700602        3.43943009883923
H           -1.27974963550362       -1.67020986636343       -0.62943252599339
H           -1.77225270488307        4.04791000481288        1.82419161001463
H           -1.96361364979027        5.00834699805509        6.57940829805388
H            1.62195888343307        2.19456681100014       10.97972591091296
H           -0.58436954315598       -4.52314383248137       11.35728605850195
H           -2.94174071499323       -6.62134199113362        5.60961493331833
H           -2.09587412204989       -4.00794299447931       -0.29285253474508
H           -3.28767553343201        2.76404382166086        0.32090758153154
H           -1.93865815180756        3.65941931050191        8.67103554647159
H           -0.59132138927053        0.64504171881586       11.76810288075949
H           -2.64523791506620       -4.56114874095450        9.42884293874027
H           -3.92809120036032       -5.14169457971174        3.73131839548338
H           -3.97986186611471       -1.96975464811212        0.20905931726563
H           -4.12234138978791        2.98860843554050        3.00350941528458
H           -2.02975580006662        2.07820573766697        5.71732295061648
H           -0.83956332577801        1.42544197134165        9.32855313206517
H           -1.42266267369655       -2.28829212234617        9.44659092106303
H           -2.26176754297357       -3.68239396653883        6.10576439363170
H           -3.06862384720376       -2.94367101890931        2.40765728784843
H           -3.20486996142510        0.64433874368263        2.52416825539384
H           -4.08434335581615        3.22234009774691        6.08883191870494
H           -0.66949738223773        3.39312771742421       10.79597583131264
H           -2.41368281709146       -2.53023946524874       11.63076665533698
H           -4.22495000680695       -4.61324140672235        7.09731075066575
H           -4.17831293874942       -4.75684231193850        1.19653881039588
H           -5.10911043902697        0.89780142920326        1.05686105491771
H           -1.77556579526266        4.55178010006970        3.95743081397410
H            1.67012389899355        2.89030199862889        8.36611962478193
H            0.95772370140905       -2.24045991435205       11.34769795051589
H           -1.19272794936959       -6.17477089666882        7.50303932099668
H           -0.86352955157579       -5.00674321095928        1.94295861802713
H           -2.02211521603340        0.39349522411710       -0.27150391605311
H            0.38888380314863        2.49963416240788        4.59391638414684
H            0.67343418713731        0.03668069388292        7.86588235295265
H            1.09471818546441       -2.49394681308574        8.30224979520029
H            0.25747606607026       -4.26765401068599        5.59120027391496
H           -0.63543193474567       -2.10370488014198        2.84120197370837
H           -0.50840141752072        0.71020964207272        2.36608944166027
H            0.70969480740497        3.70935674734694        2.46999249727788
H            1.88517161512871        4.30495962368961        3.67888632902003
H            3.39462923153376       -3.30196505293026        8.80632293353445
H            3.16044815546238       -1.62517553014888        9.35455796974366
H            1.70501475668689       -5.37232545803566        7.29532036441073
H            2.01990414861649       -5.95525656085218        5.63600077128569
H            1.40336455013061        1.19900170180724        0.85710969433658
H            0.76834243305272       -0.44317090123751        0.59619582553056
H            0.52502322472474        6.10341787052151        3.94353862887097
H            3.11697094408156       -3.91986563538154       10.99040557888381
H            0.74487454051862       -7.78712588326005        6.20582795482203
H            0.24903377964786        1.81277377507273       -1.01712965454202
C            3.08091970979925       -2.08345671572547        3.13359159417967
H            3.78332243726947       -1.45993517613605        2.55259528353233
H            3.53929006414102       -3.02475599421297        3.43838803997510
O            1.44861220521239       -4.28956685810516        3.21126969910694
C            3.46878284578223       -1.00033216224671        5.48138520190941
H            3.99983875846947       -1.91440265022859        5.76403209266494
H            4.13639910711998       -0.21446945441365        5.18140701689212
O            2.95014868874245        1.59608339366373        6.30679906087602
C            2.43744001089802       -1.36441074809424        4.36076082166546
O            1.34619727933523       -1.93124840236718        4.78881899034396
H            3.47942025962420        2.34332592531116        4.83179107522210
H            0.57209696041458       -0.51074597344226        4.61652411191614
H            4.33762291657531        2.36203246025204        3.44474671053390
O            3.36911212194641        2.31784140670048        3.82220590737282
H            2.99162063712356        1.45361282595504        3.63736519748806
O            2.05772442027879        0.00525274709246        3.75717994055865
O            0.79342139099155        0.35587561695061        4.26398882589792
