137
Coordinates from ORCA-job job E -261.693359041250
  C          -0.22021703918354      3.68841497163632      6.83038374104612
  C           1.44515631202702      0.09558232055645     10.28858179327079
  C          -0.17149062022220     -4.72042166955036      9.34158895102522
  C          -1.57644527333142     -5.49423547344788      4.32926139997352
  C          -1.41967208431292     -2.00175656259574      0.42804662253489
  C          -1.90501510564640      3.00133070126698      1.90927458363684
  O           0.07564700841598      2.31860804019666      7.04305638192814
  O           0.35331506400676     -0.75928989751403     10.14663376272737
  O          -0.73968426906722     -4.23925574794555      8.14843531685403
  O          -1.42675970165006     -4.16464900096320      3.90403374461956
  O          -2.08394782439359     -1.01489927740705      1.15703564636125
  O          -1.92410062826437      2.61902330883558      3.25698221683180
  C          -1.74309284154357      3.89034245509137      6.73447003175781
  C           0.89923751088119      1.48867277839316     10.64759455731665
  C          -1.01615339360567     -4.18366592833721     10.50886183909748
  C          -2.75744663075143     -5.55265795327783      5.31415577313556
  C          -2.34830905816106     -3.22894994561771      0.39453072641619
  C          -3.22250576006691      2.51589143199430      1.27994272910606
  O          -2.43164691133770      3.41877637455418      7.86172091415988
  O           0.13245095074241      1.47324402003188     11.81727273735931
  O          -2.34473689244400     -4.62450069757343     10.44568579251459
  O          -3.94709778717456     -5.05772797995450      4.75730780698670
  O          -3.57753327573233     -2.94392168878763     -0.21138031597026
  O          -4.33862752034594      3.06952419363771      1.92239195347827
  C          -2.26006736149716      3.13214935443595      5.50954178991725
  C           0.07207308906728      2.04329047460057      9.47338098469759
  C          -0.94054862383259     -2.65091365472403     10.48133469109091
  C          -2.39645693472387     -4.71376594772849      6.54513982081248
  C          -2.54688891213213     -3.71088687926569      1.83664222921126
  C          -3.25271845289899      0.98238890868068      1.34910475531267
  O          -3.62806235085985      3.36901303762893      5.28353439581429
  O          -0.34499953065910      3.35911106318826      9.76758013333048
  O          -1.56038347838086     -2.08505938017569     11.60787402152364
  O          -3.35602686857828     -4.82597789050339      7.56614918669272
  O          -3.32479205931331     -4.88708989865230      1.88876484638341
  O          -4.35252677636177      0.45380735509628      0.65036784036111
  C          -1.50620812041155      3.55362069639579      4.24425266697113
  C           0.88744883335921      2.02237169806525      8.16522496227700
  C           0.50750920781725     -2.14174520997217     10.44512646338641
  C          -1.04947998023623     -5.16303800071932      7.12245174102504
  C          -1.19611475742974     -3.96323868513081      2.52014862276472
  C          -1.98263595329841      0.35116340078391      0.76159452767483
  C           0.01776977777679      3.52805987733665      4.45796830756771
  C           1.41259738814455      0.59073105821014      7.98874801177209
  C           1.36499609138418     -2.89994924931482      9.40995312462015
  C           0.02957681258314     -5.19770872074884      6.02658939914460
  C          -0.29350514753558     -2.74045033072903      2.35251927751100
  C          -0.71193258046981      1.03488835049607      1.29690914363490
  O           0.39813405009711      4.16950407171630      5.67895421908529
  O           2.20183327667315      0.19290786193885      9.09940127388178
  O           1.15603004015907     -4.31086068886546      9.48335572161394
  O          -0.42104577441348     -5.99546675695399      4.93677952836596
  O          -0.17894819984021     -2.35865024147408      1.00056995935405
  O          -0.81342174254391      2.45539599023273      1.21928833239933
  C           0.76432695131749      4.28630786277609      3.34712007575825
  C           2.33164683360814      0.36777021637920      6.79234991823264
  C           2.87880063023573     -2.74082172931617      9.64360654347764
  C           1.33703440201134     -5.83454321674251      6.50888116096416
  C           1.14604198263235     -3.01506194078916      2.91456072628894
  C           0.54370298001253      0.67327665811736      0.48849228082450
  O           0.25264662265884      5.58175753241126      3.14138660763870
  O           2.35088406971205     -0.92169836020590      6.50467642670691
  O           3.24665064989927     -3.01733904807712     10.96788635744929
  O           1.15760163837093     -7.16135874152423      6.92770452867166
  O           2.07099630587974     -2.32955556625962      2.06979079093466
  O           0.37074596227005      0.89397932015201     -0.88719280340297
  H           0.18354511202732      4.29501240958927      7.64935581775998
  H           2.14524945219544     -0.26236849214436     11.05373056685693
  H          -0.14120008832412     -5.81715207352752      9.35319641265039
  H          -1.76111235569973     -6.15738380844944      3.47458406334697
  H          -1.17648315923389     -1.66167683410003     -0.58676911811759
  H          -1.80478460034789      4.08918908652680      1.80316915542501
  H          -1.93235659091765      4.96701487080716      6.59391696348667
  H           1.74540451045532      2.15781868976955     10.83844061541058
  H          -0.60862026243961     -4.55486618184747     11.45494486080337
  H          -2.89423588720696     -6.60205929826581      5.62073770098441
  H          -1.87417607938058     -4.02007937187662     -0.19492786472949
  H          -3.27205208668396      2.83607342893407      0.23465159266229
  H          -1.90399081975609      3.61739307526669      8.65773841799595
  H          -0.47351989261231      0.71513233357634     11.79178118269600
  H          -2.66652901943474     -4.57817592405217      9.52635911864303
  H          -3.90252185165040     -5.11217382598259      3.78581524132005
  H          -3.90338536947174     -2.08610322500822      0.11228046200398
  H          -4.20797803289084      3.02576540047563      2.88534248581988
  H          -2.08111350191481      2.05857227386048      5.67326622442648
  H          -0.80914331571623      1.39949787319900      9.32796130627288
  H          -1.43490875640134     -2.30421919853873      9.55958729825801
  H          -2.29919964525528     -3.66626479674887      6.22292669383412
  H          -3.05398835131285     -2.91350768148813      2.40285104441959
  H          -3.30155114694143      0.68633175818843      2.40945674814846
  H          -4.10035192402727      3.23968645489560      6.12023093887994
  H          -0.51354866352682      3.40620547545194     10.72495042522943
  H          -2.40741259705509     -2.53776753043273     11.74799410790828
  H          -4.23503071368547     -4.69788767196890      7.17508199545889
  H          -3.99601672588730     -4.82722872662577      1.18574466354873
  H          -5.13571388993129      0.98323501163975      0.87191230748503
  H          -1.82992435492512      4.56384968374867      3.95825684699461
  H           1.72484314608022      2.72872458610124      8.23227371780426
  H           0.95781966458013     -2.25535281524507     11.44108348981774
  H          -1.15992786502228     -6.17220183643541      7.54164941862637
  H          -0.68707488681537     -4.83314447961458      2.08812123540898
  H          -2.00846475940165      0.42201047227194     -0.33392528859284
  H           0.33219096053763      2.47995650388498      4.48653398915669
  H           0.55203367712942     -0.08300240129138      7.88175194658472
  H           1.10467218748895     -2.54701143583996      8.40249271062688
  H           0.23206222858761     -4.17908092064220      5.66912525032906
  H          -0.74094966212821     -1.91991785876745      2.93103075160956
  H          -0.57758540104180      0.73906458493271      2.34445646215137
  H           0.64718527763966      3.75257318490576      2.40385376296417
  H           1.82015681847594      4.33497494213686      3.62316159207282
  H           3.38486456998423     -3.41759874456635      8.94548411223370
  H           3.18851815972379     -1.71789428421635      9.43547166102320
  H           1.71549968293220     -5.28356213994805      7.37174915957000
  H           2.05213858355487     -5.76924174344664      5.68038532660219
  H           1.37114842018207      1.27735949373597      0.87438214651767
  H           0.78154517497839     -0.38416529968721      0.61891303343764
  H           0.44666296662615      6.11225345750595      3.92711955151126
  H           3.09065019919031     -3.95653793919946     11.14313454025011
  H           0.85492849984743     -7.67757683617667      6.16623507604126
  H           0.25578357754380      1.84636968351039     -1.02852951680380
  C           3.14793089128632     -1.94261022698743      2.88567598108530
  H           3.72548991847000     -1.20609598789118      2.33664887642689
  H           3.74193814209412     -2.81028831347334      3.18917009765510
  O           1.45628337363632     -4.18639343404613      3.23988094080950
  C           3.17700904220468     -1.39220877200726      5.43752862020986
  H           3.41544376736650     -2.42728621370381      5.67806835429732
  H           4.07411508983191     -0.77476433989418      5.35864152908788
  O           2.98968296459189      1.21254119919743      6.24383414715885
  C           2.39705426598033     -1.36443451154594      4.10833300640399
  O           1.22065054705924     -2.06675435522306      4.17624908578239
  H           3.57115926779223      2.36528159203437      4.95499231480314
  H           0.36977007055393     -0.39073998335233      4.35369715825062
  H           4.41096980598421      2.53180951700989      3.57689488673631
  O           3.51529145458374      2.48363776565520      3.97544665273115
  H           3.03297152675464      1.68864169371472      3.65586255405290
  O           2.11831257764658      0.00650271838548      3.74738687809830
  O           0.89023846235081      0.44009386935464      4.30642921367481
