20
Coordinates from ORCA-job job
  C          -2.25617694248903     -0.43676461069514      0.27678456560873
  H          -2.37100387144073     -0.51700975893552      2.20626169271409
  H          -1.45889880326630      0.52403952189713      0.13855148002238
  O          -0.57752849319522      1.45033367864250      0.12397439858330
  O          -2.92236062943872     -0.23110436600641      1.46300901859333
  H          -1.60156762991288     -1.31770631013623      0.26193273674039
  H          -5.99062871658411      1.11470298945220     -1.98457895087819
  H          -5.34638077204296     -0.04602363217139     -4.06324781544050
  O           0.60781778591434      2.89241197865628      0.16737584398857
  H          -3.27874697973216     -1.38704034215230     -4.13556113336202
  H          -1.85372116078092     -1.56546669102856     -2.13989735373339
  C          -3.11945586247399     -0.32570975887773     -0.92809137055146
  C          -4.28660181883129      0.43439663079987     -0.89382411201942
  C          -5.08584373652048      0.52754269786479     -2.01698660580545
  C          -4.72392474953062     -0.12518586287466     -3.18528639644386
  C          -3.56008929304727     -0.87795892223563     -3.22666121981896
  C          -2.75790502418462     -0.97725773758102     -2.10633229286771
  H          -4.55587098130697      0.93978880287508      0.02019031785175
  H           0.46979379357758      3.03459953146733      1.11895679034562
  H           0.19593988528640      0.88754416103941     -0.06524859352719
