25
Coordinates from ORCA-job job.QMRegion
  C          -1.44554080378865      2.51046939759375      2.46087709169547
  C           1.33963825282648     -3.04606359819679      2.29997813349134
  O          -1.75759088173705      1.23576752338188      2.77253830710887
  O           1.67098811703042     -1.91741883628531      2.95613693838672
  C           0.72480866973052     -1.40072711091065      3.90480855844158
  H           1.28209236785457     -0.75142345535458      4.56890288840328
  H           0.26002923386855     -2.20369532232834      4.47807113362110
  O           0.53157994384447     -3.85942997090250      2.69464904178789
  C          -0.98608037408432      0.55490291077303      3.77104584717721
  H          -1.66433003229322      0.22774639109288      4.56092065900789
  H          -0.23837009872365      1.21374072876099      4.20094955804339
  O          -0.69240881806176      3.21880592065112      3.08981705178161
  C          -0.33807581093363     -0.64560497759517      3.12661168706316
  O          -0.66590605376430     -1.05414130464808      2.02528657429093
  H          -1.33635164241415     -0.21028718232214      0.54328871051318
  O          -1.43511420338909      0.13444009354807     -0.36686770311357
  H           0.49454492256042      0.01088824657178     -0.58165153746256
  O           1.42571457464370     -0.10700717876384     -0.30377233333618
  H           1.55889178761261      0.56160320687134      1.41404640824367
  O           1.60044797695244      1.05105773478571      2.26449344177513
  H           2.45346925506747      0.79036833708209      2.63326611384454
  H           1.92773932722635      0.60117207397270     -0.73836483260507
  H          -2.05730996805358     -0.49232986743772     -0.77042227002053
  H          -1.99906446893492      2.79964841292769      1.56343197401036
  H           1.90672767131276     -3.11792660783970      1.37053486122788
