139
Coordinates from ORCA-job job
  C           0.52476788441816      4.80979451937115     -0.31919771738946
  C          -4.42434844890194      3.32243542390490      0.52240199740187
  C          -4.91291833403962     -1.70141600741278     -0.68487219365917
  C          -0.64839085030294     -4.78366167916341     -0.66275398924536
  C           4.32625833126360     -3.37118789974896      0.18438281193843
  C           4.79433126623634      1.75394971258513     -0.68963393813914
  O          -0.36569451332045      3.77773684394454      0.03883648899157
  O          -4.32820348012808      2.33698564928962     -0.45498260827259
  O          -3.51673488085996     -1.81394166433446     -0.87101907036039
  O           0.31018777983497     -3.81306912391935     -0.32884567813508
  O           4.15307223206048     -2.28253880760655     -0.66656769431120
  O           3.39647815691550      1.90272005520735     -0.82863170390000
  C           1.00010518562714      4.59137337279390     -1.76953645212105
  C          -4.03050742406439      4.65036586634630     -0.14969052129865
  C          -5.50405203034253     -0.88436457623981     -1.84508268513584
  C          -1.20171901835183     -4.47884810828182     -2.06771992806016
  C           3.96453151654266     -4.62127777763282     -0.64107541962984
  C           5.33243087695081      0.99552139294264     -1.91544201645173
  O          -0.04953487979922      4.56975985222882     -2.69764241360744
  O          -4.87278988909756      4.97643310042153     -1.21796513781730
  O          -5.24352024459031     -1.46586423685687     -3.09365315011201
  O          -0.20235691519117     -4.43676163926865     -3.04989982414525
  O           4.80774929378568     -4.78408168713364     -1.74568017887074
  O           5.03230764335195      1.65524761632448     -3.11573539825517
  C           1.71276789473507      3.23640108838039     -1.81888557724463
  C          -2.57326244995273      4.54880285170259     -0.62946025197337
  C          -4.96042388775730      0.54849421720182     -1.77366188686455
  C          -1.89002897863076     -3.10947404788536     -2.01546729237438
  C           2.50254771373505     -4.48527670465778     -1.09280441210068
  C           4.77061359124657     -0.43258062320037     -1.91044107796586
  O           2.25705958271409      2.95361658260488     -3.08406270931558
  O          -2.15954735136748      5.77120829115642     -1.20366795527769
  O          -5.60963324251172      1.38183771545645     -2.70182828159954
  O          -2.51494084822259     -2.77485679275359     -3.22980629938518
  O           2.08000675574752     -5.62896935582343     -1.80537639596942
  O           5.37298005876312     -1.22106970031393     -2.90733342625905
  C           2.85992431897666      3.21969365915441     -0.80475501504718
  C          -1.63806146615419      4.16138890084850      0.52912957481932
  C          -5.14576494484674      1.17407001591325     -0.38290203122944
  C          -2.96397078974044     -3.12128859022811     -0.92415894067472
  C           1.57723671402274     -4.26844815240755      0.11259746927507
  C           4.99526537132401     -1.14043114968809     -0.56659735337586
  C           2.36174170748061      3.62140593333334      0.59508894119761
  C          -2.21547016404426      2.91270588411610      1.21256669625604
  C          -4.73949896616909      0.21288770534672      0.75202551069487
  C          -2.35780072651009     -3.55474293757890      0.42198505339159
  C           2.13088390530586     -3.14633225442708      1.00314923062146
  C           4.62820936642758     -0.24272339817376      0.62880548148865
  O           1.63088597996988      4.84744010710249      0.53592173152357
  O          -3.55964684182100      3.08811661598418      1.61720254465530
  O          -5.22837473485085     -1.11435091358655      0.53831401658518
  O          -1.69027442776555     -4.80648118279908      0.27227260235268
  O           3.49623737684481     -3.30849377874977      1.32932337183130
  O           5.13106413770000      1.08942687766167      0.48894689237489
  C           3.52619339598640      3.85869910920908      1.56444423867970
  C          -1.44554080378865      2.51046939759375      2.46087709169547
  C          -5.33497155206155      0.61299400546701      2.11375917615947
  C          -3.43438888503815     -3.76646570510538      1.49347977958702
  C           1.33963825282648     -3.04606359819679      2.29997813349134
  C           5.22760329880677     -0.75215656742064      1.95157107696635
  O           4.41516443329450      4.84422774140904      1.10117928668511
  O          -1.75759088173705      1.23576752338188      2.77253830710887
  O          -6.71972345274632      0.83443748095454      2.05050502164297
  O          -4.38212986095629     -4.72833669836313      1.10795597794135
  O           1.67098811703042     -1.91741883628531      2.95613693838672
  O           6.59936330146797     -1.03510343673387      1.84888683360527
  H           0.04683953003666      5.79083729369577     -0.21751430367189
  H          -5.43214381966674      3.37853101308782      0.95328144830811
  H          -5.37536896595899     -2.69570909873144     -0.64963197291831
  H          -0.21434423652589     -5.79050069067434     -0.63603667838332
  H           5.35040528922442     -3.43367385559381      0.57296796031115
  H           5.27827687036678      2.73558225716940     -0.61389519508555
  H           1.71454057568398      5.39303417795936     -2.01755048112727
  H          -4.12107158867606      5.45981913388479      0.58214201919937
  H          -6.59412915756700     -0.85851427764712     -1.73946555856167
  H          -1.94676716687448     -5.25176802612818     -2.31713661924877
  H           4.08215371771646     -5.51436561296640     -0.01931295832186
  H           6.42515033318722      0.95089342085392     -1.85409087518257
  H          -0.73334144876418      5.20776683142723     -2.42412889170038
  H          -5.00014078365556      4.18838387894004     -1.77182700966586
  H          -4.31614341378637     -1.76388439150918     -3.14398478462624
  H           0.53676200836789     -5.01909303377923     -2.79303177351154
  H           4.90313292458240     -3.92991430771793     -2.19980925931016
  H           4.10383920287701      1.95317363024478     -3.11435679204361
  H           0.97026799353846      2.47308347224121     -1.54282626985760
  H          -2.50974870471251      3.74836248770645     -1.38244874339824
  H          -3.87937206483519      0.52804523173428     -1.98060629039972
  H          -1.12281886929180     -2.36331970886084     -1.76269502974703
  H           2.42058603979711     -3.59664433061083     -1.73661603959029
  H           3.68344809684380     -0.38586304733279     -2.07540577693221
  H           1.58179487431433      3.14346851357636     -3.75416907843755
  H          -2.93950979780211      6.17370870395525     -1.62425528111036
  H          -5.65993102046635      0.91167948007186     -3.54922001917063
  H          -1.88885491307513     -2.94838444641771     -3.95023199352808
  H           2.83569552268974     -5.94370403223618     -2.33091979830142
  H           5.38811941383666     -0.71082602708404     -3.73242242143266
  H           3.62429146875187      3.93677615279951     -1.13191974120208
  H          -1.54349482099147      4.98783020191189      1.24543860520028
  H          -6.19655719892625      1.46850103461023     -0.25286084765513
  H          -3.74220916660850     -3.84105932213051     -1.20912102512811
  H           1.47510651559981     -5.19775473091834      0.68767536794273
  H           6.04461342220472     -1.45565735565021     -0.48962839684594
  H           1.71429109573367      2.83462220745878      0.99768595711820
  H          -2.14074004551674      2.08162910499106      0.48940857383029
  H          -3.64643038784948      0.19762006292795      0.83002865389882
  H          -1.64245061581527     -2.79744966493075      0.76417366787467
  H           1.98162005237434     -2.19627974757011      0.45840935754052
  H           3.53662405938321     -0.22138011761725      0.70607962111138
  H           4.10522983586296      2.93961516428190      1.66424300849548
  H           3.10591687768499      4.13240072891114      2.53769885755529
  H          -5.10092062599227     -0.19066318243720      2.82069050167877
  H          -4.87850089671001      1.53796302923828      2.46362868684995
  H          -3.98086820173010     -2.83468579047918      1.64902668302975
  H          -2.93444094778638     -4.05787397731091      2.42379785945142
  H           5.04979875627031      0.01288412919440      2.71517774016858
  H           4.73351574123056     -1.67765504210780      2.24890475842515
  H           3.94072865122302      5.68742416195986      1.07376903565254
  H          -7.15582065388055     -0.00696298691304      1.85307355282806
  H          -3.93017543446408     -5.58099500645286      1.02667105884301
  H           7.07675174517303     -0.20450144423327      1.70957628155139
  C           0.72480866973052     -1.40072711091065      3.90480855844158
  H           1.28209236785457     -0.75142345535458      4.56890288840328
  H           0.26002923386855     -2.20369532232834      4.47807113362110
  O           0.53157994384447     -3.85942997090250      2.69464904178789
  C          -0.98608037408432      0.55490291077303      3.77104584717721
  H          -1.66433003229322      0.22774639109288      4.56092065900789
  H          -0.23837009872365      1.21374072876099      4.20094955804339
  O          -0.69240881806176      3.21880592065112      3.08981705178161
  C          -0.33807581093363     -0.64560497759517      3.12661168706316
  O          -0.66590605376430     -1.05414130464808      2.02528657429093
  H          -1.33635164241415     -0.21028718232214      0.54328871051318
  O          -1.43511420338909      0.13444009354807     -0.36686770311357
  H           0.49454492256042      0.01088824657178     -0.58165153746256
  O           1.42571457464370     -0.10700717876384     -0.30377233333618
  H           1.55889178761261      0.56160320687134      1.41404640824367
  O           1.60044797695244      1.05105773478571      2.26449344177513
  H           2.45346925506747      0.79036833708209      2.63326611384454
  H           1.92773932722635      0.60117207397270     -0.73836483260507
  H          -2.05730996805358     -0.49232986743772     -0.77042227002053
