133
Coordinates from ORCA-job job
  C          -1.83087362115160      3.02607872139760     -2.21935343665983
  C          -5.54390434666261      0.47220602431616      0.48204815339065
  C          -4.83843316010134     -4.67581098715762      0.91246346493986
  C           0.13241534832125     -6.25241212379587      0.23751032608637
  C           4.31563833437430     -3.15240737281876     -0.53540950369263
  C           3.19315058124786      1.54561912612056     -2.52693907485772
  O          -2.17942758623527      1.89272942026973     -1.45828912990519
  O          -5.30861711473986     -0.75729257542181     -0.13196048213646
  O          -3.59938249979300     -4.55652802908381      0.26223119244616
  O           0.66055173725797     -4.97397077360847     -0.01622639029840
  O           3.69720472665942     -2.38698164583795     -1.52205563809416
  O           1.81650616681853      1.25949112466718     -2.49100407107489
  C          -1.46071211229765      2.56405327575608     -3.63851219087368
  C          -5.83783335348921      1.48759438196971     -0.63892803981636
  C          -5.93546398151783     -4.41035914922848     -0.13249826825678
  C          -0.77819495582664     -6.65399481292516     -0.93531117273814
  C           4.27391265708821     -4.62040689481129     -1.00489243295107
  C           3.83926642296703      0.66690813508153     -3.61252356136587
  O          -2.50515693448283      1.86672001908186     -4.26318991636969
  O          -6.94347612484143      1.11445537495907     -1.40976284497094
  O          -5.88127245578524     -5.32718631232198     -1.19093227222697
  O          -0.11349388500363     -6.60689700991860     -2.17002528809878
  O           4.93377741086430     -4.80336647636398     -2.22439975507181
  O           3.30083045913608      0.92212306171362     -4.88086169598727
  C          -0.25086316231486      1.63084768740106     -3.53075447121941
  C          -4.58687714182693      1.63199982509241     -1.52380355015498
  C          -5.77040615540298     -2.97137681647359     -0.63921725609744
  C          -1.96531228412786     -5.68580214272688     -0.98283715781646
  C           2.80557494245507     -5.06710542246583     -1.11036083602434
  C           3.64740717616689     -0.80072678133394     -3.21413560669822
  O           0.25381388933493      1.25985271977012     -4.78955447633677
  O          -4.78466159980971      2.61379197350336     -2.51590340240215
  O          -6.82760339900039     -2.59573484312353     -1.48557515257352
  O          -2.93300785305982     -6.07618452026327     -1.92511261609142
  O           2.71052152021225     -6.43670096276381     -1.43120989154556
  O           4.32409102567648     -1.66848289909430     -4.08786618887447
  C           0.89361622210078      2.30250693542700     -2.76495206212448
  C          -3.35317492967835      1.99234237094500     -0.67487393953271
  C          -5.71777623408556     -1.95803736560629      0.51221822098139
  C          -2.65996452079158     -5.61021954049849      0.38134037706944
  C           2.04919086555791     -4.80561782250273      0.20381785213514
  C           4.16599571631947     -1.07133523834414     -1.79624111188517
  C           0.41144628060937      2.95093801534701     -1.45666130998487
  C          -3.25136071747877      0.95862490174480      0.45677702685421
  C          -4.75260292738800     -2.40373857566568      1.62862767856203
  C          -1.64514265845125     -5.34714793022012      1.50602565443638
  C           2.28394119216359     -3.34591211205269      0.61389580481647
  C           3.65401845278283     -0.02694835863530     -0.78321799299310
  O          -0.76711211645168      3.72996611346397     -1.64737260073293
  O          -4.42955521230733      0.91401891196584      1.23060106328445
  O          -4.95093609358530     -3.77432883288471      1.97570507346922
  O          -0.57662874719534     -6.28656705927525      1.44230920482087
  O           3.65525222908044     -3.04331083354808      0.71183105257678
  O           3.77858664013911      1.30911670842445     -1.27898456210845
  C           1.46435934086396      3.91078850544967     -0.88254426376670
  C          -2.07074754473347      1.13846259916606      1.39310058632667
  C          -4.97174320131555     -1.63834516798510      2.94532975635021
  C          -2.26638469795622     -5.50343381824279      2.89955764242187
  C           1.62420547972296     -2.94458865058791      1.91965830982038
  C           4.47127012987274     -0.04184253883013      0.52176040201096
  O           1.80506558832235      4.92539684013992     -1.79153491174626
  O          -2.27330128703764      0.49755568174691      2.53095357191793
  O          -6.31311867488293     -1.66390334321147      3.35595720935923
  O          -2.80442321347850     -6.78435162473829      3.09836799383348
  O           1.96112346189247     -1.67202506127275      2.20831888614166
  O           5.85123448571425      0.05487942751091      0.28195160313433
  H          -2.66164864818803      3.74051670506896     -2.25775419530797
  H          -6.37329523175309      0.42031587453034      1.19784733877187
  H          -4.96048971154646     -5.67077919680877      1.35866399896221
  H           0.93651006985716     -6.98929945603387      0.35568991234048
  H           5.34584400837242     -2.82591327948312     -0.34807354578491
  H           3.37369913201223      2.60576120186488     -2.74346407993132
  H          -1.18358677913447      3.45209209013314     -4.22860222828221
  H          -6.07910487106014      2.45618827987224     -0.18842013024751
  H          -6.92006138176557     -4.52665792005187      0.33153370538264
  H          -1.15298159870045     -7.67222199493603     -0.74333158680479
  H           4.79312975679783     -5.24370889686159     -0.26939659114906
  H           4.90799666873397      0.89438312966429     -3.67919829859712
  H          -3.35825851846020      2.24168199632969     -3.98337530760720
  H          -6.89130647032210      0.16353595680845     -1.60421667017634
  H          -4.95593770393506     -5.45345117981465     -1.47090188632274
  H           0.83863303147509     -6.76745464173983     -2.03819225569130
  H           4.68318651182385     -4.09196815374712     -2.83749531170589
  H           2.32638362520696      0.92963867930153     -4.83506229343380
  H          -0.56223976346135      0.74022892350461     -2.96482708472004
  H          -4.38478002096888      0.66128647361921     -2.00283480958688
  H          -4.81145094520943     -2.90689495000490     -1.17789491091263
  H          -1.57778803655460     -4.68462345553585     -1.22461398511026
  H           2.31610245775914     -4.46944858568446     -1.89496053367185
  H           2.56774816810206     -1.02132475240878     -3.22129012542482
  H          -0.48402184298621      0.94396476754650     -5.33421074042037
  H          -5.71715192994756      2.56766045366126     -2.79019855132945
  H          -7.00382730522968     -3.32998354099024     -2.09543802593485
  H          -2.48488277334845     -6.26085043638826     -2.76542420119658
  H           3.42646554294288     -6.64457767039387     -2.05624665004790
  H           4.17821376541162     -1.35995008329208     -4.99677060672104
  H           1.35411044140367      3.06267111753052     -3.40917821184505
  H          -3.45609562365287      3.00254221948946     -0.25897129403866
  H          -6.72446019173534     -1.82942403464125      0.93201696788933
  H          -3.17656355724812     -6.55999364191241      0.57352279214637
  H           2.40097554425731     -5.48161243636327      0.99244967718033
  H           5.26427424761483     -1.06305434954283     -1.80266427106219
  H           0.19663669763611      2.14688993121594     -0.74329133622114
  H          -3.07717530807782     -0.02322227927446     -0.01823433479426
  H          -3.71959995919839     -2.26077060783937      1.28153082186885
  H          -1.24763501765141     -4.32983641440010      1.39401947124693
  H           1.81461367792164     -2.71242305312511     -0.16191073908424
  H           2.59835156072564     -0.23954018471530     -0.56524551435562
  H           2.38534566913966      3.36289914291455     -0.67765558919035
  H           1.07658480823525      4.33294206552444      0.05070014210029
  H          -4.32320313652998     -2.09518479560674      3.70123321843693
  H          -4.69468148928402     -0.59171545022117      2.82164569731543
  H          -3.08983871279662     -4.79640173570440      3.01219393019013
  H          -1.48847614172082     -5.28108611676342      3.63842282818384
  H           4.12622981357442      0.78334496464511      1.15297029765738
  H           4.30233589686246     -0.97897975521274      1.05157031264448
  H           1.02795657258416      5.48614053946883     -1.93004403774208
  H          -6.54976955617350     -2.57579334083167      3.57971948030327
  H          -2.08019267746634     -7.42624203738379      3.05731087773051
  H           6.04606570708124      0.93727631742991     -0.06560467346740
  C           1.14083782554639     -0.99935483253336      3.16614690405803
  H           1.67240808798494     -0.08719430607760      3.42152439793887
  H           0.98784100881551     -1.60345472985823      4.06046553551891
  O           0.89984338719447     -3.63566849826523      2.60331737374920
  C          -1.12608222168808      0.24801680612220      3.33922646571219
  H          -1.49582171073962     -0.24791480292361      4.24176198909241
  H          -0.63221027237528      1.18846986782286      3.61392899255320
  O          -1.05881682827955      1.74721791531059      1.12816873256355
  C          -0.18805172535586     -0.65014660291686      2.54508671787049
  O          -0.51172672787239     -1.05594690354713      1.44226788131958
  H           0.70019555075716      2.04809784148143      1.57434547261359
  H           2.14880363084414      1.95574856695896      1.12518876518889
  O           1.60469554430894      2.00022681922480      1.92076632835933
