16
Coordinates from ORCA-job job.QMRegion
  C           1.62420547972296     -2.94458865058791      1.91965830982038
  O           1.96112346189247     -1.67202506127275      2.20831888614166
  C           1.14083782554639     -0.99935483253336      3.16614690405803
  H           1.67240808798494     -0.08719430607760      3.42152439793887
  H           0.98784100881551     -1.60345472985823      4.06046553551891
  O           0.89984338719447     -3.63566849826523      2.60331737374920
  C          -1.12608222168808      0.24801680612220      3.33922646571219
  H          -1.49582171073962     -0.24791480292361      4.24176198909241
  H          -0.63221027237528      1.18846986782286      3.61392899255320
  C          -0.18805172535586     -0.65014660291686      2.54508671787049
  O          -0.51172672787239     -1.05594690354713      1.44226788131958
  H           0.70019555075716      2.04809784148143      1.57434547261359
  H           2.14880363084414      1.95574856695896      1.12518876518889
  O           1.60469554430894      2.00022681922480      1.92076632835933
  H           2.10285196252988     -3.23575382427146      0.97231133645560
  H          -1.99667761834185      0.43738551778917      2.72584870567392
