133
 xtb: 6.7.1 (edcfbbe)
C           -1.72074044239130        3.11521709444307       -2.22657246427901
C           -5.21945097841509        0.38586881811876        0.57784369922624
C           -4.93941097576230       -4.81723463414934        0.75154766229957
C            0.08412714936343       -6.20836865923530        0.35046207832431
C            3.94049489362230       -2.70503586414824       -0.25396298729064
C            3.20447933010425        1.60317801404661       -3.10977346272096
O           -1.98782536779080        1.91544693805653       -1.53263998982004
O           -5.08162255891283       -0.82051941385299       -0.11217038790884
O           -3.72530058242734       -4.79245634813905        0.05432433131879
O            0.48218428978222       -4.88133071493094        0.11278204015828
O            3.34961423547449       -2.06863263486202       -1.35244684855343
O            1.82733233919195        1.35827152684298       -3.14263216905758
C           -1.52959113128779        2.80207632181224       -3.71849502016957
C           -5.57565620022157        1.46882367857062       -0.45610250930496
C           -6.03108052568614       -4.40515852130453       -0.25155369115002
C           -0.70081721548633       -6.72038538971281       -0.86702155682859
C            4.08951622290745       -4.19292189287217       -0.61252651634057
C            3.86165416053776        0.51131704558793       -3.97375894255062
O           -2.64313661632983        2.16775072008393       -4.28841841408376
O           -6.74289879467128        1.16004796264675       -1.16283715073170
O           -6.08517901742664       -5.27580793237544       -1.34769205261665
O            0.03474592819269       -6.64344877587853       -2.05977251839738
O            4.89190721413983       -4.37424618508275       -1.74644403911562
O            3.41311795133684        0.55927591804981       -5.29974155841387
C           -0.32268320899735        1.87075647614515       -3.85538473735843
C           -4.39281538015693        1.65085724342788       -1.42117225662680
C           -5.74504650638632       -2.96628140672925       -0.70475784683882
C           -1.96176770373104       -5.86359687236714       -1.01423545738241
C            2.68751031761157       -4.77022076567069       -0.83500967386277
C            3.55545196811240       -0.85107660025166       -3.33307886291521
O            0.01376839918080        1.63642898923201       -5.19906490188198
O           -4.65337018359098        2.70532801753499       -2.32210221808518
O           -6.78794265046947       -2.45487183016923       -1.49561915514572
O           -2.82012377982870       -6.35500869103230       -2.01201730223614
O            2.74045922935794       -6.15037534174295       -1.12696275786182
O            4.25692864969761       -1.89651647504730       -3.95981277215178
C            0.91948704391490        2.44981026243736       -3.16666558889354
C           -3.08999281944379        1.93647601020216       -0.64874486665660
C           -5.56352084030989       -2.01606818080624        0.48577072202088
C           -2.76297694101640       -5.80747284226434        0.29307771254804
C            1.82643910583090       -4.55794893541034        0.41537220867454
C            3.94043770285028       -0.87522834439141       -1.84984128978684
C            0.60606086923642        2.97470437240768       -1.75271900506628
C           -2.91233831885077        0.81735052762276        0.39508785732411
C           -4.60005087773006       -2.59750934670924        1.53794404695702
C           -1.86038019354962       -5.49468385350868        1.50017979811663
C            1.86959802741955       -3.08429978206111        0.85329009799735
C            3.43438393394541        0.36613325505424       -1.09529872080301
O           -0.58719679996061        3.75887540772138       -1.72668558329254
O           -4.03423871599670        0.74672502808814        1.24974157957621
O           -4.94356396942681       -3.94634936540178        1.85017239887710
O           -0.70077914685154       -6.32379686864364        1.50059070422782
O            3.17867580766902       -2.54507399550959        0.91592918851825
O            3.72390106937239        1.56586210662906       -1.80747963039814
C            1.70250810140149        3.91214242797240       -1.22299914056076
C           -1.67429016787882        0.94446573385142        1.27423817317751
C           -4.65499332820911       -1.85160626207758        2.88144444702977
C           -2.54274711266117       -5.76839636596802        2.84694590745801
C            1.25848243233523       -2.94896756036892        2.25017484664515
C            4.12127722559049        0.52009374673506        0.27184881640883
O            1.94278408003801        4.98851114878687       -2.09228983449308
O           -1.93636954255820        0.52646352076897        2.49287771818128
O           -5.96468887199143       -1.72152023946245        3.36673589246480
O           -2.97740637660704       -7.09837519422707        2.96090213492332
O            1.92488994557674       -2.07258051361697        3.02115911954736
O            5.52122739510208        0.53161201038765        0.16643137725058
H           -2.53994595648176        3.83178460258785       -2.09431457170270
H           -5.98442101766751        0.32119179611589        1.36011689470275
H           -5.14323245763845       -5.81327214366591        1.16565392192580
H            0.95905164627634       -6.84228958712067        0.53387031256945
H            4.91371939312589       -2.26842333843534       -0.00922896741198
H            3.44510438982541        2.60350638568659       -3.49367088872387
H           -1.32004129474083        3.74818224030318       -4.24376484924236
H           -5.76403840061160        2.41232057272417        0.06785531209745
H           -7.01108545251641       -4.45001049032532        0.23357000709836
H           -0.99278590668048       -7.76333329179835       -0.66767683096735
H            4.57691018128229       -4.71606492835592        0.21939392051935
H            4.94465570815158        0.66872141902456       -4.00469206792470
H           -3.45258582490766        2.47262235477395       -3.83837225999619
H           -6.72566139066249        0.22190959718164       -1.41689781524954
H           -5.18087883595777       -5.47234367036374       -1.64551405470347
H            0.98860356996669       -6.67249193304677       -1.85726032075417
H            4.62175562038372       -3.73951841836222       -2.42856024109700
H            2.44954999079337        0.68531885112151       -5.30731925575679
H           -0.57351206780551        0.92377605239945       -3.35392470489662
H           -4.24637656466439        0.71436166844543       -1.98058447270131
H           -4.80148116838874       -2.96794793237538       -1.27339765206735
H           -1.64210445832310       -4.83781596389548       -1.25371887682348
H            2.20990557239891       -4.22886844375026       -1.66295456526672
H            2.47175808520247       -1.02851470289510       -3.39908727474746
H           -0.79437102159493        1.38703837944448       -5.67407751248526
H           -5.60287396644627        2.68231407945099       -2.53085674743816
H           -7.04813036656139       -3.13613020165498       -2.13505856191442
H           -2.29278226318172       -6.51603927681126       -2.81008941831420
H            3.52578057594697       -6.29918481537758       -1.66143579477555
H            4.18147766142826       -1.78503759864183       -4.92098601497818
H            1.32641817550596        3.26415213227729       -3.78351459067503
H           -3.15837026500521        2.90911561070821       -0.14194956410941
H           -6.53880177928043       -1.82870719208261        0.95317205689689
H           -3.26510467026721       -6.77116349244864        0.45257785990496
H            2.18141067465928       -5.16527840882015        1.24799513455455
H            5.03492275202341       -0.93236964765204       -1.76692933493603
H            0.48119362356503        2.11511837381770       -1.08413320639995
H           -2.79045736014675       -0.13047817702225       -0.15555957198767
H           -3.57434243861273       -2.56322601341166        1.14325732291265
H           -1.54793816204538       -4.44348210665171        1.45619865790453
H            1.24830061310044       -2.50352194316021        0.10934642178796
H            2.34613750618353        0.26690887613362       -0.96984490489495
H            2.64383952213334        3.37103772064207       -1.13244903042900
H            1.38717038988487        4.27352385556639       -0.23840387380037
H           -4.02486175589269       -2.40509727180930        3.58768069973045
H           -4.25683054781523       -0.84362192516319        2.76420639916880
H           -3.42586438723480       -5.13836416848635        2.95181680280386
H           -1.81999223151667       -5.51723232973273        3.63162935622519
H            3.75886310187473        1.45091971028460        0.72960166966447
H            3.86890388096937       -0.33684750105597        0.90037211168501
H            1.14033858866978        5.52703455593739       -2.14138639087215
H           -6.30252681909856       -2.60139931783510        3.58921587816658
H           -2.19800754566455       -7.67285697710489        2.92729587540697
H            5.78927470022792        1.32375232187432       -0.31321736814469
C            1.08023039102155       -1.34691029741782        3.90517263971358
H            1.73359533395067       -0.69414614153031        4.51204695426082
H            0.48262752777917       -2.00523368853111        4.52063973262801
O            0.41026692281208       -3.69989199475791        2.68812832325739
C           -0.86862381926902        0.38552388217667        3.43358666883326
H           -1.33089753801379       -0.06883381676593        4.30969536095797
H           -0.41864690032209        1.33424435193968        3.65998087361873
O           -0.60857722069936        1.37020774211470        0.88966148106691
C            0.13141755978741       -0.63506531418542        2.90743163783463
O           -0.12937137566399       -1.27187286850803        1.87762125445174
H            0.98131522233727        1.05937281100054        1.67829943583719
H            2.17721436533433        0.04551849741741        2.03417095897201
O            1.51965044766190        0.62426709099155        2.39806349796544
