13
Coordinates from ORCA-job job.QMRegion
  C          -0.30968702360593     -0.65091081172887      3.12630561557867
  O          -0.68370735829627     -1.08422572497305      2.04972788822550
  H          -1.36713002420258     -0.25034717067296      0.55129071392259
  O          -1.48719868794274      0.07616400292822     -0.36050302494197
  H           0.52897598401776      0.03975041255791     -0.52702926414293
  O           1.44086940434614     -0.06897593989447     -0.19997559051521
  H           1.63666104786644      0.55705274210742      1.62315074077394
  O           1.70266769893870      1.07681104517897      2.44562022383105
  H           2.61794070358762      0.96522654628082      2.72859424555228
  H           1.95673809624267      0.65498243265299     -0.59196382626109
  H          -2.12535811874890     -0.55710189862828     -0.72927837887777
  H           0.49851302690487     -1.17953263692606      3.64925165156865
  H          -0.75762031994873      0.25123053078594      3.56022760862256
