139
 xtb: 6.7.1 (edcfbbe)
C            0.60507687953233        4.87806532596659       -0.35750636598214
C           -4.33599630547308        3.22884437280633        0.39887843988121
C           -5.04340400887348       -1.79020745340000       -0.53433092058437
C           -0.75399000754765       -4.81795466456546       -0.66644038275462
C            4.19413954533642       -3.22053011098216        0.12370204338710
C            4.92790357746303        1.87776517829216       -0.63178455252031
O           -0.28354375708183        3.79026845852388       -0.28117015296320
O           -4.35636311619930        2.23058353559293       -0.57246010343703
O           -3.65971808788634       -1.92007444222703       -0.78594588404484
O            0.16394312299062       -3.77808814315639       -0.45643365611958
O            4.09133141747338       -2.11805840280231       -0.72516602962691
O            3.55014310914185        2.07462953750580       -0.86127157860399
C            1.26226464088383        4.87572493144260       -1.74802984420547
C           -3.97174240129823        4.54455161105487       -0.31623885656216
C           -5.69110449839333       -1.02922929027953       -1.70226488585261
C           -1.41257101811320       -4.61260264218976       -2.04183230693354
C            3.84179259582802       -4.46166296692628       -0.71546292553692
C            5.50969364432204        1.12100554231420       -1.83663579496483
O            0.32883776507121        4.96609763574970       -2.79257192818024
O           -4.87193933644691        4.84786446471179       -1.34337754987566
O           -5.52825168470559       -1.68943870220390       -2.92755974134735
O           -0.48887362701088       -4.61118212223557       -3.09795616397830
O            4.70485832901370       -4.61937773136671       -1.80689427792630
O            5.32749095908111        1.81802598726076       -3.03965310326157
C            2.03463089579217        3.55977387326567       -1.89321646924299
C           -2.53856910925776        4.44291191755643       -0.86281398840438
C           -5.10208331532388        0.38611350423444       -1.74763042046139
C           -2.13423184297114       -3.26008818322033       -2.00576758235008
C            2.38767343301455       -4.32244331330495       -1.18430270653534
C            4.87021047105406       -0.27403155691869       -1.90027372377933
O            2.77759730583530        3.49474435405372       -3.08656152422293
O           -2.12935455589444        5.66585317921294       -1.43677958850280
O           -5.77216706265261        1.18715000813097       -2.68853733343268
O           -2.86293126057996       -3.00849171899708       -3.18235775646014
O            1.97324009409915       -5.45853564920601       -1.91390903092815
O            5.47945906829019       -1.07037450302924       -2.88621802015435
C            3.01621118181715        3.38591451413668       -0.72842224440500
C           -1.56526883283211        4.05260278530751        0.25952361063487
C           -5.19475377370881        1.09523119873243       -0.38845245849568
C           -3.11752850723876       -3.23162730842911       -0.83222671040794
C            1.45036666146873       -4.13120128392015        0.01518926252534
C            4.98667600975830       -1.02224129876265       -0.56466122998670
C            2.31641075799273        3.58482406308469        0.62906422984308
C           -2.08421104134463        2.76708891770902        0.91124153904095
C           -4.75462259590575        0.19138902870469        0.78174277959393
C           -2.42109998153903       -3.61244131007297        0.48669435361784
C            1.96219493848929       -2.98831759521455        0.89788223346100
C            4.60314464915411       -0.13270664743734        0.63227919980288
O            1.58505444980450        4.80919358870429        0.63764312910043
O           -3.39729970037874        2.95929971789186        1.41883853901643
O           -5.28386646507373       -1.13347278544347        0.66918019490581
O           -1.73381148551874       -4.85166430931577        0.33374058427199
O            3.33507799335435       -3.13555849453056        1.23547920980014
O            5.16844483323132        1.17941915556781        0.54857166951927
C            3.32144232530986        3.66689559682275        1.78508461462496
C           -1.24568444301571        2.32088750481819        2.10650795611155
C           -5.27791588395627        0.67437971490167        2.14759500556731
C           -3.42677362309503       -3.80704846095625        1.62747802036791
C            1.22505417617739       -2.94158387344219        2.24219475944199
C            5.11218375375459       -0.68792390495358        1.97605088756539
O            4.22193885075971        4.73508067637991        1.62664199350885
O           -1.48915151122942        1.04880156962253        2.36455046010521
O           -6.65322577790626        0.95315629448880        2.13013406116722
O           -4.37498144908373       -4.80133099165714        1.33552064881518
O            1.87753363549518       -2.12289217487386        3.09792008408647
O            6.47229038611569       -1.03007221454511        1.93487906990172
H            0.08208129298731        5.82580353752302       -0.18665162597009
H           -5.30677307980553        3.32212707710583        0.90764668911942
H           -5.50746377513841       -2.77669441523771       -0.42017306461031
H           -0.26011781746418       -5.79438179730049       -0.62103714640339
H            5.19615416950247       -3.31309373431268        0.55692971248620
H            5.43471269196286        2.83884882831685       -0.49973035272463
H            1.96526752354376        5.71836626298231       -1.79615948406431
H           -4.02841886479683        5.36832805355823        0.40485057752017
H           -6.77064496342291       -0.96484170650175       -1.52833872965865
H           -2.15154132646461       -5.41524055176582       -2.19611840717217
H            3.94003724663625       -5.35842932346073       -0.09137721989696
H            6.59049612846663        1.01352720077302       -1.69909151548204
H           -0.50300509725503        5.34819804608554       -2.45741267154405
H           -5.04533147291658        4.04400892692409       -1.85827486394997
H           -4.61197286280103       -2.01218195967262       -3.02159395011686
H            0.35660199730669       -4.99422373733336       -2.79950867253070
H            4.82802317716461       -3.76000694431672       -2.23260493619667
H            4.43875248681845        2.22574469712219       -3.05909735044365
H            1.28960851594513        2.74489321771514       -1.86326645219273
H           -2.50860752320425        3.64985555808602       -1.62280444398799
H           -4.03509335958256        0.31381233294599       -2.00782190634192
H           -1.37141748262003       -2.48196915357927       -1.85856874872909
H            2.30865409098638       -3.42740202313259       -1.81846148660185
H            3.79893562121221       -0.16412649508232       -2.11843011979063
H            2.20856188380045        3.78191558810327       -3.81189791473810
H           -2.89612019891920        6.04864829122784       -1.89430233362493
H           -5.88031499628681        0.67393608850781       -3.50482961197610
H           -2.29399497392805       -3.21421447070219       -3.93935589940220
H            2.72237592000249       -5.75634055629379       -2.44627125475075
H            5.57470523803504       -0.53414317843956       -3.69125281880984
H            3.81498502013143        4.12448715094237       -0.82753372105744
H           -1.50990660277466        4.84811908475992        1.01517085309758
H           -6.23087629678144        1.42589766375930       -0.22185426012396
H           -3.91570195418529       -3.95660759552908       -1.02897477603016
H            1.39649726351030       -5.03913321178193        0.61679995255710
H            6.01693964364839       -1.39670350216509       -0.44566904730679
H            1.61770835650624        2.75589714930362        0.81189383066059
H           -2.07798301508000        1.95313989757269        0.17286629806473
H           -3.65925115490312        0.15283572955028        0.80808852521310
H           -1.69795050122805       -2.83602124216246        0.76941646157210
H            1.80264088897537       -2.02999582102882        0.34612208720749
H            3.51555280708968       -0.07397376798892        0.65081237698103
H            3.92264060815294        2.75638820987109        1.81112970442090
H            2.75576152820126        3.75957473412672        2.72258875850264
H           -5.04828199279159       -0.11010475489777        2.87681328634224
H           -4.77158705096913        1.59235264339929        2.44347104870111
H           -3.98352376334998       -2.87961857732298        1.78216941647083
H           -2.86175616325741       -4.04978871539286        2.53497180925549
H            4.95085030527169        0.07381167839964        2.74045264761142
H            4.57363836315134       -1.59965782237765        2.24104470761119
H            3.71835388901173        5.55916096614207        1.66589639096981
H           -7.13439655562497        0.12253678472326        1.99973862395914
H           -3.91043970300698       -5.64658998874773        1.26155644243725
H            7.00286685090808       -0.23022651993446        1.83164927864503
C            1.00785677717642       -1.41290230480534        3.95292018266350
H            1.62214134930538       -0.76980749559229        4.61704331081189
H            0.36645589597235       -2.05756862660297        4.51145005739095
O            0.38267864792539       -3.74117104565234        2.59969776950427
C           -0.82431848272201        0.42086095511756        3.45221644364698
H           -1.58985802446765       -0.13203033379396        4.01567057959500
H           -0.32615829933849        1.15559454671091        4.06210580147908
O           -0.50311338479974        3.02848288705671        2.73819904416351
C            0.14921427080153       -0.63299399105589        2.92541970927794
O           -0.09940619232236       -1.28194979127341        1.88040523283726
H           -1.08105755361100       -0.59059926866593        0.50171610615782
O           -1.40660826036876       -0.13127492639708       -0.31570968148433
H            0.55629892641815        0.34766883761998       -0.61190497126543
O            1.42396464704267        0.36940230821480       -0.21073058443139
H            1.43530374020361        0.54379826126059        1.44660884441111
O            1.52399531751783        0.58441741111545        2.46466511195535
H            2.29721564117984        0.13202662425823        2.65435874703240
H            1.99001190868791        0.96967308750966       -0.69445976961145
H           -2.09392382953614       -0.70808469762753       -0.65504338468975
