19
Coordinates from ORCA-job job.QMRegion
  C          -1.69107406046357      2.09604345496076     -0.95743180110625
  C           1.25860841728998     -1.47740732966999     -3.39207775705985
  O          -2.31669332507358      1.22061435042517     -0.40877887228457
  O           1.44655638828765     -0.33750813262231     -2.64735361954860
  C           0.49399074171697     -0.33111575531870     -1.63732429965867
  H           0.94233340692666     -0.60973617260278     -0.66718922972343
  H           0.51065116312742     -1.31922386647563     -1.18134530962335
  O           0.63407752179638     -1.47989851592036     -4.40187723174848
  C          -1.73378548662865     -0.04091179423216     -0.54684011515268
  H          -2.50015006854676     -0.76600548521679     -0.34419169797269
  H          -1.10998893008318      0.02736717440749      0.27412396459099
  O          -0.84478341480256      1.81846941144634     -1.77612821088027
  C          -0.95900303079604     -0.04681904073728     -1.86338667457360
  O          -1.48307290823288     -0.22305690950752     -2.91984006111735
  O           0.69653059036839      2.02280270990766     -4.40790964217465
  O           1.99137915185296      2.60049223651694     -4.35816529905877
  H           0.93673414191913      0.34595585963823     -0.90290854356694
  H          -2.12389847565089      2.98388052385853     -0.58777734236311
  H           1.80152629642003     -2.32076571376563     -2.96355532908094
