133
Coordinates from ORCA-job job
  C           0.50078681206399      4.81311337594706     -0.19330974120556
  C          -4.17104477894159      3.41717845551301      0.85836456989389
  C          -4.29415324879923     -1.70460629268518      1.51106731507291
  C          -0.58238951660827     -4.78908521292828     -0.93414358219789
  C           3.38449744773955     -2.55348698560950     -0.70884253546415
  C           4.46287013062780      1.68969270476402      1.26002409820100
  O          -0.58286875300181      4.83626351037520     -1.14860117565918
  O          -4.80449525145592      2.32878002436932      0.22468168821854
  O          -3.37175191348858     -2.00576766288838      0.48061184107228
  O          -0.01694379949459     -4.13054179055326     -2.13514650085470
  O           4.65749747234785     -2.10650258824255     -0.39422508663312
  O           3.74747227402805      2.03725978072271      0.07946723341330
  C           1.82290771657980      5.06818096146929     -0.91966075634713
  C          -4.26205517519256      4.89086085211979      0.25752619011361
  C          -5.65311551139836     -1.30749476703014      0.96543513842076
  C          -2.06960184159263     -5.15304997538891     -1.03701566211992
  C           3.34284765430335     -4.10212164488927     -0.53892386961788
  C           5.87526496039815      1.23324453135129      0.85694826327937
  O           1.57334425347781      5.78722329930122     -2.10836927824742
  O          -5.52290067511707      5.15982669637969     -0.26922432491914
  O          -6.22080506804112     -2.28844865939428      0.13803033256063
  O          -2.40590143501665     -5.81603462843672     -2.23145982261088
  O           4.61217098392357     -4.70255198953863     -0.53359321635686
  O           6.60559622358888      2.19753137476883      0.14403556270616
  C           2.67716662184881      3.80151470617849     -1.14531732640198
  C          -3.10881334446685      5.46115943737754     -0.73483787646370
  C          -5.54049378881575      0.04041637285635      0.21083331256830
  C          -3.00168963887744     -3.95046223291309     -0.81684355659450
  C           2.40653795849785     -4.74930869751723     -1.58530179300116
  C           5.76230441601253     -0.06160846614711      0.03293654272690
  O           3.96978436326108      4.21889418244077     -1.51576848681528
  O          -2.93989527572201      6.82794063859032     -0.51502899970832
  O          -6.77314634249556      0.29318692663110     -0.41926401678452
  O          -4.35656901165067     -4.34351521083708     -0.76967159709719
  O           1.92151569883903     -5.98232179686333     -1.12080524730534
  O           7.04228358116058     -0.62649080431026     -0.15064353691224
  C           2.76142138329994      3.03852640435270      0.20027537907849
  C          -1.78240804741620      4.75568355051110     -0.39462403651497
  C          -5.11893063927697      1.20938769572837      1.12603707689646
  C          -2.65864779735877     -3.23433186787595      0.48887793553480
  C           1.29463910602663     -3.67585929338302     -1.81253156159070
  C           4.84954959334290     -1.13391916769572      0.65685482385223
  C           1.31002018127165      2.54913390221101      0.43161060097883
  C          -2.29768355242732      3.34035956655899     -0.43935588960005
  C          -3.89550816761320      0.73825411639219      1.95387832140681
  C          -1.15438800350987     -2.90390287711681      0.42879242428443
  C           2.01725293631021     -2.65587140362740     -2.79328334678116
  C           3.58017213904659     -0.52024251329583      1.28410922928076
  O           0.47373371785615      3.70669672500891      0.63211269392500
  O          -2.79426289951480      3.12790227133063      0.85508203005534
  O          -3.73853301217532     -0.67067430967577      2.23319792551851
  O          -0.35992929676434     -4.07588633686780      0.21527232417933
  O           3.10548457460903     -2.10478473507085     -2.08517882377088
  O           3.90627745559144      0.66965355945777      2.00721804940769
  C           1.02406694648259      1.63871964437090      1.65615811069662
  C          -1.69107406046357      2.09604345496076     -0.95743180110625
  C          -3.53198657805227      1.25606525063864      3.35703551184262
  C          -0.54896026688621     -2.20738605843520      1.67490207199189
  C           1.25860841728998     -1.47740732966999     -3.39207775705985
  C           2.92298987868278     -1.43067104849541      2.35361604391937
  O           1.69837344260405      2.05836460173334      2.81579085265831
  O          -2.31669332507358      1.22061435042517     -0.40877887228457
  O          -4.43216113000982      0.92974002031283      4.37572320657112
  O          -0.37044866849343     -3.09912495831762      2.75315438932854
  O           1.44655638828765     -0.33750813262231     -2.64735361954860
  O           3.86824914717319     -1.95653501147885      3.26052325919207
  H           0.30272603038459      5.66156830258828      0.48660324420545
  H          -4.51008299054902      3.45588474023012      1.89916515235882
  H          -4.36518096319685     -2.55518803060275      2.20403022694133
  H          -0.01596238470468     -5.71824945674291     -0.80913058359991
  H           2.64442940942907     -2.09884430972002     -0.04162079636625
  H           4.51478691426367      2.54507653645910      1.94648573330631
  H           2.45773807181236      5.70229450160644     -0.27512094397979
  H          -4.15538583408913      5.53448947094956      1.14338402893069
  H          -6.31616476395484     -1.15963536264609      1.83159882944821
  H          -2.24491167076795     -5.84680252263670     -0.19556601742457
  H           2.91003944330186     -4.30394091818653      0.45468752675324
  H           6.44050147474505      1.02994083393796      1.77436516550510
  H           0.61234254403510      5.95119046309360     -2.13902777136682
  H          -5.82548999769195      4.40122004670261     -0.78788064129705
  H          -5.53183311544761     -2.91882178135829     -0.17018784303521
  H          -1.61392103249607     -5.83431511202789     -2.78136077920402
  H           5.24540444149044     -4.11926743633416     -0.96539708971837
  H           6.01782265377495      2.57698825536749     -0.51747289474704
  H           2.26908634908238      3.12793990286385     -1.94337246642712
  H          -3.37060925753852      5.29160202107848     -1.78971428217542
  H          -4.76885358091721     -0.04847597055759     -0.57024846158366
  H          -2.86832080955632     -3.21019381104410     -1.62931741501394
  H           2.95705095389496     -4.92835784969285     -2.52042021884462
  H           5.32837922324676      0.20790578484482     -0.94799105715855
  H           3.89909249345910      4.87179150295509     -2.22031267678345
  H          -3.81355937120825      7.24349610660011     -0.42374212676116
  H          -7.21521966653127     -0.57394746059994     -0.47117844571479
  H          -4.44916176319167     -5.07785771755052     -1.39333659800770
  H           2.57603158834026     -6.35357111318555     -0.50866368003389
  H           7.67781384980263      0.10255772003202     -0.17542060849203
  H           3.06068171676279      3.73171888059261      0.99750094057363
  H          -1.55348079462314      5.01850186211722      0.64647625877216
  H          -5.93834406667705      1.53800836104478      1.77676274479716
  H          -2.88749768729271     -3.80623286389882      1.39413093833105
  H           1.18706161422428     -3.18614377282747     -0.83352959684478
  H           5.41185459834208     -1.65012442148337      1.44804709622564
  H           1.03044536933425      2.07468798564729     -0.51617245775694
  H          -3.15267645257935      3.33202481143612     -1.16544478362747
  H          -3.02448278657434      1.04086624752544      1.38522722275000
  H          -1.07152618792254     -2.25619004060446     -0.45806172780636
  H           2.41073733096010     -3.18344529657875     -3.66799722637068
  H           2.87857777673172     -0.25464675925980      0.48521031262916
  H           1.31385981885645      0.60311831127423      1.42228573022356
  H          -0.05935139848572      1.64003352613112      1.81188631276090
  H          -2.57218227319271      0.71428246775975      3.41846400702078
  H          -3.37677765233785      2.33132844911420      3.38878010597593
  H          -1.21342207263402     -1.41379441449703      2.01405205842208
  H           0.39769653115778     -1.73691659815463      1.35220289043371
  H           2.18370887350698     -0.81620020625160      2.87677088570381
  H           2.42742204090752     -2.28209138391181      1.88918628178210
  H           1.22131432752718      2.80247859024142      3.19047665333082
  H          -4.41239932778791     -0.03121195233140      4.48582944938804
  H           0.46766642623488     -3.53987353015832      2.56303255366748
  H           4.11962329636072     -1.22944269660351      3.83907561929215
  C           0.49399074171697     -0.33111575531870     -1.63732429965867
  H           0.94233340692666     -0.60973617260278     -0.66718922972343
  H           0.51065116312742     -1.31922386647563     -1.18134530962335
  O           0.63407752179638     -1.47989851592036     -4.40187723174848
  C          -1.73378548662865     -0.04091179423216     -0.54684011515268
  H          -2.50015006854676     -0.76600548521679     -0.34419169797269
  H          -1.10998893008318      0.02736717440749      0.27412396459099
  O          -0.84478341480256      1.81846941144634     -1.77612821088027
  C          -0.95900303079604     -0.04681904073728     -1.86338667457360
  O          -1.48307290823288     -0.22305690950752     -2.91984006111735
  O           0.69653059036839      2.02280270990766     -4.40790964217465
  O           1.99137915185296      2.60049223651694     -4.35816529905877
  H           0.93673414191913      0.34595585963823     -0.90290854356694
