139
 xtb: 6.7.1 (edcfbbe)
C            0.57603636744953        4.88678168456960       -0.35837335522664
C           -4.37867317331237        3.29640973657586        0.43062258306931
C           -4.97526016972126       -1.77026181908916       -0.55642278926848
C           -0.69497032022144       -4.83166614952198       -0.67287592885106
C            4.32323118626576       -3.34934973917023        0.04653995534857
C            4.84128832965139        1.81007646262859       -0.50037844540885
O           -0.33976081548029        3.83709104136790       -0.17259224613196
O           -4.31270648482603        2.26363281943428       -0.50062746757253
O           -3.59649533165708       -1.89964884070304       -0.80939011729655
O            0.28018332942874       -3.84380108306112       -0.45720403618048
O            4.15270332687664       -2.21182940498823       -0.73901034753399
O            3.45130160936202        1.97762412165722       -0.69196868161413
C            1.18886990782116        4.74089075405731       -1.76242713250560
C           -4.02101435014688        4.59593105581123       -0.31833539114068
C           -5.61320356240782       -0.98255643232803       -1.71308355346899
C           -1.34513251381766       -4.59703723324091       -2.04787056854918
C            3.95002317390650       -4.56436937817737       -0.82422208757546
C            5.43462227111655        1.11397967652674       -1.73762611418087
O            0.22460818443762        4.77582549498945       -2.78075086138977
O           -4.89221452111122        4.84562295476266       -1.38495504709517
O           -5.43090323746023       -1.61348358105585       -2.95131756568834
O           -0.41308112113035       -4.58967241261567       -3.09642521819059
O            4.78153650315679       -4.67605920867975       -1.94295599926503
O            5.23177029500217        1.84840575598413       -2.91303505030709
C            1.89958955571852        3.38275230320822       -1.80788272531302
C           -2.56984833451446        4.50293526768492       -0.81761884215348
C           -5.02677755185313        0.43483470278908       -1.71985023668274
C           -2.05336824680126       -3.23769626414207       -2.00760330533640
C            2.47783076201086       -4.43556834971392       -1.25207420418097
C            4.83308478567902       -0.29287818627230       -1.84708536265720
O            2.57841812456557        3.16701316543083       -3.01980461314119
O           -2.16573199069910        5.70910972310038       -1.43039199579556
O           -5.68739231315550        1.25612379057914       -2.65048872491214
O           -2.76592566787183       -2.97130494578281       -3.19071376346754
O            2.05170736612028       -5.56623482134549       -1.98118192496415
O            5.44661901090029       -1.03458936956080       -2.87283553904362
C            2.92582672162057        3.29641800706629       -0.67292496966542
C           -1.61480407655317        4.16908748649442        0.33877004343350
C           -5.13428567051613        1.11197625176412       -0.34583007922616
C           -3.04617246220579       -3.20795397410962       -0.84189072462966
C            1.56333093850577       -4.27742713245337       -0.02932744031271
C            4.99916932366412       -1.08417319068315       -0.54298356847904
C            2.28319977445092        3.62797193598372        0.68586513167734
C           -2.14864155615790        2.92407351838280        1.05087049177245
C           -4.68251531985748        0.18132407964177        0.79824612118316
C           -2.34543216613175       -3.57607093574560        0.47699700491665
C            2.12887199742315       -3.18457092778523        0.88580759730521
C            4.60790806141968       -0.25763270300770        0.69834277282671
O            1.58272663010752        4.86858019483385        0.61344268562990
O           -3.47928917520137        3.11187556275804        1.50360756079175
O           -5.22586846070915       -1.13395207907013        0.65925995395679
O           -1.66467160820766       -4.82308451583925        0.33631082559099
O            3.50194895883670       -3.33747275795652        1.19363737525791
O            5.11530975102001        1.07944034830755        0.65421269996944
C            3.34224332809844        3.78921634256622        1.78364230608409
C           -1.30692604806569        2.51668635969155        2.25786699162493
C           -5.18177332111832        0.64306060440325        2.17771274991741
C           -3.34785668901064       -3.75934205621930        1.62167786336079
C            1.44822952642729       -3.11768129151773        2.22283678583513
C            5.18647359953190       -0.84316951612398        1.99968747393084
O            4.27190637393362        4.79714244318045        1.48049436936253
O           -1.72637667077972        1.35519306180355        2.71835597717874
O           -6.56638923498522        0.87374902069108        2.19544267616564
O           -4.29230979699351       -4.76291486241922        1.34781452946528
O            1.75472930688855       -1.90607579402912        2.78472418773098
O            6.56255743141758       -1.11199886246585        1.90684779776663
H            0.08600758770732        5.86149954980233       -0.25464526084177
H           -5.37117457526885        3.36912350753063        0.89329511868484
H           -5.44753136196180       -2.75657185481393       -0.46109612717405
H           -0.25138435127094       -5.83485911138786       -0.63407935896473
H            5.34828004795723       -3.43764693720769        0.42911587486093
H            5.33064335103249        2.78195743098809       -0.34852583310004
H            1.92092280246625        5.54895449336211       -1.91211480817021
H           -4.11515998853114        5.43992014514126        0.37351224001485
H           -6.69553576642749       -0.92457379911326       -1.54924746061940
H           -2.09298147950600       -5.38964448674517       -2.21391402751284
H            4.08361431324637       -5.47832666597451       -0.23508410206684
H            6.52067869154890        1.03110990171874       -1.61391876670137
H           -0.56515913565270        5.25459200024981       -2.47395626962212
H           -5.02921247339648        4.02011226050699       -1.87773389822288
H           -4.51544436774807       -1.94011380275998       -3.03034973003769
H            0.39853269964649       -5.06147957891038       -2.82553712063286
H            4.87890089346277       -3.80101665686085       -2.35107745647718
H            4.31284979037557        2.17355355177843       -2.95780634425613
H            1.12770487030572        2.61418524497716       -1.66173129739700
H           -2.50432031572129        3.67850910540877       -1.54358372218559
H           -3.95750007404271        0.37073390537800       -1.96793575461233
H           -1.28710876591609       -2.46753212649573       -1.84361361841466
H            2.37323905253311       -3.53002602777918       -1.86867079418803
H            3.75485465252528       -0.20176836224693       -2.04532067607501
H            1.97709913065364        3.39461345024551       -3.74907531452908
H           -2.93041342241515        6.06327630039872       -1.91168837760327
H           -5.78459140126432        0.75767017532528       -3.47776603291686
H           -2.18642688272518       -3.16818568461851       -3.94152758480969
H            2.78373382661766       -5.84421768816703       -2.55292163197546
H            5.52532923205542       -0.46555334155453       -3.65526234634129
H            3.72739478542426        4.02338394505368       -0.87578013440471
H           -1.54398539718525        5.00596624942866        1.04374402618104
H           -6.17569852996160        1.42161587016112       -0.17080046099176
H           -3.84095439576593       -3.94016982207790       -1.03747763748505
H            1.49086866382859       -5.23029882706005        0.51105972672751
H            6.04299742502120       -1.41468232729968       -0.45189104652644
H            1.58751235393323        2.83613101442084        0.97003069882844
H           -2.10606346694828        2.08299507872075        0.33578171291544
H           -3.58772372669452        0.13224922118918        0.81092441761232
H           -1.63329767797465       -2.78628146906398        0.74698398610241
H            1.94993063416264       -2.20991784041659        0.39045077891861
H            3.51539792453302       -0.23331937270656        0.76366977032306
H            3.91224007564879        2.86421271371971        1.87354767585263
H            2.82632325254568        3.99780328772312        2.72208464389407
H           -4.90643022218038       -0.13256954145050        2.90119413241161
H           -4.69643231001160        1.57683673755925        2.46116613633776
H           -3.90401687579369       -2.83109387348587        1.76609315898855
H           -2.78393263631247       -3.98647316510829        2.53515809490478
H            4.98615361694307       -0.12277362139536        2.80073666346138
H            4.69355599733823       -1.78447148703175        2.23262836851008
H            3.80550097690256        5.64637735504729        1.45538412656868
H           -7.01876347973433        0.03198012647390        2.04920919458208
H           -3.82005789289262       -5.60419735438737        1.27049934557050
H            7.03511999161313       -0.27123870134424        1.82132208540833
C            0.83116989497065       -1.29895627440553        3.71328717921890
H            1.38234025169116       -0.69804251491013        4.40094468946284
H            0.25088197515349       -2.09744705679394        4.27245108958360
O            0.45733777992799       -3.72799104356670        2.57085562227488
C           -0.91608667542084        0.67551187983777        3.66745945439484
H           -1.66738589538982        0.19964074771077        4.37988700932640
H           -0.23639162764981        1.34425382061758        4.16786451143631
O           -0.40175950279066        3.17111495439792        2.71755496014525
C           -0.20835078356431       -0.47776525640802        2.83575870421522
O           -0.81778504021895       -0.95185791757112        1.91874495877109
H           -1.16756076648625       -0.23062385463785        0.46265738109578
O           -1.29240286555948        0.09470190871351       -0.43905375667751
H            0.45382215692091        0.11157672446422       -0.65802145184747
O            1.37629233877405        0.05621072498989       -0.31178384463445
H            1.30930193948039        0.43881428893491        1.11473752471714
O            1.08396023458527        0.72067694262112        2.13280059060862
H            1.98455145161331        0.58163575778509        2.63847187377544
H            1.90345005987325        0.76720635933453       -0.71198720619228
H           -1.92172112441521       -0.52455869259799       -0.86775557922651
