147
Coordinates from ORCA-job job
  C           1.71208117619248      3.77397245337062     -0.19438028951943
  O           0.98948412311342      2.68575216575580     -0.72017301718390
  C           2.92313408316631      4.00845520085001     -1.10775712743916
  O           2.11934474451576      3.57435060075652      1.12711131236985
  C          -0.41881943517945      2.71915676350915     -0.59299546181558
  O           2.55069675774244      4.28723393537281     -2.42699029454415
  C           3.81829332021522      2.76426700832965     -1.02691270491771
  C           3.01498417328952      2.48636526996678      1.35573182862525
  C          -1.04148559946821      2.73743540611738     -1.99625906640782
  C          -0.94932194899328      1.47321067545547      0.13517553704351
  O           4.98251480457231      2.91155623458521     -1.79828150397059
  C           4.23817516978223      2.50875911650902      0.42442481516387
  C           3.41193831460012      2.61981226757042      2.83476978093221
  C          -2.57681095289200      2.70778001413011     -1.88388084271505
  O          -0.59434646541025      3.89200300972823     -2.65727506645753
  O          -2.36136194089753      1.52353605427988      0.22616185745925
  C          -0.46208011740017      1.35485806781222      1.56806082524997
  O           4.89617423511695      1.24858380320292      0.41745071124481
  O           4.13534493455390      3.79372389768697      3.07853149053934
  C          -3.01040078642921      1.50046046228722     -1.02621831949289
  O          -3.17661121505826      2.68834114326750     -3.14517990005157
  O           0.59095918933167      0.53924445204600      1.65432627902220
  O          -0.97089707433745      1.90038997276585      2.51089504919566
  C           5.96708860364156      1.04770899099909      1.30166497723852
  O          -2.73698199852103      0.34466336639155     -1.75761168416139
  C           0.78274500201856     -0.13843498862975      2.88201426069539
  C           7.05998497087166      0.28488255242819      0.53548826704442
  O           5.60108835980119      0.35030259174186      2.46073708432858
  C          -3.61182027937757     -0.77371467256436     -1.65425446675401
  C          -0.19038971797889     -1.32819837548685      2.89832992839270
  O           7.44756268568096      0.96191158187920     -0.62706345424190
  C           6.54885673243519     -1.12943710260541      0.21974247818599
  C           5.08300117091475     -0.96445033305231      2.27317273516717
  C          -3.37164114404642     -1.53269776435615     -2.96913854695554
  C          -3.34893762728854     -1.64714566280758     -0.40569062060944
  C           0.32281081545417     -2.62614839506013      3.50404258832932
  O          -1.03238341533062     -1.39519761669030      1.80243105732830
  O          -1.54799766634485     -1.00527202993299      3.12969619730400
  O           7.55991182267203     -1.91344764612016     -0.35749781975658
  C           6.06852422485749     -1.84833135504792      1.48819456322254
  C           4.83105537644183     -1.48274464028251      3.69930604739228
  C          -3.97746839091684     -2.93924409490423     -2.95087335395483
  O          -3.89207538652368     -0.75054544897914     -4.01356209268835
  O          -3.86627921864183     -2.96713530303664     -0.55257272614597
  C          -4.06042821582390     -1.09814716241840      0.84552511353881
  O           1.55739038032537     -2.92191591687379      2.85727001941216
  O           5.47869673782385     -3.03948187266199      0.99105318479195
  O           6.02266264814707     -1.64891654616669      4.41505698879762
  C          -3.44083197893023     -3.64753260116007     -1.69574955523266
  O          -3.66681777269256     -3.63524995523514     -4.12505787086271
  O          -3.98034128198085     -2.01661361032959      1.91308510917174
  C           1.73725742458629     -4.13508607503700      2.35401562350873
  C           5.35694714593820     -4.16591854410216      1.80063246542610
  O          -2.04346519830712     -3.69724319260243     -1.81590821387820
  C           3.02105369871724     -4.17293289888907      1.53642007377052
  O           1.01763636415035     -5.07629894575364      2.55493015538897
  C           5.54091489428673     -5.38293103024385      0.87360471741700
  O           4.10128806648989     -4.25430773943162      2.44980014105308
  C          -1.35825024662150     -4.88495326208472     -1.47382602602430
  C           3.03129129304036     -5.34130954666252      0.54210210888451
  O           6.78537908301316     -5.36343383351264      0.23696761798138
  C           4.39714517070189     -5.38486711268430     -0.15712095804692
  C          -0.14856337136456     -4.92707710462141     -2.41599681204278
  C          -0.88146672795276     -4.93400079311314     -0.01030889591531
  O           2.03021885392113     -5.14919186809425     -0.45587325752511
  O           4.43960012708928     -6.52931479936822     -0.97067922998596
  C           0.69008754478118     -6.18003909617204     -2.12650505664403
  O          -0.62679800246742     -4.92953152161876     -3.73619982255983
  O          -0.03875566136903     -6.07302194833940      0.17565487429001
  C          -2.02158298417888     -5.12375317340836      1.02058405385986
  C           1.08609014452491     -6.17915788142452     -0.64090258776318
  O           1.79597588523585     -6.27006100577796     -2.97968262068701
  O          -2.06853836349662     -4.13861978835242      2.01456875231827
  C           1.90383437786832     -1.46084573186745     -0.66344620604861
  H           2.55109215334480     -0.75301097851740     -0.06316084948017
  C           1.58552053257587     -0.77341671893807     -1.98236446142053
  C           2.60854406296830     -0.15164698290719     -2.68587019977934
  C           0.31173675990761     -0.80728617346441     -2.51890657314799
  C           2.35171048327153      0.45297705131397     -3.90207301258895
  C           0.04989918165198     -0.19712669678325     -3.73569575116673
  C           1.06875646308764      0.43655362001088     -4.42560943665689
  H           1.08048428819732      4.67231024708292     -0.16019920461226
  H           3.48373158998190      4.87845844792998     -0.74491218220853
  H          -0.73068280900987      3.61180449116308     -0.03488235722294
  H           1.70988236150012      3.84754940506359     -2.63143768940034
  H           3.23571429294381      1.89547500104198     -1.37113467503294
  H           2.49893048676497      1.53383781735379      1.17810425888734
  H          -0.69972454304374      1.83596107897369     -2.52830001942580
  H          -0.61446237913305      0.57469253515249     -0.40191094712555
  H           4.75011544526362      3.40679563607363     -2.60163891128060
  H           4.94050188989558      3.29156170397991      0.74353267422393
  H           4.05745661226143      1.78772124811110      3.11689829400227
  H           2.49383990937646      2.59113694956491      3.43335741380112
  H          -2.91207633161742      3.62704886566158     -1.39032639051458
  H          -1.19517405146469      4.07171752578240     -3.40111858333481
  H           3.55888511862944      4.55411060800475      2.90907722586895
  H          -4.07915276762461      1.56898599918216     -0.78150417903530
  H          -3.17588762668295      1.78050502733254     -3.49137911031705
  H           6.35125425996604      2.00999604451374      1.66766102668932
  H           1.80870614942987     -0.50955183302433      2.89042362442045
  H           0.57053460583569      0.52003897044699      3.73503892271699
  H           7.95513662105949      0.20487921843883      1.16171375721175
  H          -4.65297115898331     -0.41937748625386     -1.64101995239002
  H           6.66472049955358      1.33615642899947     -1.06540053070078
  H           5.68036559648259     -1.05932038275562     -0.45641849881299
  H           4.13689596494773     -0.92403560550918      1.71060316633103
  H          -2.28551572452352     -1.65096724670903     -3.08658383388131
  H          -2.26228343144493     -1.69954557975598     -0.23533186880751
  H           0.51111978316724     -2.47324441650256      4.57350668808945
  H          -0.40750556947137     -3.43343470493755      3.33663711908907
  H           7.99295439751437     -1.38938930444388     -1.05174891989030
  H           6.92818955063461     -2.09779962529430      2.12595185527769
  H           4.16721352434140     -0.76973130920257      4.20355226421413
  H           4.34091705611897     -2.45562301506836      3.65781670896383
  H          -5.06925206170834     -2.88376253397198     -2.89527053188465
  H          -4.01717039706086     -1.32335125072265     -4.78895943220878
  H          -3.62573950905841     -0.13352534293125      1.10806015248851
  H          -5.12316586915115     -0.98254430389226      0.60099433519364
  H           6.43539970784226     -0.77975690857682      4.53672864435219
  H          -3.86747452974536     -4.65667186769343     -1.61377266640863
  H          -2.73640939643136     -3.91805825665421     -4.09905373633089
  H          -3.53543492814434     -1.62391259832968      2.67860465767215
  H           6.09281078878877     -4.16367538153157      2.61576779882333
  H           3.08253481728437     -3.23320137822296      0.97295912150988
  H           5.50056685531134     -6.30184441526526      1.46685665102679
  H          -1.99958021052076     -5.75575595649194     -1.67640109149768
  H           2.84271534044933     -6.27888647720467      1.07768357409717
  H           6.95635476871718     -4.46581819473812     -0.09638432624842
  H           4.48096532166857     -4.47092424016088     -0.76703000778564
  H           0.45387737816537     -4.02312604244598     -2.22769441505304
  H          -0.32806333069900     -4.00349988962511      0.20180815675491
  H           5.36722951985347     -6.69173558575017     -1.21475735506400
  H           0.06895543732865     -7.06279644986046     -2.32076254603879
  H           0.09638928616600     -5.21281842749494     -4.32152696514004
  H          -1.80482367468983     -6.06847455393337      1.52906650483285
  H          -2.98439733052172     -5.19557468834262      0.50998596657579
  H           1.53589985730092     -7.14388405919844     -0.36800247732358
  H           2.55960955932877     -5.83500872763088     -2.57121457765753
  H          -2.69026697909139     -3.42868381217993      1.75881300012720
  O           0.89937630985526     -1.99752611436544      0.02584307090734
  H           3.60607745942979     -0.17541334677472     -2.26783388370423
  H          -0.45365942670933     -1.32640976863717     -1.95442020870669
  H           3.15353145027404      0.93266523908367     -4.44136267597162
  H          -0.95041593761983     -0.21909355094742     -4.14061872676543
  H           0.86572040295790      0.90839460962634     -5.37399680361553
  H           2.39843208971906     -3.33045126429335     -1.08057138814227
  O           2.93547700602706     -2.52157645291207     -1.04932511239263
