23
Coordinates from ORCA-job job.QMRegion
  C          -1.41515278034595      2.47450915445788      2.43925621055246
  C           1.06519179059774     -3.03217402063253      2.01355649293177
  O          -2.03327522138694      1.39715219363159      2.94786407063650
  O           1.36376467634361     -1.88709285145021      2.64166638602677
  C           0.44065387068850     -1.40566125346509      3.62245172522772
  H           1.03317123219669     -0.84742045210128      4.33908787218994
  H          -0.07676271484493     -2.23716908435983      4.10343819551531
  O           0.23910101391852     -3.83727091717383      2.39288295088578
  C          -1.25746385041610      0.53414884271710      3.78342557692528
  H          -1.97056277340288      0.06276798383978      4.45685152293316
  H          -0.52182293874155      1.09389138714863      4.36015266980067
  O          -0.37206029551000      2.93575814077110      2.85686933341560
  C          -0.56076788302428     -0.50582728696141      2.93812982870327
  O          -0.78247467440770     -0.60358421111574      1.73990098672038
  H           0.92409355991298      0.19004407867630      0.61032542507487
  O           1.23136356994178      1.10098720216590      0.74247564737899
  H           2.02268247991685      1.08230876547567      2.40722768697638
  O           2.21947119580223      1.03928920972417      3.37059286341804
  O           2.52804149167709      2.42812772154765      3.68388316015158
  H           3.47541742273695      2.31545063525394      3.89895190991641
  H           1.98062841487901      1.21084262563565      0.12451089376473
  H          -1.98048756158320      2.83860722051819      1.58526866070994
  H           1.65917581785945     -3.11713613725118      1.10570931945434
