137
Coordinates from ORCA-job job
  C           0.49026001689883      4.97153199713029     -0.31095365683158
  C          -4.41677365508609      3.30551958347288      0.58150298530138
  C          -5.15176207439446     -1.76816845802780     -0.41913151276977
  C          -0.89887464209219     -4.85573035554331     -0.78898334501330
  C           4.07533892700647     -3.27329395087131     -0.06570253723030
  C           4.77955426987660      1.89429853229340     -0.53635195263505
  O          -0.34356989981077      3.89832976174078      0.08577614895807
  O          -4.30958694186432      2.24430713884013     -0.31469366519175
  O          -3.78819235322809     -1.94809172294278     -0.72394856581257
  O           0.05197609281407     -3.84403053692842     -0.56677429285536
  O           3.87141106815868     -2.08303996040520     -0.76199981309015
  O           3.38155443429323      2.11616880087706     -0.62390688141266
  C           0.97848751673804      4.72009206037769     -1.74967972297716
  C          -4.05716581322450      4.58816359105793     -0.19229547934826
  C          -5.77325690869169     -0.92951262734314     -1.54847033630476
  C          -1.58149500342762     -4.58946603973127     -2.14068017833818
  C           3.73836058485679     -4.41410198072954     -1.05007010618870
  C           5.24683885375322      1.18312098457487     -1.82158688168154
  O          -0.07030735790900      4.60015032131253     -2.67061525832957
  O          -4.88411011956706      4.77861698828525     -1.30332626784683
  O          -5.64562715517326     -1.55426849943708     -2.79537428705114
  O          -0.65729721619607     -4.50030219982759     -3.19226052671872
  O           4.54305236356649     -4.34268486745819     -2.19256137691115
  O           4.99266088664828      1.93891904619820     -2.97235553530810
  C           1.76269346676464      3.40603210054938     -1.74515305349325
  C          -2.58391383443692      4.52065227724138     -0.63849798918764
  C          -5.08060694133284      0.43916937834305     -1.54863471794235
  C          -2.34276298841734     -3.26186821267787     -2.04002785173401
  C           2.25080533013135     -4.31599940201783     -1.43391834310494
  C           4.54551289196307     -0.17841764124122     -1.89124266970825
  O           2.34098345212360      3.12560944332650     -2.99680777579478
  O          -2.21568443811487      5.72817550008817     -1.26437737269404
  O          -5.66024006575621      1.30445927958330     -2.49120512579947
  O          -3.11993248177342     -3.01250859999308     -3.18420988837769
  O           1.84363388871198     -5.41841144940020     -2.21108516228772
  O           5.00136914244420     -0.94345550452959     -2.97914640090051
  C           2.89637788065531      3.45017434626871     -0.71636957500983
  C          -1.64255189139390      4.22835459717557      0.54667812895119
  C          -5.15611807811902      1.11049444220818     -0.17177150649610
  C          -3.28858922750599     -3.26759066446837     -0.83525070520580
  C           1.35861402284137     -4.24308261149738     -0.18734180347950
  C           4.77686707680606     -0.99669818119912     -0.61515703095497
  C           2.41371783391027      3.96163692856359      0.65678831402874
  C          -2.20270426007104      2.98172360544794      1.24959093456614
  C          -4.70926156176284      0.14647114305041      0.94796522111065
  C          -2.54833735068014     -3.68621642185520      0.44507593868797
  C           1.89489731199359     -3.15085320059795      0.74543179959561
  C           4.50840906549054     -0.17027959664610      0.65729566405336
  O           1.59309898396372      5.12050778632094      0.53339630212642
  O          -3.53015651704996      3.16822381383896      1.67410804549238
  O          -5.31843274234340     -1.13835149702339      0.81315223511549
  O          -1.84151717783471     -4.90370493982739      0.24403013563788
  O           3.24830347892107     -3.35085601837659      1.08128643092314
  O           5.08828525829210      1.13679147731116      0.58907246927177
  C           3.60483654866271      4.36675408973290      1.53651575443106
  C          -1.41515278034595      2.47450915445788      2.43925621055246
  C          -5.15102389817445      0.61370507234634      2.34583708399834
  C          -3.51788419245300     -3.94206320473109      1.60628114445568
  C           1.06519179059774     -3.03217402063253      2.01355649293177
  C           5.12474847760798     -0.81816196716875      1.90838144895269
  O           4.40815578057238      5.33351144920013      0.91319705967157
  O          -2.03327522138694      1.39715219363159      2.94786407063650
  O          -6.52516635934220      0.89052358996307      2.38702350896322
  O          -4.47147472348718     -4.91468086422654      1.27910396589431
  O           1.36376467634361     -1.88709285145021      2.64166638602677
  O           6.48470973506749     -1.11768210642783      1.73404537447440
  H          -0.04954205387815      5.92320198217936     -0.24936945783722
  H          -5.41874310588817      3.37192427617876      1.02272795596405
  H          -5.66556484721102     -2.73306186895343     -0.32473594334077
  H          -0.42426829934506     -5.84460277352638     -0.79220415760258
  H           5.10311748376729     -3.36721980116582      0.30273762109772
  H           5.31460024353686      2.84320490660603     -0.41331998083143
  H           1.64800969103276      5.54803026235452     -2.03318206178317
  H          -4.19790560662243      5.45426385303229      0.46269079500757
  H          -6.84531696635883     -0.79984971432299     -1.36751575715079
  H          -2.30046427978734     -5.40077687548222     -2.33530835235602
  H           3.93551606492012     -5.38148554793540     -0.57858950732189
  H           6.33130278759010      1.03615801395088     -1.77876420892798
  H          -0.79570572957189      5.19124747357296     -2.39331848107319
  H          -4.96028708266197      3.93542912168671     -1.77789074748851
  H          -4.74106554750288     -1.90746573490992     -2.88687109790849
  H           0.17310464776807     -4.94761646866645     -2.93641643238241
  H           4.54976223640528     -3.42281112786646     -2.50652341927047
  H           4.06431460762090      2.23886416081101     -2.96676018566031
  H           1.05827126908561      2.60831834319212     -1.46399650480086
  H          -2.47936158830140      3.68757414679974     -1.35300878488497
  H          -4.01464782582587      0.28268409588291     -1.78525170343442
  H          -1.60648208669463     -2.45561037732987     -1.89584510554570
  H           2.10460437235878     -3.38473766723472     -2.00406049308180
  H           3.46147488135750     -0.00255695259298     -1.99071268823227
  H           1.66463657843685      3.26095373034115     -3.67610705625943
  H          -2.97577582636595      6.01491655694409     -1.79909689860346
  H          -5.84010052635820      0.78271657545929     -3.28871034002546
  H          -2.56545048079988     -3.16794210693612     -3.96285145300543
  H           2.51137091711344     -5.55132983312476     -2.90319903409525
  H           5.09423462556429     -0.34519238926973     -3.73611739082945
  H           3.68437794633665      4.11523228041718     -1.09144162888981
  H          -1.60361622716043      5.08057434351041      1.23617987869789
  H          -6.18645567735784      1.43964345289681      0.02095942405832
  H          -4.10636446292934     -3.97368899981022     -1.02929722839972
  H           1.33751874698513     -5.20934352411345      0.33006916954162
  H           5.81059169058201     -1.36774100918247     -0.60471491972945
  H           1.83329863565801      3.18263583239213      1.16082777264315
  H          -2.16255068548982      2.15821253052539      0.51188655486562
  H          -3.61560894197552      0.04193966191635      0.91415373965128
  H          -1.84583486008047     -2.88574552383236      0.71942269636236
  H           1.79155936985240     -2.18959424293490      0.21388260422721
  H           3.42653637301838     -0.09532643938777      0.80784070594934
  H           4.23795565306074      3.49568080355779      1.70949435402210
  H           3.21286755518217      4.72585642730644      2.49449187418950
  H          -4.89218715675449     -0.18249939660000      3.05323179817114
  H          -4.62685119218567      1.52591325962245      2.62633212235110
  H          -4.06364316340361     -3.02451019076935      1.83306689024900
  H          -2.92675120472045     -4.24602519247244      2.47862610445364
  H           4.97754025346673     -0.13112305175104      2.74909256711627
  H           4.61291208410834     -1.75600996419549      2.12764103277783
  H           3.86078749896980      6.11681663717511      0.76533156511011
  H          -6.99463304144384      0.07485686854250      2.16096767606116
  H          -3.99539903270053     -5.73063403815450      1.06766323652906
  H           6.94761758008334     -0.28501379811541      1.56528457875239
  C           0.44065387068850     -1.40566125346509      3.62245172522772
  H           1.03317123219669     -0.84742045210128      4.33908787218994
  H          -0.07676271484493     -2.23716908435983      4.10343819551531
  O           0.23910101391852     -3.83727091717383      2.39288295088578
  C          -1.25746385041610      0.53414884271710      3.78342557692528
  H          -1.97056277340288      0.06276798383978      4.45685152293316
  H          -0.52182293874155      1.09389138714863      4.36015266980067
  O          -0.37206029551000      2.93575814077110      2.85686933341560
  C          -0.56076788302428     -0.50582728696141      2.93812982870327
  O          -0.78247467440770     -0.60358421111574      1.73990098672038
  H           0.92409355991298      0.19004407867630      0.61032542507487
  O           1.23136356994178      1.10098720216590      0.74247564737899
  H           2.02268247991685      1.08230876547567      2.40722768697638
  O           2.21947119580223      1.03928920972417      3.37059286341804
  O           2.52804149167709      2.42812772154765      3.68388316015158
  H           3.47541742273695      2.31545063525394      3.89895190991641
  H           1.98062841487901      1.21084262563565      0.12451089376473
