139
Coordinates from ORCA-job job
  C           0.55179531767703      4.89189360129015     -0.42723007087830
  C          -4.38214309399486      3.28911571947037      0.45379758780487
  C          -4.94775729544524     -1.76291516688230     -0.58486114337927
  C          -0.67663344898541     -4.81177481739246     -0.72824552125297
  C           4.29668320567902     -3.35138056823383      0.11703192614016
  C           4.79849198409465      1.79308738222761     -0.56134605429870
  O          -0.35836209385281      3.83880014653320     -0.22149042743765
  O          -4.34107133492365      2.27920697749785     -0.50664172358627
  O          -3.57142905576810     -1.87384242455046     -0.86624266751553
  O           0.28243132996741     -3.82475714944707     -0.46925747206591
  O           4.14544892563156     -2.24087317795920     -0.71085124099688
  O           3.40404343974686      1.95972150565347     -0.75651891549050
  C           1.15243344536477      4.73197783217272     -1.83456054679296
  C          -4.03859885885232      4.60224277315050     -0.27673160464221
  C          -5.61619134966479     -0.97427202747450     -1.72228712908121
  C          -1.29240353167816     -4.54296294474412     -2.11246362211880
  C           3.94873709333410     -4.58331450198156     -0.74081579867141
  C           5.39411107727586      1.07472540035684     -1.78348086991255
  O           0.18117665170631      4.77262363604263     -2.84811866515085
  O          -4.93552701013938      4.88045179373628     -1.31435273379881
  O          -5.44245843705082     -1.58963313018011     -2.97002493624925
  O          -0.33243517658592     -4.50930857534271     -3.13445210129983
  O           4.80671332365350     -4.71671345152786     -1.83836960707755
  O           5.18574763525183      1.78306313058667     -2.97506241095275
  C           1.85524688793519      3.36906317230259     -1.87685015093843
  C          -2.60249476625653      4.50218402688289     -0.81322375169975
  C          -5.04795741790354      0.44901337553607     -1.72288543408059
  C          -2.00403414920108     -3.18643525197064     -2.05590210364417
  C           2.49087736259754     -4.44143625333695     -1.20424054851350
  C           4.80460190047155     -0.33992164707887     -1.86213184269942
  O           2.53072419603703      3.14686496651860     -3.09045672195613
  O          -2.20659894236405      5.70379118288200     -1.43866062624172
  O          -5.72684306300181      1.26874136227608     -2.63993197250223
  O          -2.69591400275198     -2.89709340241350     -3.24592680901014
  O           2.06937752182533     -5.56860587988019     -1.94334253997870
  O           5.42026746228076     -1.09451461452659     -2.87755888315913
  C           2.88768270586056      3.28390660110772     -0.74735001275303
  C          -1.62229820738992      4.16482604469824      0.31993221977932
  C          -5.14166005721838      1.11556950177199     -0.34277171928061
  C          -3.01894685613637     -3.18104715217669     -0.90959252466032
  C           1.55270048902224     -4.25316714965016     -0.00347407070227
  C           4.98573564377962     -1.10403831701241     -0.54275196312519
  C           2.25485438187441      3.63172773606943      0.61277663385123
  C          -2.13525671143759      2.91495716454979      1.04093853790814
  C          -4.64959865105913      0.18238254665419      0.78096066424813
  C          -2.34109818723273     -3.57801967673985      0.41253928695607
  C           2.08401754531001     -3.13665020495537      0.90313822325826
  C           4.58218479445456     -0.25591258489586      0.67814372774768
  O           1.56728565838592      4.88028505715601      0.53313745312899
  O          -3.46532491542009      3.08249095907473      1.50359771336045
  O          -5.17911318345008     -1.13830939298528      0.63899939938413
  O          -1.67390133184026     -4.82773545341932      0.25395310540024
  O           3.44822485232248     -3.30253421306807      1.24638619238049
  O           5.06799312371629      1.08944654119247      0.60721464027177
  C           3.31469242917364      3.78354649231382      1.71216193358651
  C          -1.27197825979443      2.51105653143652      2.22378246596521
  C          -5.12245402500236      0.61501509602940      2.17905402190620
  C          -3.35101081731205     -3.76982116255822      1.54902366751434
  C           1.27043242778090     -3.03489120355603      2.19389629324209
  C           5.16203167226694     -0.80432337352645      1.99654326240652
  O           4.25577821449458      4.78232010793227      1.40600671296960
  O          -1.67893901259615      1.34283923220064      2.69523636224827
  O          -6.50819000041970      0.83293552279185      2.23019187413217
  O          -4.31594152125573     -4.74396443865417      1.24384182320190
  O           1.68046503788855     -1.99362582475180      2.91407990164962
  O           6.53801580430733     -1.07765211224499      1.90774491049633
  H           0.06039463276463      5.86668367262357     -0.32765879656440
  H          -5.36705951733403      3.35025175578421      0.93581396959467
  H          -5.40511807787378     -2.75631452537037     -0.48899894880732
  H          -0.23009976050780     -5.81374940087313     -0.70145999937788
  H           5.31323036349296     -3.42755473255776      0.52244410991890
  H           5.28154638654352      2.76844149898860     -0.42785256322197
  H           1.89109318438503      5.53333211843499     -1.99331855424189
  H          -4.10931151052895      5.43373878788508      0.43240509349651
  H          -6.69631393115785     -0.93320080541936     -1.54539820304707
  H          -2.03601834124054     -5.32912045716028     -2.31989588886153
  H           4.06148898859682     -5.49032121372239     -0.13887446885415
  H           6.47991040091366      1.00285189572725     -1.65724085702677
  H          -0.60799601854001      5.24360991328307     -2.52786372290562
  H          -5.09334164178589      4.06757332478337     -1.82157633510885
  H          -4.52303788988693     -1.89783562209564     -3.07051083141751
  H           0.46145989726142     -5.00767717067780     -2.85951909161212
  H           4.90934595369300     -3.84925456682679     -2.26471702055831
  H           4.26714092308521      2.10820780257485     -3.02102668485481
  H           1.07920866281539      2.60332654001329     -1.72858914714607
  H          -2.56095173376823      3.67500419986879     -1.53864880814987
  H          -3.97821167893482      0.39491797711684     -1.98251551820122
  H          -1.24926793946917     -2.41104132260209     -1.85863084331798
  H           2.41217177087169     -3.54016612481432     -1.83073932385858
  H           3.72364709532465     -0.26323730701070     -2.05684793317479
  H           1.93499913291735      3.38055266012154     -3.81788837547186
  H          -2.98616078060675      6.07351552059753     -1.88782136414561
  H          -5.85922887438951      0.76553179012840     -3.45994544229157
  H          -2.11069500516333     -3.10685441888022     -3.99194786797368
  H           2.82259053052348     -5.86558632145777     -2.48183651398556
  H           5.49422211251687     -0.53731137965201     -3.66797852227443
  H           3.69025329072134      4.00059228381102     -0.96034011743248
  H          -1.53739642774264      5.00521493045949      1.02073247589681
  H          -6.18270194746130      1.40955009939191     -0.14573194760538
  H          -3.80914649017718     -3.90921224198086     -1.13808424567869
  H           1.46078040049061     -5.19013237385846      0.55909758041827
  H           6.03190323473897     -1.42445295523385     -0.44927434060358
  H           1.53730633290897      2.85427395103009      0.89905689930005
  H          -2.06384261914022      2.05474003554297      0.34003099664209
  H          -3.55261962651627      0.14918570864265      0.75454394117933
  H          -1.61877766232984     -2.80326703026336      0.69587929842239
  H           1.94080850866837     -2.18680773225001      0.36260298531317
  H           3.48909158370236     -0.25206333480661      0.72868633584070
  H           3.87648688441258      2.85277361675207      1.80592164112801
  H           2.79624264046586      4.00255887024899      2.65104903142416
  H          -4.82502978132152     -0.17347655020912      2.87902295156941
  H          -4.64021514807369      1.54737716874879      2.46772894224019
  H          -3.88773751510427     -2.83467151458013      1.71570367825400
  H          -2.79199889047628     -4.03788743616954      2.45185530765358
  H           4.97172073501926     -0.05970810157251      2.77640125980791
  H           4.67154610147444     -1.74241897051987      2.25752530159276
  H           3.79689607630408      5.63358357250674      1.38441126020932
  H          -6.95755303777562     -0.01420791280552      2.09639711336652
  H          -3.86468048815506     -5.59761590495533      1.16406084443912
  H           7.01177839379048     -0.23981698672333      1.80922684013881
  C           0.74537014695084     -1.39044296892823      3.80803836393522
  H           1.30030298640949     -0.93454310750016      4.62935845878053
  H           0.02823604303622     -2.12883653887042      4.17926106985754
  O           0.38804282204284     -3.78374507762073      2.51811424519159
  C          -0.87369944263707      0.67207666690079      3.66166368285339
  H          -1.56167124982791      0.14559562548297      4.32687842828540
  H          -0.25888887528412      1.39469848852271      4.21004805237680
  O          -0.33028846304720      3.13029183210812      2.64955050355640
  C           0.02812223783449     -0.34256741979335      2.92476279155577
  O          -0.57600779436648     -1.02445728441790      1.91778754585213
  H          -0.98894010292913     -0.42079454627830      1.20687689978770
  O          -1.28569608177716      0.31455659584092     -0.17669408004728
  H           0.40054399309860      0.26280160162237     -0.33712341314221
  O           1.35639148526236      0.17661360279723     -0.03279624375151
  H           1.28622053005048      0.36765472072693      1.23995584109913
  O           1.17190271449032      0.51409189990426      2.37044560263967
  H           2.00237495430799      0.18463471997151      2.76429195712930
  H           1.91301261210124      0.86198849662085     -0.44967029470777
  H          -1.83953917384026     -0.30183446208450     -0.67212259467009
