13
Coordinates from ORCA-job job_IRC_F.QMRegion
  C           0.01096453372670     -0.35524619035702      2.94532054295321
  O          -0.55971163819980     -1.02012097383919      1.91986490611697
  H          -0.99784681955066     -0.41903911310425      1.22754587284486
  O          -1.30210545706192      0.31775663810962     -0.17967326615238
  H           0.41160477800751      0.26536723238197     -0.34759907515537
  O           1.36501249602473      0.16515683890931     -0.06119627548411
  H           1.28731732007812      0.39433810057505      1.38823431781968
  O           1.18880342767129      0.53048199758687      2.42730936207533
  H           2.01950586869582      0.18044265916727      2.80571986867359
  H           1.91039650099839      0.85042369467567     -0.48688070680514
  H          -1.86116618035142     -0.30060981063992     -0.66657681561625
  H           0.53065243333646     -1.09655089658663      3.56523138924389
  H          -0.62003167736419      0.37266297621777      3.45704000303645
