139
Coordinates from ORCA-job job_IRC_B
  C           0.55194344725575      4.89228652412089     -0.42693183325935
  C          -4.38132301305218      3.28876776255872      0.45442144918399
  C          -4.94720262409995     -1.76308982953292     -0.58478570148495
  C          -0.67665207330095     -4.81186119296554     -0.72799511799247
  C           4.29630361135769     -3.35148970585962      0.11734590931254
  C           4.79526586025571      1.79138146734427     -0.56036206736807
  O          -0.35835789130518      3.83921324994554     -0.22142150074072
  O          -4.34020712705135      2.27861991953901     -0.50525978011156
  O          -3.57143181408934     -1.87378500491796     -0.86543427963637
  O           0.28289419901385     -3.82555769918466     -0.46985748659374
  O           4.14379151512530     -2.24048973811488     -0.70824857912382
  O           3.39896159429437      1.95633557631957     -0.75015630455509
  C           1.15276555025543      4.73212024136725     -1.83446265638988
  C          -4.03809276344490      4.60183713861968     -0.27647063836047
  C          -5.61577568088583     -0.97434665674737     -1.72226883991758
  C          -1.29260028718015     -4.54305916939144     -2.11232958202542
  C           3.94861754579362     -4.58326719221024     -0.74090630443907
  C           5.39191440667076      1.07457335733272     -1.78336163121121
  O           0.18150439045660      4.77292609923873     -2.84805337066448
  O          -4.93536175660994      4.87994471828261     -1.31384843705620
  O          -5.44211264117067     -1.58962618618115     -2.96981356830009
  O          -0.33274334068128     -4.50936594604875     -3.13416804454175
  O           4.80678741146610     -4.71624338683490     -1.83825564301656
  O           5.18493607799559      1.78355558961521     -2.97433011129562
  C           1.85454097261035      3.36821937813759     -1.87747565579198
  C          -2.60213581345073      4.50200839024811     -0.81317647669530
  C          -5.04778761456122      0.44921028686998     -1.72312228577409
  C          -2.00415414051268     -3.18625979994730     -2.05608899046295
  C           2.49079532575504     -4.44161011290915     -1.20441122546839
  C           4.80377880674997     -0.34088238822847     -1.86321266731718
  O           2.53171304918244      3.14680217868363     -3.09020526005621
  O          -2.20657608481732      5.70412983166606     -1.43805268663659
  O          -5.72732987059965      1.26882956490540     -2.63974086815158
  O          -2.69631876818818     -2.89722631393749     -3.24585742756250
  O           2.06940600400529     -5.56909191490563     -1.94336877021994
  O           5.42165437494344     -1.09503223258179     -2.87781168957318
  C           2.88506520924939      3.28222646203328     -0.74608851623636
  C          -1.62164709750581      4.16424036128309      0.32024774917228
  C          -5.14143064045848      1.11526350909100     -0.34269824718118
  C          -3.01840490311587     -3.18083288299651     -0.90919779527136
  C           1.55256734744145     -4.25398198875679     -0.00309305993790
  C           4.98556278484584     -1.10411345052555     -0.54296020177384
  C           2.25375239177623      3.63220856551152      0.61451916897615
  C          -2.13406527460327      2.91329563126630      1.04043934641007
  C          -4.64986997710064      0.18174376180895      0.78107434311129
  C          -2.34070091115968     -3.57804429533819      0.41307332056392
  C           2.08379967634990     -3.13741175351661      0.90395359837231
  C           4.58494402312003     -0.25625264618140      0.67925784708862
  O           1.56738223156982      4.88151458970128      0.53417614129827
  O          -3.46374808287231      3.08183277607063      1.50470936913471
  O          -5.17968366032829     -1.13847509895382      0.63965416687135
  O          -1.67417844376685     -4.82815647339849      0.25466638382756
  O           3.44768593334312     -3.30376504917145      1.24824641253971
  O           5.06850292914541      1.08909548591792      0.60870158026611
  C           3.31532811764912      3.78392387781157      1.71206712926955
  C          -1.27004054365244      2.50909232294772      2.22655445482906
  C          -5.12245102428626      0.61506240223882      2.17890721671629
  C          -3.35114064142833     -3.76963212363197      1.54880822052599
  C           1.26840907279696     -3.03335778336904      2.19507311847929
  C           5.16456322064511     -0.80547215193997      1.99668807013806
  O           4.25641301599423      4.78250949467181      1.40565276863448
  O          -1.67695174085525      1.33975233882142      2.69544692043714
  O          -6.50813023656119      0.83271936691598      2.23061156523024
  O          -4.31583026282664     -4.74425207822120      1.24418812354000
  O           1.67902786973414     -1.99204264250750      2.91629304564711
  O           6.54046493805754     -1.07789886583110      1.90939330418178
  H           0.06085780880489      5.86712699353288     -0.32770883026018
  H          -5.36612611602936      3.35043095449690      0.93656801354167
  H          -5.40508183150721     -2.75620562095106     -0.48883933849069
  H          -0.23075077009876     -5.81407686817955     -0.70121447043231
  H           5.31282440119450     -3.42820929351120      0.52248175065925
  H           5.27817996779354      2.76682354576926     -0.42819486119219
  H           1.89076972870973      5.53408704844963     -1.99250003085708
  H          -4.10904793639607      5.43321078867891      0.43277997674481
  H          -6.69581844870020     -0.93348340431298     -1.54482240080713
  H          -2.03594465105003     -5.32957988385104     -2.31908902374736
  H           4.06147419118481     -5.49003800621082     -0.13868184177357
  H           6.47772106932582      1.00357318297512     -1.65553254778953
  H          -0.60830972128189      5.24217058082979     -2.52806367574546
  H          -5.09188789088703      4.06737376338605     -1.82223570114292
  H          -4.52227043683162     -1.89739858186546     -3.07054779443285
  H           0.46230818006169     -5.00545757890744     -2.85896358828425
  H           4.90744062931567     -3.84877666530667     -2.26560926816138
  H           4.26516374951921      2.10620433829474     -3.02223173968774
  H           1.07576168379584      2.60515194493788     -1.73219160386976
  H          -2.56114481902589      3.67559836851477     -1.53930709462506
  H          -3.97845730504893      0.39537369915733     -1.98332417370648
  H          -1.24875053377600     -2.41189571615496     -1.85920449159508
  H           2.41205971571123     -3.54092100972016     -1.83151539591540
  H           3.72352230267185     -0.26568125428966     -2.06023048928179
  H           1.93422406242905      3.37415789236010     -3.81796644698809
  H          -2.98534047003314      6.07219699587941     -1.88975763747520
  H          -5.85651695826239      0.76645223488254     -3.46080426003967
  H          -2.10889982804511     -3.10262838770189     -3.99143112964864
  H           2.82188500472725     -5.86385226247816     -2.48397571695475
  H           5.49077956063723     -0.53867417121612     -3.66921380378491
  H           3.68839347406584      3.99799054198178     -0.95860283719027
  H          -1.53813198796987      5.00411865253331      1.02168256471834
  H          -6.18242608944083      1.40894577902772     -0.14529432559906
  H          -3.80842090484194     -3.90943346209980     -1.13684497974252
  H           1.46114354883653     -5.19084602757746      0.55932018094110
  H           6.03168431849343     -1.42430892877417     -0.44987015786733
  H           1.53717237721771      2.85714160681270      0.91008093529261
  H          -2.06514823211923      2.05573184501462      0.33860374262120
  H          -3.55305978910889      0.14789585599318      0.75745253749914
  H          -1.61897238028892     -2.80392639495754      0.70006706385179
  H           1.94313808149874     -2.18935496677734      0.36128957693287
  H           3.49292560827744     -0.25496982822360      0.74022968192639
  H           3.87640867969640      2.85287061126762      1.80723237435297
  H           2.79761921846985      4.00120412497779      2.65183792579416
  H          -4.82403770983887     -0.17270676651930      2.87949735185700
  H          -4.64005993392753      1.54730842908496      2.46773874567285
  H          -3.88781586376072     -2.83452537182645      1.71571274691918
  H          -2.79243869344229     -4.03647177782488      2.45234051473686
  H           4.97048743551959     -0.06222566589165      2.77728584829380
  H           4.67308651190071     -1.74316419170266      2.25724814092954
  H           3.79673614112874      5.63326502404170      1.38088981149087
  H          -6.95737701106335     -0.01418663568726      2.09439175173673
  H          -3.86349484353069     -5.59707859183790      1.16129508512158
  H           7.01261959511931     -0.23962443949682      1.80624461834749
  C           0.74348777161205     -1.38803388024492      3.80875439786856
  H           1.29829082205748     -0.94274318833715      4.63547133394921
  H           0.01688002728687     -2.12238772174489      4.16623988628521
  O           0.38851155121389     -3.78421120072090      2.51919648575684
  C          -0.87797485636091      0.66849998537085      3.66619427414132
  H          -1.56625571960801      0.13130339702712      4.31997459790411
  H          -0.27268049576015      1.39396329276788      4.22104160883306
  O          -0.33438600994641      3.13294302360506      2.65434179340983
  C           0.05208430893578     -0.32189782708235      2.92521024864750
  O          -0.57342205693652     -1.01814706518358      1.91859193682176
  H          -0.97013661214831     -0.41598526149842      1.18906875901508
  O          -1.25265515036992      0.30947106236298     -0.17196266792039
  H           0.36434446347476      0.26213242456632     -0.35039137532947
  O           1.34681002707753      0.17905476003231     -0.06025425355210
  H           1.30252127039723      0.33926639839681      0.98394956435336
  O           1.15049169090987      0.51800452990411      2.39205264906966
  H           1.98492551196760      0.17469444484986      2.75751403087525
  H           1.91875860223019      0.88087226724141     -0.43934245937957
  H          -1.80702268930938     -0.29987772543243     -0.67712345074847
