139
Coordinates from ORCA-job job_IRC_F
  C           0.55165764864478      4.89162284639682     -0.42757111320056
  C          -4.38264416194407      3.28934934715988      0.45326468172474
  C          -4.94818614034348     -1.76280129349649     -0.58501326639520
  C          -0.67654677580518     -4.81166780004824     -0.72847749311452
  C           4.29691740558741     -3.35117253181625      0.11673682649849
  C           4.80085752543583      1.79437519851249     -0.56214648248028
  O          -0.35836343761255      3.83842794519075     -0.22164628954138
  O          -4.34158758728736      2.27958707640155     -0.50755539458683
  O          -3.57149890256230     -1.87385144335368     -0.86660229859018
  O           0.28209668776216     -3.82417599661213     -0.46875867584527
  O           4.14659594193679     -2.24111686712207     -0.71252122156663
  O           3.40752953360339      1.96240900135977     -0.76073448026836
  C           1.15219598314149      4.73185286464949     -1.83478467461273
  C          -4.03891329286077      4.60251066272279     -0.27700572690468
  C          -5.61653247594047     -0.97422703970471     -1.72239347196951
  C          -1.29227430693458     -4.54284049819857     -2.11261437563502
  C           3.94877477187351     -4.58329753974051     -0.74074759431426
  C           5.39567544839124      1.07486924174905     -1.78373798628460
  O           0.18086642907051      4.77240189418212     -2.84817574725925
  O          -4.93563765504839      4.88080976166621     -1.31474898562417
  O          -5.44279463818616     -1.58969135921310     -2.97017383977689
  O          -0.33229426427226     -4.50940004154625     -3.13467402104870
  O           4.80667125229064     -4.71709096786484     -1.83836750933783
  O           5.18643086739128      1.78284882778652     -2.97560109852505
  C           1.85588971363414      3.36968061593529     -1.87673104197720
  C          -2.60268921666247      4.50216375662824     -0.81326149009131
  C          -5.04811410368520      0.44890452999426     -1.72286985250901
  C          -2.00396800214100     -3.18643024052614     -2.05594758146992
  C           2.49087201913651     -4.44113891593322     -1.20402620336825
  C           4.80506540422758     -0.33923507991070     -1.86154038146622
  O           2.53004575677157      3.14700521446270     -3.09089776370932
  O          -2.20659705431204      5.70348940095615     -1.43902504373358
  O          -5.72658207069508      1.26868770761884     -2.64013644148241
  O          -2.69580000219016     -2.89716818716138     -3.24609763733169
  O           2.06930632565902     -5.56825258526683     -1.94311871961863
  O           5.41927878464418     -1.09417003207755     -2.87745570820160
  C           2.88983041143709      3.28561133162838     -0.74865345791268
  C          -1.62256506492349      4.16495452237486      0.31990145149231
  C          -5.14195666965759      1.11585073234298     -0.34298671480391
  C          -3.01939462086361     -3.18121110743959     -0.91008805993547
  C           1.55268055392680     -4.25238451265090     -0.00342761904022
  C           4.98589666685307     -1.10394211114687     -0.54276389343319
  C           2.25566120769347      3.63155726351428      0.61106937491330
  C          -2.13583870767502      2.91545708625213      1.04145571727679
  C          -4.64964126531709      0.18284953353657      0.78069485750358
  C          -2.34137213943033     -3.57804125883183      0.41191858389886
  C           2.08401061519822     -3.13547979022400      0.90296866212800
  C           4.58018184401490     -0.25532412020538      0.67697725507195
  O           1.56717578258287      4.87949662414314      0.53240939403057
  O          -3.46621072514223      3.08276648751257      1.50295303428758
  O          -5.17876604685237     -1.13816873141448      0.63859600696475
  O          -1.67376371623844     -4.82744126248470      0.25350234116184
  O           3.44844830423131     -3.30139738647460      1.24540076398874
  O           5.06777049884555      1.08978947604633      0.60616471788386
  C           3.31404616729398      3.78322050642552      1.71195555610029
  C          -1.27219633079446      2.51126951889807      2.22324278946285
  C          -5.12252230166723      0.61501201281968      2.17902665868486
  C          -3.35081666537116     -3.76994195569744      1.54907422744043
  C           1.27026055813375     -3.03501087441070      2.19365534050274
  C           5.15996287329375     -0.80321352193587      1.99615248728213
  O           4.25515667096624      4.78213268248468      1.40603332838962
  O          -1.68066492489477      1.34260999067581      2.69550882278454
  O          -6.50822895312324      0.83315568214269      2.22986396707784
  O          -4.31602213956131     -4.74365032573346      1.24364276897475
  O           1.67667149788777     -1.99245390437772      2.91405835792072
  O           6.53592451166810     -1.07744695907648      1.90631785673987
  H           0.05997997985951      5.86631954663535     -0.32774337321723
  H          -5.36767545592186      3.35013666633369      0.93513831282522
  H          -5.40519866914359     -2.75636043108123     -0.48915798298525
  H          -0.22959967846604     -5.81347225756395     -0.70164941842530
  H           5.31345901184734     -3.42704140679107      0.52243667328517
  H           5.28415756686328      2.76956594722426     -0.42770343703070
  H           1.89134518346698      5.53273264279687     -1.99403088700381
  H          -4.10946642901543      5.43412432871860      0.43202016215925
  H          -6.69670602167096     -0.93296390289352     -1.54584840026790
  H          -2.03612978483606     -5.32874221522920     -2.32043984076122
  H           4.06143759074639     -5.49048863613220     -0.13901051982009
  H           6.48148328790118      1.00225707779378     -1.65862173053256
  H          -0.60771120516747      5.24479883602332     -2.52784363752250
  H          -5.09458514270054      4.06769340085337     -1.82110437867574
  H          -4.52361085515050     -1.89817744502709     -3.07058379782313
  H           0.46067972488451     -5.00954504509966     -2.86010044107010
  H           4.91090845955775     -3.84962873420292     -2.26402684154780
  H           4.26863741812888      2.10989355033463     -3.02022762556829
  H           1.08180785714482      2.60209724039516     -1.72628904011354
  H          -2.56077416095863      3.67455507601577     -1.53827557383782
  H          -3.97811846499234      0.39460118103708     -1.98209293960429
  H          -1.24962672068480     -2.41039545542718     -1.85840051272682
  H           2.41214464202435     -3.53951924212525     -1.83011770444789
  H           3.72366060184672     -0.26161721563675     -2.05439405472574
  H           1.93583292361294      3.38613138300130     -3.81792933651414
  H          -2.98679512156064      6.07458951858910     -1.88610967532427
  H          -5.86164176636892      0.76470062382880     -3.45921517946627
  H          -2.11228000847109     -3.11056061848116     -3.99236723859023
  H           2.82313246847326     -5.86702444266266     -2.47987166233920
  H           5.49716429025241     -0.53612646031100     -3.66692921960380
  H           3.69189410391518      4.00279909848829     -0.96197916287349
  H          -1.53677975025935      5.00592011687944      1.01998601612140
  H          -6.18297693274266      1.41007733630412     -0.14618265871576
  H          -3.80974494036738     -3.90901898703354     -1.13913267386390
  H           1.46050255888128     -5.18947160623339      0.55912860543134
  H           6.03204456279733     -1.42450108088845     -0.44873799320088
  H           1.53743696179463      2.85224528212199      0.89048113189682
  H          -2.06302834712764      2.05406848867043      0.34071198511367
  H          -3.55258156374365      0.15024848647710      0.75230988543127
  H          -1.61844869764354     -2.80273046332019      0.69229704999313
  H           1.93923307760543     -2.18517910774971      0.36289309348120
  H           3.48629691415564     -0.24941010767801      0.71986298222891
  H           3.87634443739078      2.85268835245478      1.80493657329868
  H           2.79502796966756      4.00317284859196      2.65026553368071
  H          -4.82578435701543     -0.17400024933020      2.87860923406017
  H          -4.64032154734489      1.54740436309466      2.46768915752547
  H          -3.88765475274823     -2.83481883347277      1.71578029192892
  H          -2.79155895170808     -4.03899419653626      2.45140728626619
  H           4.97253035028001     -0.05751700091370      2.77547110999937
  H           4.67015238764223     -1.74151852324940      2.25770880617044
  H           3.79710096019328      5.63391160262946      1.38757309307936
  H          -6.95776406573350     -0.01418299669109      2.09817619440180
  H          -3.86582683948314     -5.59808632661570      1.16654486279379
  H           7.01113755549937     -0.23999824447882      1.81187506048571
  C           0.74261856808392     -1.39890831796893      3.81807565611046
  H           1.30176111151696     -0.93292873860012      4.63068640677714
  H           0.03638801028131     -2.14334221306157      4.19671740893740
  O           0.38839893889235     -3.78354425531061      2.51710897119914
  C          -0.88058391317434      0.67323270624812      3.66834024080133
  H          -1.57047730934214      0.15979760341197      4.34149987871778
  H          -0.25367583092594      1.39442798540572      4.20545508497300
  O          -0.32884414298243      3.12733114872981      2.64689645630283
  C           0.01096453372670     -0.35524619035702      2.94532054295321
  O          -0.55971163819980     -1.02012097383919      1.91986490611697
  H          -0.99784681955066     -0.41903911310425      1.22754587284486
  O          -1.30210545706192      0.31775663810962     -0.17967326615238
  H           0.41160477800751      0.26536723238197     -0.34759907515537
  O           1.36501249602473      0.16515683890931     -0.06119627548411
  H           1.28731732007812      0.39433810057505      1.38823431781968
  O           1.18880342767129      0.53048199758687      2.42730936207533
  H           2.01950586869582      0.18044265916727      2.80571986867359
  H           1.91039650099839      0.85042369467567     -0.48688070680514
  H          -1.86116618035142     -0.30060981063992     -0.66657681561625
