13
Coordinates from ORCA-job job_IRC_B.QMRegion
  C           0.05208430893578     -0.32189782708235      2.92521024864750
  O          -0.57342205693652     -1.01814706518358      1.91859193682176
  H          -0.97013661214831     -0.41598526149842      1.18906875901508
  O          -1.25265515036992      0.30947106236298     -0.17196266792039
  H           0.36434446347476      0.26213242456632     -0.35039137532947
  O           1.34681002707753      0.17905476003231     -0.06025425355210
  H           1.30252127039723      0.33926639839681      0.98394956435336
  O           1.15049169090987      0.51800452990411      2.39205264906966
  H           1.98492551196760      0.17469444484986      2.75751403087525
  H           1.91875860223019      0.88087226724141     -0.43934245937957
  H          -1.80702268930938     -0.29987772543243     -0.67712345074847
  H           0.54318255541345     -1.07916557952911      3.55278445935295
  H          -0.60616798395136      0.37905933268044      3.44964401799641
