10
Coordinates from ORCA-job job.QMRegion
  C           2.43618847564407     -0.59321823990557      4.51634327392743
  O           1.07552251349133     -0.45064174227339      4.54613415932861
  H           0.72127622383289     -0.94935136496708      3.79414002977787
  H           2.93797154126691      1.37211030814285      4.16847476805894
  H           4.82147625250163     -0.96738749312352      1.61612927068788
  O           5.13217023389533     -0.93691420647769      2.52468437850220
  H           3.85227494875505      0.29563347966367      3.28350956020268
  O           2.94970964068760      0.54710517935242      3.62322829458193
  H           2.78415186064243     -1.49447337361927      4.05237038885876
  H           2.82902343510133     -0.41539286055200      5.51695529979520
