136
Coordinates from ORCA-job job
  C          -1.14299437932235      3.65332646730236      4.34840122183885
  C          -0.50164896855572      2.06168372974624      9.32319497022807
  C          -1.12587962647710     -3.08422562479121      9.60715102496266
  C          -1.21031670642857     -5.69796442745129      5.01629818205953
  C          -0.45019545336892     -4.13107304762043      0.04700551151695
  C          -0.88031268238830      1.02132488116359     -0.20471853385570
  O          -0.90986525095781      2.60853793602785      5.26089298335119
  O          -1.33076671535648      0.95323671888732      9.17150938436696
  O          -1.34410445847240     -3.07557462922829      8.21566365537889
  O          -0.99892382009161     -4.65169314752355      4.09805672206282
  O          -1.25961114610256     -3.00477875514879      0.15942917825579
  O          -1.10359144731759      0.98894679085247      1.18461502077225
  C          -2.49679808407879      3.41131770739651      3.65715233570126
  C          -1.34012143585172      3.29825315938264      8.94055094614133
  C          -2.33184298326211     -2.42706032999942     10.30051743140448
  C          -2.58501189807059     -5.51217868277094      5.68429841408841
  C          -1.32286045159772     -5.34969792752971      0.40915339797289
  C          -2.09619316178856      0.42875976745331     -0.93744127131900
  O          -3.54654410059012      3.27373331972470      4.57771269318186
  O          -2.47325090706289      3.43413255982818      9.74905879015322
  O          -3.52447603692870     -3.12912784499492     10.08283582392635
  O          -3.61834328116368     -5.37752445375908      4.74606187650016
  O          -2.42252412153142     -5.48411125014598     -0.44338733819771
  O          -3.26596762807103      1.17139278846780     -0.73402430928191
  C          -2.40323661091690      2.12413407481390      2.82763131567404
  C          -1.74385421507541      3.19169631046332      7.45842610940404
  C          -2.43636563622763     -0.98216290841838      9.79604845638338
  C          -2.55700534976975     -4.24777131790860      6.55111291071739
  C          -1.78230788019884     -5.22747922600183      1.87366755523997
  C          -2.26971569834137     -1.02069488711658     -0.46816218721523
  O          -3.56855104824367      1.90298855588099      2.07033045275622
  O          -2.43355820622938      4.34699363136695      7.03351613654222
  O          -3.42868409498767     -0.26430838720724     10.48638661111417
  O          -3.73745685383030     -4.10196418683216      7.30010991431976
  O          -2.49308446374278     -6.37551947800600      2.28001199015901
  O          -3.27418540418839     -1.68100652907041     -1.19633165262215
  C          -1.21770517980049      2.22833975611434      1.86405659510049
  C          -0.50883616814210      2.97825004927049      6.56681450178168
  C          -1.11478290960307     -0.21579996680042      9.95623076662230
  C          -1.38010438882666     -4.31288420370830      7.52946923727725
  C          -0.57297051633303     -5.02469036916000      2.79848656536376
  C          -0.97659379864994     -1.83847742332377     -0.61112381577060
  C           0.06959848957151      2.55337805631382      2.64155099955811
  C           0.28030319722713      1.79574435093783      7.13593240556179
  C           0.10287145764648     -1.04084797134535      9.48839010169629
  C          -0.07172621438082     -4.56854196389701      6.76159442968497
  C           0.26425538752011     -3.86261319478169      2.25779674350614
  C           0.26348522997413     -1.06798628872439     -0.10968671212015
  O          -0.10912449162391      3.74100739109650      3.41158740797219
  O           0.63804561438465      1.99848376242918      8.48879825561503
  O           0.04342788770996     -2.39689488315866      9.93511844001730
  O          -0.18774756641478     -5.74662470555788      5.96887570658187
  O           0.66468245452762     -4.07874766805145      0.91825547037236
  O           0.26700795712298      0.29417530272044     -0.53157165816749
  C           1.24514813245889      2.81566070917412      1.69113176251218
  C           1.53935392798224      1.45895105503691      6.35569806661275
  C           1.43019879730273     -0.51782351693323     10.06674202105901
  C           1.11199743611791     -4.79608305473623      7.71104854668004
  C           1.52293096945298     -3.64016594689566      3.09598586499790
  C           1.58542140971526     -1.62911430660522     -0.66230636111020
  O           0.96466373468068      3.84399692605588      0.77339198882867
  O           1.99297477247217      0.27940070939449      6.73712121888482
  O           1.38655939849520     -0.39794995275727     11.46443346296197
  O           0.89630709179076     -5.88386866318773      8.57067910838373
  O           1.86956299390563     -2.36537177959459      3.03361812977073
  O           1.58235235724200     -1.70894495262376     -2.06230435454793
  H          -1.15435669705483      4.62331830737745      4.85978890712908
  H          -0.11138627174183      2.14722709439752     10.34494182635216
  H          -0.97665019903285     -4.10579129055845      9.97815695899915
  H          -1.17385641947182     -6.66904394517258      4.50802564352248
  H          -0.02654092465251     -4.23448840267210     -0.95996151350073
  H          -0.68254067757402      2.04331715134149     -0.55084664148733
  H          -2.69234734333806      4.25808671173774      2.97939489459245
  H          -0.73570226409392      4.19863686263575      9.09066211975520
  H          -2.16806746763136     -2.42653914169743     11.38315111456214
  H          -2.76718722423301     -6.38402190763111      6.33378562887127
  H          -0.72154211909638     -6.25769602624631      0.29380014509538
  H          -1.90410325534688      0.44531870498425     -2.01528276179043
  H          -3.35476021546104      3.80583731540821      5.37216689785878
  H          -2.89093651695331      2.56397972745494      9.85694636304402
  H          -3.61134994592584     -3.35611671073675      9.13711819077706
  H          -3.41431784192683     -5.90447094782338      3.95158523701483
  H          -2.84161792201303     -4.61623390106462     -0.56488523399727
  H          -3.39140909849912      1.34382842322556      0.22089598381762
  H          -2.23126596837260      1.28216287684792      3.51377912597208
  H          -2.39380327975888      2.31146564581283      7.33948965614851
  H          -2.67130207964082     -1.01326594971793      8.72006727496329
  H          -2.41690334117100     -3.38024486593273      5.88997428480177
  H          -2.42870896415187     -4.34160943348760      1.96669061349587
  H          -2.53062436872253     -1.00326806180922      0.60236228615376
  H          -4.33338203458005      2.01314534378967      2.65638694702134
  H          -2.99342910909142      4.64396373277427      7.77024210917113
  H          -4.21379406749203     -0.82934711476385     10.56312422231857
  H          -4.49199631444856     -4.20599125529380      6.69975059243014
  H          -3.03246844004537     -6.67202637813711      1.52698132126096
  H          -4.02854752126568     -1.07638877970997     -1.28634168204729
  H          -1.41655152461985      3.03517062203887      1.14787241550949
  H           0.11091574034048      3.88237383388775      6.54314808540055
  H          -0.98257810215070      0.06406870047627     11.01035341376800
  H          -1.54773122997275     -5.13623152592608      8.23505051676758
  H           0.03886803584283     -5.93400141242446      2.83766542164422
  H          -0.83307388970266     -2.11596568637429     -1.66410905693599
  H           0.30298212548523      1.71422018902449      3.30924068941276
  H          -0.36348378687936      0.90568324392362      7.05399288209518
  H           0.14116098930245     -1.02438154384594      8.39154793309473
  H           0.13308636590656     -3.70432032790967      6.11596484180241
  H          -0.35065349520403     -2.95312982744077      2.30935102914254
  H           0.27909259899128     -1.10476238922601      0.98680396516661
  H           1.44045423187935      1.91745011590149      1.10228567984593
  H           2.12606120469681      3.06476257487919      2.29068095534430
  H           2.21989059471389     -1.21231148452620      9.76018545012605
  H           1.65183218722897      0.47166912281405      9.67091775653617
  H           1.23744889944572     -3.91793980668595      8.34747952631790
  H           2.01293671219682     -4.94659267638005      7.10487794650443
  H           2.39205227847289     -0.97571566665051     -0.31016145293452
  H           1.76008652251873     -2.63668855230329     -0.28731338127107
  H           0.85357633375710      4.66744135658087      1.27094646497340
  H           1.28187782679610     -1.28237808911913     11.84253343246063
  H           0.83912644011797     -6.68838765933514      8.03514407240823
  H           1.51525644698511     -0.81056077938446     -2.41858824618382
  C           2.93294071500553     -1.87984932009927      3.85397596863769
  H           3.88740633598227     -1.59080659325193      3.23183609024904
  H           3.20966849223835     -2.64506016599705      4.58019219831318
  O           2.09684082792037     -4.49611533553517      3.73831351975901
  C           2.99331260580435     -0.34102375617211      5.93542548929260
  H           3.20327151827444     -1.28678454978026      6.43671923978434
  H           3.90933500502888      0.25729435103273      5.89668763069553
  O           2.04374179937187      2.13206471812933      5.48765465552963
  C           2.43618847564407     -0.59321823990557      4.51634327392743
  O           1.07552251349133     -0.45064174227339      4.54613415932861
  H           0.72127622383289     -0.94935136496708      3.79414002977787
  H           2.93797154126691      1.37211030814285      4.16847476805894
  H           4.82147625250163     -0.96738749312352      1.61612927068788
  O           5.13217023389533     -0.93691420647769      2.52468437850220
  H           3.85227494875505      0.29563347966367      3.28350956020268
  O           2.94970964068760      0.54710517935242      3.62322829458193
