147
Coordinates from ORCA-job job E -278.491174313430
  C           1.68458380731982      3.66719463186559     -0.59521491642759
  O           0.80619898821636      2.65423962867601     -1.01802674393311
  C           2.90679042331220      3.67656837217295     -1.52952029046782
  O           2.07724668746832      3.52636511428817      0.73987110433858
  C          -0.56075491911508      2.82036570154528     -0.64726662023543
  O           2.54444499042215      3.76189170731056     -2.87740199934179
  C           3.77201419965915      2.43586453634821     -1.26790126837590
  C           2.85240811270863      2.37430649282499      1.05654105446523
  C          -1.39087275090645      3.08178659910373     -1.91252409590102
  C          -1.05935651455808      1.53528135397531      0.02140589873117
  O           4.96115193577426      2.48685842574283     -2.01581955834414
  C           4.13865628549343      2.33043415977903      0.21520929346547
  C           3.12733622345930      2.49844248450593      2.56246995352573
  C          -2.90409472383710      2.94034357046670     -1.64309720462141
  O          -1.08626663472564      4.37525771225828     -2.36445263872481
  O          -2.44436933223652      1.59308813122289      0.31133229238230
  C          -0.35701072011717      1.25607292766621      1.34201291578663
  O           4.84623664949052      1.10733279389698      0.34621114136983
  O           3.88347427238412      3.63886721601704      2.86151103202014
  C          -3.21719168372469      1.64032725054053     -0.87283697343695
  O          -3.62960027105693      3.01725544155471     -2.83544229512123
  O          -0.03299556339945     -0.02490728213021      1.38423595663373
  O          -0.15566818696717      2.05495746168382      2.21918183598701
  C           5.85746209725849      1.01559391717476      1.31575229808196
  O          -2.95665791146885      0.55666401530784     -1.71211653445622
  C           0.61566502859229     -0.55399416556659      2.53324218238401
  C           7.05353120207443      0.28682944964190      0.68168429027056
  O           5.45331807870515      0.34891633439512      2.47493708149902
  C          -3.72963748268639     -0.63608066710014     -1.60185243879382
  C          -0.16409776483264     -1.77749681831643      2.98336535797984
  O           7.49251844390923      0.92742743511392     -0.48486367502613
  C           6.66519002207995     -1.17213371664455      0.39785759851273
  C           5.00679976975505     -0.99840814481470      2.31556594065887
  C          -3.29803961462532     -1.43759532199137     -2.84141642700246
  C          -3.50853657070433     -1.43252995793536     -0.29437743016635
  C           0.55638863589385     -2.64977870988624      4.00152665827429
  O          -0.90359286290023     -2.41801367120977      2.02237320511021
  O          -1.52998291512049     -1.67725990435273      3.04787705777502
  O           7.78176741285827     -1.91486955692737     -0.01968803005692
  C           6.06873813270138     -1.87582792121054      1.62525614223335
  C           4.71805422550196     -1.44133598275349      3.76029271172067
  C          -3.83023291173001     -2.87328710479847     -2.81695858706731
  O          -3.73950344598251     -0.73855037749756     -3.97492087720082
  O          -3.95102511419580     -2.78581476355745     -0.42035758860374
  C          -4.32643982359351     -0.86600194392426      0.88632370038156
  O           1.79374434429272     -3.03399633803538      3.40056554770657
  O           5.52957168983579     -3.08545663977353      1.09872143953369
  O           5.88153570713789     -1.45678424642843      4.54117132627975
  C          -3.39304436781312     -3.50081745831040     -1.48201992024156
  O          -3.38121755802890     -3.59748786780074     -3.92757277121501
  O          -4.42812521217857     -1.75279378742219      1.96668158128261
  C           1.76457221151227     -4.09047934304556      2.58959847810274
  C           5.36898679896004     -4.18648014859432      1.93795589291011
  O          -1.98618413982802     -3.48678083611241     -1.38868710422900
  C           3.01942493448168     -4.15334329459351      1.74136757862685
  O           0.84937606424211     -4.86957306909724      2.53432277669313
  C           5.48932005318156     -5.45337566544131      1.07026148582172
  O           4.12880025225112     -4.21536444233273      2.61311727714324
  C          -1.28148198131749     -4.71478122811575     -1.42790276746479
  C           2.96049297464807     -5.32289119115631      0.75193526230236
  O           6.71819247044382     -5.51549920113466      0.40517305694968
  C           4.32159460888451     -5.51289539470777      0.06384281418605
  C          -0.05033588029644     -4.45372692181397     -2.30324983433610
  C          -0.85545809319747     -5.17520796123696     -0.02263879900276
  O           1.96415085381298     -4.97432904929829     -0.20762947058554
  O           4.30271221952266     -6.75422667695600     -0.59510170086787
  C           0.91522647435959     -5.64347114837587     -2.27123106264574
  O          -0.50234622891417     -4.20600962338299     -3.61372837071896
  O           0.03792754071621     -6.28115427749750     -0.11621867160557
  C          -2.02360842412453     -5.65292911880556      0.86317541813042
  C           1.22948466521536     -6.01819108714852     -0.80586503841119
  O           2.05030677972935     -5.39107834426167     -3.05021384063811
  O          -2.67806878206590     -4.63769015745808      1.56966065078478
  C           2.95288427017893     -1.54811845191008     -1.08291352409716
  H           4.01726881270411     -1.16246125330612     -1.07730528382762
  C           2.21056082273402     -0.77471586222514     -2.16882892850508
  C           2.91404298748865     -0.24481704209172     -3.24269611053000
  C           0.83156810292137     -0.65474315846421     -2.13417550875006
  C           2.24819262615173      0.41422003176343     -4.26021835458784
  C           0.16371544447172      0.01234004171898     -3.14779949689747
  C           0.87032882069764      0.54812148543267     -4.21040183275631
  H           1.17613440452463      4.64053688536058     -0.63691186288935
  H           3.50169931986650      4.57111959820385     -1.31286275988430
  H          -0.66344384014966      3.65683002418033      0.05322435408660
  H           1.80448625734906      3.15857552624434     -3.04016893926091
  H           3.19703387796748      1.53289241141775     -1.52965478008451
  H           2.28909985471488      1.45232307837429      0.84483305061602
  H          -1.09061133425843      2.33254846099865     -2.65976749937878
  H          -0.85027239209385      0.69170751184351     -0.64633366008685
  H           4.75889332415641      2.89768635660133     -2.87352457467355
  H           4.79253452320197      3.16693335772738      0.49940297354866
  H           3.70267867790700      1.63638316684732      2.90039410873163
  H           2.15782551579675      2.52244978782203      3.07358062276105
  H          -3.22468405643995      3.78657180707871     -1.02574961125844
  H          -1.69711364944449      4.60369599662048     -3.08498783551779
  H           3.35570661837587      4.42141170408809      2.63965713941704
  H          -4.26089499425511      1.64423486114000     -0.53572010385875
  H          -3.55705425233274      2.17350480593699     -3.31104102769480
  H           6.15257908954429      2.01752137644436      1.65893167869545
  H           1.61708757323302     -0.86934657228018      2.22053817561781
  H           0.65413436402839      0.19951149571841      3.32512290528199
  H           7.89618030975893      0.30101360081570      1.38129205899113
  H          -4.79531911792256     -0.38399918809617     -1.69923440585704
  H           6.72326163423327      1.21239982030520     -1.00678123242930
  H           5.88489673362179     -1.17873432497852     -0.38150018379160
  H           4.09092680680508     -1.02724610819520      1.70416927318814
  H          -2.19866709629371     -1.50347917421632     -2.83076043586487
  H          -2.43447025055117     -1.43239814186877     -0.05583916853142
  H           0.80619081311992     -2.08170254003074      4.89666059310918
  H          -0.05443285141725     -3.53105462506734      4.22694426029072
  H           8.26959225202174     -1.38994193577161     -0.67608900036650
  H           6.87147489582195     -2.11363247615883      2.33807308558196
  H           3.97639309982392     -0.74822256615766      4.17503479439041
  H           4.30680795048054     -2.44870546447015      3.77496190345860
  H          -4.92388916400676     -2.87463775186119     -2.86712600749651
  H          -3.69045399397266     -1.33586624820233     -4.73978534175022
  H          -3.88428916463593      0.08504148376957      1.20290328819881
  H          -5.35735080488481     -0.71359560596207      0.55777069158848
  H           6.22505155857260     -0.55180569702372      4.59678715139630
  H          -3.78788425928383     -4.52097307070907     -1.39755901359518
  H          -2.41652436964824     -3.73488141448647     -3.87016591398612
  H          -3.55500999892474     -1.93215285789753      2.34129595336319
  H           6.11858849971092     -4.18519057290378      2.74202670982990
  H           3.02709908958015     -3.20318286754574      1.15959759016065
  H           5.43964906109419     -6.33164382070187      1.72293687607749
  H          -1.89190348049804     -5.49333110541364     -1.90490159906183
  H           2.66703153768177     -6.24538970394513      1.26707490101498
  H           6.92065595315783     -4.64326236605720      0.02989491699024
  H           4.45008412445496     -4.69013272458137     -0.65685959786295
  H           0.46473680602442     -3.56259795309682     -1.90954345640256
  H          -0.36029620348919     -4.32942918160640      0.47661751937791
  H           5.19928964729031     -6.94257630947639     -0.92016820578825
  H           0.42904806324508     -6.51215568252773     -2.73008588487434
  H           0.23701010676682     -4.34955055170720     -4.22763266873460
  H          -1.58427938234031     -6.30755744396075      1.61928655127300
  H          -2.72704652287272     -6.23429722172723      0.25323048181997
  H           1.80566911469694     -6.95013178257807     -0.77283025702065
  H           2.53549783046471     -4.62527199538525     -2.69908639179607
  H          -3.15824396320072     -4.04452832478786      0.96762164215232
  O           2.42453172134375     -1.57376272122681      0.11880007491881
  H           3.98912403449840     -0.35902408570214     -3.26444383132334
  H           0.30505249627448     -1.09517911921746     -1.29375096321626
  H           2.80496661795336      0.81945762405437     -5.09042373735859
  H          -0.91045068635619      0.10745446838331     -3.10618910423292
  H           0.34586896229659      1.05968230250588     -5.00227878385762
  H           2.63276752237682     -3.48752170687495     -1.03878571938945
  O           3.10351841607033     -2.90162863506697     -1.65575647157522
