31
Coordinates from ORCA-job job
C     -2.2474204114   -0.3899492600    0.1179055558
H     -1.2305053360   -2.0453439467    0.2588687877
H     -1.4543367325    0.4342305376    0.0105729641
O     -0.4473501929    1.5881792752    0.2851798287
O     -1.7282751150   -1.4660795362    0.8510689077
H     -2.4996684640   -0.6574596041   -0.9200566889
H      0.6130112752    0.7323856495    1.8836258892
C     -0.0398163305    1.5823378498    1.6366877778
O      0.6293580016    2.6550755115    1.0450388817
H     -5.5708102222    2.8262376161    0.3355785170
H     -3.6348553375    1.7390095816   -0.7342503589
C     -3.4199501948    0.2597630264    0.7971473137
C     -3.9040184301   -0.2137022159    2.0091069132
C     -4.9888603514    0.3992424044    2.6100119377
C     -5.5911523697    1.4916192740    2.0107810570
C     -5.1062058865    1.9720050758    0.8037817630
C     -4.0254658714    1.3609470384    0.1989648054
H     -3.4274757088   -1.0655730218    2.4677674007
H     -5.3619776926    0.0223253469    3.5495504321
H     -6.4348576369    1.9717397001    2.4818821987
H     -0.5676076045    0.1653123446    3.8594689968
C     -1.0904788047    1.8611113093    2.6641145691
C     -1.9397750403    2.9496264261    2.5149461449
C     -2.9189787042    3.1928112532    3.4596916063
C     -3.0517081647    2.3510576623    4.5515785266
C     -2.2066125981    1.2636906456    4.6986704524
C     -1.2251894213    1.0150907288    3.7560158824
H     -1.8185370137    3.5941225288    1.6567233195
H     -3.5782071912    4.0384035566    3.3412764556
H     -3.8163229457    2.5426806886    5.2882170669
H     -2.3123271119    0.6065781429    5.5475922436
