11
* (null), Energy   -1000.0000000
C    -2.250950   -0.404410    0.273780    0.426638    0.307350   -0.048664
H    -1.120880   -1.953360    0.400160   -0.059314   -0.131926    0.067840
H    -1.342130    0.587630    0.206910   -1.083040   -1.190974   -0.283374
O    -0.603360    1.456600    0.201540    0.060498   -0.031038    0.119204
O    -1.682130   -1.403230    0.971550    0.026698   -0.057742    0.062442
H    -2.347010   -0.575210   -0.808840   -0.477754   -0.465562    0.101476
H     0.629000    0.808890    1.788720    0.063814   -0.028276    0.123358
C    -0.029100    1.658710    1.514080   -0.030818   -0.146476    0.162950
O     0.759520    2.755100    1.140420   -0.360184   -0.028788   -0.438794
H    -3.143069    0.102676    0.757887    0.007766    0.039348   -0.004134
H    -0.817032    1.820223    2.277122    0.072110    0.117332    0.058016
11
* Frequency(6) -279.9000
C    -2.202465   -0.369481    0.268250    0.426638    0.307350   -0.048664
H    -1.127621   -1.968353    0.407870   -0.059314   -0.131926    0.067840
H    -1.465212    0.452282    0.174706   -1.083040   -1.190974   -0.283374
O    -0.596485    1.453073    0.215087    0.060498   -0.031038    0.119204
O    -1.679096   -1.409792    0.978646    0.026698   -0.057742    0.062442
H    -2.401304   -0.628119   -0.797308   -0.477754   -0.465562    0.101476
H     0.636252    0.805677    1.802739    0.063814   -0.028276    0.123358
C    -0.032602    1.642064    1.532598   -0.030818   -0.146476    0.162950
O     0.718587    2.751828    1.090553   -0.360184   -0.028788   -0.438794
H    -3.142186    0.107148    0.757417    0.007766    0.039348   -0.004134
H    -0.808837    1.833557    2.283715    0.072110    0.117332    0.058016
11
* Frequency(6) -279.9000
C    -2.159234   -0.338338    0.263318    0.426638    0.307350   -0.048664
H    -1.133631   -1.981721    0.414744   -0.059314   -0.131926    0.067840
H    -1.574956    0.331601    0.145992   -1.083040   -1.190974   -0.283374
O    -0.590354    1.449928    0.227166    0.060498   -0.031038    0.119204
O    -1.676391   -1.415643    0.984973    0.026698   -0.057742    0.062442
H    -2.449715   -0.675294   -0.787025   -0.477754   -0.465562    0.101476
H     0.642718    0.802811    1.815239    0.063814   -0.028276    0.123358
C    -0.035725    1.627221    1.549110   -0.030818   -0.146476    0.162950
O     0.682090    2.748911    1.046091   -0.360184   -0.028788   -0.438794
H    -3.141400    0.111135    0.756998    0.007766    0.039348   -0.004134
H    -0.801530    1.845446    2.289594    0.072110    0.117332    0.058016
11
* Frequency(6) -279.9000
C    -2.125942   -0.314354    0.259521    0.426638    0.307350   -0.048664
H    -1.138259   -1.992015    0.420038   -0.059314   -0.131926    0.067840
H    -1.659470    0.238665    0.123879   -1.083040   -1.190974   -0.283374
O    -0.585634    1.447506    0.236468    0.060498   -0.031038    0.119204
O    -1.674307   -1.420149    0.989846    0.026698   -0.057742    0.062442
H    -2.486996   -0.711624   -0.779107   -0.477754   -0.465562    0.101476
H     0.647698    0.800605    1.824865    0.063814   -0.028276    0.123358
C    -0.038130    1.615791    1.561826   -0.030818   -0.146476    0.162950
O     0.653983    2.746665    1.011850   -0.360184   -0.028788   -0.438794
H    -3.140793    0.114205    0.756676    0.007766    0.039348   -0.004134
H    -0.795903    1.854602    2.294121    0.072110    0.117332    0.058016
11
* Frequency(6) -279.9000
C    -2.106196   -0.300129    0.257269    0.426638    0.307350   -0.048664
H    -1.141005   -1.998121    0.423177   -0.059314   -0.131926    0.067840
H    -1.709595    0.183544    0.110764   -1.083040   -1.190974   -0.283374
O    -0.582834    1.446069    0.241985    0.060498   -0.031038    0.119204
O    -1.673072   -1.422821    0.992736    0.026698   -0.057742    0.062442
H    -2.509107   -0.733171   -0.774410   -0.477754   -0.465562    0.101476
H     0.650651    0.799296    1.830574    0.063814   -0.028276    0.123358
C    -0.039556    1.609012    1.569367   -0.030818   -0.146476    0.162950
O     0.637313    2.745333    0.991542   -0.360184   -0.028788   -0.438794
H    -3.140434    0.116026    0.756484    0.007766    0.039348   -0.004134
H    -0.792566    1.860033    2.296806    0.072110    0.117332    0.058016
11
* Frequency(6) -279.9000
C    -2.102137   -0.297205    0.256806    0.426638    0.307350   -0.048664
H    -1.141569   -1.999376    0.423823   -0.059314   -0.131926    0.067840
H    -1.719899    0.172213    0.108068   -1.083040   -1.190974   -0.283374
O    -0.582258    1.445774    0.243119    0.060498   -0.031038    0.119204
O    -1.672818   -1.423371    0.993330    0.026698   -0.057742    0.062442
H    -2.513653   -0.737600   -0.773445   -0.477754   -0.465562    0.101476
H     0.651259    0.799027    1.831748    0.063814   -0.028276    0.123358
C    -0.039849    1.607619    1.570918   -0.030818   -0.146476    0.162950
O     0.633886    2.745059    0.987367   -0.360184   -0.028788   -0.438794
H    -3.140360    0.116401    0.756445    0.007766    0.039348   -0.004134
H    -0.791880    1.861149    2.297358    0.072110    0.117332    0.058016
11
* Frequency(6) -279.9000
C    -2.114204   -0.305898    0.258182    0.426638    0.307350   -0.048664
H    -1.139891   -1.995645    0.421904   -0.059314   -0.131926    0.067840
H    -1.689267    0.205898    0.116083   -1.083040   -1.190974   -0.283374
O    -0.583969    1.446652    0.239747    0.060498   -0.031038    0.119204
O    -1.673573   -1.421738    0.991564    0.026698   -0.057742    0.062442
H    -2.500140   -0.724432   -0.776315   -0.477754   -0.465562    0.101476
H     0.649454    0.799827    1.828259    0.063814   -0.028276    0.123358
C    -0.038978    1.611761    1.566309   -0.030818   -0.146476    0.162950
O     0.644074    2.745873    0.999777   -0.360184   -0.028788   -0.438794
H    -3.140580    0.115288    0.756562    0.007766    0.039348   -0.004134
H    -0.793919    1.857830    2.295717    0.072110    0.117332    0.058016
11
* Frequency(6) -279.9000
C    -2.141089   -0.325266    0.261249    0.426638    0.307350   -0.048664
H    -1.136154   -1.987331    0.417629   -0.059314   -0.131926    0.067840
H    -1.621016    0.280950    0.133940   -1.083040   -1.190974   -0.283374
O    -0.587782    1.448608    0.232235    0.060498   -0.031038    0.119204
O    -1.675255   -1.418099    0.987629    0.026698   -0.057742    0.062442
H    -2.470033   -0.695094   -0.782710   -0.477754   -0.465562    0.101476
H     0.645432    0.801609    1.820485    0.063814   -0.028276    0.123358
C    -0.037036    1.620992    1.556040   -0.030818   -0.146476    0.162950
O     0.666771    2.747687    1.027429   -0.360184   -0.028788   -0.438794
H    -3.141069    0.112808    0.756822    0.007766    0.039348   -0.004134
H    -0.798463    1.850436    2.292061    0.072110    0.117332    0.058016
11
* Frequency(6) -279.9000
C    -2.179880   -0.353211    0.265673    0.426638    0.307350   -0.048664
H    -1.130761   -1.975336    0.411461   -0.059314   -0.131926    0.067840
H    -1.522545    0.389236    0.159705   -1.083040   -1.190974   -0.283374
O    -0.593282    1.451430    0.221397    0.060498   -0.031038    0.119204
O    -1.677683   -1.412849    0.981952    0.026698   -0.057742    0.062442
H    -2.426595   -0.652764   -0.791936   -0.477754   -0.465562    0.101476
H     0.639630    0.804180    1.809269    0.063814   -0.028276    0.123358
C    -0.034234    1.634310    1.541224   -0.030818   -0.146476    0.162950
O     0.699520    2.750304    1.067325   -0.360184   -0.028788   -0.438794
H    -3.141775    0.109231    0.757198    0.007766    0.039348   -0.004134
H    -0.805020    1.839768    2.286786    0.072110    0.117332    0.058016
11
* Frequency(6) -279.9000
C    -2.226372   -0.386704    0.270977    0.426638    0.307350   -0.048664
H    -1.124297   -1.960960    0.404068   -0.059314   -0.131926    0.067840
H    -1.404522    0.519020    0.190585   -1.083040   -1.190974   -0.283374
O    -0.599875    1.454812    0.208407    0.060498   -0.031038    0.119204
O    -1.680592   -1.406556    0.975147    0.026698   -0.057742    0.062442
H    -2.374533   -0.602030   -0.802994   -0.477754   -0.465562    0.101476
H     0.632676    0.807261    1.795826    0.063814   -0.028276    0.123358
C    -0.030875    1.650272    1.523467   -0.030818   -0.146476    0.162950
O     0.738770    2.753442    1.115142   -0.360184   -0.028788   -0.438794
H    -3.142622    0.104943    0.757649    0.007766    0.039348   -0.004134
H    -0.812878    1.826982    2.280464    0.072110    0.117332    0.058016
11
* Frequency(6) -279.9000
C    -2.275528   -0.422116    0.276583    0.426638    0.307350   -0.048664
H    -1.117463   -1.945760    0.396252   -0.059314   -0.131926    0.067840
H    -1.279738    0.656240    0.223235   -1.083040   -1.190974   -0.283374
O    -0.606845    1.458388    0.194673    0.060498   -0.031038    0.119204
O    -1.683668   -1.399904    0.967953    0.026698   -0.057742    0.062442
H    -2.319487   -0.548390   -0.814686   -0.477754   -0.465562    0.101476
H     0.625324    0.810519    1.781614    0.063814   -0.028276    0.123358
C    -0.027325    1.667148    1.504693   -0.030818   -0.146476    0.162950
O     0.780270    2.756758    1.165698   -0.360184   -0.028788   -0.438794
H    -3.143516    0.100409    0.758125    0.007766    0.039348   -0.004134
H    -0.821186    1.813464    2.273780    0.072110    0.117332    0.058016
11
* Frequency(6) -279.9000
C    -2.322020   -0.455609    0.281887    0.426638    0.307350   -0.048664
H    -1.110999   -1.931384    0.388859   -0.059314   -0.131926    0.067840
H    -1.161715    0.786024    0.254115   -1.083040   -1.190974   -0.283374
O    -0.613438    1.461770    0.181683    0.060498   -0.031038    0.119204
O    -1.686577   -1.393611    0.961148    0.026698   -0.057742    0.062442
H    -2.267425   -0.497656   -0.825744   -0.477754   -0.465562    0.101476
H     0.618370    0.813600    1.768171    0.063814   -0.028276    0.123358
C    -0.023966    1.683110    1.486936   -0.030818   -0.146476    0.162950
O     0.819520    2.759896    1.213515   -0.360184   -0.028788   -0.438794
H    -3.144363    0.096121    0.758576    0.007766    0.039348   -0.004134
H    -0.829044    1.800678    2.267458    0.072110    0.117332    0.058016
11
* Frequency(6) -279.9000
C    -2.360811   -0.483554    0.286311    0.426638    0.307350   -0.048664
H    -1.105606   -1.919389    0.382691   -0.059314   -0.131926    0.067840
H    -1.063244    0.894310    0.279880   -1.083040   -1.190974   -0.283374
O    -0.618938    1.464592    0.170845    0.060498   -0.031038    0.119204
O    -1.689005   -1.388361    0.955471    0.026698   -0.057742    0.062442
H    -2.223987   -0.455326   -0.834970   -0.477754   -0.465562    0.101476
H     0.612568    0.816171    1.756955    0.063814   -0.028276    0.123358
C    -0.021164    1.696428    1.472120   -0.030818   -0.146476    0.162950
O     0.852269    2.762513    1.253411   -0.360184   -0.028788   -0.438794
H    -3.145069    0.092544    0.758952    0.007766    0.039348   -0.004134
H    -0.835601    1.790010    2.262183    0.072110    0.117332    0.058016
11
* Frequency(6) -279.9000
C    -2.387696   -0.502922    0.289378    0.426638    0.307350   -0.048664
H    -1.101869   -1.911075    0.378416   -0.059314   -0.131926    0.067840
H    -0.994993    0.969362    0.297737   -1.083040   -1.190974   -0.283374
O    -0.622751    1.466548    0.163333    0.060498   -0.031038    0.119204
O    -1.690687   -1.384722    0.951536    0.026698   -0.057742    0.062442
H    -2.193880   -0.425988   -0.841365   -0.477754   -0.465562    0.101476
H     0.608546    0.817953    1.749181    0.063814   -0.028276    0.123358
C    -0.019222    1.705659    1.461851   -0.030818   -0.146476    0.162950
O     0.874966    2.764327    1.281063   -0.360184   -0.028788   -0.438794
H    -3.145558    0.090064    0.759212    0.007766    0.039348   -0.004134
H    -0.840145    1.782616    2.258527    0.072110    0.117332    0.058016
11
* Frequency(6) -279.9000
C    -2.399763   -0.511615    0.290754    0.426638    0.307350   -0.048664
H    -1.100191   -1.907344    0.376497   -0.059314   -0.131926    0.067840
H    -0.964361    1.003047    0.305752   -1.083040   -1.190974   -0.283374
O    -0.624462    1.467426    0.159961    0.060498   -0.031038    0.119204
O    -1.691442   -1.383089    0.949770    0.026698   -0.057742    0.062442
H    -2.180367   -0.412820   -0.844235   -0.477754   -0.465562    0.101476
H     0.606741    0.818753    1.745692    0.063814   -0.028276    0.123358
C    -0.018351    1.709801    1.457242   -0.030818   -0.146476    0.162950
O     0.885154    2.765141    1.293473   -0.360184   -0.028788   -0.438794
H    -3.145778    0.088951    0.759329    0.007766    0.039348   -0.004134
H    -0.842184    1.779297    2.256886    0.072110    0.117332    0.058016
11
* Frequency(6) -279.9000
C    -2.395704   -0.508691    0.290291    0.426638    0.307350   -0.048664
H    -1.100755   -1.908599    0.377143   -0.059314   -0.131926    0.067840
H    -0.974665    0.991716    0.303056   -1.083040   -1.190974   -0.283374
O    -0.623886    1.467131    0.161095    0.060498   -0.031038    0.119204
O    -1.691188   -1.383639    0.950364    0.026698   -0.057742    0.062442
H    -2.184913   -0.417249   -0.843270   -0.477754   -0.465562    0.101476
H     0.607349    0.818484    1.746866    0.063814   -0.028276    0.123358
C    -0.018644    1.708408    1.458793   -0.030818   -0.146476    0.162950
O     0.881727    2.764867    1.289298   -0.360184   -0.028788   -0.438794
H    -3.145704    0.089326    0.759290    0.007766    0.039348   -0.004134
H    -0.841498    1.780413    2.257438    0.072110    0.117332    0.058016
11
* Frequency(6) -279.9000
C    -2.375958   -0.494466    0.288039    0.426638    0.307350   -0.048664
H    -1.103501   -1.914705    0.380282   -0.059314   -0.131926    0.067840
H    -1.024790    0.936595    0.289941   -1.083040   -1.190974   -0.283374
O    -0.621086    1.465694    0.166612    0.060498   -0.031038    0.119204
O    -1.689953   -1.386311    0.953254    0.026698   -0.057742    0.062442
H    -2.207024   -0.438796   -0.838573   -0.477754   -0.465562    0.101476
H     0.610302    0.817175    1.752575    0.063814   -0.028276    0.123358
C    -0.020070    1.701629    1.466334   -0.030818   -0.146476    0.162950
O     0.865057    2.763535    1.268990   -0.360184   -0.028788   -0.438794
H    -3.145345    0.091147    0.759098    0.007766    0.039348   -0.004134
H    -0.838161    1.785844    2.260123    0.072110    0.117332    0.058016
11
* Frequency(6) -279.9000
C    -2.342666   -0.470482    0.284242    0.426638    0.307350   -0.048664
H    -1.108129   -1.924999    0.385576   -0.059314   -0.131926    0.067840
H    -1.109304    0.843659    0.267828   -1.083040   -1.190974   -0.283374
O    -0.616366    1.463272    0.175914    0.060498   -0.031038    0.119204
O    -1.687869   -1.390817    0.958127    0.026698   -0.057742    0.062442
H    -2.244305   -0.475126   -0.830655   -0.477754   -0.465562    0.101476
H     0.615282    0.814969    1.762201    0.063814   -0.028276    0.123358
C    -0.022475    1.690199    1.479050   -0.030818   -0.146476    0.162950
O     0.836950    2.761289    1.234749   -0.360184   -0.028788   -0.438794
H    -3.144738    0.094217    0.758776    0.007766    0.039348   -0.004134
H    -0.832534    1.795000    2.264650    0.072110    0.117332    0.058016
11
* Frequency(6) -279.9000
C    -2.299435   -0.439339    0.279310    0.426638    0.307350   -0.048664
H    -1.114139   -1.938367    0.392450   -0.059314   -0.131926    0.067840
H    -1.219048    0.722978    0.239114   -1.083040   -1.190974   -0.283374
O    -0.610235    1.460127    0.187993    0.060498   -0.031038    0.119204
O    -1.685164   -1.396668    0.964454    0.026698   -0.057742    0.062442
H    -2.292716   -0.522301   -0.820372   -0.477754   -0.465562    0.101476
H     0.621748    0.812103    1.774701    0.063814   -0.028276    0.123358
C    -0.025598    1.675356    1.495562   -0.030818   -0.146476    0.162950
O     0.800453    2.758372    1.190287   -0.360184   -0.028788   -0.438794
H    -3.143952    0.098204    0.758357    0.007766    0.039348   -0.004134
H    -0.825227    1.806889    2.270529    0.072110    0.117332    0.058016
11
* Frequency(6) -279.9000
C    -2.250950   -0.404410    0.273780    0.426638    0.307350   -0.048664
H    -1.120880   -1.953360    0.400160   -0.059314   -0.131926    0.067840
H    -1.342130    0.587630    0.206910   -1.083040   -1.190974   -0.283374
O    -0.603360    1.456600    0.201540    0.060498   -0.031038    0.119204
O    -1.682130   -1.403230    0.971550    0.026698   -0.057742    0.062442
H    -2.347010   -0.575210   -0.808840   -0.477754   -0.465562    0.101476
H     0.629000    0.808890    1.788720    0.063814   -0.028276    0.123358
C    -0.029100    1.658710    1.514080   -0.030818   -0.146476    0.162950
O     0.759520    2.755100    1.140420   -0.360184   -0.028788   -0.438794
H    -3.143069    0.102676    0.757887    0.007766    0.039348   -0.004134
H    -0.817032    1.820223    2.277122    0.072110    0.117332    0.058016
