11
Coordinates from ORCA-job job.QMRegion
  C          -2.25766806641508     -0.37075103250915      0.03636344686330
  H          -1.25244714324972     -2.03886343794849      0.04059881047113
  H          -1.44043724197509      0.43542055230785      0.00496355999050
  O          -0.39128786617999      1.54469797506863      0.33455904590262
  O          -1.77317480601392     -1.52358541957561      0.67110205035145
  H          -2.51357215620992     -0.53684919491977     -1.02163331737792
  H           0.56117475745953      0.63083993455831      1.96876886831009
  C          -0.03676561430116      1.51399249547348      1.70015873442724
  O           0.70932162986427      2.55133777993121      1.13673496514078
  H          -3.08810632699615      0.07401537974992      0.56319389428745
  H          -0.81844358338198      1.76091128297464      2.42503821918377
