31
Coordinates from ORCA-job job
  C          -2.34138449490927     -0.28358252052233     -0.08109611963355
  H          -1.30502085619018     -1.86990836097255     -0.42919631653868
  H          -1.41054234685740      0.60270916543031      0.16988877947306
  O          -0.30534011784039      1.41001716072234      0.35412458584135
  O          -1.87748335899023     -1.50348833945571      0.26302021148986
  H          -2.38797509943364     -0.05605057145709     -1.15513197124085
  H           0.31032311422166      0.29332137891971      2.01348680613823
  C          -0.00642281249060      1.33467323222777      1.74434830639818
  O           1.04720874475120      2.17625245834237      1.99267042666361
  H          -5.76674532944597      2.69664366050703      0.67328027413795
  H          -3.90515274566327      1.80247941573151     -0.67502828279672
  C          -3.41459236170511      0.26082184154161      0.74258610126059
  C          -3.71507222593882     -0.29846517257272      1.99464013754563
  C          -4.75258168293318      0.21188969696333      2.74233567950801
  C          -5.48756715447458      1.29268259207009      2.26873220991658
  C          -5.19041062006591      1.85977994980274      1.03372974170082
  C          -4.15376294386687      1.36170533407166      0.27727159884516
  H          -3.13244095864909     -1.13500917072008      2.34567599335103
  H          -4.98877946459462     -0.22218191917980      3.70033873644355
  H          -6.28993230610445      1.69739706152670      2.86486098741335
  H          -0.71349975145021      0.31235278739137      4.16174482757572
  C          -1.16367704918384      1.75600074693442      2.65238016777499
  C          -1.96078636929138      2.83192676013623      2.29124688775831
  C          -2.94662023764695      3.28220253474153      3.15108222776362
  C          -3.13454803325685      2.66433305661745      4.37573308866535
  C          -2.33399149403422      1.59464442135207      4.73924949178660
  C          -1.34855312767038      1.13977376601255      3.88017540825639
  H          -1.79006676976018      3.31012020536729      1.33767722770118
  H          -3.56116031452265      4.12133051553622      2.86350168155529
  H          -3.89777768012127      3.02126974835362      5.04968553377448
  H          -2.47202175958124      1.11183415388018      5.69449471897093
