31
Coordinates from ORCA-job job
  C          -2.32361416363260     -0.26182628109641     -0.02879924412726
  H          -1.30148278860708     -1.87505312739592     -0.32699860459980
  H          -1.44945917824621      0.58078102868512      0.17611350273882
  O          -0.27190612807322      1.44817232878423      0.33832756677835
  O          -1.87342300158305     -1.49091456822860      0.35480839970962
  H          -2.41861071741008     -0.10450181030150     -1.11335729766302
  H           0.38533232125503      0.34440652894222      1.99238813912653
  C           0.04361221291972      1.37540221330524      1.72269762903554
  O           1.07747081327531      2.24335591450628      1.95571799419305
  H          -5.79930766109798      2.69488249289014      0.62151053148433
  H          -3.89396578985946      1.80802651730130     -0.66870381149228
  C          -3.42939190225093      0.28127615782181      0.77095222264560
  C          -3.75743852399252     -0.27168542997860      2.01614564359393
  C          -4.82025375432092      0.23296594635216      2.73287631548805
  C          -5.55257362481772      1.30365339802225      2.23362646786597
  C          -5.22633384885252      1.86547551661530      1.00404495965542
  C          -4.16493865420635      1.37061375570480      0.27922595653915
  H          -3.17684909424798     -1.10067416282165      2.38772370325416
  H          -5.07853544481805     -0.19926111236737      3.68604938607311
  H          -6.37378116100258      1.70538271077722      2.80567733401456
  H          -0.64256653819456      0.31173968912351      4.13634071891915
  C          -1.11694778652940      1.77050613348346      2.64723072539703
  C          -1.93247115695521      2.83305188700665      2.29270663940134
  C          -2.93616327395071      3.24524990125247      3.15192638731867
  C          -3.11738097674144      2.60524016073934      4.36571333485674
  C          -2.29519914700726      1.54923945936270      4.71971348301263
  C          -1.29190010079069      1.12976996065950      3.86221737826372
  H          -1.76693324670327      3.32773312719140      1.34716373854828
  H          -3.56863826141238      4.07266352956980      2.87021330469846
  H          -3.89377049638774      2.93409518078817      5.03869371340034
  H          -2.42895653345803      1.04770854260483      5.66556292936978
