11
Coordinates from ORCA-job job.QMRegion
  C          -2.34138449490927     -0.28358252052233     -0.08109611963355
  H          -1.30502085619018     -1.86990836097255     -0.42919631653868
  H          -1.41054234685740      0.60270916543031      0.16988877947306
  O          -0.30534011784039      1.41001716072234      0.35412458584135
  O          -1.87748335899023     -1.50348833945571      0.26302021148986
  H          -2.38797509943364     -0.05605057145709     -1.15513197124085
  H           0.31032311422166      0.29332137891971      2.01348680613823
  C          -0.00642281249060      1.33467323222777      1.74434830639818
  O           1.04720874475120      2.17625245834237      1.99267042666361
  H          -3.11246342977309      0.10756140287134      0.51070350204603
  H          -0.85310866787549      1.64293051561083      2.40869474721432
