11
Coordinates from ORCA-job job.QMRegion
  C          -2.32361416363260     -0.26182628109641     -0.02879924412726
  H          -1.30148278860708     -1.87505312739592     -0.32699860459980
  H          -1.44945917824621      0.58078102868512      0.17611350273882
  O          -0.27190612807322      1.44817232878423      0.33832756677835
  O          -1.87342300158305     -1.49091456822860      0.35480839970962
  H          -2.41861071741008     -0.10450181030150     -1.11335729766302
  H           0.38533232125503      0.34440652894222      1.99238813912653
  C           0.04361221291972      1.37540221330524      1.72269762903554
  O           1.07747081327531      2.24335591450628      1.95571799419305
  H          -3.11809391659564      0.12838223589228      0.54580659714012
  H          -0.80549224891992      1.66447343898328      2.39911692455804
