31
Coordinates from ORCA-job job
  C          -2.20602451279770     -0.40020259881435      0.20680043159119
  H          -1.11219888051486     -1.99168479457600      0.47569707739117
  H          -1.43965407946909      0.44113050277245      0.04344912449022
  O          -0.46708878221536      1.65508986622681      0.20119306972414
  O          -1.64919620715096     -1.40038344035794      1.01991824214371
  H          -2.43040525360809     -0.75619947874392     -0.81236246986856
  H           0.53861568802462      1.04485725045010      1.94211535444470
  C          -0.11539319891286      1.83888004926524      1.55467594004651
  O           0.56028853039764      2.83434500332042      0.84539927551568
  H          -5.76403680633392      2.55414430692179      0.08683592559051
  H          -3.78444588861284      1.46365007194180     -0.89443660563700
  C          -3.40517069836607      0.24786737665590      0.82562145305273
  C          -3.81489723939653     -0.07531666470427      2.11262703119978
  C          -4.92576352050032      0.53814252787079      2.66266228220335
  C          -5.62893565305550      1.48413126258574      1.93731386270913
  C          -5.21985532136173      1.81498378079024      0.65448218848645
  C          -4.11355559540750      1.20158607624703      0.10018543097141
  H          -3.26006821888343     -0.81374904947272      2.66945495878681
  H          -5.23968619423251      0.27779730746955      3.66149264254345
  H          -6.49237599466658      1.96593160837150      2.36921004389041
  H          -0.62300479078316      0.83735895882915      3.99931318773204
  C          -1.20824955148822      2.24181550825552      2.49488434584327
  C          -2.10927988366372      3.23364806830224      2.13052068264506
  C          -3.12225748344312      3.59539821313236      2.99852627171675
  C          -3.23621254925888      2.96944405252513      4.22878262240959
  C          -2.33805451919332      1.97963296523158      4.59173423397743
  C          -1.32322114656779      1.61228435115372      3.72631770428093
  H          -2.00223015381800      3.70997537169721      1.16709089101621
  H          -3.82233811183547      4.36461748069931      2.71260522875905
  H          -4.02779407869614      3.25307835015151      4.90470603368417
  H          -2.42831450525096      1.49091118835658      5.54915446230407
