11
Coordinates from ORCA-job job.QMRegion
  C          -2.20602451279770     -0.40020259881435      0.20680043159119
  H          -1.11219888051486     -1.99168479457600      0.47569707739117
  H          -1.43965407946909      0.44113050277245      0.04344912449022
  O          -0.46708878221536      1.65508986622681      0.20119306972414
  O          -1.64919620715096     -1.40038344035794      1.01991824214371
  H          -2.43040525360809     -0.75619947874392     -0.81236246986856
  H           0.53861568802462      1.04485725045010      1.94211535444470
  C          -0.11539319891286      1.83888004926524      1.55467594004651
  O           0.56028853039764      2.83434500332042      0.84539927551568
  H          -3.13229283618539      0.10039248862464      0.68480246080546
  H          -0.90100666930656      2.12853524826377      2.23055652291605
