31
Coordinates from ORCA-job job
  C          -2.25766806641508     -0.37075103250915      0.03636344686330
  H          -1.25244714324972     -2.03886343794849      0.04059881047113
  H          -1.44043724197509      0.43542055230785      0.00496355999050
  O          -0.39128786617999      1.54469797506863      0.33455904590262
  O          -1.77317480601392     -1.52358541957561      0.67110205035145
  H          -2.51357215620992     -0.53684919491977     -1.02163331737792
  H           0.56117475745953      0.63083993455831      1.96876886831009
  C          -0.03676561430116      1.51399249547348      1.70015873442724
  O           0.70932162986427      2.55133777993121      1.13673496514078
  H          -5.62076931362140      2.78625824935377      0.43348631482536
  H          -3.71916205528997      1.74072076438052     -0.73383103545778
  C          -3.41349379818825      0.24828651467439      0.76961986858493
  C          -3.83761555551608     -0.24696401727978      1.99547152206452
  C          -4.90501959949999      0.34110149945520      2.64966146697024
  C          -5.54843208158038      1.43168835419733      2.09096310374732
  C          -5.12336102241348      1.93406055072889      0.87057498318673
  C          -4.06093677015254      1.34685452770509      0.21185014976551
  H          -3.32933751412047     -1.09714160161841      2.42206712493011
  H          -5.23173229713281     -0.05264232977446      3.59951159251712
  H          -6.37752937658201      1.89301736029956      2.60473483187523
  H          -0.62652172887256      0.21067401693408      3.97814257991298
  C          -1.10516676414361      1.85148226353507      2.69092744692117
  C          -1.93442752225814      2.94426108133219      2.47485480931516
  C          -2.92594701324570      3.24705897551375      3.38894883202341
  C          -3.09014226652940      2.46155327874373      4.51780458312266
  C          -2.26379167801474      1.37112725288592      4.73286358390638
  C          -1.27079342291557      1.06238681415814      3.82051672365470
  H          -1.78902200018448      3.54457480520954      1.58882965715348
  H          -3.57008403433443      4.09523059286567      3.21790606439922
  H          -3.86492274377228      2.69937798002572      5.22989600579395
  H          -2.39331254231059      0.75826900358760      5.61109277420842
