34
Coordinates from ORCA-job job
  C          -2.19842661721097     -0.75129969433436     -0.04821678172861
  H          -1.74640868696497      0.29589830047554     -1.62295529520527
  H          -2.54718048089776     -1.65406629149425     -0.57925027483067
  C          -3.34522153154522      1.44461756732783      0.43499139932467
  O          -1.26208236798700     -0.02441191065976     -0.84598986075867
  H          -1.64183130231107     -1.08329140919623      0.84037914655211
  H          -6.46663573405743      2.09796648299507      1.55179087391610
  H          -4.60526081307539     -1.66723106331824      0.77385347997921
  H          -6.56430319034487     -0.36730386334311      1.51027201582069
  H          -4.39673627701170      3.25491000586541      0.86021598863998
  H          -2.43618283405458      1.94232558196463      0.13225955202485
  C          -3.39629780911026      0.05807988640212      0.40310089260780
  C          -4.56280887860718     -0.58783950645471      0.79482670845734
  C          -5.66183605601469      0.14339256575901      1.20939183801505
  C          -5.60697374115681      1.52801863527495      1.23229032435519
  C          -4.44602790556757      2.17653487707890      0.84519899745610
  C          -4.58020093061262      0.50078568475797     -2.88394268584205
  O          -3.97144256914226     -1.71483025871855     -3.24137222485827
  H          -4.65419001313141     -2.40598425128349     -3.34832857355456
  O          -3.25967533400211      1.01023753944199     -2.84640685894057
  O          -4.70866960712804     -0.57475263092669     -3.80166911687114
  H          -4.78814497834262      0.14976367058004     -1.86648586074158
  H          -3.10420308239924      1.52713815877692     -3.65237065402548
  H          -6.22291992176430      1.99133248053016     -1.34758842184849
  C          -5.59106799047367      1.53230458888451     -3.33703876835593
  C          -5.74035046377234      1.81547440258065     -4.68847990641416
  C          -6.65024951814864      2.77629015725008     -5.09520435793710
  C          -7.40197957940991      3.46242766417105     -4.15622639177244
  C          -7.24874332180132      3.18272657356382     -2.80810633662358
  C          -6.34818147006854      2.21577072717648     -2.39618614742202
  H          -5.15987564956415      1.26945936004393     -5.41664511367460
  H          -6.76950732930406      2.98862719280951     -6.14630011573749
  H          -8.10819396480764      4.21338718133386     -4.47505473614613
  H          -7.83369813560953      3.71519128918494     -2.07458279356016
