14
Coordinates from ORCA-job job.QMRegion
  C          -2.19842661721097     -0.75129969433436     -0.04821678172861
  H          -1.74640868696497      0.29589830047554     -1.62295529520527
  H          -2.54718048089776     -1.65406629149425     -0.57925027483067
  O          -1.26208236798700     -0.02441191065976     -0.84598986075867
  H          -1.64183130231107     -1.08329140919623      0.84037914655211
  C          -4.58020093061262      0.50078568475797     -2.88394268584205
  O          -3.97144256914226     -1.71483025871855     -3.24137222485827
  H          -4.65419001313141     -2.40598425128349     -3.34832857355456
  O          -3.25967533400211      1.01023753944199     -2.84640685894057
  O          -4.70866960712804     -0.57475263092669     -3.80166911687114
  H          -4.78814497834262      0.14976367058004     -1.86648586074158
  H          -3.10420308239924      1.52713815877692     -3.65237065402548
  H          -3.06873985500270     -0.16324501176336      0.27968804566904
  H          -5.31216683324245      1.24770552785039     -3.21202824346315
