140
Coordinates from ORCA-job job
  C           0.63315610041302      4.70582631070882     -0.19140503978998
  C          -4.37261153328434      3.18969134456336      0.44495526224885
  C          -5.04669540581289     -1.82335660914088     -0.65091360397681
  C          -0.73939089065171     -4.82578584766012     -0.66526971830890
  C           4.24161420762195     -3.29108024865412     -0.00116334882400
  C           4.93295751574132      1.73596873748435     -0.85415227822662
  O          -0.31475756690304      3.67156177356853     -0.09731962453575
  O          -4.31519032030715      2.19846976051259     -0.52949377989507
  O          -3.65891782734452     -1.98288002910204     -0.85556098947421
  O           0.12426968192940     -3.73250392928639     -0.45194479918293
  O           4.25159388290203     -2.29308116062740     -0.97047985833926
  O           3.53638995198404      1.88759048675954     -0.96280251800197
  C           1.21590389336882      4.72498872485921     -1.61573323401731
  C          -3.98462873717738      4.51756840824060     -0.23198051017972
  C          -5.63090123454387     -1.01171938690809     -1.81766427724870
  C          -1.38309408791926     -4.67277073812334     -2.05327165240509
  C           3.79567583058147     -4.58590503448093     -0.70701018546462
  C           5.45213517932560      1.01689306781208     -2.10844538691585
  O           0.23718894769653      4.88160527972368     -2.60679930532760
  O          -4.83747956082700      4.83696814367947     -1.29367496538590
  O          -5.43639874016612     -1.63727527780656     -3.05599481742475
  O          -0.44557808027788     -4.66471852647177     -3.09476356107331
  O           4.62493032027240     -4.91246593108209     -1.78442025226320
  O           5.14095939943502      1.71367250747203     -3.28424464760205
  C           1.93454341521650      3.39152782845907     -1.84710839643216
  C          -2.52791282852002      4.43310373994822     -0.71701028607320
  C          -5.00883995683778      0.39012196681011     -1.79376988784990
  C          -2.13225007323941     -3.33604361934670     -2.05511105693883
  C           2.33892997294043     -4.43300044950408     -1.17982429101760
  C           4.89125137570892     -0.41197157384416     -2.14010503105626
  O           2.58830255413792      3.34429659170593     -3.09035665252462
  O          -2.10375305191744      5.67902193608963     -1.22787264332258
  O          -5.61363262324069      1.23098721206456     -2.74389726423296
  O          -2.84477215736177     -3.11841167361441     -3.24806332819841
  O           1.88451351375871     -5.64198034065262     -1.75012179608553
  O           5.52011547882796     -1.17293716388734     -3.14336169658143
  C           2.99001902818234      3.18254428395234     -0.75864843741316
  C          -1.58855530442745      4.00863682175859      0.42251308620112
  C          -5.16145572255049      1.05898618645778     -0.42008637652120
  C          -3.14467200335695     -3.30775911499284     -0.90660943069819
  C           1.42892832431173     -4.02659988157879     -0.00556820444437
  C           5.09222384344848     -1.15630467413338     -0.81064790060722
  C           2.38167508433242      3.32876135002395      0.64702975381074
  C          -2.15313292010161      2.74798705876902      1.08259727350537
  C          -4.77434364921063      0.11555241027103      0.73725522313216
  C          -2.51186760409909     -3.70260896310082      0.43948898465997
  C           2.03939151590078     -2.74687081255497      0.59638260670420
  C           4.73964229129710     -0.28259473503957      0.41030676082919
  O           1.65287730090667      4.55076851965934      0.75469203872593
  O          -3.48885077947366      2.93647790613502      1.51910578785040
  O          -5.31437895025980     -1.19846629023889      0.56498385170615
  O          -1.73074374801668     -4.89130353853753      0.32143995260404
  O           3.34945524641829     -3.00402454594932      1.05705493837775
  O           5.29468540376917      1.02904476699069      0.29199114096476
  C           3.48104542097890      3.38621735689421      1.71739426656737
  C          -1.36548537422466      2.32492395453041      2.31648231112886
  C          -5.34195657968226      0.56712255006311      2.09605861840235
  C          -3.59075350019837     -3.98894781736145      1.49387465526114
  C           1.24704587940867     -2.10797337228192      1.70805141737608
  C           5.32743428308334     -0.80674810616958      1.73444695337207
  O           4.33502666288708      4.48645035543452      1.53074193986621
  O          -1.69640252657764      1.09848300118838      2.65287297850506
  O          -6.71411206409655      0.85732707373683      2.03653673095263
  O          -4.48767398080512     -4.98776543717481      1.08237821369371
  O           2.00722608556312     -1.68566291582512      2.69603335846051
  O           6.68858580627620     -1.13122185097035      1.62901317831661
  H           0.17532240835495      5.67546617951239      0.04051865483792
  H          -5.36935312080069      3.25966456322281      0.89930271732749
  H          -5.54128798201045     -2.80067181476837     -0.58663504113397
  H          -0.19917396991169     -5.77657439394874     -0.59490571195811
  H           5.22510361240758     -3.41679106141794      0.46914625404620
  H           5.41943965310015      2.71448648394189     -0.75134692596571
  H           1.94806512534426      5.54628331932590     -1.67493406172081
  H          -4.07622429600862      5.32694237641768      0.50001827046069
  H          -6.71480332588783     -0.92554268861634     -1.68399030815282
  H          -2.09986163682428     -5.49709294866390     -2.19680221817409
  H           3.85976474097671     -5.41783353702312      0.00250696016226
  H           6.54570696108615      0.96670329907476     -2.05763847617379
  H          -0.54171536621433      5.33888843845639     -2.23583729564116
  H          -4.96778525763395      4.04689596624846     -1.84376385891051
  H          -4.53014899327622     -1.99354264130100     -3.12183160842878
  H           0.34675815382921     -5.16414747343430     -2.82423851739766
  H           4.79374728114593     -4.10861457612065     -2.30331554543285
  H           4.23475885098569      2.06999010749476     -3.23315266895210
  H           1.18244715526399      2.59180766707336     -1.78034507520480
  H          -2.46251742625031      3.66528495229008     -1.50249063045868
  H          -3.93054345104184      0.30179959558410     -1.99977282745800
  H          -1.38804242667994     -2.54061656068678     -1.90649612766387
  H           2.29134811065871     -3.62750146787662     -1.92823847214339
  H           3.80779110255123     -0.36635585741778     -2.32423071523264
  H           1.96086511149493      3.62659726734629     -3.77438907485056
  H          -2.85174720018002      6.06892405733980     -1.71272241403700
  H          -5.69150620652145      0.74059394706717     -3.57791550703244
  H          -2.24374487503551     -3.28263370318410     -3.99148761288963
  H           2.63570172247298     -6.03727924057307     -2.22649608823594
  H           5.49212241094805     -0.66518484438597     -3.96935576511382
  H           3.77388758025437      3.94104556117304     -0.88433330370943
  H          -1.50220937017118      4.81285827879684      1.16419392317312
  H          -6.20238479366894      1.38719198392071     -0.28973503969626
  H          -3.95151486739712     -4.01328276464715     -1.14417794477094
  H           1.40891004717761     -4.82451572663051      0.74964599859149
  H           6.13834768295861     -1.48382488995546     -0.72923849890669
  H           1.71602199272922      2.47998514371594      0.84655854118721
  H          -2.09472456412234      1.91898327490459      0.36182554235479
  H          -3.68043529800071      0.06414966098654      0.80107622032399
  H          -1.86809231928945     -2.88843653880034      0.78902070206687
  H           2.04842772975894     -1.97916277851063     -0.20482051411622
  H           3.64829451274894     -0.21110553202048      0.49834441393002
  H           4.10173280048725      2.49230159707246      1.64065454907095
  H           3.01289202950996      3.41320540402477      2.70698607698389
  H          -5.14500356487508     -0.23678972394939      2.81351468972759
  H          -4.83789740319194      1.47246932768490      2.43082108395539
  H          -4.18314945916944     -3.08613777310717      1.65432308613334
  H          -3.09405738541168     -4.27032725594270      2.42844338137913
  H           5.16900248662769     -0.02355578713491      2.48452458634782
  H           4.80431160194143     -1.70758739747558      2.05060040321894
  H           3.81738498880429      5.29393576204282      1.66343044461967
  H          -7.19571291703198      0.03527290339616      1.86489209189905
  H          -4.00345625136527     -5.82291130406005      1.00775959522497
  H           7.18905657724403     -0.31619931149240      1.48001075027443
  C           1.33922830999725     -0.91482387022010      3.69423480047324
  H           2.12217625680626     -0.39605150797879      4.25952017694112
  H           0.76072238978106     -1.56570495311187      4.35715014154152
  O           0.04507418995852     -1.91539037020650      1.68084650343224
  C          -0.91449062073213      0.41969585081906      3.62163487691283
  H          -1.46098937764979     -0.49154461083855      3.87159511273762
  H          -0.74399003641180      1.02493386709623      4.52513855598576
  O          -0.60437998241510      3.03796511912547      2.93080507523658
  C           0.44479054057934      0.11077011245249      3.00621547335022
  O           0.80844073718412      0.68419410802669      1.99523368851356
  H          -0.91397525571322     -0.88658794116529      0.45523854268563
  O          -1.34535118777530     -0.31148894930065     -0.19845980634047
  H           0.59719612098469     -0.04396359208852     -1.08695610992299
  O           1.52689310160059     -0.25873700993583     -1.26039563296938
  H           0.84356009038625      3.13840702538647      3.96471506296421
  O           1.66393745934443      2.95523093730452      4.47133339284280
  O           1.20899348957310      1.88502848430683      5.35347258937867
  H           1.19195824439463      2.33736317421347      6.21846903320122
  H          -2.08194908242428     -0.85472155900945     -0.52696505627988
  H           2.02099889442764      0.55429933993053     -1.07548775778116
