14
Coordinates from ORCA-job job.QMRegion
  C           0.44479054057934      0.11077011245249      3.00621547335022
  O           0.80844073718412      0.68419410802669      1.99523368851356
  H          -0.91397525571322     -0.88658794116529      0.45523854268563
  O          -1.34535118777530     -0.31148894930065     -0.19845980634047
  H           0.59719612098469     -0.04396359208852     -1.08695610992299
  O           1.52689310160059     -0.25873700993583     -1.26039563296938
  H           0.84356009038625      3.13840702538647      3.96471506296421
  O           1.66393745934443      2.95523093730452      4.47133339284280
  O           1.20899348957310      1.88502848430683      5.35347258937867
  H           1.19195824439463      2.33736317421347      6.21846903320122
  H          -2.08194908242428     -0.85472155900945     -0.52696505627988
  H           2.02099889442764      0.55429933993053     -1.07548775778116
  H           1.09169474939476     -0.63099313437288      3.50382706096451
  H          -0.53734238693485      0.33398084209558      3.45087966621435
