19
Coordinates from ORCA-job job.QMRegion
  O          -1.42010484702159      1.03929980644087      2.23820023195984
  O           1.87715237459047     -2.28708999809716      3.07144426887717
  C           0.95763552947162     -1.50656483245079      3.81512391940002
  H           1.54615259929938     -0.86436052294123      4.46398332110794
  H           0.27402323152454     -2.13074982526350      4.39972482089424
  C          -0.82009789784497      0.32077779173660      3.32047032962404
  H          -1.60839105945230     -0.20825712578254      3.85573598701553
  H          -0.32702159913567      1.03178289439026      3.98560760492241
  C           0.12544575885318     -0.73438023947507      2.77862057243115
  O          -0.20006609427121     -1.39174321196737      1.74807505047762
  H           0.35662901120895      0.59770756558072     -0.58739695071586
  O           0.93009321865845      1.19933008504748     -0.06232974786917
  H           1.19291282618603      0.69275680919110      1.11311588401570
  O           1.47759551810545      0.29908561965797      2.13234472120438
  O           1.78937291513646      1.50471391539155      2.89068328212424
  H           2.68758550584898      1.26643631004625      3.19543677753838
  H           1.78065225983196      1.32338311405317     -0.53096104386384
  H          -1.37575601102107      1.98479761104013      2.27122086058054
  H           1.44052789470233     -2.93465340632271      2.51354566534056
