137
Coordinates from ORCA-job job
  C           0.56387779812133      5.14961919046609     -0.06447434175330
  C          -4.36119131471393      3.29062489818726      0.49849401136377
  C          -5.12981809868367     -1.75367762737044     -0.47541860338519
  C          -0.92525247315479     -4.95300384901168     -0.43457603464414
  C           4.07220371956452     -3.22380356874456     -0.06033851645063
  C           4.72369206801626      1.96722007350694     -0.67559019153940
  O          -0.29295850798736      4.03392870807940      0.05163112485823
  O          -4.28855517078684      2.27918314126398     -0.45754417261781
  O          -3.75510461223841     -1.97217530317955     -0.68042389140174
  O           0.05911288841083     -3.95488752303152     -0.36412495889110
  O           3.74748709621466     -2.02348554393095     -0.68877053021129
  O           3.34813734398146      2.27219759451253     -0.75580801101423
  C           1.14966268825840      5.18728543984761     -1.48850064937821
  C          -4.01956907391434      4.62163343420567     -0.20141357864749
  C          -5.66172803952805     -0.94661606406676     -1.67155015746329
  C          -1.64849563937294     -4.83381988250685     -1.78814616186687
  C           3.73145293989593     -4.34771743367143     -1.05821953237674
  C           5.10425235176811      1.19022566672789     -1.95066347187255
  O           0.17438042693269      5.33263192235002     -2.48629380694661
  O          -4.84788494322051      4.85464386190591     -1.30386029206377
  O          -5.46317382647041     -1.61095185463911     -2.88807353316248
  O          -0.79918241109095     -4.98139997345937     -2.89279057043120
  O           4.42853111793915     -4.18094830592086     -2.26144206402613
  O           4.80770847489761      1.91638745175982     -3.11178691141256
  C           1.88234029664756      3.85906064669977     -1.71067378184358
  C          -2.54231266032401      4.63054298446294     -0.63648716365729
  C          -4.95718514934194      0.41689849039635     -1.67251122136504
  C          -2.32096316099708     -3.45470376272869     -1.83501306762514
  C           2.21555064205910     -4.32937451707225     -1.31489380984680
  C           4.36959850310363     -0.15875407365323     -1.93803898153716
  O           2.55961084614576      3.81063249099525     -2.94497281260126
  O          -2.18655512998547      5.90675166452399     -1.12014866540772
  O          -5.46403081495874      1.24497998767689     -2.68781308713915
  O          -3.06532815184089     -3.27729378438248     -3.01399307690665
  O           1.81877988805670     -5.44493386932280     -2.08001828166006
  O           4.77461225956698     -0.98028908372692     -3.00778601040345
  C           2.92670819712318      3.62449595477864     -0.61396190314658
  C          -1.60684078232010      4.24807323749561      0.52436138617377
  C          -5.12616605754348      1.13727107137184     -0.32841724420096
  C          -3.26831636555981     -3.30051718698777     -0.64400568138465
  C           1.38810557995286     -4.32082423139451     -0.01864716642575
  C           4.64588730759546     -0.92200697188015     -0.63745560454502
  C           2.36529265225263      3.87709228053242      0.79895600592609
  C          -2.12543306073127      2.91890644195801      1.08681103844874
  C          -4.74722360743384      0.20646366008752      0.84485611978680
  C          -2.52923593235775     -3.59088209979147      0.67410668321811
  C           1.95296755471877     -3.25451919476328      0.92790122874099
  C           4.40872779607497     -0.03974887518298      0.60089070202375
  O           1.60635580217052      5.08498686880717      0.86486538017914
  O          -3.45329497776419      3.07198568724631      1.55984569367279
  O          -5.37138848418210     -1.07250819463433      0.71742906472343
  O          -1.85005994580926     -4.84266353023561      0.61234994882886
  O           3.34299596439628     -3.40864297460246      1.13578515666385
  O           5.03099314940218      1.24254776840020      0.47461295666042
  C           3.50294982449274      4.02229796027606      1.81828180197118
  C          -1.35815289490481      2.36008835467633      2.28432753963375
  C          -5.25344041077565      0.70865385252862      2.20910700812077
  C          -3.50757458611762     -3.70540599345227      1.84949178930553
  C           1.26880529785620     -3.18933740872108      2.29412645870177
  C           5.00669677219917     -0.66628247306340      1.87104645986254
  O           4.35793402563193      5.08945122336370      1.49375375662934
  O          -1.42010484702159      1.03929980644087      2.23820023195984
  O          -6.61553414123146      1.03797611651335      2.16890689436373
  O          -4.44994813102208     -4.72084384307557      1.63928475047894
  O           1.87715237459047     -2.28708999809716      3.07144426887717
  O           6.35051683423981     -1.03949374460333      1.69788580982690
  H           0.02939570994713      6.08125353954338      0.15449253622693
  H          -5.35353896796738      3.34093122412125      0.96364418478460
  H          -5.67007959361992     -2.70406921401096     -0.37934378396434
  H          -0.48346017688578     -5.95097038825472     -0.32093530549092
  H           5.12806951027699     -3.26423269982233      0.23209878706169
  H           5.31855999301356      2.88603694916656     -0.60498642545622
  H           1.86655849190220      6.02166985853194     -1.54154430861704
  H          -4.18948382366029      5.44317010080499      0.50252138276775
  H          -6.74176793573226     -0.79822312710818     -1.56419212086440
  H          -2.42723780407117     -5.60943924855756     -1.83419111893721
  H           4.02529160127718     -5.31613742976880     -0.64296014565919
  H           6.18465007220894      1.00903849513852     -1.95748612843796
  H          -0.65091344618703      5.66506729491473     -2.08367339734835
  H          -4.87864341781257      4.04417921680116     -1.83684124693523
  H          -4.57653008917176     -2.01762930841913     -2.89185299569360
  H           0.12079014262055     -5.13167991595459     -2.59388633107374
  H           4.36869463524148     -3.24460327356258     -2.52205442514730
  H           3.95455474554855      2.37739277049381     -2.99986926289165
  H           1.11950763199666      3.06968265479896     -1.66783126998956
  H          -2.41175394891198      3.88145139694457     -1.43337084103320
  H          -3.87976411880865      0.24492192360029     -1.82906438965101
  H          -1.53862543400069     -2.68425410167634     -1.75884517630940
  H           1.97620338349998     -3.40042352568120     -1.85594486366298
  H           3.28707603964361      0.02432589387946     -2.00755593274158
  H           1.94983153267651      4.11449452442737     -3.63157223256481
  H          -2.91111817687213      6.21470285442410     -1.68882111313763
  H          -5.59650403115638      0.68810289917563     -3.47078898344369
  H          -2.53122194782725     -3.61248680964017     -3.75035462147484
  H           2.43375525926994     -5.52089937195010     -2.82748031669328
  H           4.82169308609960     -0.42379238729560     -3.79930719679016
  H           3.76981738201129      4.30403362050430     -0.79146014670724
  H          -1.62423553352742      5.01820143048678      1.30547181186592
  H          -6.17040000771660      1.45996851585510     -0.21214473289018
  H          -4.09670417856971     -4.01253591685680     -0.75434211325994
  H           1.41101508601505     -5.30601720395979      0.46085212634244
  H           5.68280416612558     -1.28255649354323     -0.64494049671146
  H           1.71751517891077      3.04672043953296      1.09199021131526
  H          -2.10079361898488      2.16161344782082      0.29262652496459
  H          -3.65570895775915      0.08343515476674      0.87165702578919
  H          -1.80639351901049     -2.78688512037103      0.86905599455408
  H           1.75927074964834     -2.27360535909151      0.46863013532473
  H           3.33019457341022      0.07193467958283      0.74666175653676
  H           4.11603219181062      3.11984303721919      1.80982288139589
  H           3.05938814597502      4.15912983088613      2.81088920081775
  H          -5.06728332179690     -0.09053862897364      2.93688360771310
  H          -4.71479069536732      1.60332722219364      2.51726086936984
  H          -4.06454185725907     -2.77264530116292      1.95305482232020
  H          -2.92307792635724     -3.89041467985054      2.75912226766566
  H           4.91610023859567      0.06075926859791      2.68550501243042
  H           4.45217085064694     -1.57019554493115      2.13229990555504
  H           3.82057428192109      5.89296390283484      1.47394035241040
  H          -7.10233349465517      0.23843104606073      1.92306196694803
  H          -3.96109767177162     -5.54370200866650      1.49270128656437
  H           6.84957408906966     -0.23661510100326      1.49112377940999
  C           0.95763552947162     -1.50656483245079      3.81512391940002
  H           1.54615259929938     -0.86436052294123      4.46398332110794
  H           0.27402323152454     -2.13074982526350      4.39972482089424
  O           0.37832396692689     -3.91165565961831      2.67033954276025
  C          -0.82009789784497      0.32077779173660      3.32047032962404
  H          -1.60839105945230     -0.20825712578254      3.85573598701553
  H          -0.32702159913567      1.03178289439026      3.98560760492241
  O          -0.82957654029055      3.00905595234238      3.14247164868553
  C           0.12544575885318     -0.73438023947507      2.77862057243115
  O          -0.20006609427121     -1.39174321196737      1.74807505047762
  H           0.35662901120895      0.59770756558072     -0.58739695071586
  O           0.93009321865845      1.19933008504748     -0.06232974786917
  H           1.19291282618603      0.69275680919110      1.11311588401570
  O           1.47759551810545      0.29908561965797      2.13234472120438
  O           1.78937291513646      1.50471391539155      2.89068328212424
  H           2.68758550584898      1.26643631004625      3.19543677753838
  H           1.78065225983196      1.32338311405317     -0.53096104386384
