137
Coordinates from ORCA-job job
  C          -0.22840632484861      3.55154357628669      6.86141587081775
  C           1.34407840825871      0.02555053108329     10.42360047125170
  C          -0.26379193348435     -4.81080581852304      9.43053674447164
  C          -1.55947979489313     -5.49840414096936      4.36642900109355
  C          -1.67010029145377     -2.05552599363607      0.38870371441283
  C          -1.79812328072971      2.86705342303412      1.87048741838851
  O           0.05639116006687      2.20154918722709      7.15499069200220
  O           0.28339435488508     -0.84702829313488     10.19525282893096
  O          -0.83198665626907     -4.33927861045221      8.23729422740234
  O          -1.45065889647408     -4.14955823886923      3.96972929379609
  O          -2.41087362813441     -1.06754687616968      1.03552621970508
  O          -1.61708935155444      2.37948017733619      3.17781956847557
  C          -1.74394668304766      3.70777613826700      6.64532461764659
  C           0.73868625446149      1.39644317152889     10.77937181316672
  C          -1.10632718777845     -4.26005407069102     10.59286349563600
  C          -2.74805967914208     -5.63379670041272      5.33243265487971
  C          -2.50070998743892     -3.35273644278327      0.43426502959510
  C          -3.22658954193681      2.52599352401087      1.41053503555816
  O          -2.49535151683451      3.26269806966662      7.74196510783617
  O          -0.07885245316630      1.33399609482350     11.91187377402042
  O          -2.43624845845331     -4.69689172487732     10.53016664044944
  O          -3.94598292682492     -5.15977079735073      4.77897378374547
  O          -3.75395482997120     -3.19777279833579     -0.16518660405398
  O          -4.20815826643531      3.13435024608602      2.20415294802553
  C          -2.13790690361175      2.87794239541794      5.42084387888129
  C          -0.05250909808426      1.93017835115074      9.57206356221537
  C          -1.02396800774232     -2.72772622936591     10.55098512349988
  C          -2.43833132876846     -4.81977314733285      6.59205122989709
  C          -2.65593333045357     -3.81032939444411      1.89556842709496
  C          -3.37670919129926      0.99940393678517      1.42232277646168
  O          -3.49365053574496      3.04264501582384      5.08563000791854
  O          -0.54617859851407      3.22450592054545      9.83769344044435
  O          -1.64296159950198     -2.14591728354734     11.67047972347700
  O          -3.42242970717514     -4.97972602275881      7.58298882782142
  O          -3.30944561214466     -5.05823807650880      1.95995314678557
  O          -4.60127064790272      0.60020338500060      0.86045101341575
  C          -1.30064528058232      3.29844118760310      4.20970487551352
  C           0.83232299520833      1.95678536383341      8.31431376257154
  C           0.42704445480806     -2.22746884376974     10.51435874417899
  C          -1.09951672459837     -5.25905793729144      7.19281763626582
  C          -1.28324159307918     -3.91617000766226      2.58684519762402
  C          -2.25579765122653      0.29470557048552      0.64464829049957
  C           0.20303709889006      3.27630428019271      4.53639420822864
  C           1.45056849795701      0.56680242571780      8.14000867447537
  C           1.28340057282479     -2.99717874860692      9.48842762253385
  C           0.01442536875591     -5.24540188548204      6.13282690857495
  C          -0.56773768095310     -2.56688734358018      2.38958181258020
  C          -0.86187301603551      0.87346370546374      0.96645094766596
  O           0.47861109753617      3.99156125348703      5.73976751587616
  O           2.17600948681360      0.16353452620302      9.28704981153580
  O           1.06793446589645     -4.40593713860420      9.56746817976126
  O          -0.38084914374508     -5.95854273182066      4.95990636132333
  O          -0.42270661513227     -2.27796084210328      1.01916758300750
  O          -0.87460076081610      2.30019866369174      0.98971078838068
  C           1.01599372857467      3.96864702156642      3.43215856192284
  C           2.43493761944843      0.48299245127214      6.97759896520624
  C           2.79470005314818     -2.83217597833632      9.72863919564628
  C           1.28403579717101     -5.94308523152294      6.64005857363382
  C           0.77889791334316     -2.45110626905789      3.06879032958505
  C           0.20000655805347      0.51708528907096     -0.09248446771708
  O           0.60521933092339      5.29973763688310      3.24270070659441
  O           2.63448655748058     -0.78171877306693      6.67004780546071
  O           3.15753931983166     -3.11554629572356     11.05385733827277
  O           1.04416678874363     -7.27455186584330      7.01438606458158
  O           1.69207316391937     -1.88429812558271      2.30470361374840
  O          -0.25776994298573      0.73353138791898     -1.40330222953426
  H           0.10308970329129      4.20119966704103      7.68026108175780
  H           2.00459815378897     -0.33331627120012     11.22275893223543
  H          -0.23799817123850     -5.90771422670444      9.45485550124788
  H          -1.71204123073887     -6.14638189614032      3.49452819096258
  H          -1.43356441470787     -1.77761111234524     -0.64521793969858
  H          -1.62502556923786      3.94928785921613      1.82298881135887
  H          -1.95365183298086      4.77024559893688      6.44216943028937
  H           1.55107580340692      2.09186800036159     11.01581424206353
  H          -0.70219239727347     -4.62345977545816     11.54321539714439
  H          -2.84867279387842     -6.69656442401013      5.60604195547368
  H          -1.97404464284871     -4.12778018554556     -0.13267662009323
  H          -3.37379580216599      2.90179571230034      0.39277990511292
  H          -2.01483120923420      3.46411798969755      8.56626917370978
  H          -0.65657991300949      0.55539543615200     11.84737502397432
  H          -2.75458288820455     -4.65474135678991      9.60990001159806
  H          -3.93448924713322     -5.29287860243346      3.81340605226050
  H          -4.14572031178886     -2.35972628206307      0.13060896050370
  H          -3.98958284453619      3.02266808095138      3.14934401610492
  H          -1.92492038500889      1.82045259547898      5.63862651629444
  H          -0.89290184739650      1.24761741588283      9.37280970455731
  H          -1.51292733498704     -2.38499599393949      9.62516834530333
  H          -2.35562853470397     -3.76154025670088      6.30219442287931
  H          -3.24486342630401     -3.05626238056040      2.44005511911794
  H          -3.31204394421559      0.66111636206752      2.46952233040543
  H          -4.02108623135351      2.92662564669312      5.89170074114805
  H          -0.78038934990211      3.26180112477734     10.78152182852619
  H          -2.49372370700435     -2.59067905731453     11.81330169770767
  H          -4.29089781327501     -4.85708571907227      7.16825439954775
  H          -3.98784831150368     -5.07316828074834      1.26224307576338
  H          -5.29522084392117      1.18965173796420      1.19709604311757
  H          -1.58848296148697      4.31579945462417      3.91419228568181
  H           1.62147670890600      2.71246370018828      8.41665681629710
  H           0.87279258007681     -2.33168239230936     11.51298998738371
  H          -1.20602702730745     -6.27360512147820      7.59965892308478
  H          -0.69143165022653     -4.71800254041994      2.12653242197532
  H          -2.44454080433266      0.38976265393059     -0.43338570980140
  H           0.52441006911175      2.23243520203678      4.64374218359632
  H           0.63841415483037     -0.14623808501329      7.93941928505819
  H           1.02668913937635     -2.64489717822771      8.47991155520325
  H           0.23802927711352     -4.20440091793207      5.86969300905631
  H          -1.19283434582770     -1.79649883008834      2.87504366237728
  H          -0.54231522160420      0.50237333776718      1.94974050904837
  H           0.86027233215203      3.44809155645036      2.48561392706329
  H           2.07780020030477      3.91553245694744      3.69120371589375
  H           3.31212915313162     -3.49976753663660      9.03086205496541
  H           3.09583679214832     -1.80448298188386      9.52965041328776
  H           1.64746642254706     -5.42995675912758      7.53171259102935
  H           2.04273516034432     -5.89042397391810      5.85142516309299
  H           1.08470711633491      1.12344239458052      0.12567735071664
  H           0.46714747223255     -0.53606301456131     -0.01456697785436
  H           0.83687434478093      5.80001196926923      4.03848833316879
  H           3.00201456333282     -4.05652035128854     11.22176986236038
  H           0.76488928792298     -7.76668997933039      6.22838486392104
  H          -0.30382381373709      1.68724537190004     -1.55902132648761
  C           2.91147260945162     -1.57951593649094      2.98526240063957
  H           3.47534118715798     -0.89389014079557      2.33039651733217
  H           3.48619667128209     -2.49119460281808      3.17218175697880
  O           0.99708685931436     -2.74987018688210      4.22369173017466
  C           3.40478541827715     -1.10774869050978      5.52246343918732
  H           3.67675560818687     -2.16002525044557      5.62705182904009
  H           4.30901674581602     -0.48387944403497      5.45191810494628
  O           2.99503692511337      1.42260517120566      6.46682692392959
  C           2.55719227974890     -0.86566572874301      4.28109316104161
  O           1.61766402191587     -0.08132016535455      4.32775197017976
  H           3.76803544320206      2.40699750994220      5.13287903168662
  H           1.92530809472212      1.01582310881508      2.64698920827028
  H           4.99190090767549      3.18659419091453      4.64014306908897
  O           4.14852407837870      2.82088199370103      4.34169854668072
  H           4.05735689805044      1.76197578053832      2.89629897986008
  O           3.76396130828257      1.17018050105030      2.15579291426016
  O           2.37427294333378      1.57873881868752      1.98688028304611
