11
Coordinates from ORCA-job job.QMRegion
  C           2.55719227974890     -0.86566572874301      4.28109316104161
  O           1.61766402191587     -0.08132016535455      4.32775197017976
  H           3.76803544320206      2.40699750994220      5.13287903168662
  H           1.92530809472212      1.01582310881508      2.64698920827028
  H           4.99190090767549      3.18659419091453      4.64014306908897
  O           4.14852407837870      2.82088199370103      4.34169854668072
  H           4.05735689805044      1.76197578053832      2.89629897986008
  O           3.76396130828257      1.17018050105030      2.15579291426016
  O           2.37427294333378      1.57873881868752      1.98688028304611
  H           2.81300714366988     -1.38111487577364      3.34541386460700
  H           3.17077971512844     -1.04091380108758      5.17974272614592
