14
Coordinates from ORCA-job benzaldehyde_gas_opt E -345.597331346271
  O           2.91736913904802      1.20115050857894     -0.49582962053749
  C           2.30742486977795      0.17048417003291     -0.38582879512585
  C           0.84978676607214      0.07297294590726     -0.14210998819610
  C           0.25883318344142     -1.17951351290794     -0.03109163168210
  C          -1.10390169605453     -1.28889832134316      0.19684553352175
  C          -1.87360310862166     -0.14161702639371      0.31321914834694
  C          -1.28582526760122      1.11381227277382      0.20275449250001
  C           0.07315654397856      1.22269641644264     -0.02427566989328
  H           2.82913071903332     -0.80612788005742     -0.46456388631500
  H           0.87089072426216     -2.07091217035892     -0.12326443822799
  H          -1.56532165738993     -2.26480488764019      0.28314559551281
  H          -2.93928509213525     -0.22415922700678      0.49074194577986
  H          -1.89320748902931      2.00591098137761      0.29393051233365
  H           0.55455036521833      2.18900673059494     -0.11367319801720
