139
Coordinates from ORCA-job job
  C           0.56346144422351      4.82387500053324     -0.32324393889204
  C          -4.43934605447962      3.34474241077544      0.41164636277704
  C          -4.94001379506768     -1.73820532660567     -0.51813800610143
  C          -0.65595381197814     -4.79778854565940     -0.67327104844126
  C           4.36156346851366     -3.36309170103779      0.05484599299725
  C           4.85884704674979      1.78401688056389     -0.52303809475870
  O          -0.38290552057964      3.80026447143382     -0.14847047761593
  O          -4.38334566001700      2.30939314303905     -0.51601161209526
  O          -3.55285005589959     -1.84879186344715     -0.76814472907522
  O           0.31755361592800     -3.81028264066033     -0.45511250203106
  O           4.23596478440063     -2.24426638091165     -0.76495650367266
  O           3.46606785221380      1.92108489688669     -0.71824102616437
  C           1.17730951314464      4.68596707436136     -1.72774412799015
  C          -4.05020824030909      4.63274310929700     -0.34214630151818
  C          -5.59822693156618     -0.98345926761534     -1.68507356095893
  C          -1.30678726834987     -4.54006277527922     -2.04433094545182
  C           3.97671223306183     -4.58219316057713     -0.80590928310284
  C           5.47184145000032      1.10020071587725     -1.75645670162993
  O           0.21679546620234      4.74279860789203     -2.74798690412671
  O          -4.90837996974280      4.89049953240877     -1.41659536544414
  O          -5.39892236818152     -1.62386135249033     -2.91563801043953
  O          -0.37729548144551     -4.53383833917410     -3.09531868539363
  O           4.81079973097525     -4.72062200118388     -1.92069313346160
  O           5.25375318987780      1.82871816588358     -2.93320945897184
  C           1.88336779938597      3.32603537277984     -1.79276911068138
  C          -2.59640579897454      4.50841356741946     -0.83018558532163
  C          -5.06362023539992      0.45434036305067     -1.71204900638089
  C          -1.99324700853244     -3.16920087923468     -1.98211324160770
  C           2.51042742003535     -4.42660651938966     -1.23950613704476
  C           4.90827518359663     -0.32302115281046     -1.86696693917753
  O           2.56067196187262      3.12912398818597     -3.00923414077577
  O          -2.16467197239344      5.70186483483553     -1.44836569150307
  O          -5.75925132341846      1.23579697021119     -2.65228691344722
  O          -2.69541660898900     -2.86572291406761     -3.16186684617135
  O           2.06790803560202     -5.55141717891820     -1.96842401517948
  O           5.56008323362981     -1.05251203410785     -2.87711343220165
  C           2.91237031968408      3.22868770235835     -0.66281384837800
  C          -1.65987547190514      4.17036485824177      0.33907320118134
  C          -5.19280781093602      1.14953003263524     -0.34843531614313
  C          -2.99023274500056     -3.15296935531735     -0.81937505595274
  C           1.59752221551014     -4.23125693325092     -0.01992433610429
  C           5.06728813489200     -1.10854617458765     -0.55675389962331
  C           2.25591146682234      3.51782549112599      0.69895247147526
  C          -2.22159114439293      2.94294708843084      1.05996138853732
  C          -4.73432125141915      0.25022414299388      0.81788272822214
  C          -2.28627233036312     -3.53830549204036      0.49395176644003
  C           2.16040014776019     -3.10278472757408      0.85148976774865
  C           4.64690623473421     -0.28164287554018      0.67428268373053
  O           1.56321255984067      4.76385510064275      0.65472087374378
  O          -3.55496775426178      3.14938872374514      1.49743548700738
  O          -5.20176775949449     -1.09602513031960      0.68893494760478
  O          -1.62623910597837     -4.79425125005866      0.33491512297473
  O           3.52188955998372     -3.30024164834407      1.18987667962050
  O           5.14270495458667      1.05836776019580      0.63203204757164
  C           3.29850782109079      3.64236971434460      1.81739301318540
  C          -1.40085633118589      2.56158851109946      2.28879184024818
  C          -5.30153285491291      0.70525363756126      2.17479347603582
  C          -3.28258940987715     -3.71408155892446      1.64589966297207
  C           1.37570469415884     -2.94522262312217      2.15140877230529
  C           5.20898669217946     -0.84844606482751      1.99142605129890
  O           4.23030431167713      4.66169813470378      1.56114347662181
  O          -1.65299610277501      1.29992284253593      2.59454492742598
  O          -6.69482535866999      0.87434057976052      2.14247645600747
  O          -4.24723992649177     -4.69732264136053      1.36746510293089
  O           1.79816069368472     -1.87182984829676      2.81780332590119
  O           6.59031960943531     -1.08847030958395      1.92284086010191
  H           0.10199915855184      5.81149601180842     -0.20475723760526
  H          -5.43579866116535      3.43897778104838      0.86253791667822
  H          -5.38823070600149     -2.73400056685750     -0.41164696592059
  H          -0.21367448690736     -5.80128391818588     -0.64563990465249
  H           5.37852707946566     -3.46669493001310      0.45448793598837
  H           5.32268292452875      2.76545069009508     -0.36548062811769
  H           1.91829359454350      5.48974216765232     -1.86369391066716
  H          -4.13404354562025      5.48402699808416      0.34142440143511
  H          -6.68141429173886     -0.95881024293012     -1.52349703254473
  H          -2.06450171676377     -5.31973908949570     -2.22115131079099
  H           4.09087850970795     -5.49362365284146     -0.21031487319178
  H           6.55820785856093      1.04531960193394     -1.62636439184224
  H          -0.57193110662784      5.22332774611941     -2.43452630551558
  H          -5.05741831057536      4.06337403569229     -1.90440480486362
  H          -4.47027447140141     -1.91181816386341     -3.00324377963276
  H           0.43303448467012     -5.00577105862546     -2.82637844579143
  H           4.92616090852951     -3.85077847349612     -2.33835543311182
  H           4.32913192825450      2.13778715444793     -2.97743763636735
  H           1.11617992159378      2.55069225119627     -1.65416021836846
  H          -2.54075055329666      3.67747508601903     -1.54948502290618
  H          -3.99276065460386      0.42959484498901     -1.96452929530949
  H          -1.20942033257371     -2.41927977662353     -1.80081390462360
  H           2.42616150642712     -3.52364858568371     -1.86296114239226
  H           3.83092103905125     -0.26232091396951     -2.08497886804145
  H           1.95696363473747      3.36391335406346     -3.73125210708646
  H          -2.91543434733926      6.06065173170347     -1.95186256828359
  H          -5.83688920653671      0.72496646429502     -3.47379939356812
  H          -2.12118648988578     -3.06972971434406     -3.91652602664442
  H           2.80292448471307     -5.84716991379984     -2.53195093222264
  H           5.62411507717267     -0.49190026676582     -3.66658771299307
  H           3.69868133619227      3.97279966932237     -0.84172808400439
  H          -1.58067102234097      5.01790232447971      1.03082263629214
  H          -6.23839851186437      1.44879554186749     -0.18957987067088
  H          -3.77909424285290     -3.88744281348221     -1.02592229951178
  H           1.52498410160391     -5.16030003687531      0.55837481163127
  H           6.11281247946580     -1.42762921722118     -0.44754040287368
  H           1.55099781468042      2.71553298292217      0.94933195646865
  H          -2.18277576190475      2.09395768978824      0.36189328396909
  H          -3.64004790338705      0.25957634239483      0.86327869923105
  H          -1.55143229489346     -2.77055101523697      0.76366369626036
  H           2.03782906044492     -2.16565109438709      0.28350358788434
  H           3.55131355209309     -0.26741804781868      0.71454335585281
  H           3.86719510516452      2.71378555056260      1.88744334449962
  H           2.76661344549740      3.81883113403620      2.75831355746617
  H          -5.01880184792859     -0.04894727672894      2.91759724626463
  H          -4.87043077130452      1.66387378280388      2.46008009889873
  H          -3.82462728867610     -2.77974788779881      1.80109141627748
  H          -2.71455124807402     -3.96274003829014      2.54855459716758
  H           4.98219237584270     -0.12747992438618      2.78484305904266
  H           4.73323999215719     -1.80083505146852      2.22428549712760
  H           3.76038808006493      5.50823117629459      1.56078522173031
  H          -7.10285815814068      0.00907738177873      1.99408528199625
  H          -3.79309750603552     -5.54883201237251      1.28822494939859
  H           7.04768593038094     -0.23955429461295      1.83769297388187
  C           0.88543685876236     -1.26782079899630      3.73358463380516
  H           1.46293181426817     -0.80165469565349      4.53319009667730
  H           0.18392519730707     -2.01020878514597      4.12486151927895
  O           0.50482919478848     -3.68178826170705      2.52903235007186
  C          -0.89001951133026      0.64485759358808      3.60307243056849
  H          -1.58116515164511      0.01840580339596      4.17062480184615
  H          -0.38903397224375      1.37803239655484      4.24264420993586
  O          -0.65046494828608      3.28554720216004      2.88881083466106
  C           0.14952016199660     -0.22478886730242      2.86606402621743
  O          -0.45753140512081     -0.97171808518056      1.84673242036774
  H          -1.01152601744896     -0.38905591866828      1.28289303828350
  O          -1.59881077591739      0.17242958288383     -0.43397805030189
  H          -0.74552043952393      0.03239533267785     -0.88059810550994
  O           1.35487893717058     -0.02251657898086     -0.55237486476133
  H           1.14936120703609      0.21347121673757      0.36884424072359
  O           1.13096095455124      0.68107262151274      2.32658676288285
  H           1.99338148211476      0.25069244027348      2.44361507627932
  H           2.01465361778032      0.64430245261332     -0.80485492142188
  H          -2.17220202647420     -0.56412569652425     -0.70719800411020
