13
Coordinates from ORCA-job job.QMRegion
  C           0.14952016199660     -0.22478886730242      2.86606402621743
  O          -0.45753140512081     -0.97171808518056      1.84673242036774
  H          -1.01152601744896     -0.38905591866828      1.28289303828350
  O          -1.59881077591739      0.17242958288383     -0.43397805030189
  H          -0.74552043952393      0.03239533267785     -0.88059810550994
  O           1.35487893717058     -0.02251657898086     -0.55237486476133
  H           1.14936120703609      0.21347121673757      0.36884424072359
  O           1.13096095455124      0.68107262151274      2.32658676288285
  H           1.99338148211476      0.25069244027348      2.44361507627932
  H           2.01465361778032      0.64430245261332     -0.80485492142188
  H          -2.17220202647420     -0.56412569652425     -0.70719800411020
  H           0.67285598077250     -0.96652495289659      3.48298793822020
  H          -0.58682686424535      0.39121608353241      3.38811620064040
