133
Coordinates from ORCA-job job E -252.513691021880
  C          -0.39882651733959      4.16239157944116      5.33971331401701
  C           1.48345641612976      1.04809410845605      9.08996125211887
  C          -0.92308954918313     -3.62656646826650      9.54764331175944
  C          -1.93066462233969     -5.44354043743201      4.73093179151438
  C          -0.57129077650745     -2.64907824490771      0.50511871172772
  C          -1.64528120752352      2.44868512039633      0.60506922555510
  O           0.13116114603868      2.92555204294489      5.75337477626166
  O           0.53664391548563      0.09345534363770      8.69829997961395
  O          -1.50715552806615     -3.54800511395293      8.27897942412304
  O          -1.73070402668280     -4.15325935408103      4.19836059763911
  O          -1.54810344337877     -1.65894432260932      0.59217176505026
  O          -1.99329964939642      2.38166293035252      1.96014937262818
  C          -1.93347625589346      4.11407975579000      5.23911522537059
  C           0.78407724666648      2.37875326772578      9.41882594444235
  C          -1.56821779456672     -2.49435672420509     10.36811137434622
  C          -3.20525582269189     -5.42089166215786      5.59041787246388
  C          -1.30095281040779     -4.00329688104828      0.45554122163799
  C          -2.74158775225861      1.74786585671140     -0.21280483170782
  O          -2.55873815440139      3.69367563779768      6.41932324157096
  O          -0.03010293486896      2.31084148123374     10.55194022804107
  O          -2.95577591570662     -2.65294035384407     10.47381722193291
  O          -4.34606957960350     -5.03043723069203      4.87867629659966
  O          -2.20682660703383     -4.06839829335091     -0.60826562862986
  O          -4.00794550220354      2.30434317515207      0.00797328532174
  C          -2.33320437531702      3.13702316355477      4.12963924471553
  C          -0.02426976132974      2.79738743540646      8.18202375758234
  C          -1.21136581940105     -1.16282520795782      9.68852066618749
  C          -2.98959835909018     -4.40627985038831      6.71324701716165
  C          -2.01606204034709     -4.26089153429668      1.79207078787459
  C          -2.73885673650811      0.25252791876036      0.12170263539837
  O          -3.71856984580579      3.16604991586133      3.90503101956568
  O          -0.64659087601448      4.04543315551164      8.40114349539469
  O          -1.67218331100452     -0.06118322733788     10.43412392986595
  O          -4.06399617601762     -4.38038907187515      7.61726216400296
  O          -2.56684923258990     -5.55406921781465      1.80760882958727
  O          -3.59927427277003     -0.46501015695818     -0.72525224882963
  C          -1.63486081499136      3.47115259652724      2.80519597776846
  C           0.89375563121948      2.92214369860206      6.95380279402620
  C           0.30638348315390     -1.02720710661736      9.53760086864828
  C          -1.72296249585355     -4.72410592304586      7.51725061046175
  C          -1.03673870273944     -4.10551648186141      2.96840971236330
  C          -1.33846429043430     -0.37087573373879      0.01725200399624
  C          -0.11808751806768      3.65373491586419      3.01599197199093
  C           1.84238002585759      1.71270539129794      6.82447237580485
  C           0.92402568064608     -2.28038236512395      8.89370475876436
  C          -0.51565322036908     -5.02641833863825      6.60977216243174
  C          -0.35891239756972     -2.72340232459562      2.83816717894786
  C          -0.30668023104416      0.49454556321023      0.75815535474645
  O           0.14206819959149      4.53777341625827      4.10360396270669
  O           2.40951599481543      1.25293876390921      8.04972245353676
  O           0.47029615096659     -3.47793089807401      9.52051460166816
  O          -0.84458355127029     -5.86907691765073      5.50267739487275
  O           0.31625661540127     -2.61562546677294      1.60018534025581
  O          -0.40526741997650      1.84773679062896      0.35153856716020
  C           0.59897108270236      4.30507122049599      1.81840275831948
  C           3.07675244034004      2.04833020634489      6.00673746533451
  C           2.45339779978834     -2.27119093061492      9.04910137249765
  C           0.59220318807165     -5.78114955733749      7.36117752469059
  C           0.62680369736509     -2.46065965993739      3.96440790729848
  C           1.21524474878218      0.11929379986532      0.49972099182454
  O          -0.09721134726367      5.41584315208810      1.31559529446926
  O           3.97949347909007      1.20214943576322      5.70340202441755
  O           2.84801428213840     -2.20479131224106     10.39318243953526
  O           0.13689217348150     -7.00540565913450      7.87452185755575
  O           1.88133945249232     -2.52640180955019      3.56323055073528
  O           1.88284134912035      0.92980373042153     -0.28686865978708
  H          -0.09827086875545      4.95868812737353      6.03215268876300
  H           2.08451447129093      0.70357828013578      9.94038442094237
  H          -1.10165067881424     -4.60516929504687     10.01332554961237
  H          -2.01926535188469     -6.18239029841076      3.92534814026038
  H           0.05529074267678     -2.52153178355234     -0.38710398712064
  H          -1.53839113317060      3.49092763447984      0.27659251362603
  H          -2.27968001633013      5.12170632268318      4.95663666839106
  H           1.54722017668767      3.13411883287098      9.63666776044498
  H          -1.17438004631243     -2.50426013445014     11.38953141385463
  H          -3.33725748073360     -6.42389808082964      6.02508947655322
  H          -0.56174368002288     -4.79402699617250      0.28656741394948
  H          -2.51427376012504      1.87980297309501     -1.27568645373753
  H          -2.07428708105990      4.05148878824023      7.19102986960129
  H          -0.63491475016887      1.54483542232597     10.49361239995550
  H          -3.31059970177935     -2.94726673562906      9.61882096741879
  H          -4.47367681806287     -5.60999012003128      4.11476076807063
  H          -2.71201114554760     -3.23960231314045     -0.64820544249478
  H          -4.13453004186443      2.43146873556803      0.96298709431600
  H          -2.01524936435707      2.12576600374594      4.42854564604522
  H          -0.78326599486168      2.02865811823198      7.97598911429090
  H          -1.65599623414640     -1.15366590546246      8.68209764729865
  H          -2.85199025356128     -3.41982761815736      6.24598576283302
  H          -2.81072750808776     -3.50935796776871      1.91929085782684
  H          -3.05979578298446      0.13518415467485      1.17043784373281
  H          -4.16318204315024      3.06801400009256      4.76280533594491
  H          -0.88367927952680      4.09310213684742      9.34345644233578
  H          -2.57537971536112     -0.24902969137326     10.73472132408179
  H          -4.88459072552750     -4.29291480486461      7.10765613739075
  H          -2.95650285038210     -5.72203288936926      0.93223133421701
  H          -4.42579100091712      0.03832349852855     -0.81439882416650
  H          -2.05400719480513      4.39893131374472      2.39096140820698
  H           1.45891314915174      3.85815187845567      7.04743786256302
  H           0.75014980931708     -0.86705402969763     10.52794392036133
  H          -1.91904870612795     -5.57821611139351      8.18014554808736
  H          -0.27376112596687     -4.89434690715683      2.92542708794060
  H          -1.04224070717794     -0.46966796283942     -1.03579540439991
  H           0.32854459718930      2.67073889523788      3.21812443674342
  H           1.26626365063562      0.91328364971437      6.33500666535125
  H           0.64602059938046     -2.28730606671320      7.83052743622675
  H          -0.14289978960835     -4.06440421462214      6.23726577837845
  H          -1.14862255489468     -1.96137593568958      2.91532492295497
  H          -0.53094735716758      0.42300300298857      1.83623916828573
  H           0.70714064992197      3.58515612124940      1.00603116469069
  H           1.59741315578864      4.59829640550446      2.15586622177181
  H           2.86186620202335     -3.16349927548781      8.56187424272817
  H           2.85667569026313     -1.37669803531000      8.57299105960952
  H           0.92499360119663     -5.19201999864056      8.21584597976524
  H           1.42966172024904     -5.93616367840097      6.67093823339821
  H           1.66758964977632      0.06699429219818      1.55225391770401
  H           1.23894715005984     -0.94119402885305      0.14465581311810
  H          -0.03261611086322      6.13585373579349      1.96222177852417
  H           2.56183806873042     -3.01240159496202     10.84272994101239
  H          -0.12740174387357     -7.56880993694578      7.13302124154217
  H           1.92477447965990      0.14346977305346      3.23451149884744
  C           2.89249103293970     -2.20251676646110      4.52263106082478
  H           3.76236247401045     -2.80335357310882      4.26139632877866
  H           2.52376393087791     -2.44328042112819      5.52249490055835
  O           0.29066435640908     -2.23175679914328      5.10318615368406
  C           3.83074666546454     -0.20533718314555      5.78536345036077
  H           3.17761892030306     -0.49181870013902      6.60573425941259
  H           4.83936818777187     -0.60254793231097      5.90163104160891
  O           3.30012141740521      3.26513119959790      5.73942475009463
  C           3.25424191419721     -0.68736688392045      4.42504379228576
  O           2.10726763045200      0.09177960667512      4.19123437261803
  O           4.24543126863797     -0.45945116930995      3.48486701141814
  H           4.16538817403656      3.45853276214045      5.29373307206053
  H           3.99186199176102     -0.75537689180908      2.59886781909749
