133
 xtb: 6.7.1 (edcfbbe)
C           -0.38640893060654        4.31019640438615        5.22167430514930
C            1.27399489075254        0.87678582699018        8.80084796619029
C           -0.96031003520537       -3.78740890542324        9.62540185636578
C           -1.79819602654686       -5.56054520989031        4.82498493827267
C           -0.37351486715815       -2.46635299219943        0.82980457397826
C           -1.62739302740798        2.59894574983631        0.55142773644533
O           -0.13928533950099        2.95920237568158        5.54215710640265
O            0.12740910544930        0.07317304578067        8.76202070449845
O           -1.67892493951615       -3.74955280685026        8.42784631403535
O           -1.55185014533096       -4.25098027615960        4.37439722039206
O           -1.35961947535318       -1.49259499248328        1.02154066482472
O           -2.00621565046864        2.67201779962097        1.89548473498011
C           -1.90090324062883        4.53182000756197        5.09094999488081
C            0.82038219231339        2.31124810384960        9.11255638626935
C           -1.58524574747305       -2.71203894859172       10.53462210205524
C           -3.13847635448756       -5.57852502561435        5.57735401087946
C           -1.07908879837604       -3.82238040632892        0.65622150498476
C           -2.69650360631847        1.76282922865046       -0.17627633472636
O           -2.60890040488106        4.20967835171916        6.25879490430005
O            0.11313803940881        2.38805511325588       10.31848182559237
O           -2.94466871324124       -2.95265893637474       10.76481045531554
O           -4.21820844731918       -5.16036332115668        4.79027935688126
O           -1.98161642071021       -3.80235915542107       -0.41302050450965
O           -3.97524557593116        2.31673268017548       -0.04486317793018
C           -2.41944924038292        3.64047557957356        3.95884418710693
C           -0.04366870176264        2.79694135746401        7.94504113078334
C           -1.36805724432229       -1.33856732754933        9.87898996218068
C           -3.02509369532344       -4.61289475366063        6.75779689678618
C           -1.79573804286687       -4.20666241217636        1.96212113583956
C           -2.66242051976210        0.32453834977546        0.36482000384108
O           -3.76490029382946        3.91422640865017        3.66218643543975
O           -0.48170444920683        4.11956280540788        8.16964331368911
O           -1.76955271661823       -0.28819340567578       10.72299026277356
O           -4.16309129733618       -4.65717896060694        7.57855591352009
O           -2.32430961223030       -5.50710998852801        1.86552181707113
O           -3.48712532298957       -0.52614053650437       -0.39011320866865
C           -1.62068541551030        3.81043688334707        2.65881399995149
C            0.74126227273154        2.71840799804679        6.62522854510069
C            0.10922233635968       -1.11408155699549        9.54175436227892
C           -1.81203453095951       -4.92794651434831        7.64368366222762
C           -0.83177905278708       -4.13744181325424        3.16050167122709
C           -1.24416718992384       -0.25833790121404        0.33002712754334
C           -0.09761224386194        3.89340437429883        2.89555700622286
C            1.30603270728583        1.30025795057947        6.44883003516614
C            0.69818772313576       -2.31195745494020        8.78146105127774
C           -0.53766049523943       -5.23473869745346        6.83090772635724
C           -0.14314999095353       -2.75564966858237        3.14841307103785
C           -0.24098555263156        0.71638415956425        0.97618075880763
O            0.23088577468175        4.69384085380649        4.03015193092882
O            1.99335687808774        0.83006104189537        7.59171892350498
O            0.41061013612497       -3.53567235504056        9.45489233340425
O           -0.78620677940594       -6.03107709534248        5.67066890781680
O            0.51712633916716       -2.52089689068134        1.92500656621192
O           -0.36297293761993        2.00714175168266        0.38281582648036
C            0.64934995781328        4.57457500503120        1.73343018395157
C            2.34070936916506        1.17606758635065        5.28040492313638
C            2.22654077275783       -2.23379154296271        8.67408618151527
C            0.48423748180029       -6.05280389463588        7.63806553568616
C            0.86153382256033       -2.60256888086438        4.27877557719904
C            1.21685597483899        0.29338342405848        0.77628559863884
O            0.05823618055436        5.78893215625285        1.35022917876404
O            3.65981951926743        1.19527298187809        5.77455834347710
O            2.85098611020151       -2.03984651459134        9.91384965748909
O           -0.06499308144805       -7.24450459131206        8.13445654486320
O            2.10533759380909       -2.64000728827710        3.83984450887408
O            2.12985772969158        1.15310598633530        1.43763650248836
H            0.03069609552745        4.97438750110447        5.98739336912635
H            1.98227775354816        0.52340434414102        9.56221946670088
H           -1.01831448097537       -4.77901857400696       10.09548587047948
H           -1.81752762596632       -6.26234934946967        3.98243287107098
H            0.25179994299991       -2.24244951007457       -0.04286757245113
H           -1.55196205973295        3.59825139221007        0.10321699998368
H           -2.06669128929285        5.58846537077358        4.82676985478703
H            1.69778230174223        2.95737391498501        9.21924361964003
H           -1.09370977032248       -2.73026569387383       11.51258135584603
H           -3.29856129333997       -6.59822426670766        5.95947528370573
H           -0.32934341510764       -4.58500129385708        0.42010488703701
H           -2.47266017149979        1.74970247925019       -1.24792659792475
H           -2.03782069507583        4.37014217686212        7.03209083486307
H           -0.53019394846538        1.65807224412573       10.36907327866688
H           -3.36509450806974       -3.20750154663414        9.92747176535158
H           -4.29191573838392       -5.72424910590838        4.00658355469707
H           -2.52321712270378       -2.99643875801967       -0.36132441475922
H           -4.11677026260911        2.57185229676753        0.88062716234776
H           -2.30193496768938        2.59513854494255        4.28425965452282
H           -0.91545889215837        2.13103677662745        7.85279035400470
H           -1.93398958943344       -1.30766192965938        8.93534574675247
H           -2.87990176082047       -3.60266509444952        6.34709513059927
H           -2.60508225157384       -3.48384117904679        2.14923161364314
H           -2.99013898347121        0.33941296384068        1.41606813145214
H           -4.26628164969465        3.90556701957973        4.49232654891954
H           -0.61730339631119        4.22055484411978        9.12916572811178
H           -2.63405648697698       -0.51251739856845       11.10331608375713
H           -4.94631099250295       -4.52618762351706        7.02117747586613
H           -2.68537240384631       -5.61462493313135        0.96885749714639
H           -4.33384547114183       -0.07723636000487       -0.54241513286753
H           -1.95950573562339        4.72418653750423        2.14856530085269
H            1.56261859277040        3.44814740204056        6.62616259583865
H            0.66920972215373       -0.95827724272401       10.47375264772938
H           -2.05196340550937       -5.78257962275933        8.29285178720474
H           -0.07844338995687       -4.93238487649183        3.08242015349380
H           -0.95230891218997       -0.44314364053728       -0.71188171131803
H            0.29376724852560        2.88194674289858        3.05608153443495
H            0.46525853251685        0.63443340501806        6.20937524552190
H            0.26745765736473       -2.32567032651895        7.77267934736727
H           -0.10032884568202       -4.27643276540210        6.52504945631422
H           -0.92611748722182       -2.00202170739077        3.31799518516389
H           -0.45325748116721        0.78174831181077        2.05221450009621
H            0.64447249864467        3.93213829913153        0.85416630513119
H            1.68048004676711        4.73200587542030        2.06357976401438
H            2.57811505779362       -3.15752848890174        8.19923354315139
H            2.49076433937524       -1.37815392951766        8.05002814762967
H            0.82172801736754       -5.47781911097819        8.49994202554105
H            1.33822672595836       -6.26056038470765        6.98336221254458
H            1.33691741777736       -0.70986635039314        1.17754472768139
H            1.45682445898679        0.30076162592377       -0.28520831623157
H            0.15628047079613        6.42161278151473        2.07519894101481
H            2.69804785302147       -2.82193355381673       10.46441865853664
H           -0.30414674437648       -7.80821450628734        7.38463785831956
H            2.09000885395974        0.68543048812615        3.10568353621406
C            3.14274412656959       -2.25764856425123        4.74635952789037
H            4.03094942264246       -2.83040467457897        4.46605380755969
H            2.83471725934966       -2.46111987452993        5.77305183385589
O            0.54449696817926       -2.47645705872824        5.43822147801185
C            4.25625063808427       -0.08022122524582        5.62847659441321
H            4.22040224309368       -0.62468525179906        6.57551219977328
H            5.28343454072006        0.06930762901481        5.29024314387946
O            2.18917438805480        2.22574215683421        4.42328939707843
C            3.39393467767030       -0.75026186598132        4.54499966610914
O            2.14728522971703       -0.07906336092648        4.67417358716216
O            3.96357962101444       -0.49818198767172        3.30325817339978
H            2.99599092626974        2.23822441156961        3.84329399050054
H            3.52379758869522       -1.02275778260751        2.61835813398672
