11
Coordinates from ORCA-job job.QMRegion
  C          -0.37563391459851     -1.20351046158822     -3.23574446390938
  O           0.18939420734545      1.85523207169139     -1.38556102758928
  O           0.51775045685988      3.06741690714668     -0.63392363008286
  H          -0.01092809269465      1.23857389881389     -0.64682015091467
  O          -0.67528962666565      0.26957811989093      0.89624218432128
  H          -1.54422162743300     -0.12072459080257      0.69998891641767
  O          -0.83743642242584     -0.63844485880779     -2.26192235109095
  H           1.46837425716084      3.17988950958602     -0.85803039436961
  H           0.06757113286452     -2.20741642423417     -3.13217106312040
  H          -0.38757555801390     -0.71117721566368     -4.22385454416614
  H          -0.85924797682065      1.00724029399040      1.49883798950942
