10
* (null), Energy   -1000.0000000
C    -2.205685   -0.397527    0.232490    0.237684    0.130706   -0.050550
H    -2.266088   -0.374137    2.162016   -0.056970   -0.030328    0.034134
H    -1.449121    0.447144    0.046530   -0.305252   -0.804710   -0.136928
O    -0.687134    1.401778    0.172980    0.710128    0.778584    0.096172
O    -2.832533   -0.117009    1.419293   -0.085278   -0.003854    0.095278
H    -1.569582   -1.293295    0.246357   -0.527516   -0.446036    0.032404
O     0.526584    2.925990    0.385165    0.007910    0.018056   -0.001386
H     0.475400    2.860399    1.353411   -0.016472    0.014108   -0.003790
H     0.105282    0.991999   -0.219842   -0.618816   -0.734748   -0.095038
H    -2.846021   -0.337230   -0.624824   -0.013604    0.017330   -0.020314
10
* Frequency(6) -535.0400
C    -2.178673   -0.382673    0.226745    0.237684    0.130706   -0.050550
H    -2.272562   -0.377584    2.165895   -0.056970   -0.030328    0.034134
H    -1.483811    0.355693    0.030969   -0.305252   -0.804710   -0.136928
O    -0.606432    1.490260    0.183909    0.710128    0.778584    0.096172
O    -2.842224   -0.117447    1.430121   -0.085278   -0.003854    0.095278
H    -1.629531   -1.343985    0.250040   -0.527516   -0.446036    0.032404
O     0.527483    2.928042    0.385007    0.007910    0.018056   -0.001386
H     0.473528    2.862002    1.352980   -0.016472    0.014108   -0.003790
H     0.034957    0.908499   -0.230643   -0.618816   -0.734748   -0.095038
H    -2.847567   -0.335261   -0.627133   -0.013604    0.017330   -0.020314
10
* Frequency(6) -535.0400
C    -2.154589   -0.369429    0.221623    0.237684    0.130706   -0.050550
H    -2.278335   -0.380657    2.169354   -0.056970   -0.030328    0.034134
H    -1.514742    0.274152    0.017094   -0.305252   -0.804710   -0.136928
O    -0.534475    1.569154    0.193655    0.710128    0.778584    0.096172
O    -2.850866   -0.117838    1.439775   -0.085278   -0.003854    0.095278
H    -1.682984   -1.389181    0.253323   -0.527516   -0.446036    0.032404
O     0.528284    2.929872    0.384867    0.007910    0.018056   -0.001386
H     0.471859    2.863432    1.352596   -0.016472    0.014108   -0.003790
H    -0.027748    0.834047   -0.240273   -0.618816   -0.734748   -0.095038
H    -2.848946   -0.333504   -0.629191   -0.013604    0.017330   -0.020314
10
* Frequency(6) -535.0400
C    -2.136042   -0.359229    0.217678    0.237684    0.130706   -0.050550
H    -2.282781   -0.383023    2.172018   -0.056970   -0.030328    0.034134
H    -1.538562    0.211357    0.006409   -0.305252   -0.804710   -0.136928
O    -0.479061    1.629910    0.201159    0.710128    0.778584    0.096172
O    -2.857520   -0.118138    1.447210   -0.085278   -0.003854    0.095278
H    -1.724149   -1.423987    0.255852   -0.527516   -0.446036    0.032404
O     0.528902    2.931281    0.384759    0.007910    0.018056   -0.001386
H     0.470574    2.864533    1.352300   -0.016472    0.014108   -0.003790
H    -0.076036    0.776712   -0.247689   -0.618816   -0.734748   -0.095038
H    -2.850007   -0.332152   -0.630776   -0.013604    0.017330   -0.020314
10
* Frequency(6) -535.0400
C    -2.125041   -0.353180    0.215339    0.237684    0.130706   -0.050550
H    -2.285417   -0.384427    2.173597   -0.056970   -0.030328    0.034134
H    -1.552690    0.174114    0.000072   -0.305252   -0.804710   -0.136928
O    -0.446195    1.665944    0.205610    0.710128    0.778584    0.096172
O    -2.861467   -0.118317    1.451620   -0.085278   -0.003854    0.095278
H    -1.748563   -1.444631    0.257351   -0.527516   -0.446036    0.032404
O     0.529268    2.932116    0.384695    0.007910    0.018056   -0.001386
H     0.469811    2.865186    1.352125   -0.016472    0.014108   -0.003790
H    -0.104676    0.742706   -0.252087   -0.618816   -0.734748   -0.095038
H    -2.850637   -0.331350   -0.631716   -0.013604    0.017330   -0.020314
10
* Frequency(6) -535.0400
C    -2.122780   -0.351936    0.214858    0.237684    0.130706   -0.050550
H    -2.285959   -0.384716    2.173922   -0.056970   -0.030328    0.034134
H    -1.555594    0.166457   -0.001231   -0.305252   -0.804710   -0.136928
O    -0.439438    1.673352    0.206525    0.710128    0.778584    0.096172
O    -2.862278   -0.118353    1.452526   -0.085278   -0.003854    0.095278
H    -1.753582   -1.448874    0.257660   -0.527516   -0.446036    0.032404
O     0.529343    2.932288    0.384682    0.007910    0.018056   -0.001386
H     0.469654    2.865320    1.352089   -0.016472    0.014108   -0.003790
H    -0.110564    0.735716   -0.252992   -0.618816   -0.734748   -0.095038
H    -2.850766   -0.331185   -0.631910   -0.013604    0.017330   -0.020314
10
* Frequency(6) -535.0400
C    -2.129502   -0.355633    0.216288    0.237684    0.130706   -0.050550
H    -2.284348   -0.383858    2.172957   -0.056970   -0.030328    0.034134
H    -1.546961    0.189218    0.002642   -0.305252   -0.804710   -0.136928
O    -0.459523    1.651330    0.203805    0.710128    0.778584    0.096172
O    -2.859866   -0.118244    1.449832   -0.085278   -0.003854    0.095278
H    -1.738662   -1.436259    0.256743   -0.527516   -0.446036    0.032404
O     0.529119    2.931777    0.384721    0.007910    0.018056   -0.001386
H     0.470120    2.864921    1.352196   -0.016472    0.014108   -0.003790
H    -0.093061    0.756497   -0.250304   -0.618816   -0.734748   -0.095038
H    -2.850381   -0.331675   -0.631335   -0.013604    0.017330   -0.020314
10
* Frequency(6) -535.0400
C    -2.144481   -0.363870    0.219473    0.237684    0.130706   -0.050550
H    -2.280758   -0.381947    2.170806   -0.056970   -0.030328    0.034134
H    -1.527724    0.239928    0.011271   -0.305252   -0.804710   -0.136928
O    -0.504274    1.602266    0.197745    0.710128    0.778584    0.096172
O    -2.854492   -0.118001    1.443827   -0.085278   -0.003854    0.095278
H    -1.705419   -1.408151    0.254701   -0.527516   -0.446036    0.032404
O     0.528621    2.930639    0.384808    0.007910    0.018056   -0.001386
H     0.471158    2.864032    1.352435   -0.016472    0.014108   -0.003790
H    -0.054065    0.802799   -0.244315   -0.618816   -0.734748   -0.095038
H    -2.849524   -0.332767   -0.630055   -0.013604    0.017330   -0.020314
10
* Frequency(6) -535.0400
C    -2.166091   -0.375754    0.224069    0.237684    0.130706   -0.050550
H    -2.275578   -0.379189    2.167702   -0.056970   -0.030328    0.034134
H    -1.499970    0.313094    0.023720   -0.305252   -0.804710   -0.136928
O    -0.568840    1.531476    0.189000    0.710128    0.778584    0.096172
O    -2.846739   -0.117651    1.435165   -0.085278   -0.003854    0.095278
H    -1.657456   -1.367596    0.251755   -0.527516   -0.446036    0.032404
O     0.527902    2.928998    0.384934    0.007910    0.018056   -0.001386
H     0.472656    2.862749    1.352780   -0.016472    0.014108   -0.003790
H     0.002199    0.869604   -0.235674   -0.618816   -0.734748   -0.095038
H    -2.848287   -0.334343   -0.628208   -0.013604    0.017330   -0.020314
10
* Frequency(6) -535.0400
C    -2.191992   -0.389997    0.229578    0.237684    0.130706   -0.050550
H    -2.269370   -0.375884    2.163982   -0.056970   -0.030328    0.034134
H    -1.466706    0.400786    0.038642   -0.305252   -0.804710   -0.136928
O    -0.646225    1.446631    0.178520    0.710128    0.778584    0.096172
O    -2.837446   -0.117231    1.424782   -0.085278   -0.003854    0.095278
H    -1.599971   -1.318990    0.248224   -0.527516   -0.446036    0.032404
O     0.527040    2.927030    0.385085    0.007910    0.018056   -0.001386
H     0.474451    2.861212    1.353193   -0.016472    0.014108   -0.003790
H     0.069633    0.949672   -0.225317   -0.618816   -0.734748   -0.095038
H    -2.846805   -0.336232   -0.625994   -0.013604    0.017330   -0.020314
10
* Frequency(6) -535.0400
C    -2.219378   -0.405057    0.235402    0.237684    0.130706   -0.050550
H    -2.262806   -0.372390    2.160050   -0.056970   -0.030328    0.034134
H    -1.431536    0.493502    0.054418   -0.305252   -0.804710   -0.136928
O    -0.728043    1.356925    0.167440    0.710128    0.778584    0.096172
O    -2.827620   -0.116787    1.413804   -0.085278   -0.003854    0.095278
H    -1.539193   -1.267600    0.244490   -0.527516   -0.446036    0.032404
O     0.526128    2.924950    0.385245    0.007910    0.018056   -0.001386
H     0.476349    2.859586    1.353629   -0.016472    0.014108   -0.003790
H     0.140931    1.034326   -0.214367   -0.618816   -0.734748   -0.095038
H    -2.845237   -0.338228   -0.623654   -0.013604    0.017330   -0.020314
10
* Frequency(6) -535.0400
C    -2.245279   -0.419300    0.240911    0.237684    0.130706   -0.050550
H    -2.256598   -0.369085    2.156330   -0.056970   -0.030328    0.034134
H    -1.398272    0.581194    0.069340   -0.305252   -0.804710   -0.136928
O    -0.805428    1.272080    0.156960    0.710128    0.778584    0.096172
O    -2.818327   -0.116367    1.403421   -0.085278   -0.003854    0.095278
H    -1.481708   -1.218994    0.240959   -0.527516   -0.446036    0.032404
O     0.525266    2.922982    0.385396    0.007910    0.018056   -0.001386
H     0.478144    2.858049    1.354042   -0.016472    0.014108   -0.003790
H     0.208365    1.114394   -0.204010   -0.618816   -0.734748   -0.095038
H    -2.843755   -0.340117   -0.621440   -0.013604    0.017330   -0.020314
10
* Frequency(6) -535.0400
C    -2.266889   -0.431184    0.245507    0.237684    0.130706   -0.050550
H    -2.251418   -0.366327    2.153226   -0.056970   -0.030328    0.034134
H    -1.370518    0.654360    0.081789   -0.305252   -0.804710   -0.136928
O    -0.869994    1.201290    0.148215    0.710128    0.778584    0.096172
O    -2.810574   -0.116017    1.394759   -0.085278   -0.003854    0.095278
H    -1.433745   -1.178439    0.238013   -0.527516   -0.446036    0.032404
O     0.524547    2.921341    0.385522    0.007910    0.018056   -0.001386
H     0.479642    2.856766    1.354387   -0.016472    0.014108   -0.003790
H     0.264629    1.181199   -0.195369   -0.618816   -0.734748   -0.095038
H    -2.842518   -0.341693   -0.619593   -0.013604    0.017330   -0.020314
10
* Frequency(6) -535.0400
C    -2.281868   -0.439421    0.248692    0.237684    0.130706   -0.050550
H    -2.247828   -0.364416    2.151075   -0.056970   -0.030328    0.034134
H    -1.351281    0.705070    0.090418   -0.305252   -0.804710   -0.136928
O    -0.914745    1.152226    0.142155    0.710128    0.778584    0.096172
O    -2.805200   -0.115774    1.388754   -0.085278   -0.003854    0.095278
H    -1.400502   -1.150331    0.235971   -0.527516   -0.446036    0.032404
O     0.524049    2.920203    0.385609    0.007910    0.018056   -0.001386
H     0.480680    2.855877    1.354626   -0.016472    0.014108   -0.003790
H     0.303625    1.227501   -0.189380   -0.618816   -0.734748   -0.095038
H    -2.841661   -0.342785   -0.618313   -0.013604    0.017330   -0.020314
10
* Frequency(6) -535.0400
C    -2.288590   -0.443118    0.250122    0.237684    0.130706   -0.050550
H    -2.246217   -0.363558    2.150110   -0.056970   -0.030328    0.034134
H    -1.342648    0.727831    0.094291   -0.305252   -0.804710   -0.136928
O    -0.934830    1.130204    0.139435    0.710128    0.778584    0.096172
O    -2.802788   -0.115665    1.386060   -0.085278   -0.003854    0.095278
H    -1.385582   -1.137716    0.235054   -0.527516   -0.446036    0.032404
O     0.523825    2.919692    0.385648    0.007910    0.018056   -0.001386
H     0.481146    2.855478    1.354733   -0.016472    0.014108   -0.003790
H     0.321128    1.248282   -0.186692   -0.618816   -0.734748   -0.095038
H    -2.841276   -0.343275   -0.617738   -0.013604    0.017330   -0.020314
10
* Frequency(6) -535.0400
C    -2.286329   -0.441874    0.249641    0.237684    0.130706   -0.050550
H    -2.246759   -0.363847    2.150435   -0.056970   -0.030328    0.034134
H    -1.345552    0.720174    0.092988   -0.305252   -0.804710   -0.136928
O    -0.928073    1.137612    0.140350    0.710128    0.778584    0.096172
O    -2.803599   -0.115701    1.386966   -0.085278   -0.003854    0.095278
H    -1.390601   -1.141959    0.235363   -0.527516   -0.446036    0.032404
O     0.523900    2.919864    0.385635    0.007910    0.018056   -0.001386
H     0.480989    2.855612    1.354697   -0.016472    0.014108   -0.003790
H     0.315240    1.241292   -0.187597   -0.618816   -0.734748   -0.095038
H    -2.841405   -0.343110   -0.617932   -0.013604    0.017330   -0.020314
10
* Frequency(6) -535.0400
C    -2.275328   -0.435825    0.247302    0.237684    0.130706   -0.050550
H    -2.249395   -0.365251    2.152014   -0.056970   -0.030328    0.034134
H    -1.359680    0.682931    0.086651   -0.305252   -0.804710   -0.136928
O    -0.895207    1.173646    0.144801    0.710128    0.778584    0.096172
O    -2.807546   -0.115880    1.391376   -0.085278   -0.003854    0.095278
H    -1.415015   -1.162603    0.236862   -0.527516   -0.446036    0.032404
O     0.524266    2.920699    0.385571    0.007910    0.018056   -0.001386
H     0.480226    2.856265    1.354522   -0.016472    0.014108   -0.003790
H     0.286600    1.207286   -0.191995   -0.618816   -0.734748   -0.095038
H    -2.842035   -0.342308   -0.618872   -0.013604    0.017330   -0.020314
10
* Frequency(6) -535.0400
C    -2.256781   -0.425625    0.243357    0.237684    0.130706   -0.050550
H    -2.253841   -0.367617    2.154678   -0.056970   -0.030328    0.034134
H    -1.383500    0.620136    0.075966   -0.305252   -0.804710   -0.136928
O    -0.839793    1.234402    0.152305    0.710128    0.778584    0.096172
O    -2.814200   -0.116180    1.398811   -0.085278   -0.003854    0.095278
H    -1.456180   -1.197409    0.239391   -0.527516   -0.446036    0.032404
O     0.524884    2.922108    0.385463    0.007910    0.018056   -0.001386
H     0.478941    2.857366    1.354226   -0.016472    0.014108   -0.003790
H     0.238312    1.149951   -0.199411   -0.618816   -0.734748   -0.095038
H    -2.843096   -0.340956   -0.620457   -0.013604    0.017330   -0.020314
10
* Frequency(6) -535.0400
C    -2.232697   -0.412381    0.238235    0.237684    0.130706   -0.050550
H    -2.259614   -0.370690    2.158137   -0.056970   -0.030328    0.034134
H    -1.414431    0.538595    0.062091   -0.305252   -0.804710   -0.136928
O    -0.767836    1.313296    0.162051    0.710128    0.778584    0.096172
O    -2.822842   -0.116571    1.408465   -0.085278   -0.003854    0.095278
H    -1.509633   -1.242605    0.242674   -0.527516   -0.446036    0.032404
O     0.525685    2.923938    0.385323    0.007910    0.018056   -0.001386
H     0.477272    2.858796    1.353842   -0.016472    0.014108   -0.003790
H     0.175607    1.075499   -0.209041   -0.618816   -0.734748   -0.095038
H    -2.844475   -0.339199   -0.622515   -0.013604    0.017330   -0.020314
10
* Frequency(6) -535.0400
C    -2.205685   -0.397527    0.232490    0.237684    0.130706   -0.050550
H    -2.266088   -0.374137    2.162016   -0.056970   -0.030328    0.034134
H    -1.449121    0.447144    0.046530   -0.305252   -0.804710   -0.136928
O    -0.687134    1.401778    0.172980    0.710128    0.778584    0.096172
O    -2.832533   -0.117009    1.419293   -0.085278   -0.003854    0.095278
H    -1.569582   -1.293295    0.246357   -0.527516   -0.446036    0.032404
O     0.526584    2.925990    0.385165    0.007910    0.018056   -0.001386
H     0.475400    2.860399    1.353411   -0.016472    0.014108   -0.003790
H     0.105282    0.991999   -0.219842   -0.618816   -0.734748   -0.095038
H    -2.846021   -0.337230   -0.624824   -0.013604    0.017330   -0.020314
