10
Coordinates from ORCA-job job.QMRegion
  C          -2.25617694248903     -0.43676461069514      0.27678456560873
  H          -2.37100387144073     -0.51700975893552      2.20626169271409
  H          -1.45889880326630      0.52403952189713      0.13855148002238
  O          -0.57752849319522      1.45033367864250      0.12397439858330
  O          -2.92236062943872     -0.23110436600641      1.46300901859333
  H          -1.60156762991288     -1.31770631013623      0.26193273674039
  O           0.60781778591434      2.89241197865628      0.16737584398857
  H           0.46979379357758      3.03459953146733      1.11895679034562
  H           0.19593988528640      0.88754416103941     -0.06524859352719
  H          -2.87893441430717     -0.35665117672857     -0.59239626863509
