134
Coordinates from ORCA-job job E -256.608603419540
  C          -0.55809696665258      4.61219633734650      0.95726545667457
  C           4.53299296584979      3.31526236879920      0.49739971360488
  C           5.03034639209850     -1.77919101858881     -0.11631681658456
  C           0.66710846312372     -4.74407602828368     -0.20676188142310
  C          -4.23358188256097     -3.21602837385186     -1.34849408708486
  C          -4.87017785916714      1.82313443080967     -0.24701223568314
  O           0.41866825973722      3.64472777022770      0.66135165382133
  O           4.41519455945623      2.05780616276625      1.08404288943116
  O           3.61237393801139     -1.87115788368680     -0.07710112031061
  O          -0.23805888397277     -3.70818710094633     -0.49910577861210
  O          -4.22599090726015     -2.18707640969428     -0.40961601437385
  O          -3.50954428697468      1.85244940093734      0.12094333430655
  C          -1.37175797183550      4.12259443653681      2.16810083426105
  C           4.01765523316614      4.35103261895606      1.51707052461114
  C           5.61385440166407     -1.43620850498942      1.26794441678406
  C           1.24362334062826     -4.47510988188107      1.19302677999112
  C          -3.91402882982388     -4.51874707143213     -0.58670717730710
  C          -5.67057610128390      1.00553368336474      0.78388403753663
  O          -0.56348967930712      3.84463973459829      3.28061308748817
  O           4.73030898255667      4.30707593205915      2.71950776625796
  O           5.40397001207238     -2.42761326940584      2.23226123303858
  O           0.24349602881132     -4.39380736701517      2.17289670193867
  O          -4.85881308528474     -4.79129598316354      0.40723709271128
  O          -5.66226723552060      1.57739331502722      2.06187281332219
  C          -2.10730299523281      2.83833090110630      1.76673176664312
  C           2.51644371058920      4.12287886345551      1.76802821935065
  C           5.03169607458407     -0.08947748871710      1.70895618199077
  C           1.98534721049973     -3.13304318197615      1.14722946589813
  C          -2.50215702770309     -4.41201528335180      0.01974628688513
  C          -5.09581941603373     -0.41603400360250      0.80695429232156
  O          -2.95947255057398      2.38335541975867      2.78908130838220
  O           1.98695075181930      5.11966637155398      2.61366588939104
  O           5.60161434052108      0.34220866159093      2.91874668522117
  O           2.61689535528634     -2.84530560076729      2.37060915216911
  O          -2.12982134046766     -5.60517996066040      0.66959139019143
  O          -5.85379874712000     -1.26746500705409      1.62873101996949
  C          -2.95230192668308      3.09507998848751      0.51516477923138
  C           1.73793467105405      4.11008392733937      0.44180027255849
  C           5.27886673129313      1.00478351463630      0.66028594718745
  C           3.04925350968116     -3.17269248742628      0.04375776322465
  C          -1.47765918192421     -4.07568886012022     -1.07611367442756
  C          -5.05204030681268     -1.04087106195084     -0.59526636590945
  C          -2.07842169687765      3.69013404243446     -0.60360239040279
  C           2.42030813657412      3.10599487381324     -0.48996036465552
  C           4.99410802854376      0.53310374028459     -0.78166234982072
  C           2.42264377532651     -3.60257684248172     -1.29704649318334
  C          -1.97775937934128     -2.83557542406388     -1.82285025622144
  C          -4.49397875761135     -0.06561145350502     -1.65283799981595
  O          -1.39879386153987      4.85308938626393     -0.13463350030045
  O           3.78325655863927      3.42110785062023     -0.69794534540691
  O           5.41502463840681     -0.81244451307348     -1.03602196576059
  O           1.69822880291609     -4.82027948443020     -1.15051030161378
  O          -3.26764459480655     -3.01900078903502     -2.36632699887489
  O          -5.02030744178032      1.25273336094458     -1.51299405893591
  C          -2.92020251551862      4.12548465799622     -1.80888186270443
  C           1.74540025350846      2.98643890058824     -1.85362735658744
  C           5.76120792981455      1.35916830189485     -1.83287132625894
  C           3.49344122978951     -3.83826664297621     -2.36978218270623
  C          -1.02506147777603     -2.40580349975760     -2.93498830852141
  C          -4.86559426645521     -0.47379190158305     -3.09001377091039
  O          -3.89926043635649      5.07098517223549     -1.46207723869944
  O           2.21860800024774      1.91089942641911     -2.46682795011150
  O           7.12689161438004      1.47946821057345     -1.53354484336905
  O           4.46964624006510     -4.76119837111492     -1.96241224697672
  O          -1.31257735529399     -1.16237475899614     -3.30590560996538
  O          -6.24234633329395     -0.70023193744421     -3.23736632737758
  H          -0.09273742194700      5.57996863738519      1.18145975014046
  H           5.56975101384290      3.53480510630240      0.21130428225854
  H           5.45744784584657     -2.72082717736553     -0.48504367214508
  H           0.16996842200272     -5.72053160809397     -0.23821994103099
  H          -5.19460142919288     -3.28815292450279     -1.87230641428211
  H          -5.27820786053963      2.83766900905629     -0.33355838796772
  H          -2.11353077466448      4.89699410400780      2.42206123713123
  H           4.16472601357244      5.35326257288944      1.10052007753507
  H           6.70063615737320     -1.34789828680505      1.16060227020700
  H           1.95765401754639     -5.27780062158454      1.43658908379664
  H          -3.94538517602250     -5.35728425172696     -1.29025132772544
  H          -6.71947051449457      0.97295039378525      0.47060463403041
  H           0.22685003121861      4.41358884379393      3.26293002989149
  H           4.83691246746500      3.38095864253957      2.99192783987809
  H           4.44443254077977     -2.57823024637772      2.35274044256956
  H          -0.46658710365491     -5.02308922742013      1.96588421031284
  H          -5.05089387826627     -3.97545376482635      0.89859956430773
  H          -4.74666613508040      1.78842661471977      2.33042007000096
  H          -1.35350862793562      2.07357213064247      1.52937440394435
  H           2.38576377066040      3.13500934217332      2.23636093098272
  H           3.94130897967670     -0.20297440917370      1.82585140054152
  H           1.25264402513006     -2.34834370052712      0.90897892778670
  H          -2.49682152308456     -3.58277819430416      0.74436644299824
  H          -4.05911335012676     -0.35848923002105      1.17675916936504
  H          -2.45589493704749      2.37234558468037      3.61843470410526
  H           2.66806526478062      5.34196246066073      3.27178202806285
  H           5.68694049884227     -0.42728838087310      3.50495245553011
  H           1.97968253647738     -2.99826660487675      3.08616018719743
  H          -2.92616435250741     -5.97517515585937      1.08822248639361
  H          -6.08417799619231     -0.78228019339468      2.43740870258907
  H          -3.74994432097615      3.80602633302594      0.76504804605914
  H           1.72727506463850      5.10732780923916     -0.01386744812830
  H           6.32387179433715      1.33892171819791      0.73230142013427
  H           3.82604282182327     -3.89358353372256      0.32346056141167
  H          -1.35132133241328     -4.91781696868014     -1.76652754576098
  H          -6.06349911031328     -1.35538656940242     -0.88560088857583
  H          -1.34442186124124      2.94219573106187     -0.92599909101911
  H           2.33038441257059      2.11141321925817     -0.02542105104097
  H           3.92005737184847      0.62660529653841     -0.97517632079021
  H           1.73834202244406     -2.82168194919750     -1.64812869606561
  H          -2.00278281287770     -2.01070636816676     -1.09398846166476
  H          -3.40161646569264     -0.02915351536990     -1.54758529836273
  H          -3.45026199149058      3.25826946013208     -2.20665064603283
  H          -2.24052413615534      4.51953738347088     -2.57185317387426
  H           5.61416580929096      0.86861046481210     -2.80076039302918
  H           5.35350411077661      2.36798935870935     -1.88289592606388
  H           4.01310005465170     -2.89807141606424     -2.56448027675003
  H           2.98858866154679     -4.16787582702557     -3.28364510808025
  H          -4.52735153857174      0.32686350019041     -3.75659372028212
  H          -4.36102749647443     -1.40106318415865     -3.35993933334868
  H          -3.44984708641981      5.87382155459645     -1.16027844562903
  H           7.54106056217247      0.60923548853227     -1.62420068773527
  H           4.05498464476476     -5.63263651905947     -1.88516589405876
  H          -6.70734223434358      0.14090687725622     -3.12043270711387
  C          -0.32132355551019     -0.42561161695270     -4.02224972856292
  H          -0.84227914448928      0.24111303602914     -4.70623522330364
  H           0.35843524756525     -1.10482604978466     -4.53842729310238
  O          -0.13429383935104     -3.07109066985218     -3.38935792351496
  C           1.47540529103591      1.35669648494672     -3.54726286442757
  H           2.18642232353851      0.81527025854836     -4.16788301086484
  H           0.95743689417411      2.14588315471992     -4.09626269781453
  O           0.91518918577709      3.73352272003699     -2.29828127498890
  C           0.43084712980201      0.39303192439889     -2.94420135631155
  O           1.03714218212934     -0.63467294553150     -2.16295315477132
  O          -0.44881611866275      1.14912602570252     -2.18940257412291
  O           1.51995456666351     -0.15245617634983     -0.91020197721221
  H          -1.21245344255742      0.60200704946451     -1.94611798272207
  H           2.26428729216204     -0.76670527675257     -0.70738132158221
