25
Coordinates from ORCA-job job.QMRegion
  C          -1.33511447869910      2.64608010055395      2.33786590546363
  C           1.36382449190422     -3.16800252352457      2.30278520656287
  O          -1.61086905479653      1.35252876829635      2.61155938815699
  O           1.74818817968808     -2.03176291000756      2.96326804251346
  C           0.74779784452054     -1.36769624838730      3.75369227542011
  H           1.27839796340687     -0.83548633014994      4.53913430194265
  H           0.06038139677805     -2.08720762985323      4.19068490065248
  O           0.56899873178098     -3.96441606823276      2.72128460201842
  C          -0.80911654594302      0.63940687487689      3.56105133756899
  H          -1.50027110782855      0.14747315612885      4.24402751486746
  H          -0.16573725845681      1.31998578527796      4.10915867864834
  O          -0.57013678740172      3.35258797777465      2.94406308308920
  C          -0.02161238351327     -0.43350466158040      2.80059693214985
  O          -0.64943066346867     -1.07136981644185      1.87015567583911
  H          -1.17306859705497     -0.38102922133748      0.73716772457083
  O          -1.31857740943342      0.05523601679260     -0.22602833914977
  H          -0.02803102845770      0.11989836788482     -0.46909450322582
  O           1.09602922877934      0.12839767067317     -0.30044340127266
  H           1.14663525299646      0.28948136960838      0.80220509286872
  O           1.19847176206217      0.46960989565553      2.13473986723065
  H           1.99279538244645     -0.03828570813845      2.35390735567270
  H           1.55495924439227      0.87722399956210     -0.71371726131229
  H          -1.82675727752804     -0.60558632776927     -0.72200571453676
  H          -1.93604179020866      2.93206638592515      1.46195650414602
  H           1.91916523099669     -3.23758455704608      1.35541288617125
