139
Coordinates from ORCA-job job
C      0.4355181283    4.7656988528   -0.0690380987
C     -4.5788630545    3.3782945065    0.4172225133
C     -4.8665396351   -1.6681114512   -0.7797422798
C     -0.6520322407   -4.8112750720   -0.5618903987
C      4.3946583255   -3.5025616108    0.0976477547
C      4.6616757775    1.6575811005   -0.5140054091
O     -0.4964715894    3.7777476350    0.3199723006
O     -4.3700430487    2.3893861286   -0.5383730727
O     -3.4616939553   -1.7817006650   -0.8505587050
O      0.3468752850   -3.8666560241   -0.2868435889
O      4.2299177652   -2.4144892295   -0.7499188021
O      3.2558223777    1.7685134338   -0.5688142476
C      0.8995034037    4.4822002989   -1.5169894380
C     -4.1156844173    4.7081191879   -0.2003293606
C     -5.3710359458   -0.8617876772   -1.9877704293
C     -1.2093453203   -4.5351354295   -1.9716056648
C      3.9775595021   -4.7559278981   -0.6980142992
C      5.1756764975    1.0059898539   -1.8115384221
O     -0.1351554635    4.5150994708   -2.4592635190
O     -4.8242097791    5.0463022703   -1.3578035840
O     -5.0330126783   -1.4505786341   -3.2115954066
O     -0.2184547252   -4.5621908268   -2.9609977201
O      4.7699618455   -4.9476793544   -1.8344194272
O      4.7717145336    1.7188172893   -2.9485717587
C      1.4928302818    3.0694126915   -1.4980738375
C     -2.6132298015    4.6131479739   -0.5092558764
C     -4.8284051270    0.5693510968   -1.8855432206
C     -1.8371090895   -3.1355852092   -1.9538247353
C      2.4955227082   -4.6278822088   -1.0919727160
C      4.7148912574   -0.4580729693   -1.8842349721
O      1.9118285006    2.6052531754   -2.7585955765
O     -2.1482433588    5.8545511612   -1.0000170340
O     -5.3800933283    1.3909255493   -2.8835634877
O     -2.4363589505   -2.8013592910   -3.1793123719
O      2.0409450126   -5.8000463886   -1.7356748372
O      5.3474803419   -1.1309061124   -2.9462994406
C      2.6989435942    3.0751464327   -0.5546840236
C     -1.7834721137    4.1875100556    0.7224788883
C     -5.1552973476    1.2036047320   -0.5255658134
C     -2.9121448322   -3.0923010834   -0.8644399322
C      1.6111130065   -4.3452538282    0.1350276561
C      5.0226911063   -1.2376747878   -0.5964951410
C      2.2344886844    3.5106154706    0.8484338208
C     -2.4648016294    2.9435550011    1.3337147689
C     -4.8319704957    0.2589744479    0.6511456035
C     -2.3136284594   -3.4877654074    0.4971555027
C      2.2311930640   -3.1914193148    0.9285806182
C      4.6612278587   -0.4355596839    0.6692593758
O      1.5464971193    4.7665762818    0.7824733405
O     -3.8292553727    3.1620160698    1.5953384000
O     -5.2861420929   -1.0739283567    0.4103874049
O     -1.6779411894   -4.7597787683    0.3927840808
O      3.5841320713   -3.4099241258    1.2607679456
O      5.0750529928    0.9314425808    0.6039549025
C      3.4212493526    3.7182046967    1.7965615413
C     -1.8980567433    2.3596263893    2.6151634369
C     -5.5482340217    0.6589278198    1.9535939284
C     -3.4019792648   -3.6376875043    1.5662159495
C      1.4783286439   -2.8672424981    2.2097788455
C      5.3567029381   -0.9760463628    1.9325731405
O      4.3361118491    4.6660997654    1.3034020695
O     -0.5609078451    2.3174812848    2.6303598169
O     -6.9270740315    0.8419741251    1.7662534125
O     -4.3425078960   -4.6231753975    1.2264658871
O      1.9811409461   -1.7257640689    2.7140470062
O      6.7383185158   -1.1531837386    1.7526713968
H      0.0033468240    5.7688553902    0.0130100559
H     -5.6270043131    3.4262718462    0.7387935160
H     -5.3300677523   -2.6627759277   -0.7707091017
H     -0.2570467333   -5.8325431936   -0.4999927188
H      5.4240651268   -3.5930676245    0.4652772431
H      5.1214602142    2.6459957084   -0.3928000428
H      1.6738274378    5.2227787573   -1.7748148120
H     -4.2934832177    5.5089866453    0.5252958112
H     -6.4658180550   -0.8292381427   -1.9519410971
H     -1.9880481411   -5.2837016228   -2.1883037718
H      4.1141990233   -5.6381383753   -0.0644082867
H      6.2705994976    1.0312033958   -1.8049575585
H     -0.7428677638    5.2424327184   -2.2448274834
H     -4.8899088895    4.2626351755   -1.9284569226
H     -4.1117677301   -1.7774079592   -3.1938491239
H      0.4915113850   -5.1791881166   -2.7035371244
H      4.8500005991   -4.1027798343   -2.3088936105
H      3.8148413288    1.9132105918   -2.8992536222
H      0.7027077782    2.4232890983   -1.0891112999
H     -2.4702349166    3.8365255024   -1.2765492182
H     -3.7325761239    0.5455483087   -1.9821174118
H     -1.0410358450   -2.4187975749   -1.7088115399
H      2.3915448326   -3.7706614720   -1.7744030855
H      3.6249690728   -0.4859772466   -2.0260722955
H      1.2423645647    2.8568289615   -3.4127526067
H     -2.8852339065    6.2698031736   -1.4809367016
H     -5.3402267205    0.9084990494   -3.7255252568
H     -1.7970443220   -2.9889215959   -3.8858358590
H      2.7673222975   -6.1296917934   -2.2918272066
H      5.2608767129   -0.5851169256   -3.7434264279
H      3.4379658693    3.7958972197   -0.9271092483
H     -1.7330275725    5.0100348274    1.4482700115
H     -6.2216482819    1.4675584627   -0.4898389214
H     -3.6960835772   -3.8171609689   -1.1191056479
H      1.5064789903   -5.2417811489    0.7571882921
H      6.0867934127   -1.5064665810   -0.5736394530
H      1.5543516868    2.7523799487    1.2505075805
H     -2.3401273480    2.1408575008    0.5781535682
H     -3.7491233904    0.2516358995    0.8285251948
H     -1.5913402781   -2.7306598978    0.8295792830
H      2.1505130843   -2.2996767005    0.2805956209
H      3.5760206286   -0.4894190632    0.8074351445
H      3.9754893992    2.7838270632    1.8988616357
H      3.0371082405    4.0243839598    2.7761087565
H     -5.3504840273   -0.1288560830    2.6893724482
H     -5.1435130115    1.5935570488    2.3398425587
H     -3.9483260779   -2.6977138024    1.6613845822
H     -2.9154720101   -3.8659545534    2.5211475887
H      5.1614661069   -0.2690620050    2.7471749167
H      4.9419947161   -1.9459815980    2.2043975742
H      3.8765775974    5.5143172567    1.2270763341
H     -7.3246432340   -0.0163912926    1.5582372862
H     -3.8821444953   -5.4750937032    1.1859469660
H      7.1428952455   -0.2844702864    1.6141840547
C      1.1749098948   -0.9000223753    3.5709915067
H      1.8726100253   -0.4258646035    4.2575345641
H      0.4521164519   -1.4918738724    4.1243430808
O      0.5910810237   -3.5252861251    2.7107919006
C      0.0628605822    1.3688799689    3.5170005040
H     -0.6119608750    1.1057223440    4.3275663545
H      0.9477698613    1.8643440370    3.9068082689
O     -2.6162626452    1.9421283500    3.5043798006
C      0.4142271653    0.1166267734    2.6725762275
O     -0.6166784965   -0.4238587666    2.0448258918
H     -1.1002317865   -0.0095115772    0.5496765251
O     -1.3421697125    0.1842432714   -0.4092910836
H      0.1919802414   -0.0481180824   -0.9163128819
O      1.2028712832   -0.1674442740   -0.8290822552
H      1.3663941783    0.1769210845    0.3878120368
O      1.4059347770    0.6280351551    1.6634189275
H      2.3077980329    0.5564234933    2.0095982554
H      1.6379460578    0.5408687866   -1.3397042422
H     -1.9517249048   -0.5262616233   -0.6659100853
