145
Coordinates from ORCA-job job
  C          -0.96102036497854      4.49153174951639     -0.38993095379290
  O          -1.25698819708051      3.22022599645656     -0.92303683058845
  C          -0.05355625886659      5.21706249773779     -1.39198888290342
  O          -0.36565782216879      4.42500167156991      0.87052260158721
  C          -2.56920190967912      2.73110011576108     -0.73091470162091
  O          -0.65005619699825      5.36641863102407     -2.64808871061623
  C           1.26355081345786      4.43367298296497     -1.47969455160386
  C           0.91009928018722      3.78777238215493      0.94077076540081
  C          -3.22081865712877      2.51410906219485     -2.10362863933535
  C          -2.57284119450883      1.38623586747493      0.01142987896957
  O           2.17333623516744      5.04254749351971     -2.35647673617193
  C           1.90562850948556      4.35405778068959     -0.08833594625203
  C           1.37436731561800      4.03963203965318      2.38445837255741
  C          -4.63089463171589      1.92189341994324     -1.91550047819474
  O          -3.25274037378819      3.74614789177316     -2.77214772631616
  O          -3.90218401238818      0.94325746898296      0.18332011668986
  C          -1.93823859592330      1.47459231305084      1.39110125571928
  O           3.04142392463439      3.52002399675544     -0.23739981678506
  O           1.53088407278298      5.40634184811207      2.64631980159865
  C          -4.52590894182665      0.64759053013624     -1.05234426635038
  O          -5.24085577332144      1.66769424807552     -3.14556749569236
  O          -0.80436866079372      0.79610019731473      1.39049441250651
  O          -2.38669350735111      2.07913553934713      2.33119934239741
  C           4.19158861676836      3.79130250936532      0.51650277976420
  O          -3.81699693679088     -0.28881609812947     -1.80338051622797
  C          -0.10973665516903      0.58309069617130      2.60882551270679
  C           5.39412692788984      3.48526311752589     -0.39084607121477
  O           4.28306455981637      3.04374299105204      1.69833977359926
  C          -4.14184125318856     -1.67007728683574     -1.69442399441260
  C          -0.38878974112005     -0.83941064647297      3.10259546038490
  O           5.36695688768076      4.24041621584511     -1.56877100646927
  C           5.38983011657593      1.97955723608339     -0.69681443108528
  C           4.24213206117927      1.62597451977222      1.54020284939136
  C          -3.77717098128920     -2.23390475274698     -3.07423115561786
  C          -3.38946831466738     -2.38174156386172     -0.55191854932600
  C           0.84124485394228     -1.58555578265732      3.62501393374100
  O           0.07438303730742     -1.72668211089959      0.59057785592994
  O          -1.50844823165188     -1.30434452646069      3.14508785505980
  O           6.53045686890615      1.60155754593082     -1.42121335214823
  C           5.34337901664243      1.13553262571543      0.58381091723523
  C           4.40911487639396      1.07294228047222      2.96473731363438
  C          -3.81519838451515     -3.76647570917771     -3.09614439239967
  O          -4.65671005539272     -1.67065754509731     -4.01109719481816
  O          -3.43137200521332     -3.79715910641404     -0.71465029607271
  C          -4.04212144172945     -2.12820822733320      0.81608054598661
  O           1.90786214621934     -1.46372522576589      2.68976484790910
  O           5.11492890826065     -0.18560150875820      0.10360703465082
  O           5.68556952762578      1.32648858937519      3.48473144488428
  C          -2.92906015073568     -4.26321530953369     -1.93972419453967
  O          -3.37951725750089     -4.25824050735323     -4.33208900325375
  O          -5.37564322885506     -2.55321109005221      0.84040619997111
  C           2.12776701738983     -2.47144262179275      1.85597982694904
  C           5.46029632963131     -1.27779789007168      0.89476087074837
  O          -1.63581079951524     -3.79549865129978     -2.20740643529741
  C           3.24686311928303     -2.09637081817997      0.88532698356171
  O           1.62940220523688     -3.56519306058469      1.95622883493617
  C           5.95390164447554     -2.37556529162421     -0.06768646677802
  O           4.38139986311251     -1.77471192488063      1.66928894432254
  C          -0.53338295955348     -4.66823850415897     -2.04843357851968
  C           3.57360686792364     -3.21545041757299     -0.10703954961238
  O           7.04100040019034     -1.95236275115596     -0.83600843912164
  C           4.77533624695604     -2.78793194124186     -0.96330382166592
  C           0.52736615802990     -4.08682643570353     -2.99143556260805
  C          -0.01177389019234     -4.73809528749534     -0.60430400988609
  O           2.46528890490017     -3.44064279254483     -0.96088544826850
  O           5.12533277567013     -3.84508127184426     -1.82357297081810
  C           1.86749311017651     -4.80906035610819     -2.82392854298147
  O           0.03481904382693     -4.19289626763469     -4.30062172724925
  O           1.25262403001601     -5.39840547683460     -0.57179254576476
  C          -0.91996845692305     -5.54966363177783      0.32516627813578
  C           2.24401333276452     -4.77895227817896     -1.33640676508694
  O           2.83153875761424     -4.19910158458626     -3.64069635737905
  O          -1.14289653591363     -6.85216844858808     -0.14292541495371
  C           0.82109394583806     -0.07976183827816     -0.95470783698414
  O           1.61105339152407      0.38459129701747     -0.13391136559822
  C           0.68854960228642      0.39027148736312     -2.34526537224219
  C           1.76116793084307      1.08064109114792     -2.90892920919506
  C          -0.45816099185440      0.15153901546658     -3.09864867154596
  C           1.68559671968240      1.52802795946763     -4.21452854014987
  C          -0.52932953404899      0.60944609667412     -4.40166838363787
  C           0.53909020275503      1.29617836138586     -4.95876756027299
  H          -1.88595083772363      5.06176503560955     -0.22954884036786
  H           0.15651015763042      6.22553561365192     -1.01399299608355
  H          -3.16173151522221      3.44474647812379     -0.14387274400130
  H          -1.30985631040589      4.66784634623477     -2.79585868205773
  H           1.03956627056724      3.40826469906125     -1.81286070593196
  H           0.80854256347711      2.70987763757279      0.74831118370989
  H          -2.60139997188827      1.79559318290370     -2.66246344426878
  H          -1.99284104094061      0.64872018868212     -0.56021994444554
  H           1.66684687264347      5.45641492932474     -3.07601945805481
  H           2.22211098428862      5.35921803662608      0.22555969983172
  H           2.34635812015064      3.57411873557630      2.54584394109441
  H           0.63619081179450      3.59160055274796      3.06009682541442
  H          -5.25717613483887      2.65314406318291     -1.39280534563224
  H          -3.90362102176192      3.68662178216100     -3.49346838733197
  H           0.66447678794827      5.83464178867727      2.57346524064008
  H          -5.51923479516598      0.27136965066174     -0.77519393355867
  H          -4.94409982494013      0.80732079128998     -3.48781716390332
  H           4.20349766668131      4.83875500413501      0.84901262048049
  H           0.95535096532951      0.71121306900695      2.39484706814330
  H          -0.46999586742589      1.29511028525661      3.36749758522222
  H           6.32165604507764      3.74490653275119      0.12986145632009
  H          -5.22232053531551     -1.78218382584285     -1.52718372922236
  H           4.45162523076625      4.30593374831589     -1.89051616792035
  H           4.47637605631034      1.74467398347473     -1.26708885058474
  H           3.27034577057162      1.32021183018439      1.13242583646600
  H          -2.74128357820145     -1.92817857360437     -3.29134377124965
  H          -2.34345765685230     -2.04075413546446     -0.52373607845049
  H           1.18404656131515     -1.10573057292836      4.55095624679176
  H           0.59246897848416     -2.64126686105437      3.78856628536201
  H           6.68800280715487      2.27143093046476     -2.10793583737255
  H           6.31718558386343      1.17750419521716      1.09143824457926
  H           3.63234872988967      1.52636569935690      3.59202222661451
  H           4.26648642778591     -0.00745012054027      2.95915398974305
  H          -4.84062245074112     -4.12132414044385     -2.95656162211003
  H          -4.61814191460355     -2.20332825243065     -4.82371593358453
  H          -3.43734924436609     -2.63386300764582      1.57866589931810
  H          -4.03936550276328     -1.06097616830288      1.03956114393722
  H           5.79075709682916      2.28533616780915      3.58456398086290
  H          -2.95044256714279     -5.35826143432509     -1.86321464605334
  H          -2.41271358201721     -4.16592968077902     -4.39286982568067
  H          -5.39223105038006     -3.51772220710370      0.74129490022117
  H           6.23045543553362     -1.01679299424227      1.63249394186446
  H           2.90836826951077     -1.20731517383085      0.33891625130380
  H           6.28957641739098     -3.24033953410982      0.51367834417398
  H          -0.80959868170873     -5.67938550798185     -2.38281480903771
  H           3.80394074660272     -4.12787082354488      0.45813464675833
  H           6.88193931572843     -1.04560334676587     -1.15016333668649
  H           4.45883625991960     -1.91395020107571     -1.55461977123138
  H           0.66668015733789     -3.02950519509484     -2.71071762686941
  H           0.08446072621769     -3.71986465554858     -0.20239875076011
  H           6.04792473578581     -3.70423411329007     -2.10608270220258
  H           1.74259357950604     -5.86207733701271     -3.12265608258796
  H           0.76098700214566     -4.00038944102919     -4.91696625718666
  H          -1.89057411137830     -5.05836991986411      0.40018993531304
  H          -0.44848592794057     -5.55108100155858      1.31445420013892
  H           3.14809058915828     -5.37831502471247     -1.16356172080620
  H           3.67351393798321     -4.11654021398084     -3.15660852932210
  H          -0.29948103947873     -7.33028368131809     -0.12551846429537
  O          -0.02146329819583     -1.11116328013268     -0.72022952149052
  H           2.64027474529530      1.23965511536640     -2.29971609327574
  H          -1.27578237904751     -0.38863828820820     -2.64293252925340
  H           2.52014705157704      2.05612575520643     -4.64666208451545
  H          -1.42026300725549      0.42359222206486     -4.98045229554771
  H           0.47685213711930      1.64998984271634     -5.97534815287200
