140
Coordinates from ORCA-job job_IRC_B
  C           0.66414418147498      5.12053910721024     -0.12512599451655
  C          -4.26191101471390      3.24833436104170      0.33769817448186
  C          -4.90515452598486     -1.80667335621107     -0.67822733345851
  C          -0.79900108739401     -5.09973967860541     -0.37244502997361
  C           4.17597862402018     -3.30869249207152      0.06667247655661
  C           4.77565501124559      1.87871748585340     -0.66441203212947
  O          -0.18952062191457      4.00572507302629     -0.00690332935206
  O          -4.16186509024200      2.25235608250122     -0.63037838347865
  O          -3.52741271842590     -2.05199593560725     -0.84920427739172
  O           0.18649022952347     -4.10501864264326     -0.28727075793328
  O           3.83892810950223     -2.13660673225496     -0.59995832962562
  O           3.40823397205023      2.20185584380386     -0.76251645540239
  C           1.26915200388504      5.14849724813424     -1.54241722707145
  C          -3.90709263342804      4.58665889345451     -0.33990610154694
  C          -5.40305353340100     -1.00622797654276     -1.89275431970974
  C          -1.46365716326776     -5.01278979678812     -1.75919514923313
  C           3.87555149066374     -4.46885110800492     -0.90290996145832
  C           5.16143468719032      1.07070486216537     -1.91934759204038
  O           0.31514856368661      5.31697842529165     -2.55741937580972
  O          -4.71199961267426      4.83218694036871     -1.45739124911613
  O          -5.13525694430927     -1.66650206479847     -3.09918008860241
  O          -0.58630204757105     -5.24997912394961     -2.82394398957872
  O           4.59040372839954     -4.32301026819207     -2.09838215324140
  O           4.86937038134869      1.77092545288313     -3.09715671841573
  C           1.98056055577918      3.80568957402745     -1.75154727511518
  C          -2.42292300260704      4.59060467098258     -0.74382039261702
  C          -4.75865284487320      0.38722496273020     -1.87176694342156
  C          -2.06792973377202     -3.60591682288595     -1.88071477353842
  C           2.36451861209720     -4.48916364982437     -1.18804382255541
  C           4.42952325243217     -0.28020777764279     -1.88036778044516
  O           2.67199756608895      3.74159901570009     -2.97881020528369
  O          -2.05904791704066      5.86674335019998     -1.22669627499841
  O          -5.30012420009950      1.19841326724625     -2.88498486486249
  O          -2.74663967944529     -3.42295688373941     -3.09776241502127
  O           2.00630822081965     -5.63641435323432     -1.92625469650750
  O           4.84778768980215     -1.12375634703762     -2.92967612423289
  C           3.00988121724628      3.56307751108779     -0.64202289907286
  C          -1.51198115750653      4.21364020478181      0.43806381962384
  C          -4.97741302530013      1.09337725767810     -0.52678535957933
  C          -3.06800879990821     -3.38818519306644     -0.74335462099406
  C           1.50948384065225     -4.45387741513163      0.09093953569345
  C           4.70585439438781     -1.00905928649575     -0.55985268036274
  C           2.44595798258137      3.84229663223959      0.76601672534923
  C          -2.03455205919508      2.88210226998502      0.99586358482295
  C          -4.60321836098196      0.17157336368460      0.65352775783010
  C          -2.41252359939015     -3.66596995951338      0.62203124517915
  C           2.03857884220931     -3.34438262788391      1.00919704177048
  C           4.42720648862634     -0.09788850409882      0.64871361043103
  O           1.70074574330328      5.06108844525275      0.81422667547852
  O          -3.38365605113825      3.02408643046836      1.42159931564151
  O          -5.17658535256784     -1.13168564447938      0.50857683823188
  O          -1.77176067447393     -4.94129309448889      0.62603461971149
  O           3.42529732521541     -3.47674065818705      1.25632554858756
  O           5.06253434107979      1.17631738085892      0.50721917980414
  C           3.58142790856210      3.98894191675688      1.78706054028156
  C          -1.31346433417082      2.36132997131446      2.23790907182913
  C          -5.16937186172195      0.64967330000034      2.00249997431997
  C          -3.45528826905863     -3.71674933109030      1.74540782025237
  C           1.31012972731458     -3.21334670631619      2.34770001486761
  C           4.98124190832272     -0.68746874878203      1.95447197208484
  O           4.45486195657266      5.03871775935151      1.45044125826471
  O          -1.39550390317715      1.04505182351361      2.25187775233815
  O          -6.53808519936252      0.94623528088417      1.92308641489931
  O          -4.43439579388266     -4.68994942916087      1.50377014751767
  O           1.89872942060308     -2.28071527983359      3.10172114237767
  O           6.33384977348938     -1.05488901806256      1.84150609135806
  H           0.13031005902314      6.05497951764102      0.08287671673399
  H          -5.26726240308722      3.29065276985697      0.77624965764620
  H          -5.45626153255212     -2.75263672758116     -0.59787612316503
  H          -0.37379503024777     -6.09723377941864     -0.20639048914004
  H           5.22718842101570     -3.32061784814616      0.37936459833925
  H           5.38590562196065      2.78860162725446     -0.60816428969621
  H           2.00058610789936      5.97074021984752     -1.58391186410657
  H          -4.09091707532523      5.40174924691203      0.36804997346600
  H          -6.49144369687481     -0.89489829441018     -1.82835994580080
  H          -2.27281654157332     -5.75598684775168     -1.80279238682719
  H           4.18182117343934     -5.41811418711976     -0.45368178333489
  H           6.24236171409055      0.89046946437251     -1.91719168595660
  H          -0.52835493334733      5.60661181495828     -2.16069657091212
  H          -4.70974436919411      4.03279267934839     -2.00822668451048
  H          -4.24739850580297     -2.06696465180272     -3.06028483139571
  H           0.33019581584316     -5.35065631911828     -2.49425725960912
  H           4.50731386468893     -3.39734253174620     -2.39135237193466
  H           4.01568577982231      2.23487443723064     -2.99396815747857
  H           1.20220244064119      3.03263900898036     -1.71596351389695
  H          -2.27658383471945      3.83660310373923     -1.53261352420992
  H          -3.67323921475390      0.28095240540543     -2.01909050414180
  H          -1.24812920914976     -2.87783573570656     -1.78999570513066
  H           2.11945656265805     -3.58266862854498     -1.76314538667476
  H           3.34713458594495     -0.10519899741262     -1.96001073283843
  H           2.06633972155855      4.03484934344026     -3.67289952943658
  H          -2.77155335731703      6.16778609514256     -1.81342998352855
  H          -5.36347185117182      0.65393627208636     -3.68452520598129
  H          -2.19911799834025     -3.80940152727165     -3.79833119730826
  H           2.63551444739786     -5.71850236789830     -2.66146199362445
  H           4.88286082480111     -0.58469768529881     -3.73355355804066
  H           3.86608588967857      4.22599023688002     -0.82084418961759
  H          -1.55031074995814      4.98724889507736      1.21586901882356
  H          -6.03144751458695      1.39273166667771     -0.43570472219289
  H          -3.90652071406711     -4.08420960640285     -0.87830209306469
  H           1.53202545113964     -5.42534003451942      0.59830444416012
  H           5.75185612645901     -1.34246784682859     -0.54112739039321
  H           1.78905865766772      3.02489522968034      1.07420695391707
  H          -1.96293442415395      2.10807602774864      0.21830644359568
  H          -3.51005660527206      0.09763591613406      0.71681531092268
  H          -1.67188603834003     -2.88801938231690      0.84855062935445
  H           1.84874838862153     -2.38737836297205      0.50136843093134
  H           3.34600598426597      0.01832319742223      0.76136662109051
  H           4.18249425834249      3.07846854372932      1.79800150692636
  H           3.13580801110461      4.15052392754442      2.77537086196934
  H          -4.98733495698953     -0.14975396994265      2.73140414183449
  H          -4.66367020433988      1.55429806937554      2.33565411767843
  H          -3.97352580314922     -2.75836931763331      1.80783782008593
  H          -2.92697514032982     -3.91093932042517      2.68710022999969
  H           4.85760650199579      0.06031968591068      2.74593359091181
  H           4.42412133313769     -1.58755992724118      2.22264684798998
  H           3.92529906813392      5.84577064554519      1.39715834219614
  H          -6.99800037222290      0.13809551256671      1.65529861155754
  H          -3.98392736842920     -5.54220930116111      1.41507938828748
  H           6.83009437516170     -0.25467024979604      1.61677892755881
  C           0.96295288905075     -1.49265293288725      3.83329820960412
  H           1.54462956883699     -0.86444808530235      4.50940984573878
  H           0.24963270238692     -2.13098469885811      4.37665030077695
  O           0.41243243031808     -3.93009224499278      2.73042205882175
  C          -0.78063891443201      0.34033424103108      3.33944983385948
  H          -1.56463507745479     -0.20825032237718      3.87309953489078
  H          -0.29823478732383      1.06779617547176      4.00527151424432
  O          -0.78827305944828      3.04102549124308      3.08591097206330
  C           0.23990453307556     -0.64465672616290      2.75810220255805
  O          -0.15747258217977     -1.40150922970162      1.75338093118761
  H          -1.07016518222110     -0.62103110816692      0.36043469796613
  O          -1.36924560120919     -0.17492969444197     -0.46161530443540
  H           0.31464124280827      0.60067729315496     -0.57117650769741
  O           0.92856184934150      1.21037661102795     -0.08480715926758
  H           1.11511413567314      0.76351279620816      0.81526253454044
  O           1.39185629964293      0.21342721455500      2.18467013358772
  O           1.74632229825433      1.43899797761939      2.92662224619842
  H           2.67342259106248      1.24051036707601      3.17138103738607
  H          -1.87692863756513     -0.83330120004201     -0.95290163865842
  H           1.79718192071337      1.29388487409806     -0.54533652680769
