22
Coordinates from ORCA-job job_IRC_F.QMRegion
  O          -1.40418038578877      1.04111806484436      2.24920784817767
  O           1.89297360876993     -2.27958989082507      3.08474476911528
  C           0.94971489845677     -1.51082985565538      3.82318845662091
  H           1.52677699170779     -0.84277573376677      4.46703533290598
  H           0.27495763896872     -2.15021771246036      4.41021313615871
  C          -0.80459960722974      0.33572479463133      3.34343733760531
  H          -1.59984504321047     -0.16375596092720      3.90800464960168
  H          -0.26654329643970      1.04771450802593      3.98531811638618
  C           0.09114613498257     -0.76390203183604      2.79551124500232
  O          -0.20390458932285     -1.38715657393258      1.74922193816855
  H          -1.09091194238767     -0.61559579239540      0.35578288500666
  O          -1.37337737494923     -0.18416998497065     -0.47894511319744
  H           0.39598741493276      0.59744421177915     -0.63002150908329
  O           0.92425192762622      1.21194693505668     -0.08496087414141
  H           1.22354680991409      0.64937822653045      1.25000610289822
  O           1.52241782031793      0.29176635812794      2.17588071269962
  O           1.79701690378746      1.51734749139705      2.89851542125637
  H           2.69208764061775      1.27893346195847      3.21479896673520
  H          -1.93497487269354     -0.84670412955429     -0.90389860450152
  H           1.78221939599864      1.36276255800538     -0.52421839808607
  H          -1.33615733179425      1.98552912659499      2.23793237926323
  H           1.49036297307866     -2.96914789255493      2.56246989378591
