22
Coordinates from ORCA-job job_IRC_B.QMRegion
  O          -1.39550390317715      1.04505182351361      2.25187775233815
  O           1.89872942060308     -2.28071527983359      3.10172114237767
  C           0.96295288905075     -1.49265293288725      3.83329820960412
  H           1.54462956883699     -0.86444808530235      4.50940984573878
  H           0.24963270238692     -2.13098469885811      4.37665030077695
  C          -0.78063891443201      0.34033424103108      3.33944983385948
  H          -1.56463507745479     -0.20825032237718      3.87309953489078
  H          -0.29823478732383      1.06779617547176      4.00527151424432
  C           0.23990453307556     -0.64465672616290      2.75810220255805
  O          -0.15747258217977     -1.40150922970162      1.75338093118761
  H          -1.07016518222110     -0.62103110816692      0.36043469796613
  O          -1.36924560120919     -0.17492969444197     -0.46161530443540
  H           0.31464124280827      0.60067729315496     -0.57117650769741
  O           0.92856184934150      1.21037661102795     -0.08480715926758
  H           1.11511413567314      0.76351279620816      0.81526253454044
  O           1.39185629964293      0.21342721455500      2.18467013358772
  O           1.74632229825433      1.43899797761939      2.92662224619842
  H           2.67342259106248      1.24051036707601      3.17138103738607
  H          -1.87692863756513     -0.83330120004201     -0.95290163865842
  H           1.79718192071337      1.29388487409806     -0.54533652680769
  H          -1.33677875317776      1.98726340027805      2.24187876199579
  H           1.47699668542449     -2.94894736844807      2.56146365309726
