140
Coordinates from ORCA-job job_IRC_F
  C           0.66533145998448      5.12122854291795     -0.12596513581533
  C          -4.26261049095240      3.24887016220861      0.33547171035124
  C          -4.90577675548345     -1.80590940018104     -0.67829224011884
  C          -0.79940544641871     -5.09962177215390     -0.37185072993564
  C           4.17807490443151     -3.30984824233696      0.06594549854672
  C           4.78082803968747      1.87871503180709     -0.66508594905942
  O          -0.19059639885317      4.00518551881973     -0.00820867794302
  O          -4.16018886101440      2.25295472625610     -0.63281226106068
  O          -3.52732344939021     -2.05106293869580     -0.84971524828010
  O           0.18705023262336     -4.10366684426747     -0.28358283825539
  O           3.83788997259259     -2.13427370454542     -0.60220897878266
  O           3.41087997459862      2.20471820781106     -0.76874367832974
  C           1.26842951854812      5.14869134688541     -1.54319557368922
  C          -3.90924679754547      4.58747660008049     -0.34080207454672
  C          -5.40397712678420     -1.00660979084736     -1.89282731607555
  C          -1.46302956611591     -5.01311602032073     -1.75897202680561
  C           3.87608112768355     -4.46912500207766     -0.90360899658926
  C           5.16360184052330      1.07054386281981     -1.91965295567669
  O           0.31375997859370      5.31398600888172     -2.55716461522025
  O          -4.71382195857862      4.83624649589755     -1.45721272190140
  O          -5.13553884532621     -1.66658410142665     -3.09951886632104
  O          -0.58567504489013     -5.24951840613522     -2.82437451624621
  O           4.59071713300167     -4.32462515622983     -2.09947153009092
  O           4.87038627508625      1.76989644893168     -3.09846656221423
  C           1.98216409295338      3.80804289759804     -1.75035440812104
  C          -2.42434251824399      4.59144783754043     -0.74389932395146
  C          -4.75931049207920      0.38658402722445     -1.87104050689966
  C          -2.06819764794256     -3.60653360449819     -1.87989705861968
  C           2.36476970354345     -4.49032436721959     -1.18865014393927
  C           4.43230269884215     -0.27958399706354     -1.87977779870478
  O           2.66964212106520      3.74057155366049     -2.97827435286087
  O          -2.05855685286072      5.86493857357281     -1.22771815165062
  O          -5.29883472048107      1.19875492348626     -2.88426424571214
  O          -2.74662126144496     -3.42325029802952     -3.09781672191459
  O           2.00652326678499     -5.63664682755321     -1.92683084010848
  O           4.84533871189253     -1.12213893774827     -2.92937068026705
  C           3.01311763557151      3.56574491599087     -0.64329398689613
  C          -1.51443338610325      4.21510785270574      0.43814315588526
  C          -4.97703520327008      1.09315051418733     -0.52632728636244
  C          -3.06860357598421     -3.38883947902219     -0.74308202871949
  C           1.51021922602990     -4.45776706760652      0.08959625548700
  C           4.70722079601929     -1.01059593260886     -0.56078324849203
  C           2.44808662381298      3.84325160320747      0.76351688670183
  C          -2.03821415585614      2.88497484380363      0.99705330803458
  C          -4.60343853424285      0.17203478850087      0.65420997683674
  C          -2.41318315456821     -3.66618630566588      0.62207983256120
  C           2.04396609808919     -3.35464802981820      1.01115115549955
  C           4.42689137958940     -0.09821565820085      0.64580558746051
  O           1.70175130228416      5.05981832172322      0.81065663511250
  O          -3.38456353543441      3.02594387492182      1.41957943474983
  O          -5.17598808567017     -1.13079323342366      0.50741820429293
  O          -1.77119265099407     -4.94035226392613      0.62488478087779
  O           3.43020847736426     -3.47501463993182      1.25180632139979
  O           5.06276706038518      1.17587457235784      0.50342957107698
  C           3.58165322367132      3.98947893689634      1.78717792126731
  C          -1.30915156028109      2.36046891318841      2.23345591548624
  C          -5.17012416863997      0.64959151595051      2.00360770684788
  C          -3.45514188911597     -3.71674947899321      1.74668199993177
  C           1.33106205456673     -3.24198525278566      2.35582143500184
  C           4.97880828390265     -0.68586957010490      1.95487492232492
  O           4.45398586413021      5.03820289539731      1.44901226006915
  O          -1.40418038578877      1.04111806484436      2.24920784817767
  O          -6.53822282139861      0.94725862555581      1.92252113915794
  O          -4.43528708901090     -4.68921531135079      1.50369498358679
  O           1.89297360876993     -2.27958989082507      3.08474476911528
  O           6.33041273510971     -1.05485231432706      1.83905337416976
  H           0.12912075201005      6.05409863009248      0.08301079242849
  H          -5.26759682847371      3.28761267972581      0.77477814817248
  H          -5.45540159844442     -2.75252343728730     -0.59742822221501
  H          -0.37385465949671     -6.09651816924043     -0.20509188179766
  H           5.22899737642215     -3.31884237574466      0.37766227111235
  H           5.38751253498652      2.79070910539355     -0.60765690223865
  H           2.00134314494199      5.96941914148667     -1.58771671060543
  H          -4.09045977538351      5.40237593117949      0.36792058989007
  H          -6.49210694950010     -0.89395557215215     -1.82940532277405
  H          -2.27285891106890     -5.75555387849448     -1.80413136691171
  H           4.18196443743676     -5.41880237425847     -0.45506160665245
  H           6.24399458362344      0.88874054135573     -1.92024550158096
  H          -0.52692145884528      5.61610141445782     -2.16107280036777
  H          -4.73699617251063      4.03299478321496     -2.00132480883432
  H          -4.25066884743716     -2.07260417916660     -3.05835672115769
  H           0.32933407638448     -5.35794224623520     -2.49309774007088
  H           4.51354294832099     -3.39919738888705     -2.39138196591326
  H           4.02548227918892      2.24618537546072     -2.99452020314857
  H           1.20756632116683      3.02968804211357     -1.70883463803382
  H          -2.27579566487760      3.83477673985149     -1.53055863809295
  H          -3.67301102722958      0.27998949555187     -2.01793930897218
  H          -1.25017722996846     -2.87542243588222     -1.79015934854303
  H           2.11908897756259     -3.58257769400410     -1.76241230555293
  H           3.34867488033602     -0.10027790261986     -1.95525771715286
  H           2.07015923940189      4.05042800298939     -3.67156139806683
  H          -2.77526747880661      6.17132866000538     -1.80773593354943
  H          -5.36193559930194      0.65554895618911     -3.68485452195348
  H          -2.20351910203187     -3.81758572883536     -3.79705824459616
  H           2.63847143868808     -5.72459904670456     -2.65840013098875
  H           4.89536668730810     -0.58294622502365     -3.73246585542688
  H           3.87068893720280      4.22607497711241     -0.82408256022735
  H          -1.54829857252856      4.98875177846080      1.21567339674212
  H          -6.03025218641592      1.39526687247979     -0.43606268879507
  H          -3.90776479014620     -4.08327831083036     -0.87999446172450
  H           1.53122373523040     -5.42964344272737      0.59473268630988
  H           5.75249899229024     -1.34516066897451     -0.54228127951023
  H           1.78638648741528      3.02425642739989      1.05786595281476
  H          -1.96335402532555      2.11383839395050      0.21713600615979
  H          -3.51002633810105      0.09997808220839      0.71479260183991
  H          -1.67279695722779     -2.88728363886811      0.84186565642272
  H           1.84161701501679     -2.39339705566238      0.51107667745191
  H           3.34349572398429      0.02710759886362      0.73647622084641
  H           4.18202269455127      3.07859573250322      1.79737612306553
  H           3.13328168579073      4.15187291751281      2.77358868432233
  H          -4.98961826332182     -0.15139520465956      2.73056224199344
  H          -4.66329088666844      1.55374503581256      2.33615484463216
  H          -3.97290741555131     -2.75810227542553      1.80873052675886
  H          -2.92748036236573     -3.91429126646277      2.68749610370266
  H           4.85678280480159      0.06490806087928      2.74284166902148
  H           4.42181935871027     -1.58600552441833      2.22206530486527
  H           3.92791499204702      5.84836939691568      1.40790776640459
  H          -6.99909270976772      0.13763643565294      1.66090585167790
  H          -3.98530423038610     -5.54217714953254      1.42057556820658
  H           6.83170741716225     -0.25582001533483      1.62328024529366
  C           0.94971489845677     -1.51082985565538      3.82318845662091
  H           1.52677699170779     -0.84277573376677      4.46703533290598
  H           0.27495763896872     -2.15021771246036      4.41021313615871
  O           0.41309668356145     -3.93014591421234      2.72620103639432
  C          -0.80459960722974      0.33572479463133      3.34343733760531
  H          -1.59984504321047     -0.16375596092720      3.90800464960168
  H          -0.26654329643970      1.04771450802593      3.98531811638618
  O          -0.77613601691312      3.03479432895905      3.07175460605523
  C           0.09114613498257     -0.76390203183604      2.79551124500232
  O          -0.20390458932285     -1.38715657393258      1.74922193816855
  H          -1.09091194238767     -0.61559579239540      0.35578288500666
  O          -1.37337737494923     -0.18416998497065     -0.47894511319744
  H           0.39598741493276      0.59744421177915     -0.63002150908329
  O           0.92425192762622      1.21194693505668     -0.08496087414141
  H           1.22354680991409      0.64937822653045      1.25000610289822
  O           1.52241782031793      0.29176635812794      2.17588071269962
  O           1.79701690378746      1.51734749139705      2.89851542125637
  H           2.69208764061775      1.27893346195847      3.21479896673520
  H          -1.93497487269354     -0.84670412955429     -0.90389860450152
  H           1.78221939599864      1.36276255800538     -0.52421839808607
