150
Coordinates from ORCA-job job
  C          -5.07640333108753      1.62981098049234     -1.58744147165718
  C          -1.58362612224896      5.06674542707710     -3.73163132790501
  C           3.41660974428713      4.13751348674413     -2.76024782767170
  C           4.71859593396310      0.12599190381994      0.44613072369475
  C           1.34462724332883     -3.54617854062483      2.22136141495468
  C          -3.73984291913175     -2.31459254141092      1.68534418363726
  O          -3.79575492055946      2.21962036739178     -1.61235857179107
  O          -0.55726237059694      5.05700647951005     -2.78686347672740
  O           3.06511372784729      3.12117465768311     -1.83144894517379
  O           3.41750893603084     -0.38443183805780      0.56242920673948
  O           0.30592807997113     -2.65251298856256      2.47702877071838
  O          -3.50340192067805     -1.06334992459837      1.08916026744086
  C          -5.64852148403203      1.72815111157022     -0.16055515874708
  C          -2.86616903198843      5.57376503382422     -3.04245619263251
  C           3.06794563449434      5.52620571552938     -2.19648362753524
  C           4.75233439076389      1.51521360422406      1.10157521400955
  C           2.56969708275617     -3.09229405828335      3.04631197033945
  C          -3.32404139725493     -2.23379772229683      3.16348423451383
  O          -5.84767935324272      3.04184134025920      0.28226883472819
  O          -2.68022014907915      6.82172901163731     -2.43890648477525
  O           3.79323535868528      5.87682124229183     -1.05526993899021
  O           4.37925106067837      1.49005668686632      2.45274529362529
  O           2.28996720099215     -3.05041049786299      4.41638897553798
  O          -4.01288077798090     -1.23306338200301      3.86177605241235
  C          -4.69256251579342      0.97511530104082      0.77767584923663
  C          -3.35789620179626      4.54048877351744     -2.01328546419020
  C           1.55815585232224      5.56042260531959     -1.93747789195733
  C           3.78009113173807      2.42577392388046      0.33977672961360
  C           3.06241128227724     -1.71650859238375      2.55304271060891
  C          -1.80483669248761     -2.01033244437873      3.23366347310799
  O          -5.16110197479694      0.94647839833673      2.10414499180396
  O          -4.60527636499285      4.91449587485808     -1.48351738796421
  O           1.15272505064970      6.81190317402348     -1.44474646674685
  O           3.84568072477571      3.74946288912469      0.80996984789034
  O           4.27056352535801     -1.34669093330453      3.18151088754775
  O          -1.34622125903050     -2.01761076430553      4.56171382831400
  C          -4.53002329415267     -0.47356507926318      0.30036989501663
  C          -3.49065883809796      3.14235612633053     -2.64433229934814
  C           0.78140284636510      5.27432247051503     -3.23010658228691
  C           4.11602660131271      2.43327387167907     -1.15533884864379
  C           3.26990853332254     -1.71645903866454      1.02939050791281
  C          -1.04791544558613     -3.10101235669712      2.46182575960119
  C          -4.17289469318863     -0.52605964438516     -1.19634656687873
  C          -2.13596659555411      2.82272308285635     -3.28998711398333
  C           1.34283878947419      4.07333333789310     -4.02101041086814
  C           4.25421518295750      0.99989320012468     -1.70128194775983
  C           1.99398398062981     -2.26945741178606      0.39182128927230
  C          -1.62646924376808     -3.27022272967881      1.04120049597734
  O          -5.04635406100234      0.28897432664109     -1.97837307480458
  O          -1.81774158836727      3.78673979577346     -4.28280027527184
  O           2.77272785338205      3.94977719759692     -3.97827377692071
  O           5.12976934316541      0.22286318991140     -0.89142933287722
  O           1.70168874044407     -3.57635072307192      0.84990632409849
  O          -3.05444414355826     -3.35328065237640      1.04881217434745
  C          -4.30436679528733     -1.94734479047153     -1.75630501907105
  C          -2.00540648432468      1.46187499933453     -3.97763130259014
  C           1.02527698833645      4.17246948227961     -5.52538501978018
  C           4.83563957641413      1.00335031077089     -3.11997917364574
  C           2.03943556238036     -2.27349882262276     -1.13246500742552
  C          -1.18364671995466     -4.58214900809283      0.37077272260048
  O          -5.62631359016855     -2.41735528477136     -1.69927576699043
  O          -0.71595833397646      1.27115101918550     -4.22193424585032
  O           1.36371055249629      5.41968474121081     -6.07210913155326
  O           6.07260469674893      1.66189183821111     -3.19128217282895
  O           0.79839406700046     -2.31322890153303     -1.59445062375850
  O          -1.46230213866981     -5.70472930548028      1.16745883179624
  H          -5.74743882689253      2.12509107873827     -2.29989226900104
  H          -1.33213099182440      5.70780981468611     -4.58637561262053
  H           4.48758461310247      4.07599375638596     -2.99227615371033
  H           5.44794440515972     -0.54114238773019      0.92118929135225
  H           1.06736618055681     -4.57709076400694      2.47274296354650
  H          -4.79967639909952     -2.58818958733247      1.60380667165700
  H          -6.62647022341633      1.22926107771896     -0.15153984304500
  H          -3.64009804690222      5.70553852209177     -3.80645001907810
  H           3.32265317137005      6.27348752441814     -2.95670643652225
  H           5.77350384189260      1.91626304486046      1.00080859232283
  H           3.36938968268212     -3.82796390652389      2.90807834534627
  H          -3.56612957134205     -3.18428664414089      3.65277001381274
  H          -5.30352653069758      3.66562839690725     -0.23512494673169
  H          -1.83032355023068      6.82726277214584     -1.96838998797649
  H           3.74869333550612      5.16629289552043     -0.38338716010563
  H           4.48157694032889      0.58841839824512      2.80914545626750
  H           1.41819325216254     -2.64164566440480      4.55094254796888
  H          -4.20341780751250     -0.47928285510481      3.27311051927330
  H          -3.71967971720087      1.48295481446014      0.73724340937619
  H          -2.61420627559040      4.47124622818922     -1.20395959205831
  H           1.31133368629733      4.77513410700402     -1.20593808545784
  H           2.76394682255771      2.02895353921280      0.47714026746573
  H           2.29078567025174     -0.96707321637047      2.78083706861605
  H          -1.57766228432255     -1.04199441379486      2.76424773889263
  H          -5.51564701780945      1.82404538121752      2.31873570846138
  H          -4.59075470966544      5.87080218172756     -1.31044112425575
  H           1.88755122790236      7.18473104780083     -0.92937308265258
  H           3.88933201331434      3.71907705064634      1.77879946425557
  H           4.22282589343420     -1.63289306954087      4.10917593132664
  H          -1.97487599645550     -1.50881616807534      5.09814490826049
  H          -5.47822085204229     -1.00267552101623      0.45999258427898
  H          -4.27305775166638      3.14067191603618     -3.41108301588635
  H           0.81066954157251      6.17133870705573     -3.86579349860739
  H           5.06389001183782      2.96416384905090     -1.30280919422407
  H           4.13717926702081     -2.32575589536678      0.75172363006747
  H          -1.12593858657064     -4.05359484163610      3.00220917417226
  H          -3.14572722879594     -0.18079752853989     -1.33770300903849
  H           0.88130566558782      3.15811432765497     -3.63607260532609
  H           3.26934020053097      0.51753480239771     -1.72527958072572
  H           1.16809480608749     -1.61015957651626      0.68619931345369
  H          -1.31015149422528     -2.42321120451944      0.42219137883116
  H          -3.70385093368368     -2.63219189583400     -1.15550541641967
  H          -3.93102884516576     -1.93966016539536     -2.78661850684072
  H           1.56653732789021      3.36375663532977     -6.02739203889347
  H          -0.04346799996344      4.03108964093779     -5.68478492426598
  H           4.15486063553919      1.54410193044532     -3.78102375374139
  H           4.91673656027544     -0.03563195383281     -3.45687907466720
  H          -1.69962055414923     -4.65141214145680     -0.59372546802892
  H          -0.10817820729688     -4.57385948092875      0.19855727629221
  H          -6.17423973511157     -1.82585467439252     -2.23495720521752
  H           2.32810933420498      5.50037842753075     -6.08951970904371
  H           6.72242129141035      1.14781540587305     -2.68963073489347
  H          -2.42338670447614     -5.78007400144106      1.25766300678071
  C           0.56057297971486     -2.05348415627041     -2.96884707180033
  H          -0.05347544594460     -2.87004913814173     -3.36550075082846
  H           1.50782634787098     -1.97824998680137     -3.50943035372394
  O           3.03096533496674     -2.22753042888242     -1.81309083306133
  C          -0.22685717653031     -0.03690139273477     -4.42834079549164
  H           0.78065620713411      0.06295004585939     -4.83260012273644
  H          -0.87730193708791     -0.60168033533985     -5.11102863797147
  O          -2.90086789047049      0.72350855380490     -4.29671999923484
  C          -0.24283626006862     -0.74408524253787     -3.06161860674169
  O           1.20731692995690      0.26406777250743     -2.11913089889344
  O           0.73117841763311      1.66066194033921     -2.05661856240732
  H           0.49601293592471      0.11608739047125     -0.66741744683021
  O          -0.28211533429334     -0.17494053814468     -0.06186742064886
  H          -0.88139910734406     -0.54462672832967     -0.80182355222933
  C          -0.96863520397102      0.99543200703021      0.46360993336606
  O          -1.26544029061761     -0.57355189339362     -2.35218817922145
  H          -1.35856566551809      1.59320935265079     -0.36520620077480
  H           1.57763719457856      2.13938869471556     -1.91695189449096
  H          -1.80326738211264      0.58685981186164      1.04384632765610
  C          -0.06648615386049      1.81663498237490      1.33481732418773
  C           0.14460354107194      3.15998345510240      1.05602665782885
  C           0.53500353314050      1.24135887665416      2.44806959445428
  C           0.93153377900806      3.92889855984419      1.89628207226031
  H          -0.31385838709596      3.60131292514085      0.18230523466517
  C           1.33257763125837      2.00718849812057      3.27871678809026
  H           0.36506887837339      0.19592648364154      2.65934183719784
  C           1.52271174509671      3.35258073433467      3.00862468725917
  H           1.08201784458899      4.97474049083289      1.68001944386569
  H           1.79966929560455      1.56316708783270      4.14239656889482
  H           2.12936268115927      3.95126768203321      3.66964657532265
  H          -1.35946160732802      2.83850011695910     -2.51046020380552
