137
Coordinates from ORCA-job job
  C           0.05070474933328      4.97198617875380      0.12897773876936
  C          -3.40155997708252      2.21413212528082      0.79654816670260
  C          -2.50300832453373     -1.22471127304785     -2.15358772544827
  C          -1.28723500101371     -4.46272259329288      1.09748926905460
  C           3.56232690845317     -2.60772171743315      0.07970491637023
  C           2.94029214870769      1.96384978270762     -2.85303386771181
  O          -0.24398580317347      3.70231808033237      0.66613533962816
  O          -2.89651230143257      2.57126490299488     -0.46146901344441
  O          -3.37615222470041     -1.68473005814588     -1.13877176086060
  O          -0.18767088822731     -3.68851609737779      0.76278741808507
  O           2.91791710628907     -1.39304175922014     -0.18554027854595
  O           1.70203062154336      2.47578634900864     -2.45522430723557
  C          -0.45945624680837      5.21322393547111     -1.32718140754032
  C          -3.70951164178091      3.53537872344222      1.51825884395871
  C          -1.17608157107255     -0.56771074492221     -1.72303053745435
  C          -1.96396097442273     -5.05210077602029     -0.15718461999020
  C           3.13274629506975     -3.74176786336841     -0.88261474226981
  C           2.61909391663386      0.58846973369784     -3.48505203484564
  O          -1.85263369685939      5.37650123764089     -1.44864580957303
  O          -4.74590686868947      4.25680400435091      0.90604475744534
  O          -0.27445801230220     -1.42587116861322     -1.07399897431154
  O          -1.18882226671308     -6.04713663061930     -0.76703409486719
  O           3.55086425697771     -3.54773254378413     -2.20613977558486
  O           1.55655134983264      0.71873995130498     -4.39598606306628
  C           0.00750449841797      4.03088451546808     -2.16773986512954
  C          -2.41029848498042      4.34688308931908      1.48529978456288
  C          -1.40133075482249      0.63128277477517     -0.80262410557036
  C          -2.25329828828113     -3.89740015499986     -1.12567321518973
  C           1.60475701959947     -3.84548364056077     -0.77512036589504
  C           2.22596712787290     -0.39169002149042     -2.35682161398061
  O          -0.40370607730721      4.20659109980199     -3.51194122017468
  O          -2.47874000922630      5.49499172665597      2.30574843810425
  O          -0.18837767801406      1.31547963060901     -0.67867723976278
  O          -2.92945543736916     -4.35199503336274     -2.27735369551479
  O           1.08619942028900     -4.82652455672589     -1.65895052415778
  O           1.82902034937146     -1.62032710574943     -2.95593693638068
  C           1.53479853919646      3.84022293933292     -2.09006063652554
  C          -1.11684322055561      3.55896253840826      1.79965228234113
  C          -2.47344113768280      1.56815562460390     -1.38332544635694
  C          -3.10722219704594     -2.86008396401254     -0.40265170377555
  C           1.15169306520378     -4.15303777274833      0.65214243876578
  C           3.33043796984691     -0.53201788144896     -1.27265094405829
  C           2.11891179446465      4.12444077112637     -0.68751566155544
  C          -1.28271692986273      2.01978764380994      2.05524940868565
  C          -3.67080842717581      0.81686078526771     -1.99895168177145
  C          -2.46492362193850     -2.45502277805105      0.94063577261010
  C           1.91591023602799     -3.29738928572737      1.69307331990196
  C           3.47128441267199      0.92148384073511     -0.74239177412786
  O           1.43713457181538      5.14722580811572      0.05501036539369
  O          -2.54540584587389      1.45826071592044      1.59190229322189
  O          -3.23883718591433     -0.25212595202292     -2.84437956577482
  O          -2.17957965827413     -3.60897484261083      1.75837013710660
  O           3.29432429451733     -3.05834750942103      1.40736468046750
  O           3.85835255944293      1.81004184959756     -1.82031725052521
  C           3.55043733046839      4.66850797896482     -0.82881707094968
  C          -1.47168619526815      1.44972765379886      3.51603744674221
  C          -4.49246443409277      1.75030216981853     -2.89929817518632
  C          -3.41403545017044     -1.53073250669689      1.70970994796537
  C           1.73196713738223     -4.01927567370166      3.03149051789100
  C           4.56560035502744      1.11984256807559      0.31356406611722
  O           3.56856026396647      5.83452874021740     -1.63192704049042
  O          -1.04421756797128      0.19944547158724      3.68327509461178
  O          -3.76215293409297      2.17080472778989     -4.02116599222758
  O          -4.51399435161499     -2.20277688685842      2.27472742707473
  O           2.73284380095576     -4.07264635590737      3.90196688448570
  O           5.86698781968108      0.93094847380562     -0.23427697523598
  H          -0.31066800502150      5.77645521286964      0.78265186642850
  H          -4.31025731947305      1.60147154465745      0.70756763433866
  H          -2.31970160999662     -2.02234486885682     -2.88644640991858
  H          -1.02292094986880     -5.25498692035143      1.81368113188290
  H           4.65280602043469     -2.47529412246083      0.03435204086155
  H           3.42324005087526      2.62602363126008     -3.58880279390171
  H           0.04721194173583      6.12095412578505     -1.68890387355000
  H          -4.03072832219569      3.32380398205618      2.54246283889649
  H          -0.74702010396910     -0.20919151447634     -2.67479840121380
  H          -2.90134434611648     -5.52747641015216      0.15333034234876
  H           3.60216690403858     -4.67012175251835     -0.53984534331155
  H           3.47641399300726      0.21357797726591     -4.05033631580772
  H          -2.08768511318922      6.22115406868140     -1.04442057330879
  H          -4.48318316779226      4.40014445531073     -0.01889016705896
  H           0.23935122674334     -0.85867927511483     -0.38890496477010
  H          -0.39148986593889     -5.60564453112324     -1.15069219653676
  H           3.00203565461277     -2.80083464866548     -2.57012380708434
  H           0.85745239388281      1.15781180831077     -3.87430226068730
  H          -0.43254988485097      3.13138543412910     -1.73382326957257
  H          -2.32822365912573      4.64751788789912      0.43086282942359
  H          -1.74933180943589      0.23803429448554      0.15280828333751
  H          -1.29157175162449     -3.44583367827520     -1.40631057252672
  H           1.17140295117658     -2.86393728603096     -0.99593518277058
  H           1.37062362177654      0.07765685881799     -1.86087406964161
  H          -0.16600484571814      3.38961120462409     -3.97282319898071
  H          -3.31477889793018      5.93584533554086      2.10632578383170
  H           0.42188429033032      0.93592296976964      0.07332970305311
  H          -2.45374248425499     -5.13220138082314     -2.59796393935277
  H           1.19816829526449     -4.46738185132022     -2.55618094543933
  H           0.96541418151420     -1.79706592989203     -2.54190708235577
  H           2.01188747324927      4.50097020157495     -2.83042905073801
  H          -0.65065804618209      4.02476398075053      2.67758458361418
  H          -2.03373365098652      2.15724304632025     -2.19725634471629
  H          -4.09631231923598     -3.29598815017420     -0.20911265976195
  H           1.22914075181444     -5.22281138187340      0.87258352859889
  H           4.26950452948992     -0.88056392680418     -1.71183054244337
  H           2.07654720905895      3.19701272305806     -0.10349213796718
  H          -0.43915473272038      1.53777029661548      1.50526653532626
  H          -4.31839213383073      0.41541437095654     -1.21258359265844
  H          -1.52391491644368     -1.93140138688421      0.73699681122771
  H           1.37024816355186     -2.34040831692412      1.65808623201884
  H           2.48888228111019      1.20649980244676     -0.32121671885269
  H           4.19099668193659      3.94351342154368     -1.32825384798341
  H           3.94075271082181      4.89733571168471      0.16852237901770
  H          -5.40181892737848      1.21763339651750     -3.20386404112904
  H          -4.76767932697094      2.65018491664575     -2.34735962980838
  H          -3.82331440359275     -0.79642842138731      1.01245350554289
  H          -2.85030197990771     -1.00627438100335      2.48180044544031
  H           4.46644321351232      2.13928050438912      0.70549165743474
  H           4.46276369820491      0.38919049680887      1.11065947340586
  H           2.89202675907968      6.41972472316158     -1.26674049989913
  H          -3.34496052600041      1.38183367432926     -4.39736860250939
  H          -4.17428570232021     -2.98222219331157      2.72516098937319
  H           5.87801823413646      1.47034956240317     -1.03463244190380
  C           2.61269630991457     -4.77674454914187      4.91514740139194
  H           3.44285453663007     -4.75219696057555      5.59781598366961
  H           1.70476852588391     -5.37208547340888      5.05474314193691
  O           0.73858776315384     -4.76071827636349      3.32030683415754
  C          -1.59384975340144     -0.45544707738016      4.73590419129577
  H          -2.67318086196421     -0.29525748372299      4.80919209253664
  H          -1.15238554188610     -0.19756938370289      5.70171532926040
  O          -2.15402452781267      1.98132292153674      4.35283874257047
  C          -1.43394713200219     -1.97973421134210      4.64417944888322
  O          -2.23106450627257     -2.80261605454441      4.49273118757592
  H           1.18278946647226      0.11359897817001      1.51963186469879
  O           1.71576021688472     -0.00518766252916      2.11089495224197
  H           2.23845534501452     -0.23884983924630      1.53477419047804
  O           0.02847049927893     -2.57115366854155      4.91168214493725
  O           0.79574798653006     -1.56161360785777      5.59307630706061
  H           1.34332859168139     -1.22887878666872      4.84838086949240
  H           1.93158652267339      0.76558660547922      2.02500987475984
