19
Coordinates from ORCA-job job.QMRegion
  O          -1.04421756797128      0.19944547158724      3.68327509461178
  O           2.73284380095576     -4.07264635590737      3.90196688448570
  C           2.61269630991457     -4.77674454914187      4.91514740139194
  H           3.44285453663007     -4.75219696057555      5.59781598366961
  H           1.70476852588391     -5.37208547340888      5.05474314193691
  C          -1.59384975340144     -0.45544707738016      4.73590419129577
  H          -2.67318086196421     -0.29525748372299      4.80919209253664
  H          -1.15238554188610     -0.19756938370289      5.70171532926040
  C          -1.43394713200219     -1.97973421134210      4.64417944888322
  O          -2.23106450627257     -2.80261605454441      4.49273118757592
  H           1.18278946647226      0.11359897817001      1.51963186469879
  O           1.71576021688472     -0.00518766252916      2.11089495224197
  H           2.23845534501452     -0.23884983924630      1.53477419047804
  O           0.02847049927893     -2.57115366854155      4.91168214493725
  O           0.79574798653006     -1.56161360785777      5.59307630706061
  H           1.34332859168139     -1.22887878666872      4.84838086949240
  H           1.93158652267339      0.76558660547922      2.02500987475984
  H          -1.35022464925936      1.09447068965864      3.56355659075416
  H           2.01449194331074     -4.03434100810420      3.27720627437538
