139
Coordinates from ORCA-job job
  C           0.57114978653490      4.85904436552171     -0.23607039131599
  C          -4.39436980908453      3.30654775382662      0.49651788671912
  C          -4.89081670401735     -1.70919824249488     -0.72248506666717
  C          -0.65411490171420     -4.82842498233132     -0.60343906688863
  C           4.29079260566258     -3.30558071900924      0.20702234719596
  C           4.80759265565569      1.78809323292339     -0.84686197458093
  O          -0.34916768847903      3.82093240600381     -0.00370410687900
  O          -4.28367218744114      2.32537547380631     -0.48353103499887
  O          -3.49280693030466     -1.84022158412430     -0.87713366980621
  O           0.29192535833641     -3.85067026360483     -0.26653239795090
  O           4.05724123167141     -2.21476875085737     -0.62785822692795
  O           3.41268647777333      1.95534684748349     -0.92599208317035
  C           1.08919803787614      4.76267509378870     -1.68335589359573
  C          -4.02415774862617      4.62933632309351     -0.19967632119861
  C          -5.43015008300309     -0.89023083539249     -1.90720687434040
  C          -1.19322923467807     -4.54387907397188     -2.01773391612501
  C           3.96253647323070     -4.54740256174722     -0.64311415870538
  C           5.25749744798252      0.97458398269424     -2.07299659152958
  O           0.08246138577532      4.87176948808245     -2.65254777435784
  O          -4.85298133260561      4.87916076118341     -1.29974629791342
  O          -5.12219702719452     -1.47470145921452     -3.14059846145149
  O          -0.19910479840271     -4.53950790348710     -3.00588886954123
  O           4.76964571452141     -4.61362278475885     -1.78482421235242
  O           4.89320142459157      1.59143352859904     -3.27443467817110
  C           1.77052167644630      3.39803681191364     -1.83071814318451
  C          -2.55985454326962      4.54922181283021     -0.65763412393916
  C          -4.86480357027619      0.53402407136960     -1.81819768416474
  C          -1.87155594702204     -3.16822157692488     -1.99436984936936
  C           2.48564309518282     -4.45764042547689     -1.05205253159360
  C           4.66346065539075     -0.43798858824350     -1.98162289193549
  O           2.33028108162012      3.21901325665232     -3.11016109034583
  O          -2.16468470777365      5.78536197867528     -1.22530801194447
  O          -5.45317756351518      1.36127808395781     -2.79365573458488
  O          -2.47818804742769     -2.86604475029485     -3.22979921667522
  O           2.10240736116908     -5.61457172174018     -1.77396197175299
  O           5.19738319528746     -1.27380271180359     -2.98147189539802
  C           2.88753755111530      3.26906533040577     -0.79285600579021
  C          -1.62006946709175      4.17660261380175      0.49937063001145
  C          -5.10811079501339      1.16994148631834     -0.44173636713204
  C          -2.95437410086144     -3.15477212838187     -0.91381606838313
  C           1.56597803428436     -4.28404521159228      0.16294617492612
  C           4.92916366937161     -1.09609769858678     -0.62247030606709
  C           2.34523248336372      3.54640031588502      0.62188432490902
  C          -2.18302019499810      2.92103849322493      1.18503161719438
  C          -4.74255761320619      0.21189890856091      0.70995420075517
  C          -2.36500176741520     -3.58171223817495      0.44297089754565
  C           2.10436613111702     -3.16313452930253      1.06823763104321
  C           4.61691266702038     -0.13231388073376      0.53474473935218
  O           1.64823458214616      4.79153815594236      0.64901301697206
  O          -3.53033720390465      3.08474455672131      1.58827923270365
  O          -5.23000841182194     -1.11293715665095      0.48877428596686
  O          -1.71154629583542     -4.84133032886152      0.31006582003333
  O           3.48187659277283     -3.28733243977756      1.36309825779132
  O           5.20212808902266      1.15086434721119      0.32776817723006
  C           3.47875624077930      3.67547325720640      1.64630307823426
  C          -1.39932778962582      2.54956204002172      2.43588630881520
  C          -5.38507669695430      0.61701627844079      2.04759899486984
  C          -3.46065446108435     -3.78414200996645      1.49645086247190
  C           1.34142721376607     -3.13668078160091      2.38743360720911
  C           5.18655015889730     -0.61787011402055      1.87494066749848
  O           4.32841096825979      4.75086008243709      1.33838492862547
  O          -1.65303912686706      1.24084522923612      2.72366040462169
  O          -6.77171816688472      0.78178238289990      1.93195628427913
  O          -4.37492040062473     -4.77225916793247      1.10286778767834
  O           1.65144146995824     -1.99588639763558      3.06554078271201
  O           6.56589285593973     -0.85515807939593      1.79667470205856
  H           0.10912789288392      5.83941251368474     -0.06436945154056
  H          -5.40560012675446      3.35461391254362      0.92131974603573
  H          -5.36816637328564     -2.69722940855430     -0.69554657011113
  H          -0.21639649813217     -5.83391225768039     -0.56099397738286
  H           5.32548168973958     -3.33580582474045      0.57178115123846
  H           5.31469730713368      2.76029964293503     -0.82996935025088
  H           1.83599832968961      5.56047041577438     -1.83050226289530
  H          -4.14980428944219      5.46495078334460      0.49691856271512
  H          -6.52462998295307     -0.84654065244490     -1.84441661883676
  H          -1.94809832153340     -5.31202010965658     -2.25439919433885
  H           4.14113032941097     -5.46062766361546     -0.06643537468193
  H           6.35142915351702      0.90050184530225     -2.07147556236287
  H          -0.69747490138470      5.29702289495507     -2.25446403062510
  H          -4.96419706832968      4.04373339011143     -1.78132960457941
  H          -4.20341822687040     -1.80032137218339     -3.13117281458917
  H           0.58814891580834     -5.00476799898013     -2.67293322139543
  H           4.81936000534849     -3.72271605354727     -2.16945531157818
  H           4.01269524516249      1.99582201277974     -3.18105887044092
  H           1.00581062310774      2.62873359687498     -1.64598009584298
  H          -2.48227687656470      3.75490742490639     -1.41696026278923
  H          -3.77470781860720      0.49176551401501     -1.97443979940171
  H          -1.10696783989803     -2.41509932773955     -1.75712918142451
  H           2.36359198634868     -3.56821530859486     -1.69009208058324
  H           3.57177167603273     -0.36701656914379     -2.10198060822030
  H           1.70127295513461      3.58898266411589     -3.74414038934990
  H          -2.93326238000507      6.12628696346867     -1.70674326965672
  H          -5.52382809925480      0.83492606725293     -3.60212874463211
  H          -1.85325236730687     -3.12830122367125     -3.91862387106691
  H           2.86211162452646     -5.86279408898045     -2.32083318826480
  H           5.25081397763581     -0.74647822748248     -3.78971055059396
  H           3.66806833014778      4.00602166270004     -1.02439039171083
  H          -1.54052719560707      5.00374127049670      1.21598885479130
  H          -6.16409645616197      1.46503342081182     -0.35419328981469
  H          -3.73895365527817     -3.86794327275172     -1.19809051648079
  H           1.49165814251188     -5.22463401217844      0.72317440655436
  H           5.97549131808027     -1.42657329672313     -0.56846583086208
  H           1.66824802018982      2.74128365079893      0.92211722170281
  H          -2.10287792926997      2.08483399958100      0.46716284806007
  H          -3.65240701529062      0.20072167783077      0.82328276869382
  H          -1.64729545333600     -2.83010775020241      0.78846399091730
  H           1.91747697312485     -2.20237150531990      0.55071008671262
  H           3.52995541263623     -0.03251116366942      0.60188785322520
  H           4.09075040617524      2.77315702153723      1.63737867997844
  H           3.02831680582722      3.79759490984413      2.63885960900796
  H          -5.14620552355531     -0.16859127327875      2.77659027862116
  H          -4.97341793850424      1.56166074775071      2.39931964388857
  H          -4.02994164275792     -2.86223721578059      1.62719630574551
  H          -2.97710552505635     -4.05406093173397      2.44386801093526
  H           4.96753343352641      0.14968786236232      2.62952375294850
  H           4.71828437579649     -1.55712163409794      2.17032555711593
  H           3.77611085701958      5.54176630338314      1.30334194286929
  H          -7.13936625539758     -0.05654141416612      1.62584698297980
  H          -3.86719232234649     -5.57716718451163      0.94460518459019
  H           6.98467354612746     -0.02992148230560      1.52705364277519
  C           0.68024582537612     -1.48331885297879      3.97732179704450
  H           1.21198072897433     -0.87019818956276      4.69770312375792
  H           0.16972962148834     -2.29329110271431      4.49783279189389
  O           0.58185090671573     -3.98090417505076      2.78791462007608
  C          -0.86505113406518      0.61082566529023      3.72786885062059
  H          -1.49052766365204      0.40033112262341      4.60098812746634
  H          -0.04291932668198      1.25296665688452      4.03814219220578
  O          -0.68612130723711      3.27233551377129      3.07836582722111
  C          -0.33284073021899     -0.68629657610764      3.15824336251668
  O          -0.70900898659538     -1.13506146921491      2.10035121506565
  H          -1.26809816456277     -0.12597274498945      0.62055381740944
  O          -1.46650884032978      0.06877462541514     -0.31278664357974
  H           0.41385070841268      0.00845662998483     -0.62146617967691
  O           1.34865911710208     -0.02059198441766     -0.33372168082264
  H           1.54282218431577      0.52819741570383      1.37182873524151
  O           1.77746485790520      0.79575386900981      2.28831155290702
  H           2.33930958272624      0.06163254984167      2.57786568261382
  H           1.81685334118108      0.67440213027773     -0.81818926916782
  H          -2.15946251091216     -0.57889398022014     -0.51679895748671
