25
Coordinates from ORCA-job job.QMRegion
  C          -1.39932778962582      2.54956204002172      2.43588630881520
  C           1.34142721376607     -3.13668078160091      2.38743360720911
  O          -1.65303912686706      1.24084522923612      2.72366040462169
  O           1.65144146995824     -1.99588639763558      3.06554078271201
  C           0.68024582537612     -1.48331885297879      3.97732179704450
  H           1.21198072897433     -0.87019818956276      4.69770312375792
  H           0.16972962148834     -2.29329110271431      4.49783279189389
  O           0.58185090671573     -3.98090417505076      2.78791462007608
  C          -0.86505113406518      0.61082566529023      3.72786885062059
  H          -1.49052766365204      0.40033112262341      4.60098812746634
  H          -0.04291932668198      1.25296665688452      4.03814219220578
  O          -0.68612130723711      3.27233551377129      3.07836582722111
  C          -0.33284073021899     -0.68629657610764      3.15824336251668
  O          -0.70900898659538     -1.13506146921491      2.10035121506565
  H          -1.26809816456277     -0.12597274498945      0.62055381740944
  O          -1.46650884032978      0.06877462541514     -0.31278664357974
  H           0.41385070841268      0.00845662998483     -0.62146617967691
  O           1.34865911710208     -0.02059198441766     -0.33372168082264
  H           1.54282218431577      0.52819741570383      1.37182873524151
  O           1.77746485790520      0.79575386900981      2.28831155290702
  H           2.33930958272624      0.06163254984167      2.57786568261382
  H           1.81685334118108      0.67440213027773     -0.81818926916782
  H          -2.15946251091216     -0.57889398022014     -0.51679895748671
  H          -1.96308354064909      2.81678676419594      1.53607342143536
  H           1.88938557951811     -3.15568040533085      1.43996002214618
