29
Coordinates from ORCA-job /home/madsr2d2/chem/stuff/job E -840.523216567402
  H          -0.98110953535789     14.36293055574580     17.74624347169687
  C          -0.18861024933754     14.43514987112475     18.50733894202504
  C           0.09104880728819     13.33143744760074     19.33697763736570
  C           1.09915710419266     13.42743883702633     20.31011201043100
  C           1.83899737087555     14.61649129028917     20.43555954990374
  C           1.57693407788788     15.71579231746932     19.59993743348970
  C           0.54664739596293     15.62118396260317     18.64344639498914
  H          -0.48016818500005     12.39735706160971     19.22317855212795
  H           1.32198083243782     12.56844750072669     20.96135465271109
  H           2.64945888479855     14.68734762321028     21.17929509794390
  C           2.45705152758484     16.96020764856404     19.64810233904089
  H           0.34300329954025     16.48750016402781     17.99529029395815
  H           3.14990665999337     16.88028804788967     20.53483038288900
  O           3.20801663559153     17.12019080609661     18.43700176819291
  O           1.86427529651720     18.16570979701700     19.47088888062384
  H           3.18035803520426      9.61612595559869     18.42841569020177
  O           4.10383848162464     15.62090084549599     18.15348639711098
  C           3.41189304194291     14.90473224313997     17.27665210192396
  H           1.90520025301512     10.55421321765800     16.48227439803251
  O           2.75827295931527     15.36767560112112     16.33254330937402
  H           2.08227038551430     13.00465174805401     15.93712484877817
  C           3.44459731720981     13.42640420366173     17.56731105319840
  C           4.16125521345945     12.89489522080104     18.66030805821793
  C           4.07367165314536     11.52828926065615     18.96091970366797
  C           3.26037928028560     10.68589505626198     18.18175308517400
  C           2.54597412670534     11.21095118947958     17.08997750738047
  C           2.64347713960780     12.57471977601671     16.77918896417187
  H           4.77149860925527     13.56343466393185     19.28249833870900
  H           4.63164891293942     11.11901350902124     19.81664827216889
