29
Coordinates from ORCA-job /home/madsr2d2/chem/stuff/reactant E -840.529092833567
  H          -0.08135497202907     13.43074130335865     17.28691203052100
  C           0.37153762930927     13.90105598889588     18.17284774892765
  C           0.52768311310930     13.16073117400270     19.35900216686308
  C           1.11391499182569     13.76052644436962     20.48855282459632
  C           1.54787093508862     15.09281897650902     20.42860258157861
  C           1.39701982325651     15.84059298139551     19.24252251580051
  C           0.80219199834933     15.23381977322404     18.11636680757146
  H           0.20013583514182     12.11078630863485     19.40030752921497
  H           1.24190613521120     13.18033219867212     21.41504859976630
  H           2.02507633908504     15.56346237942457     21.30309813163655
  C           1.87063318251287     17.25279840910675     19.17503092061694
  H           0.69604153266066     15.82400234008874     17.19391190872486
  H           2.21085944939067     17.66889116020725     20.15952812735634
  O           4.12223163967372     16.70615542126779     19.08296143588863
  O           1.65959197176894     17.99742903926130     18.20016872882479
  H           3.06225093986101      9.43437822288300     17.94510434856432
  O           4.22752696422911     15.28930142673952     19.00575682851286
  C           3.92101357990369     14.77169774518780     17.79654534376449
  H           2.66194536721397     10.74277546056260     15.84055544836268
  O           3.74069331210411     15.44424692253283     16.77773362728226
  H           3.11262298605293     13.21495121259935     15.80256537008770
  C           3.77058211199615     13.28817515313648     17.86540201566283
  C           3.99787507874034     12.54772655910137     19.04656570210431
  C           3.74977536546308     11.16801440153407     19.06910374285091
  C           3.26650713391667     10.51571590749653     17.92030712305631
  C           3.04291143599369     11.24817372439291     16.74089345262719
  C           3.29673229724445     12.62617583060452     16.71277278910755
  H           4.35730847201595     13.05698785578995     19.95044213021810
  H           3.92501765441007     10.59765535671914     19.99372811480872
