21
Coordinates from ORCA-job job
  C          -2.52536197879403     -1.43876338129320      0.18401213608980
  H          -3.38298597878752     -1.22128729119627     -1.57364644542411
  H          -2.94151366506021     -2.43316689473755      0.41214126834397
  C          -2.87798046759547      0.95568233862367      0.85590038731600
  O          -2.47669676347474     -1.22998796559797     -1.24008058673186
  H          -1.47910659132465     -1.42365868843291      0.51389816148418
  H          -5.28217635416197      2.40040243774725      2.73739256939065
  H          -4.78550250934090     -1.70606055577058      1.68233065847627
  H          -6.04444981646628      0.05674252548982      2.84880563166693
  H          -3.25004018137420      2.97080251295547      1.45798315830495
  H          -1.98299519288717      1.19862696581157      0.30121265588562
  C          -3.30330072091545     -0.36618413101507      0.91430003158751
  C          -4.44936267746681     -0.68036820831102      1.63130230451871
  C          -5.15721408499690      0.31149954527990      2.28881680011069
  C          -4.72968346079848      1.62662545843320      2.22603508447335
  C          -3.58941226415802      1.94706353908480      1.50726446403758
  C           0.44199218496775     -0.04522656615244     -1.82283337948884
  O           0.86497828475963     -0.64619432751970     -0.62540004860602
  H          -0.45403579381475     -0.47875411807270     -2.27185115853175
  H           1.24460787140712      0.32089108623259     -2.46767339094088
  O           0.22335135751678      0.70546840726585     -0.65737463401159
