34
Coordinates from ORCA-job job
  C          -2.17154496432480     -0.54241624132136      0.23047104088098
  H          -2.16391702587420     -0.84629877550671      2.14478151455068
  H          -1.34228193298267      0.35360981728955      0.10044722279012
  O          -0.43047092512024      1.32807462240966      0.05096749555941
  O          -2.73784047242615     -0.42741755923681      1.48839931917600
  H          -1.60607949539730     -1.47086585930590      0.07390939001996
  H          -6.05371010569002      1.31910962482483     -1.49144920239116
  H          -5.57608165032665      0.48325110390843     -3.76270505743045
  O           0.69111419629170      2.81080178541263      0.05013258898574
  H          -3.53024212220459     -0.82606751213341     -4.18738511872814
  H          -1.96285743827497     -1.29642439037731     -2.35081619377818
  C          -3.12710411382752     -0.25925662640128     -0.87760383267046
  C          -4.28007088049634      0.48571742561185     -0.64511230368648
  C          -5.15947178727753      0.74477495661252     -1.67904655861364
  C          -4.89143663999869      0.27471532883679     -2.95490591465988
  C          -3.74039436075470     -0.46071747347644     -3.19382728326034
  C          -2.85971239028670     -0.72601163467344     -2.16305110500257
  H          -4.47742561748793      0.84749679918563      0.35156988520455
  C           0.05837499197488      3.68763336137775      0.88013751380876
  H           0.36483270230638      0.76089528216139      0.06594749150755
  O          -1.13290799552262      4.18275944350501      0.26252088243499
  H          -0.20336944937872      3.21775072602797      1.84774524486948
  H          -1.70777588598533      4.53176817832175      0.95977137378964
  H           0.52321232268958      5.85882990860732     -0.64215319524458
  C           1.09940252939386      4.78847346359841      1.10609142743406
  C           1.96891074703736      4.71420693849504      2.18372814502838
  C           2.93004368016738      5.69464158873635      2.35873995785667
  C           3.02804556644382      6.74202758010105      1.45735335955791
  C           2.16446093078671      6.80828990849361      0.37676410401455
  C           1.20380204551456      5.82865988034191      0.19555831185439
  H           1.89083614312517      3.89313255856664      2.88070320492016
  H           3.60274297230209      5.63915551165949      3.20060989496335
  H           3.77961332255475      7.50400659153468      1.59518650652579
  H           2.23909951894493      7.61999345400696     -0.33039747229158
