34
* (null), Energy   -1000.0000000
C    -2.171545   -0.542416    0.230471   -0.155054   -0.024820    0.041396
H    -2.163917   -0.846299    2.144782    0.044918    0.007774   -0.050232
H    -1.342282    0.353610    0.100447    0.735188    1.197734   -0.191608
O    -0.430471    1.328075    0.050967   -0.611216   -0.686024    0.021048
O    -2.737840   -0.427418    1.488399    0.134512    0.050258   -0.136624
H    -1.606079   -1.470866    0.073909    0.601928    0.474212    0.023490
H    -6.053710    1.319110   -1.491449   -0.003544   -0.020628    0.012328
H    -5.576082    0.483251   -3.762705    0.019664   -0.002134    0.005734
O     0.691114    2.810802    0.050133    0.299306    0.336972   -0.021690
H    -3.530242   -0.826068   -4.187385    0.002538   -0.032594    0.026172
H    -1.962857   -1.296424   -2.350816    0.041234    0.025328   -0.021350
C    -3.127104   -0.259257   -0.877604    0.089166    0.059994    0.040286
C    -4.280071    0.485717   -0.645112    0.008884    0.037462    0.011920
C    -5.159472    0.744775   -1.679047    0.006970   -0.003582    0.021452
C    -4.891437    0.274715   -2.954906    0.009876   -0.006392    0.011886
C    -3.740394   -0.460717   -3.193827    0.018052   -0.017622    0.022896
C    -2.859712   -0.726012   -2.163051    0.042648    0.010998    0.000838
H    -4.477426    0.847497    0.351570    0.005336    0.059990   -0.003176
C     0.058375    3.687633    0.880138    0.128302    0.002234   -0.055358
H     0.364833    0.760895    0.065947   -0.280068   -0.185738    0.001176
O    -1.132908    4.182759    0.262521   -0.023672   -0.018876   -0.004856
H    -0.203369    3.217751    1.847745    0.039140   -0.022886   -0.038264
H    -1.707776    4.531768    0.959771    0.186298    0.228088    0.045076
H     0.523212    5.858830   -0.642153   -0.024008    0.025726    0.031660
C     1.099403    4.788473    1.106091   -0.045944    0.096992    0.068658
C     1.968911    4.714207    2.183728    0.002366    0.036992    0.016116
C     2.930044    5.694642    2.358740    0.020124    0.011282    0.001444
C     3.028046    6.742028    1.457353    0.012278    0.010060    0.001266
C     2.164461    6.808290    0.376764    0.016830    0.015496   -0.002272
C     1.203802    5.828660    0.195558   -0.005882    0.042574    0.023464
H     1.890836    3.893133    2.880703   -0.029132    0.024574    0.004326
H     3.602743    5.639156    3.200610    0.037796    0.004146   -0.011092
H     3.779613    7.504007    1.595187    0.010844    0.011846    0.000964
H     2.239100    7.619993   -0.330397    0.032382    0.009568   -0.010136
34
* Frequency(6) -532.9400
C    -2.189166   -0.545237    0.235175   -0.155054   -0.024820    0.041396
H    -2.158812   -0.845416    2.139073    0.044918    0.007774   -0.050232
H    -1.258732    0.489726    0.078672    0.735188    1.197734   -0.191608
O    -0.499933    1.250112    0.053359   -0.611216   -0.686024    0.021048
O    -2.722553   -0.421706    1.472872    0.134512    0.050258   -0.136624
H    -1.537673   -1.416974    0.076579    0.601928    0.474212    0.023490
H    -6.054113    1.316766   -1.490048   -0.003544   -0.020628    0.012328
H    -5.573847    0.483008   -3.762053    0.019664   -0.002134    0.005734
O     0.725129    2.849097    0.047668    0.299306    0.336972   -0.021690
H    -3.529954   -0.829772   -4.184411    0.002538   -0.032594    0.026172
H    -1.958171   -1.293546   -2.353242    0.041234    0.025328   -0.021350
C    -3.116971   -0.252439   -0.873026    0.089166    0.059994    0.040286
C    -4.279061    0.489974   -0.643757    0.008884    0.037462    0.011920
C    -5.158680    0.744368   -1.676609    0.006970   -0.003582    0.021452
C    -4.890315    0.273989   -2.953555    0.009876   -0.006392    0.011886
C    -3.738342   -0.462720   -3.191225    0.018052   -0.017622    0.022896
C    -2.854865   -0.724762   -2.162956    0.042648    0.010998    0.000838
H    -4.476820    0.854315    0.351209    0.005336    0.059990   -0.003176
C     0.072956    3.687887    0.873847    0.128302    0.002234   -0.055358
H     0.333005    0.739787    0.066081   -0.280068   -0.185738    0.001176
O    -1.135598    4.180614    0.261969   -0.023672   -0.018876   -0.004856
H    -0.198921    3.215150    1.843396    0.039140   -0.022886   -0.038264
H    -1.686604    4.557689    0.964894    0.186298    0.228088    0.045076
H     0.520484    5.861754   -0.638555   -0.024008    0.025726    0.031660
C     1.094182    4.799496    1.113894   -0.045944    0.096992    0.068658
C     1.969180    4.718411    2.185559    0.002366    0.036992    0.016116
C     2.932331    5.695924    2.358904    0.020124    0.011282    0.001444
C     3.029441    6.743171    1.457497    0.012278    0.010060    0.001266
C     2.166374    6.810051    0.376506    0.016830    0.015496   -0.002272
C     1.203134    5.833498    0.198225   -0.005882    0.042574    0.023464
H     1.887525    3.895926    2.881195   -0.029132    0.024574    0.004326
H     3.607038    5.639627    3.199349    0.037796    0.004146   -0.011092
H     3.780845    7.505353    1.595297    0.010844    0.011846    0.000964
H     2.242780    7.621080   -0.331549    0.032382    0.009568   -0.010136
34
* Frequency(6) -532.9400
C    -2.204878   -0.547752    0.239370   -0.155054   -0.024820    0.041396
H    -2.154261   -0.844628    2.133983    0.044918    0.007774   -0.050232
H    -1.184235    0.611092    0.059256    0.735188    1.197734   -0.191608
O    -0.561867    1.180597    0.055492   -0.611216   -0.686024    0.021048
O    -2.708923   -0.416614    1.459028    0.134512    0.050258   -0.136624
H    -1.476680   -1.368923    0.078959    0.601928    0.474212    0.023490
H    -6.054472    1.314676   -1.488799   -0.003544   -0.020628    0.012328
H    -5.571855    0.482792   -3.761472    0.019664   -0.002134    0.005734
O     0.755457    2.883242    0.045470    0.299306    0.336972   -0.021690
H    -3.529696   -0.833075   -4.181759    0.002538   -0.032594    0.026172
H    -1.953993   -1.290979   -2.355406    0.041234    0.025328   -0.021350
C    -3.107936   -0.246360   -0.868944    0.089166    0.059994    0.040286
C    -4.278161    0.493770   -0.642550    0.008884    0.037462    0.011920
C    -5.157974    0.744005   -1.674435    0.006970   -0.003582    0.021452
C    -4.889314    0.273341   -2.952351    0.009876   -0.006392    0.011886
C    -3.736513   -0.464505   -3.188905    0.018052   -0.017622    0.022896
C    -2.850544   -0.723648   -2.162871    0.042648    0.010998    0.000838
H    -4.476279    0.860393    0.350887    0.005336    0.059990   -0.003176
C     0.085957    3.688113    0.868237    0.128302    0.002234   -0.055358
H     0.304626    0.720966    0.066200   -0.280068   -0.185738    0.001176
O    -1.137997    4.178701    0.261477   -0.023672   -0.018876   -0.004856
H    -0.194955    3.212831    1.839519    0.039140   -0.022886   -0.038264
H    -1.667727    4.580801    0.969461    0.186298    0.228088    0.045076
H     0.518051    5.864360   -0.635347   -0.024008    0.025726    0.031660
C     1.089526    4.809324    1.120851   -0.045944    0.096992    0.068658
C     1.969420    4.722159    2.187193    0.002366    0.036992    0.016116
C     2.934370    5.697067    2.359050    0.020124    0.011282    0.001444
C     3.030685    6.744191    1.457625    0.012278    0.010060    0.001266
C     2.168079    6.811621    0.376276    0.016830    0.015496   -0.002272
C     1.202538    5.837812    0.200602   -0.005882    0.042574    0.023464
H     1.884573    3.898416    2.881633   -0.029132    0.024574    0.004326
H     3.610868    5.640047    3.198226    0.037796    0.004146   -0.011092
H     3.781944    7.506554    1.595394    0.010844    0.011846    0.000964
H     2.246061    7.622050   -0.332576    0.032382    0.009568   -0.010136
34
* Frequency(6) -532.9400
C    -2.216977   -0.549688    0.242600   -0.155054   -0.024820    0.041396
H    -2.150756   -0.844021    2.130064    0.044918    0.007774   -0.050232
H    -1.126866    0.704556    0.044304    0.735188    1.197734   -0.191608
O    -0.609562    1.127064    0.057134   -0.611216   -0.686024    0.021048
O    -2.698427   -0.412692    1.448367    0.134512    0.050258   -0.136624
H    -1.429709   -1.331918    0.080792    0.601928    0.474212    0.023490
H    -6.054748    1.313066   -1.487837   -0.003544   -0.020628    0.012328
H    -5.570320    0.482626   -3.761025    0.019664   -0.002134    0.005734
O     0.778813    2.909538    0.043778    0.299306    0.336972   -0.021690
H    -3.529498   -0.835618   -4.179716    0.002538   -0.032594    0.026172
H    -1.950775   -1.289003   -2.357072    0.041234    0.025328   -0.021350
C    -3.100978   -0.241678   -0.865800    0.089166    0.059994    0.040286
C    -4.277468    0.496694   -0.641619    0.008884    0.037462    0.011920
C    -5.157430    0.743725   -1.672761    0.006970   -0.003582    0.021452
C    -4.888543    0.272842   -2.951423    0.009876   -0.006392    0.011886
C    -3.735105   -0.465880   -3.187118    0.018052   -0.017622    0.022896
C    -2.847216   -0.722789   -2.162805    0.042648    0.010998    0.000838
H    -4.475863    0.865075    0.350639    0.005336    0.059990   -0.003176
C     0.095969    3.688288    0.863918    0.128302    0.002234   -0.055358
H     0.282771    0.706472    0.066292   -0.280068   -0.185738    0.001176
O    -1.139844    4.177228    0.261098   -0.023672   -0.018876   -0.004856
H    -0.191901    3.211045    1.836533    0.039140   -0.022886   -0.038264
H    -1.653189    4.598600    0.972979    0.186298    0.228088    0.045076
H     0.516177    5.866368   -0.632876   -0.024008    0.025726    0.031660
C     1.085941    4.816892    1.126208   -0.045944    0.096992    0.068658
C     1.969604    4.725046    2.188450    0.002366    0.036992    0.016116
C     2.935940    5.697948    2.359163    0.020124    0.011282    0.001444
C     3.031644    6.744976    1.457724    0.012278    0.010060    0.001266
C     2.169392    6.812830    0.376098    0.016830    0.015496   -0.002272
C     1.202079    5.841135    0.202433   -0.005882    0.042574    0.023464
H     1.882300    3.900333    2.881971   -0.029132    0.024574    0.004326
H     3.613818    5.640371    3.197360    0.037796    0.004146   -0.011092
H     3.782790    7.507478    1.595469    0.010844    0.011846    0.000964
H     2.248588    7.622797   -0.333367    0.032382    0.009568   -0.010136
34
* Frequency(6) -532.9400
C    -2.224153   -0.550837    0.244516   -0.155054   -0.024820    0.041396
H    -2.148677   -0.843661    2.127739    0.044918    0.007774   -0.050232
H    -1.092840    0.759989    0.035436    0.735188    1.197734   -0.191608
O    -0.637851    1.095314    0.058108   -0.611216   -0.686024    0.021048
O    -2.692201   -0.410366    1.442044    0.134512    0.050258   -0.136624
H    -1.401851   -1.309971    0.081879    0.601928    0.474212    0.023490
H    -6.054912    1.312111   -1.487266   -0.003544   -0.020628    0.012328
H    -5.569410    0.482527   -3.760760    0.019664   -0.002134    0.005734
O     0.792666    2.925133    0.042774    0.299306    0.336972   -0.021690
H    -3.529381   -0.837127   -4.178505    0.002538   -0.032594    0.026172
H    -1.948867   -1.287830   -2.358060    0.041234    0.025328   -0.021350
C    -3.096851   -0.238902   -0.863935    0.089166    0.059994    0.040286
C    -4.277057    0.498427   -0.641068    0.008884    0.037462    0.011920
C    -5.157107    0.743560   -1.671769    0.006970   -0.003582    0.021452
C    -4.888086    0.272546   -2.950873    0.009876   -0.006392    0.011886
C    -3.734269   -0.466696   -3.186059    0.018052   -0.017622    0.022896
C    -2.845242   -0.722280   -2.162767    0.042648    0.010998    0.000838
H    -4.475616    0.867851    0.350492    0.005336    0.059990   -0.003176
C     0.101907    3.688391    0.861356    0.128302    0.002234   -0.055358
H     0.269809    0.697876    0.066346   -0.280068   -0.185738    0.001176
O    -1.140940    4.176355    0.260873   -0.023672   -0.018876   -0.004856
H    -0.190089    3.209986    1.834762    0.039140   -0.022886   -0.038264
H    -1.644567    4.609156    0.975065    0.186298    0.228088    0.045076
H     0.515066    5.867559   -0.631411   -0.024008    0.025726    0.031660
C     1.083815    4.821381    1.129386   -0.045944    0.096992    0.068658
C     1.969714    4.726758    2.189196    0.002366    0.036992    0.016116
C     2.936872    5.698470    2.359230    0.020124    0.011282    0.001444
C     3.032212    6.745441    1.457783    0.012278    0.010060    0.001266
C     2.170171    6.813548    0.375993    0.016830    0.015496   -0.002272
C     1.201806    5.843105    0.203519   -0.005882    0.042574    0.023464
H     1.880952    3.901471    2.882171   -0.029132    0.024574    0.004326
H     3.615567    5.640563    3.196847    0.037796    0.004146   -0.011092
H     3.783292    7.508026    1.595514    0.010844    0.011846    0.000964
H     2.250087    7.623239   -0.333836    0.032382    0.009568   -0.010136
34
* Frequency(6) -532.9400
C    -2.225629   -0.551073    0.244910   -0.155054   -0.024820    0.041396
H    -2.148249   -0.843587    2.127261    0.044918    0.007774   -0.050232
H    -1.085845    0.771385    0.033613    0.735188    1.197734   -0.191608
O    -0.643666    1.088787    0.058309   -0.611216   -0.686024    0.021048
O    -2.690922   -0.409888    1.440744    0.134512    0.050258   -0.136624
H    -1.396124   -1.305459    0.082102    0.601928    0.474212    0.023490
H    -6.054946    1.311915   -1.487149   -0.003544   -0.020628    0.012328
H    -5.569223    0.482507   -3.760705    0.019664   -0.002134    0.005734
O     0.795513    2.928339    0.042567    0.299306    0.336972   -0.021690
H    -3.529357   -0.837437   -4.178256    0.002538   -0.032594    0.026172
H    -1.948474   -1.287589   -2.358263    0.041234    0.025328   -0.021350
C    -3.096002   -0.238331   -0.863552    0.089166    0.059994    0.040286
C    -4.276972    0.498784   -0.640954    0.008884    0.037462    0.011920
C    -5.157041    0.743526   -1.671564    0.006970   -0.003582    0.021452
C    -4.887992    0.272485   -2.950760    0.009876   -0.006392    0.011886
C    -3.734097   -0.466864   -3.185841    0.018052   -0.017622    0.022896
C    -2.844836   -0.722176   -2.162759    0.042648    0.010998    0.000838
H    -4.475565    0.868422    0.350462    0.005336    0.059990   -0.003176
C     0.103127    3.688412    0.860829    0.128302    0.002234   -0.055358
H     0.267144    0.696109    0.066357   -0.280068   -0.185738    0.001176
O    -1.141165    4.176175    0.260827   -0.023672   -0.018876   -0.004856
H    -0.189717    3.209768    1.834398    0.039140   -0.022886   -0.038264
H    -1.642794    4.611326    0.975494    0.186298    0.228088    0.045076
H     0.514838    5.867803   -0.631110   -0.024008    0.025726    0.031660
C     1.083378    4.822304    1.130039   -0.045944    0.096992    0.068658
C     1.969736    4.727110    2.189349    0.002366    0.036992    0.016116
C     2.937063    5.698577    2.359244    0.020124    0.011282    0.001444
C     3.032329    6.745537    1.457795    0.012278    0.010060    0.001266
C     2.170331    6.813695    0.375972    0.016830    0.015496   -0.002272
C     1.201750    5.843510    0.203742   -0.005882    0.042574    0.023464
H     1.880675    3.901705    2.882212   -0.029132    0.024574    0.004326
H     3.615926    5.640602    3.196741    0.037796    0.004146   -0.011092
H     3.783395    7.508139    1.595523    0.010844    0.011846    0.000964
H     2.250395    7.623330   -0.333932    0.032382    0.009568   -0.010136
34
* Frequency(6) -532.9400
C    -2.221243   -0.550371    0.243739   -0.155054   -0.024820    0.041396
H    -2.149520   -0.843807    2.128682    0.044918    0.007774   -0.050232
H    -1.106639    0.737508    0.039033    0.735188    1.197734   -0.191608
O    -0.626378    1.108190    0.057713   -0.611216   -0.686024    0.021048
O    -2.694726   -0.411309    1.444608    0.134512    0.050258   -0.136624
H    -1.413149   -1.318871    0.081438    0.601928    0.474212    0.023490
H    -6.054846    1.312498   -1.487498   -0.003544   -0.020628    0.012328
H    -5.569779    0.482567   -3.760867    0.019664   -0.002134    0.005734
O     0.787048    2.918808    0.043181    0.299306    0.336972   -0.021690
H    -3.529429   -0.836515   -4.178996    0.002538   -0.032594    0.026172
H    -1.949641   -1.288306   -2.357659    0.041234    0.025328   -0.021350
C    -3.098524   -0.240028   -0.864692    0.089166    0.059994    0.040286
C    -4.277223    0.497724   -0.641291    0.008884    0.037462    0.011920
C    -5.157238    0.743627   -1.672171    0.006970   -0.003582    0.021452
C    -4.888272    0.272666   -2.951096    0.009876   -0.006392    0.011886
C    -3.734608   -0.466365   -3.186488    0.018052   -0.017622    0.022896
C    -2.846042   -0.722487   -2.162782    0.042648    0.010998    0.000838
H    -4.475716    0.866725    0.350552    0.005336    0.059990   -0.003176
C     0.099498    3.688349    0.862395    0.128302    0.002234   -0.055358
H     0.275065    0.701362    0.066324   -0.280068   -0.185738    0.001176
O    -1.140495    4.176709    0.260965   -0.023672   -0.018876   -0.004856
H    -0.190824    3.210416    1.835481    0.039140   -0.022886   -0.038264
H    -1.648064    4.604875    0.974219    0.186298    0.228088    0.045076
H     0.515517    5.867076   -0.632005   -0.024008    0.025726    0.031660
C     1.084677    4.819561    1.128097   -0.045944    0.096992    0.068658
C     1.969669    4.726064    2.188894    0.002366    0.036992    0.016116
C     2.936494    5.698258    2.359203    0.020124    0.011282    0.001444
C     3.031981    6.745252    1.457759    0.012278    0.010060    0.001266
C     2.169855    6.813257    0.376036    0.016830    0.015496   -0.002272
C     1.201917    5.842306    0.203079   -0.005882    0.042574    0.023464
H     1.881499    3.901009    2.882090   -0.029132    0.024574    0.004326
H     3.614857    5.640485    3.197055    0.037796    0.004146   -0.011092
H     3.783089    7.507804    1.595496    0.010844    0.011846    0.000964
H     2.249479    7.623060   -0.333646    0.032382    0.009568   -0.010136
34
* Frequency(6) -532.9400
C    -2.211472   -0.548807    0.241131   -0.155054   -0.024820    0.041396
H    -2.152350   -0.844297    2.131847    0.044918    0.007774   -0.050232
H    -1.152969    0.662031    0.051107    0.735188    1.197734   -0.191608
O    -0.587861    1.151422    0.056387   -0.611216   -0.686024    0.021048
O    -2.703203   -0.414476    1.453218    0.134512    0.050258   -0.136624
H    -1.451081   -1.348755    0.079958    0.601928    0.474212    0.023490
H    -6.054623    1.313798   -1.488274   -0.003544   -0.020628    0.012328
H    -5.571018    0.482701   -3.761228    0.019664   -0.002134    0.005734
O     0.768186    2.897573    0.044548    0.299306    0.336972   -0.021690
H    -3.529588   -0.834461   -4.180646    0.002538   -0.032594    0.026172
H    -1.952239   -1.289902   -2.356314    0.041234    0.025328   -0.021350
C    -3.104143   -0.243808   -0.867230    0.089166    0.059994    0.040286
C    -4.277783    0.495364   -0.642043    0.008884    0.037462    0.011920
C    -5.157677    0.743853   -1.673523    0.006970   -0.003582    0.021452
C    -4.888894    0.273069   -2.951845    0.009876   -0.006392    0.011886
C    -3.735746   -0.465255   -3.187931    0.018052   -0.017622    0.022896
C    -2.848730   -0.723180   -2.162835    0.042648    0.010998    0.000838
H    -4.476052    0.862945    0.350752    0.005336    0.059990   -0.003176
C     0.091413    3.688208    0.865883    0.128302    0.002234   -0.055358
H     0.292715    0.713067    0.066250   -0.280068   -0.185738    0.001176
O    -1.139004    4.177898    0.261271   -0.023672   -0.018876   -0.004856
H    -0.193290    3.211858    1.837892    0.039140   -0.022886   -0.038264
H    -1.659804    4.590501    0.971378    0.186298    0.228088    0.045076
H     0.517030    5.865455   -0.634000   -0.024008    0.025726    0.031660
C     1.087572    4.813449    1.123771   -0.045944    0.096992    0.068658
C     1.969520    4.723733    2.187878    0.002366    0.036992    0.016116
C     2.935226    5.697547    2.359112    0.020124    0.011282    0.001444
C     3.031208    6.744618    1.457679    0.012278    0.010060    0.001266
C     2.168795    6.812280    0.376179    0.016830    0.015496   -0.002272
C     1.202287    5.839623    0.201600   -0.005882    0.042574    0.023464
H     1.883334    3.899461    2.881817   -0.029132    0.024574    0.004326
H     3.612476    5.640224    3.197754    0.037796    0.004146   -0.011092
H     3.782405    7.507057    1.595435    0.010844    0.011846    0.000964
H     2.247438    7.622457   -0.333007    0.032382    0.009568   -0.010136
34
* Frequency(6) -532.9400
C    -2.197374   -0.546551    0.237367   -0.155054   -0.024820    0.041396
H    -2.156434   -0.845004    2.136414    0.044918    0.007774   -0.050232
H    -1.219813    0.553130    0.068529    0.735188    1.197734   -0.191608
O    -0.532288    1.213796    0.054473   -0.611216   -0.686024    0.021048
O    -2.715433   -0.419046    1.465640    0.134512    0.050258   -0.136624
H    -1.505809   -1.391871    0.077822    0.601928    0.474212    0.023490
H    -6.054300    1.315674   -1.489395   -0.003544   -0.020628    0.012328
H    -5.572806    0.482896   -3.761750    0.019664   -0.002134    0.005734
O     0.740973    2.866935    0.046520    0.299306    0.336972   -0.021690
H    -3.529819   -0.831498   -4.183025    0.002538   -0.032594    0.026172
H    -1.955988   -1.292205   -2.354373    0.041234    0.025328   -0.021350
C    -3.112251   -0.249263   -0.870893    0.089166    0.059994    0.040286
C    -4.278591    0.491957   -0.643126    0.008884    0.037462    0.011920
C    -5.158311    0.744178   -1.675473    0.006970   -0.003582    0.021452
C    -4.889792    0.273650   -2.952926    0.009876   -0.006392    0.011886
C    -3.737387   -0.463653   -3.190013    0.018052   -0.017622    0.022896
C    -2.852608   -0.724180   -2.162911    0.042648    0.010998    0.000838
H    -4.476537    0.857490    0.351041    0.005336    0.059990   -0.003176
C     0.079748    3.688005    0.870916    0.128302    0.002234   -0.055358
H     0.318179    0.729954    0.066143   -0.280068   -0.185738    0.001176
O    -1.136851    4.179615    0.261712   -0.023672   -0.018876   -0.004856
H    -0.196849    3.213939    1.841371    0.039140   -0.022886   -0.038264
H    -1.676742    4.569763    0.967280    0.186298    0.228088    0.045076
H     0.519213    5.863115   -0.636879   -0.024008    0.025726    0.031660
C     1.091750    4.804630    1.117528   -0.045944    0.096992    0.068658
C     1.969305    4.720369    2.186413    0.002366    0.036992    0.016116
C     2.933396    5.696521    2.358981    0.020124    0.011282    0.001444
C     3.030091    6.743704    1.457564    0.012278    0.010060    0.001266
C     2.167265    6.810871    0.376386    0.016830    0.015496   -0.002272
C     1.202822    5.835752    0.199467   -0.005882    0.042574    0.023464
H     1.885983    3.897227    2.881424   -0.029132    0.024574    0.004326
H     3.609039    5.639847    3.198762    0.037796    0.004146   -0.011092
H     3.781419    7.505980    1.595348    0.010844    0.011846    0.000964
H     2.244494    7.621587   -0.332085    0.032382    0.009568   -0.010136
34
* Frequency(6) -532.9400
C    -2.180477   -0.543846    0.232856   -0.155054   -0.024820    0.041396
H    -2.161329   -0.845851    2.141888    0.044918    0.007774   -0.050232
H    -1.299929    0.422609    0.089409    0.735188    1.197734   -0.191608
O    -0.465682    1.288554    0.052180   -0.611216   -0.686024    0.021048
O    -2.730091   -0.424523    1.480528    0.134512    0.050258   -0.136624
H    -1.571403   -1.443548    0.075262    0.601928    0.474212    0.023490
H    -6.053914    1.317922   -1.490739   -0.003544   -0.020628    0.012328
H    -5.574949    0.483128   -3.762375    0.019664   -0.002134    0.005734
O     0.708356    2.830214    0.048883    0.299306    0.336972   -0.021690
H    -3.530096   -0.827946   -4.185877    0.002538   -0.032594    0.026172
H    -1.960482   -1.294965   -2.352046    0.041234    0.025328   -0.021350
C    -3.121967   -0.255801   -0.875283    0.089166    0.059994    0.040286
C    -4.279559    0.487875   -0.644425    0.008884    0.037462    0.011920
C    -5.159070    0.744569   -1.677811    0.006970   -0.003582    0.021452
C    -4.890868    0.274347   -2.954221    0.009876   -0.006392    0.011886
C    -3.739354   -0.461732   -3.192508    0.018052   -0.017622    0.022896
C    -2.857255   -0.725378   -2.163003    0.042648    0.010998    0.000838
H    -4.477119    0.850953    0.351387    0.005336    0.059990   -0.003176
C     0.065766    3.687762    0.876949    0.128302    0.002234   -0.055358
H     0.348699    0.750195    0.066015   -0.280068   -0.185738    0.001176
O    -1.134272    4.181672    0.262241   -0.023672   -0.018876   -0.004856
H    -0.201114    3.216433    1.845541    0.039140   -0.022886   -0.038264
H    -1.697044    4.544908    0.962368    0.186298    0.228088    0.045076
H     0.521829    5.860312   -0.640329   -0.024008    0.025726    0.031660
C     1.096756    4.794061    1.110046   -0.045944    0.096992    0.068658
C     1.969047    4.716338    2.184656    0.002366    0.036992    0.016116
C     2.931203    5.695292    2.358823    0.020124    0.011282    0.001444
C     3.028753    6.742608    1.457426    0.012278    0.010060    0.001266
C     2.165431    6.809183    0.376633    0.016830    0.015496   -0.002272
C     1.203463    5.831113    0.196910   -0.005882    0.042574    0.023464
H     1.889158    3.894549    2.880952   -0.029132    0.024574    0.004326
H     3.604920    5.639395    3.199971    0.037796    0.004146   -0.011092
H     3.780238    7.504689    1.595243    0.010844    0.011846    0.000964
H     2.240965    7.620544   -0.330981    0.032382    0.009568   -0.010136
34
* Frequency(6) -532.9400
C    -2.162613   -0.540986    0.228086   -0.155054   -0.024820    0.041396
H    -2.166505   -0.846747    2.147676    0.044918    0.007774   -0.050232
H    -1.384635    0.284611    0.111485    0.735188    1.197734   -0.191608
O    -0.395260    1.367596    0.049754   -0.611216   -0.686024    0.021048
O    -2.745589   -0.430313    1.496270    0.134512    0.050258   -0.136624
H    -1.640755   -1.498184    0.072556    0.601928    0.474212    0.023490
H    -6.053506    1.320298   -1.492159   -0.003544   -0.020628    0.012328
H    -5.577215    0.483374   -3.763035    0.019664   -0.002134    0.005734
O     0.673872    2.791390    0.051383    0.299306    0.336972   -0.021690
H    -3.530388   -0.824190   -4.188893    0.002538   -0.032594    0.026172
H    -1.965232   -1.297883   -2.349586    0.041234    0.025328   -0.021350
C    -3.132241   -0.262713   -0.879925    0.089166    0.059994    0.040286
C    -4.280583    0.483559   -0.645799    0.008884    0.037462    0.011920
C    -5.159874    0.744981   -1.680283    0.006970   -0.003582    0.021452
C    -4.892006    0.275083   -2.955591    0.009876   -0.006392    0.011886
C    -3.741434   -0.459702   -3.195146    0.018052   -0.017622    0.022896
C    -2.862169   -0.726646   -2.163099    0.042648    0.010998    0.000838
H    -4.477733    0.844041    0.351753    0.005336    0.059990   -0.003176
C     0.050984    3.687504    0.883327    0.128302    0.002234   -0.055358
H     0.380967    0.771595    0.065879   -0.280068   -0.185738    0.001176
O    -1.131544    4.183846    0.262801   -0.023672   -0.018876   -0.004856
H    -0.205624    3.219069    1.849949    0.039140   -0.022886   -0.038264
H    -1.718508    4.518628    0.957174    0.186298    0.228088    0.045076
H     0.524595    5.857348   -0.643977   -0.024008    0.025726    0.031660
C     1.102050    4.782885    1.102136   -0.045944    0.096992    0.068658
C     1.968775    4.712076    2.182800    0.002366    0.036992    0.016116
C     2.928885    5.693992    2.358657    0.020124    0.011282    0.001444
C     3.027339    6.741448    1.457280    0.012278    0.010060    0.001266
C     2.163491    6.807397    0.376895    0.016830    0.015496   -0.002272
C     1.204141    5.826207    0.194206   -0.005882    0.042574    0.023464
H     1.892514    3.891717    2.880454   -0.029132    0.024574    0.004326
H     3.600566    5.638917    3.201249    0.037796    0.004146   -0.011092
H     3.778988    7.503325    1.595131    0.010844    0.011846    0.000964
H     2.237235    7.619442   -0.329813    0.032382    0.009568   -0.010136
34
* Frequency(6) -532.9400
C    -2.145716   -0.538281    0.223575   -0.155054   -0.024820    0.041396
H    -2.171400   -0.847594    2.153150    0.044918    0.007774   -0.050232
H    -1.464751    0.154090    0.132365    0.735188    1.197734   -0.191608
O    -0.328654    1.442354    0.047461   -0.611216   -0.686024    0.021048
O    -2.760247   -0.435790    1.511158    0.134512    0.050258   -0.136624
H    -1.706349   -1.549861    0.069996    0.601928    0.474212    0.023490
H    -6.053120    1.322546   -1.493503   -0.003544   -0.020628    0.012328
H    -5.579358    0.483606   -3.763660    0.019664   -0.002134    0.005734
O     0.641255    2.754669    0.053746    0.299306    0.336972   -0.021690
H    -3.530665   -0.820638   -4.191745    0.002538   -0.032594    0.026172
H    -1.969726   -1.300643   -2.347259    0.041234    0.025328   -0.021350
C    -3.141957   -0.269251   -0.884315    0.089166    0.059994    0.040286
C    -4.281551    0.479477   -0.647098    0.008884    0.037462    0.011920
C    -5.160633    0.745372   -1.682621    0.006970   -0.003582    0.021452
C    -4.893082    0.275780   -2.956886    0.009876   -0.006392    0.011886
C    -3.743401   -0.457781   -3.197641    0.018052   -0.017622    0.022896
C    -2.866816   -0.727844   -2.163191    0.042648    0.010998    0.000838
H    -4.478315    0.837504    0.352099    0.005336    0.059990   -0.003176
C     0.037002    3.687261    0.889360    0.128302    0.002234   -0.055358
H     0.411487    0.791836    0.065751   -0.280068   -0.185738    0.001176
O    -1.128965    4.185903    0.263330   -0.023672   -0.018876   -0.004856
H    -0.209889    3.221563    1.854119    0.039140   -0.022886   -0.038264
H    -1.738810    4.493773    0.952262    0.186298    0.228088    0.045076
H     0.527211    5.854545   -0.647427   -0.024008    0.025726    0.031660
C     1.107056    4.772316    1.094654   -0.045944    0.096992    0.068658
C     1.968517    4.708045    2.181043    0.002366    0.036992    0.016116
C     2.926692    5.692763    2.358499    0.020124    0.011282    0.001444
C     3.026001    6.740352    1.457142    0.012278    0.010060    0.001266
C     2.161657    6.805709    0.377142    0.016830    0.015496   -0.002272
C     1.204782    5.821568    0.191649   -0.005882    0.042574    0.023464
H     1.895689    3.889039    2.879982   -0.029132    0.024574    0.004326
H     3.596447    5.638465    3.202458    0.037796    0.004146   -0.011092
H     3.777807    7.502034    1.595026    0.010844    0.011846    0.000964
H     2.233706    7.618399   -0.328709    0.032382    0.009568   -0.010136
34
* Frequency(6) -532.9400
C    -2.131618   -0.536025    0.219811   -0.155054   -0.024820    0.041396
H    -2.175484   -0.848301    2.157717    0.044918    0.007774   -0.050232
H    -1.531595    0.045189    0.149787    0.735188    1.197734   -0.191608
O    -0.273081    1.504728    0.045547   -0.611216   -0.686024    0.021048
O    -2.772477   -0.440360    1.523580    0.134512    0.050258   -0.136624
H    -1.761077   -1.592977    0.067860    0.601928    0.474212    0.023490
H    -6.052797    1.324422   -1.494624   -0.003544   -0.020628    0.012328
H    -5.581146    0.483801   -3.764182    0.019664   -0.002134    0.005734
O     0.614042    2.724031    0.055718    0.299306    0.336972   -0.021690
H    -3.530896   -0.817675   -4.194124    0.002538   -0.032594    0.026172
H    -1.973475   -1.302946   -2.345318    0.041234    0.025328   -0.021350
C    -3.150065   -0.274706   -0.887978    0.089166    0.059994    0.040286
C    -4.282359    0.476070   -0.648181    0.008884    0.037462    0.011920
C    -5.161267    0.745697   -1.684571    0.006970   -0.003582    0.021452
C    -4.893980    0.276361   -2.957967    0.009876   -0.006392    0.011886
C    -3.745042   -0.456179   -3.199723    0.018052   -0.017622    0.022896
C    -2.870694   -0.728844   -2.163267    0.042648    0.010998    0.000838
H    -4.478800    0.832049    0.352388    0.005336    0.059990   -0.003176
C     0.025337    3.687058    0.894393    0.128302    0.002234   -0.055358
H     0.436951    0.808723    0.065644   -0.280068   -0.185738    0.001176
O    -1.126812    4.187620    0.263771   -0.023672   -0.018876   -0.004856
H    -0.213448    3.223644    1.857598    0.039140   -0.022886   -0.038264
H    -1.755748    4.473035    0.948164    0.186298    0.228088    0.045076
H     0.529394    5.852205   -0.650306   -0.024008    0.025726    0.031660
C     1.111234    4.763497    1.088411   -0.045944    0.096992    0.068658
C     1.968302    4.704681    2.179578    0.002366    0.036992    0.016116
C     2.924862    5.691737    2.358368    0.020124    0.011282    0.001444
C     3.024884    6.739438    1.457027    0.012278    0.010060    0.001266
C     2.160127    6.804300    0.377349    0.016830    0.015496   -0.002272
C     1.205317    5.817697    0.189516   -0.005882    0.042574    0.023464
H     1.898338    3.886805    2.879589   -0.029132    0.024574    0.004326
H     3.593010    5.638088    3.203466    0.037796    0.004146   -0.011092
H     3.776821    7.500957    1.594939    0.010844    0.011846    0.000964
H     2.230762    7.617529   -0.327787    0.032382    0.009568   -0.010136
34
* Frequency(6) -532.9400
C    -2.121847   -0.534461    0.217203   -0.155054   -0.024820    0.041396
H    -2.178314   -0.848791    2.160882    0.044918    0.007774   -0.050232
H    -1.577925   -0.030288    0.161861    0.735188    1.197734   -0.191608
O    -0.234564    1.547960    0.044221   -0.611216   -0.686024    0.021048
O    -2.780954   -0.443527    1.532190    0.134512    0.050258   -0.136624
H    -1.799009   -1.622861    0.066380    0.601928    0.474212    0.023490
H    -6.052574    1.325722   -1.495400   -0.003544   -0.020628    0.012328
H    -5.582385    0.483935   -3.764543    0.019664   -0.002134    0.005734
O     0.595180    2.702796    0.057085    0.299306    0.336972   -0.021690
H    -3.531055   -0.815621   -4.195774    0.002538   -0.032594    0.026172
H    -1.976073   -1.304542   -2.343973    0.041234    0.025328   -0.021350
C    -3.155684   -0.278486   -0.890516    0.089166    0.059994    0.040286
C    -4.282919    0.473710   -0.648933    0.008884    0.037462    0.011920
C    -5.161706    0.745923   -1.685923    0.006970   -0.003582    0.021452
C    -4.894602    0.276764   -2.958716    0.009876   -0.006392    0.011886
C    -3.746180   -0.455069   -3.201166    0.018052   -0.017622    0.022896
C    -2.873382   -0.729537   -2.163320    0.042648    0.010998    0.000838
H    -4.479136    0.828269    0.352588    0.005336    0.059990   -0.003176
C     0.017252    3.686917    0.897881    0.128302    0.002234   -0.055358
H     0.454601    0.820428    0.065570   -0.280068   -0.185738    0.001176
O    -1.125321    4.188809    0.264077   -0.023672   -0.018876   -0.004856
H    -0.215914    3.225086    1.860009    0.039140   -0.022886   -0.038264
H    -1.767488    4.458661    0.945323    0.186298    0.228088    0.045076
H     0.530907    5.850584   -0.652301   -0.024008    0.025726    0.031660
C     1.114129    4.757385    1.084085   -0.045944    0.096992    0.068658
C     1.968153    4.702350    2.178562    0.002366    0.036992    0.016116
C     2.923594    5.691026    2.358277    0.020124    0.011282    0.001444
C     3.024111    6.738804    1.456947    0.012278    0.010060    0.001266
C     2.159067    6.803323    0.377492    0.016830    0.015496   -0.002272
C     1.205687    5.815014    0.188037   -0.005882    0.042574    0.023464
H     1.900173    3.885257    2.879316   -0.029132    0.024574    0.004326
H     3.590629    5.637827    3.204165    0.037796    0.004146   -0.011092
H     3.776137    7.500210    1.594878    0.010844    0.011846    0.000964
H     2.228721    7.616926   -0.327148    0.032382    0.009568   -0.010136
34
* Frequency(6) -532.9400
C    -2.117461   -0.533759    0.216032   -0.155054   -0.024820    0.041396
H    -2.179585   -0.849011    2.162303    0.044918    0.007774   -0.050232
H    -1.598719   -0.064165    0.167281    0.735188    1.197734   -0.191608
O    -0.217276    1.567363    0.043625   -0.611216   -0.686024    0.021048
O    -2.784758   -0.444948    1.536054    0.134512    0.050258   -0.136624
H    -1.816034   -1.636273    0.065716    0.601928    0.474212    0.023490
H    -6.052474    1.326305   -1.495749   -0.003544   -0.020628    0.012328
H    -5.582941    0.483995   -3.764705    0.019664   -0.002134    0.005734
O     0.586715    2.693265    0.057699    0.299306    0.336972   -0.021690
H    -3.531127   -0.814699   -4.196514    0.002538   -0.032594    0.026172
H    -1.977240   -1.305259   -2.343369    0.041234    0.025328   -0.021350
C    -3.158206   -0.280183   -0.891656    0.089166    0.059994    0.040286
C    -4.283170    0.472650   -0.649270    0.008884    0.037462    0.011920
C    -5.161903    0.746024   -1.686530    0.006970   -0.003582    0.021452
C    -4.894882    0.276945   -2.959052    0.009876   -0.006392    0.011886
C    -3.746691   -0.454570   -3.201813    0.018052   -0.017622    0.022896
C    -2.874588   -0.729848   -2.163343    0.042648    0.010998    0.000838
H    -4.479287    0.826572    0.352678    0.005336    0.059990   -0.003176
C     0.013623    3.686854    0.899447    0.128302    0.002234   -0.055358
H     0.462522    0.825681    0.065537   -0.280068   -0.185738    0.001176
O    -1.124651    4.189343    0.264215   -0.023672   -0.018876   -0.004856
H    -0.217021    3.225734    1.861092    0.039140   -0.022886   -0.038264
H    -1.772758    4.452210    0.944048    0.186298    0.228088    0.045076
H     0.531586    5.849857   -0.653196   -0.024008    0.025726    0.031660
C     1.115428    4.754642    1.082143   -0.045944    0.096992    0.068658
C     1.968086    4.701304    2.178107    0.002366    0.036992    0.016116
C     2.923025    5.690707    2.358236    0.020124    0.011282    0.001444
C     3.023763    6.738519    1.456911    0.012278    0.010060    0.001266
C     2.158591    6.802885    0.377556    0.016830    0.015496   -0.002272
C     1.205854    5.813810    0.187374   -0.005882    0.042574    0.023464
H     1.900997    3.884561    2.879194   -0.029132    0.024574    0.004326
H     3.589560    5.637710    3.204479    0.037796    0.004146   -0.011092
H     3.775831    7.499875    1.594851    0.010844    0.011846    0.000964
H     2.227805    7.616656   -0.326862    0.032382    0.009568   -0.010136
34
* Frequency(6) -532.9400
C    -2.118937   -0.533995    0.216426   -0.155054   -0.024820    0.041396
H    -2.179157   -0.848937    2.161825    0.044918    0.007774   -0.050232
H    -1.591724   -0.052769    0.165458    0.735188    1.197734   -0.191608
O    -0.223091    1.560836    0.043826   -0.611216   -0.686024    0.021048
O    -2.783479   -0.444470    1.534754    0.134512    0.050258   -0.136624
H    -1.810307   -1.631761    0.065939    0.601928    0.474212    0.023490
H    -6.052508    1.326109   -1.495632   -0.003544   -0.020628    0.012328
H    -5.582754    0.483975   -3.764650    0.019664   -0.002134    0.005734
O     0.589562    2.696471    0.057492    0.299306    0.336972   -0.021690
H    -3.531103   -0.815009   -4.196265    0.002538   -0.032594    0.026172
H    -1.976847   -1.305018   -2.343572    0.041234    0.025328   -0.021350
C    -3.157357   -0.279612   -0.891273    0.089166    0.059994    0.040286
C    -4.283085    0.473007   -0.649156    0.008884    0.037462    0.011920
C    -5.161837    0.745990   -1.686325    0.006970   -0.003582    0.021452
C    -4.894788    0.276884   -2.958939    0.009876   -0.006392    0.011886
C    -3.746519   -0.454738   -3.201595    0.018052   -0.017622    0.022896
C    -2.874182   -0.729744   -2.163335    0.042648    0.010998    0.000838
H    -4.479236    0.827143    0.352648    0.005336    0.059990   -0.003176
C     0.014843    3.686875    0.898920    0.128302    0.002234   -0.055358
H     0.459857    0.823914    0.065548   -0.280068   -0.185738    0.001176
O    -1.124876    4.189163    0.264169   -0.023672   -0.018876   -0.004856
H    -0.216649    3.225516    1.860728    0.039140   -0.022886   -0.038264
H    -1.770985    4.454380    0.944477    0.186298    0.228088    0.045076
H     0.531358    5.850101   -0.652895   -0.024008    0.025726    0.031660
C     1.114991    4.755565    1.082796   -0.045944    0.096992    0.068658
C     1.968108    4.701656    2.178260    0.002366    0.036992    0.016116
C     2.923216    5.690814    2.358250    0.020124    0.011282    0.001444
C     3.023880    6.738615    1.456923    0.012278    0.010060    0.001266
C     2.158751    6.803032    0.377535    0.016830    0.015496   -0.002272
C     1.205798    5.814215    0.187597   -0.005882    0.042574    0.023464
H     1.900720    3.884795    2.879235   -0.029132    0.024574    0.004326
H     3.589919    5.637749    3.204373    0.037796    0.004146   -0.011092
H     3.775934    7.499988    1.594860    0.010844    0.011846    0.000964
H     2.228113    7.616747   -0.326958    0.032382    0.009568   -0.010136
34
* Frequency(6) -532.9400
C    -2.126113   -0.535144    0.218342   -0.155054   -0.024820    0.041396
H    -2.177078   -0.848577    2.159500    0.044918    0.007774   -0.050232
H    -1.557698    0.002664    0.156590    0.735188    1.197734   -0.191608
O    -0.251380    1.529086    0.044800   -0.611216   -0.686024    0.021048
O    -2.777253   -0.442144    1.528431    0.134512    0.050258   -0.136624
H    -1.782449   -1.609814    0.067026    0.601928    0.474212    0.023490
H    -6.052672    1.325154   -1.495061   -0.003544   -0.020628    0.012328
H    -5.581844    0.483876   -3.764385    0.019664   -0.002134    0.005734
O     0.603415    2.712066    0.056488    0.299306    0.336972   -0.021690
H    -3.530986   -0.816518   -4.195054    0.002538   -0.032594    0.026172
H    -1.974939   -1.303845   -2.344560    0.041234    0.025328   -0.021350
C    -3.153230   -0.276836   -0.889408    0.089166    0.059994    0.040286
C    -4.282674    0.474740   -0.648605    0.008884    0.037462    0.011920
C    -5.161514    0.745825   -1.685333    0.006970   -0.003582    0.021452
C    -4.894331    0.276588   -2.958389    0.009876   -0.006392    0.011886
C    -3.745683   -0.455554   -3.200536    0.018052   -0.017622    0.022896
C    -2.872208   -0.729235   -2.163297    0.042648    0.010998    0.000838
H    -4.478989    0.829919    0.352501    0.005336    0.059990   -0.003176
C     0.020781    3.686978    0.896358    0.128302    0.002234   -0.055358
H     0.446895    0.815318    0.065602   -0.280068   -0.185738    0.001176
O    -1.125972    4.188290    0.263944   -0.023672   -0.018876   -0.004856
H    -0.214837    3.224457    1.858957    0.039140   -0.022886   -0.038264
H    -1.762363    4.464936    0.946563    0.186298    0.228088    0.045076
H     0.530247    5.851292   -0.651430   -0.024008    0.025726    0.031660
C     1.112865    4.760054    1.085974   -0.045944    0.096992    0.068658
C     1.968218    4.703368    2.179006    0.002366    0.036992    0.016116
C     2.924148    5.691336    2.358317    0.020124    0.011282    0.001444
C     3.024448    6.739080    1.456982    0.012278    0.010060    0.001266
C     2.159530    6.803750    0.377430    0.016830    0.015496   -0.002272
C     1.205525    5.816185    0.188683   -0.005882    0.042574    0.023464
H     1.899372    3.885933    2.879435   -0.029132    0.024574    0.004326
H     3.591668    5.637941    3.203860    0.037796    0.004146   -0.011092
H     3.776436    7.500536    1.594905    0.010844    0.011846    0.000964
H     2.229612    7.617189   -0.327427    0.032382    0.009568   -0.010136
34
* Frequency(6) -532.9400
C    -2.138212   -0.537080    0.221572   -0.155054   -0.024820    0.041396
H    -2.173573   -0.847970    2.155581    0.044918    0.007774   -0.050232
H    -1.500329    0.096128    0.141638    0.735188    1.197734   -0.191608
O    -0.299075    1.475553    0.046442   -0.611216   -0.686024    0.021048
O    -2.766757   -0.438222    1.517770    0.134512    0.050258   -0.136624
H    -1.735478   -1.572809    0.068859    0.601928    0.474212    0.023490
H    -6.052948    1.323544   -1.494099   -0.003544   -0.020628    0.012328
H    -5.580309    0.483710   -3.763938    0.019664   -0.002134    0.005734
O     0.626771    2.738362    0.054796    0.299306    0.336972   -0.021690
H    -3.530788   -0.819061   -4.193011    0.002538   -0.032594    0.026172
H    -1.971721   -1.301869   -2.346226    0.041234    0.025328   -0.021350
C    -3.146272   -0.272154   -0.886264    0.089166    0.059994    0.040286
C    -4.281981    0.477664   -0.647674    0.008884    0.037462    0.011920
C    -5.160970    0.745545   -1.683659    0.006970   -0.003582    0.021452
C    -4.893560    0.276089   -2.957461    0.009876   -0.006392    0.011886
C    -3.744275   -0.456929   -3.198749    0.018052   -0.017622    0.022896
C    -2.868880   -0.728376   -2.163231    0.042648    0.010998    0.000838
H    -4.478573    0.834601    0.352253    0.005336    0.059990   -0.003176
C     0.030793    3.687153    0.892039    0.128302    0.002234   -0.055358
H     0.425040    0.800824    0.065694   -0.280068   -0.185738    0.001176
O    -1.127819    4.186817    0.263565   -0.023672   -0.018876   -0.004856
H    -0.211783    3.222671    1.855971    0.039140   -0.022886   -0.038264
H    -1.747825    4.482735    0.950081    0.186298    0.228088    0.045076
H     0.528373    5.853300   -0.648959   -0.024008    0.025726    0.031660
C     1.109280    4.767622    1.091331   -0.045944    0.096992    0.068658
C     1.968402    4.706255    2.180263    0.002366    0.036992    0.016116
C     2.925718    5.692217    2.358430    0.020124    0.011282    0.001444
C     3.025407    6.739865    1.457081    0.012278    0.010060    0.001266
C     2.160843    6.804959    0.377252    0.016830    0.015496   -0.002272
C     1.205066    5.819508    0.190514   -0.005882    0.042574    0.023464
H     1.897099    3.887850    2.879773   -0.029132    0.024574    0.004326
H     3.594618    5.638265    3.202994    0.037796    0.004146   -0.011092
H     3.777282    7.501460    1.594980    0.010844    0.011846    0.000964
H     2.232139    7.617936   -0.328218    0.032382    0.009568   -0.010136
34
* Frequency(6) -532.9400
C    -2.153924   -0.539595    0.225767   -0.155054   -0.024820    0.041396
H    -2.169022   -0.847182    2.150491    0.044918    0.007774   -0.050232
H    -1.425832    0.217494    0.122222    0.735188    1.197734   -0.191608
O    -0.361009    1.406038    0.048575   -0.611216   -0.686024    0.021048
O    -2.753127   -0.433130    1.503926    0.134512    0.050258   -0.136624
H    -1.674485   -1.524758    0.071239    0.601928    0.474212    0.023490
H    -6.053307    1.321454   -1.492850   -0.003544   -0.020628    0.012328
H    -5.578317    0.483494   -3.763357    0.019664   -0.002134    0.005734
O     0.657099    2.772507    0.052598    0.299306    0.336972   -0.021690
H    -3.530530   -0.822364   -4.190359    0.002538   -0.032594    0.026172
H    -1.967543   -1.299302   -2.348390    0.041234    0.025328   -0.021350
C    -3.137237   -0.266075   -0.882182    0.089166    0.059994    0.040286
C    -4.281081    0.481460   -0.646467    0.008884    0.037462    0.011920
C    -5.160264    0.745182   -1.681485    0.006970   -0.003582    0.021452
C    -4.892559    0.275441   -2.956257    0.009876   -0.006392    0.011886
C    -3.742446   -0.458714   -3.196429    0.018052   -0.017622    0.022896
C    -2.864559   -0.727262   -2.163146    0.042648    0.010998    0.000838
H    -4.478032    0.840679    0.351931    0.005336    0.059990   -0.003176
C     0.043794    3.687379    0.886429    0.128302    0.002234   -0.055358
H     0.396661    0.782003    0.065813   -0.280068   -0.185738    0.001176
O    -1.130218    4.184904    0.263073   -0.023672   -0.018876   -0.004856
H    -0.207817    3.220352    1.852094    0.039140   -0.022886   -0.038264
H    -1.728948    4.505847    0.954648    0.186298    0.228088    0.045076
H     0.525940    5.855906   -0.645751   -0.024008    0.025726    0.031660
C     1.104624    4.777450    1.098288   -0.045944    0.096992    0.068658
C     1.968642    4.710003    2.181897    0.002366    0.036992    0.016116
C     2.927757    5.693360    2.358576    0.020124    0.011282    0.001444
C     3.026651    6.740885    1.457209    0.012278    0.010060    0.001266
C     2.162548    6.806529    0.377022    0.016830    0.015496   -0.002272
C     1.204470    5.823822    0.192891   -0.005882    0.042574    0.023464
H     1.894147    3.890340    2.880211   -0.029132    0.024574    0.004326
H     3.598448    5.638685    3.201871    0.037796    0.004146   -0.011092
H     3.778381    7.502661    1.595077    0.010844    0.011846    0.000964
H     2.235420    7.618906   -0.329245    0.032382    0.009568   -0.010136
34
* Frequency(6) -532.9400
C    -2.171545   -0.542416    0.230471   -0.155054   -0.024820    0.041396
H    -2.163917   -0.846299    2.144782    0.044918    0.007774   -0.050232
H    -1.342282    0.353610    0.100447    0.735188    1.197734   -0.191608
O    -0.430471    1.328075    0.050967   -0.611216   -0.686024    0.021048
O    -2.737840   -0.427418    1.488399    0.134512    0.050258   -0.136624
H    -1.606079   -1.470866    0.073909    0.601928    0.474212    0.023490
H    -6.053710    1.319110   -1.491449   -0.003544   -0.020628    0.012328
H    -5.576082    0.483251   -3.762705    0.019664   -0.002134    0.005734
O     0.691114    2.810802    0.050133    0.299306    0.336972   -0.021690
H    -3.530242   -0.826068   -4.187385    0.002538   -0.032594    0.026172
H    -1.962857   -1.296424   -2.350816    0.041234    0.025328   -0.021350
C    -3.127104   -0.259257   -0.877604    0.089166    0.059994    0.040286
C    -4.280071    0.485717   -0.645112    0.008884    0.037462    0.011920
C    -5.159472    0.744775   -1.679047    0.006970   -0.003582    0.021452
C    -4.891437    0.274715   -2.954906    0.009876   -0.006392    0.011886
C    -3.740394   -0.460717   -3.193827    0.018052   -0.017622    0.022896
C    -2.859712   -0.726012   -2.163051    0.042648    0.010998    0.000838
H    -4.477426    0.847497    0.351570    0.005336    0.059990   -0.003176
C     0.058375    3.687633    0.880138    0.128302    0.002234   -0.055358
H     0.364833    0.760895    0.065947   -0.280068   -0.185738    0.001176
O    -1.132908    4.182759    0.262521   -0.023672   -0.018876   -0.004856
H    -0.203369    3.217751    1.847745    0.039140   -0.022886   -0.038264
H    -1.707776    4.531768    0.959771    0.186298    0.228088    0.045076
H     0.523212    5.858830   -0.642153   -0.024008    0.025726    0.031660
C     1.099403    4.788473    1.106091   -0.045944    0.096992    0.068658
C     1.968911    4.714207    2.183728    0.002366    0.036992    0.016116
C     2.930044    5.694642    2.358740    0.020124    0.011282    0.001444
C     3.028046    6.742028    1.457353    0.012278    0.010060    0.001266
C     2.164461    6.808290    0.376764    0.016830    0.015496   -0.002272
C     1.203802    5.828660    0.195558   -0.005882    0.042574    0.023464
H     1.890836    3.893133    2.880703   -0.029132    0.024574    0.004326
H     3.602743    5.639156    3.200610    0.037796    0.004146   -0.011092
H     3.779613    7.504007    1.595187    0.010844    0.011846    0.000964
H     2.239100    7.619993   -0.330397    0.032382    0.009568   -0.010136
