136
Coordinates from ORCA-job job
  C          -0.33532519838743      3.67994708227877      5.65831175100664
  C           1.05638654317763      1.05193143601097     10.01091559958227
  C          -0.16011194986347     -3.95591690167920     10.00733951177591
  C          -1.14682513787952     -5.67929716057200      5.12041504550165
  C          -1.30565127514415     -3.15341620878542      0.50889144403540
  C          -1.78223325536759      1.97260817132919      0.88098980575960
  O          -0.26642335277457      2.44881654760542      6.33824270650069
  O           0.03640194260544      0.10448273681795     10.01128625480006
  O          -0.68109102609884     -3.74820621572084      8.72128594065603
  O          -1.13056791941331     -4.43718459665380      4.45640937087697
  O          -2.10627849458603     -2.08518981220580      0.90674586778833
  O          -1.75922808305036      1.81237388704453      2.27326147789172
  C          -1.80194421414127      3.96383109747010      5.29668694195170
  C           0.39320823185074      2.44231930431561     10.04750828962908
  C          -1.10811637910198     -3.27608090318112     11.00809159763124
  C          -2.36051794079445     -5.72591734297345      6.06389711965996
  C          -2.08620020325881     -4.44673576218333      0.80886072794281
  C          -3.13362580975508      1.43672296318282      0.38362947997992
  O          -2.65401639518187      3.92780916201231      6.41070640492865
  O          -0.43590114968664      2.59797666103233     11.16236561358726
  O          -2.39660751134753     -3.82519647746973     10.97405472773541
  O          -3.57237968892066     -5.48223627858138      5.40188215641357
  O          -3.32703554600752     -4.48111128806691      0.16535221800073
  O          -4.21465917705726      2.13688786509400      0.93622964285928
  C          -2.25968507947867      2.90544624137036      4.28955350589972
  C          -0.39489336722081      2.66801018144060      8.74588534498556
  C          -1.13578565889445     -1.77611859666261     10.68306581592461
  C          -2.17114252100176     -4.66133203808154      7.14819321271318
  C          -2.26182237553470     -4.58676571089145      2.33014838233295
  C          -3.20321354810219     -0.05566449695417      0.73463129661805
  O          -3.56205450385368      3.15165585162346      3.82037625408880
  O          -0.90524857232021      3.98112340840755      8.68982181432213
  O          -1.85506936768569     -1.05457911066073     11.65041414006754
  O          -3.17861394269038     -4.71774161247941      8.12705538293001
  O          -2.86981819356408     -5.81979081483773      2.64663257480408
  O          -4.34018841162464     -0.66066528996285      0.17262898030942
  C          -1.32130210416495      2.89098440140400      3.07975470349609
  C           0.50549239009649      2.42947181831697      7.52499116247167
  C           0.27245178859333     -1.16837608341293     10.60647241021503
  C          -0.82592583886605     -4.85805110922812      7.85327794680513
  C          -0.90924538305019     -4.48287409839666      3.06029351953873
  C          -1.97336510233542     -0.83248091613385      0.24181012045790
  C           0.14272080749501      2.72879193281843      3.52101396940495
  C           1.15145271572816      1.04898521054364      7.65705211124418
  C           1.25223965556067     -2.04662986108690      9.80061739859303
  C           0.32087093795361     -4.93407964155464      6.83207725503450
  C          -0.22847692123136     -3.18505324258033      2.59972712659551
  C          -0.65055315592078     -0.10233116714105      0.55412170720398
  O           0.47459059637592      3.69441678145180      4.52100728383624
  O           1.88268811748076      0.94494404939431      8.86708748451820
  O           1.12811963609753     -3.42770131631920     10.13815429411881
  O           0.03684439319565     -5.90762898865217      5.82845887923068
  O          -0.07239105863646     -3.18643235307996      1.19669219375543
  O          -0.73935912692326      1.28965428515962      0.24850604172739
  C           1.11108976862097      2.98247957555778      2.35818980736885
  C           2.16171653899605      0.77313106584473      6.54944639566948
  C           2.73032205315956     -1.72728778797560     10.09160550133161
  C           1.63707890212839     -5.37460195115391      7.48501343957548
  C           1.13766967687408     -2.90131051325761      3.21416408411636
  C           0.53144695833655     -0.59198852103887     -0.30228852807726
  O           1.00822614405242      4.29001142569757      1.85671243506910
  O           2.41591055692101     -0.50865216383766      6.46371373017074
  O           3.01032184519285     -1.69523449318705     11.46517443616144
  O           1.53613306111549     -6.64310264608947      8.07658677937974
  O           1.87582103235922     -2.19709654138980      2.38390478703476
  O           0.22526294170343     -0.62630859902052     -1.67123250615435
  H           0.05405458553930      4.48816851012535      6.29103384637676
  H           1.73177652962822      0.92132149014706     10.86623365682250
  H          -0.05906150334958     -5.02583795225615     10.22991000728935
  H          -1.20825429156499     -6.50251567919731      4.39740343059626
  H          -1.04324476658249     -3.08912281249547     -0.55485637574942
  H          -1.65121256343199      3.02571765360074      0.59878203368167
  H          -1.85299929920507      4.95597702478708      4.81980220069212
  H           1.17593138705241      3.20403147718484     10.12896457214802
  H          -0.73300762060042     -3.42391613053171     12.02601368948398
  H          -2.38380959149967     -6.72057870060456      6.53818142549075
  H          -1.51202477191625     -5.30004203134370      0.43245764030397
  H          -3.20108981815851      1.56142183029907     -0.70192650312406
  H          -2.14365082823976      4.09007831341517      7.22658188015296
  H          -0.97938455693617      1.80020509082634     11.27063555575017
  H          -2.66873733547662     -3.98042318506398     10.05073036452012
  H          -3.48783988144644     -5.73274216515757      4.46258785581971
  H          -3.75850188057802     -3.61582087601435      0.25834072678120
  H          -4.04207638348264      2.31901762266277      1.87781382369014
  H          -2.20735042705985      1.91949882703281      4.77642946994832
  H          -1.22131358046621      1.94263464672352      8.70028159857648
  H          -1.59869917498326     -1.65101275808045      9.69110806513438
  H          -2.16480177673676     -3.67418863732670      6.66121980854530
  H          -2.89284012748555     -3.75927688159850      2.68931649373378
  H          -3.22614290565778     -0.14632322150946      1.83258784010050
  H          -4.12758845512480      3.33795483308977      4.58666783552139
  H          -1.21499271001506      4.21905444660763      9.58113315135509
  H          -2.67727616704412     -1.53521688022417     11.83849405988092
  H          -4.03617703326263     -4.76840680981396      7.67582017647660
  H          -3.53389243136218     -6.00521652691860      1.95923164298554
  H          -5.09985431631254     -0.07497124554476      0.32253829652732
  H          -1.42971416852448      3.83750126575518      2.53164118711159
  H           1.29388767111863      3.19159363668142      7.48078350904488
  H           0.66329786248607     -1.02903377144045     11.62419679167873
  H          -0.85876154240182     -5.79017484611430      8.43338260715210
  H          -0.27226201788051     -5.33831304383563      2.80122364552472
  H          -2.05141034998095     -0.98605840086764     -0.84381358793483
  H           0.29295176735316      1.71059675019229      3.90618396187387
  H           0.37096429447668      0.27792559082459      7.61190630712013
  H           1.04914928474678     -1.91260954541623      8.72893083600670
  H           0.45045059642100     -3.95068875862070      6.36274990590892
  H          -0.86286328258023     -2.33948955817621      2.91428070971469
  H          -0.40876049949590     -0.22822506393495      1.61924633097419
  H           0.86789453146328      2.30639607044928      1.53808676837046
  H           2.12646527707791      2.77106223446350      2.70526553484113
  H           3.33114406358498     -2.49195339740555      9.58656701773949
  H           2.98998646634331     -0.74954568144082      9.68860868154080
  H           1.89710406801260     -4.67700485038462      8.28259421248799
  H           2.41762974466480     -5.35905077130737      6.71629774856634
  H           1.36921684248489      0.08480136590037     -0.10342714346924
  H           0.81571853294963     -1.60035542511737     -0.00651346542451
  H           1.25522040596506      4.90272461882904      2.56532439541380
  H           2.89857758209868     -2.58807682749121     11.82331577662854
  H           1.33319362238597     -7.28542184125200      7.38036304710912
  H           0.10236729345825      0.28243033606922     -1.98311086352631
  C           3.05834222687144     -1.60976362898890      2.90776255460992
  H           3.51366982124037     -1.10197887848404      2.05677210919822
  H           3.72196751132696     -2.37822225995175      3.31481037610219
  O           1.49955438956814     -3.27311952107479      4.30700954685031
  C           3.28319421979303     -0.95120586271063      5.42317061533891
  H           3.32042347453376     -2.03501094357950      5.54387730492158
  H           4.27312612204497     -0.50302918528628      5.54243174443669
  O           2.72430713637736      1.64228111959150      5.91794766715814
  C           2.62802498382005     -0.59844711720631      4.03441687981478
  O           1.38362187494106     -0.31143791215726      4.09447901167564
  H           6.41915278359629      0.11296693186348      3.39316577592771
  H           3.42812703668925      1.34012069579642      4.33746411618806
  H           5.98360870223345      0.82809799488734      2.10056937457667
  O           5.69856759285826      0.16696151857682      2.74944363526078
  H           4.55414286331699      0.51711766513042      3.27398328468967
  O           3.48265217045883      0.74030205643619      3.56202940102760
