147
Coordinates from ORCA-job job
  C          -0.68040803494663      4.80377256059693      0.66439285351469
  C           4.37445959210231      3.24065641230487      0.62466970960393
  C           4.91497171193095     -1.94986034286786      0.57227016080863
  C           0.68446885880519     -4.88466841464315     -0.73499153362433
  C          -4.34655632709607     -3.16314146314661     -1.25319661944458
  C          -4.98509317640376      1.94228103620643     -0.44495920550847
  O           0.27574357075334      3.77262448569952      0.67019914281180
  O           4.18147038119768      2.05641394145910      1.33145928096779
  O           3.53161477865983     -2.19234962640467      0.60346071508611
  O          -0.34150462828337     -3.98070296337104     -0.40003761261859
  O          -4.33021312379762     -2.08422178412920     -0.37779708591841
  O          -3.65469933574914      2.04222094955001      0.00075323314376
  C          -1.63031977989622      4.57233674573494      1.84751743874337
  C           3.89844397265904      4.41361591274958      1.51092603033421
  C           5.33907835490643     -1.42173417915851      1.95344836330719
  C           1.41821129558884     -5.27653371305707      0.56557138003489
  C          -4.07048395847833     -4.42687722448822     -0.41380979450341
  C          -5.80301118885731      1.15969577975161      0.59644820227916
  O          -0.94348147826786      4.45302854601410      3.06316876796275
  O           4.57726358391978      4.46421666694906      2.73028287973766
  O           5.04118801245878     -2.31644306324624      2.98761906853747
  O           0.57731226876183     -5.86209618792010      1.53075133790756
  O          -4.98651141119546     -4.56634037854149      0.63088806177668
  O          -5.87070425488924      1.80241040492758      1.83338387172962
  C          -2.42460866414861      3.28423347253566      1.59995956717204
  C           2.37626660720316      4.31815279439505      1.74168436789693
  C           4.65465396221322     -0.06387034708685      2.17903317402964
  C           2.10704768162744     -4.01622805599379      1.12292398753302
  C          -2.62970591093717     -4.37448324800092      0.12741309654817
  C          -5.17912457903247     -0.23392551472794      0.71822017498535
  O          -3.41764478839205      3.10759212222475      2.57585320131269
  O           1.88173478674335      5.46045118507128      2.39888885119672
  O           5.06144896218390      0.50199025293620      3.39941819687251
  O           2.86856702137305     -4.30934178014898      2.26963107950692
  O          -2.28659596200045     -5.56329739733494      0.78919261613490
  O          -5.91886003656710     -1.04859909566895      1.58917513412599
  C          -3.11123861261091      3.32980866628157      0.23067530310935
  C           1.62033683059935      4.14208236337128      0.41266707644241
  C           4.99383569523763      0.91856792212482      1.04357200902953
  C           3.03839704854993     -3.41195889251252      0.06289233343184
  C          -1.61406967400211     -4.14067560916316     -1.00435363315343
  C          -5.12486861515811     -0.93702297475735     -0.64243839710793
  C          -2.11766582858595      3.70506376483565     -0.88072782292488
  C           2.27746149471182      3.00363581742285     -0.36219971651535
  C           4.72852092669996      0.27370603141929     -0.33432150675580
  C           2.26808872382174     -3.18254914100067     -1.25016828233530
  C          -2.07054662711252     -2.87624572671642     -1.74298915486126
  C          -4.55363745519346     -0.02622954269513     -1.74740785442714
  O          -1.38853854047237      4.88213501451680     -0.53823776118590
  O           3.64419061608303      3.27004044146269     -0.59472668093080
  O           5.28961158509716     -1.03643595025438     -0.42033124160327
  O           1.60175212539516     -4.37368455890954     -1.66265338627901
  O          -3.37059223833870     -3.05567414601971     -2.27424106514620
  O          -5.07412155030469      1.30036967094003     -1.68380191896437
  C          -2.84364328611205      4.01276480704144     -2.19373401961032
  C           1.64222013156638      2.73145393651362     -1.71949066596132
  C           5.41749532266371      1.00822907232344     -1.50010556676378
  C           3.20382915471964     -2.81374460523046     -2.40636504258830
  C          -1.18543572158449     -2.39642280274556     -2.88312355727999
  C          -4.93820110005013     -0.50767221084571     -3.15670116042107
  O          -3.74189947647182      5.08184476178797     -2.07676627728681
  O           1.99197965761780      1.51318683225277     -2.08932313619290
  O           6.78452924615813      1.20149684026675     -1.26646214621700
  O           4.09346043650800     -3.84909489533015     -2.71475717779632
  O          -1.65982331139959     -1.23282229688666     -3.34195917686168
  O          -6.32180892275956     -0.66837778877317     -3.30663856283567
  H          -0.18659906353775      5.77993849114374      0.76189180708663
  H           5.42387143643733      3.37389321683452      0.32888704065673
  H           5.46684697792976     -2.86686572121829      0.31885404463441
  H           0.26907996675509     -5.77884734055028     -1.22546656165906
  H          -5.30432751822578     -3.24164995886029     -1.78425038613114
  H          -5.41552829236734      2.93707834704512     -0.61323848476895
  H          -2.33630212598577      5.41711912189922      1.89249818727013
  H           4.11978271097455      5.34915816089322      0.98337651000364
  H           6.42822132284889     -1.27866404078105      1.96327538554003
  H           2.18831417759532     -6.02385790658988      0.31433392061116
  H          -4.18039867530818     -5.30842190952580     -1.05275445994616
  H          -6.83454764714153      1.06542287507412      0.24216756277216
  H          -0.11299991638800      4.95628621464247      3.02730809202553
  H           4.63161145753572      3.56851556432057      3.10502345158275
  H           4.21428737294254     -2.80587243562595      2.78290749001779
  H          -0.36130600897459     -5.53422629605490      1.36628697930993
  H          -5.12338541077026     -3.70261020386875      1.05364922696774
  H          -4.98840268428274      2.13476933355577      2.09215041902144
  H          -1.72993653042179      2.43326392975018      1.60264899547206
  H           2.18014666165483      3.42532048659721      2.35642497430657
  H           3.56006739394585     -0.21571601959756      2.17498520356988
  H           1.34353392789961     -3.25967812056895      1.36019015562876
  H          -2.55333199406685     -3.51895537752865      0.81573964014641
  H          -4.14133807555788     -0.12708870013340      1.07308717137624
  H          -2.99741581818373      3.14931145686541      3.44970153740520
  H           2.53202531878119      5.72218280084285      3.07580565007026
  H           5.17607279839536     -0.22322424841368      4.03743560381652
  H           2.38224497346091     -4.97421949167557      2.79300928197773
  H          -3.03832127501374     -5.83360441618802      1.34311144117430
  H          -6.14680413297197     -0.51872939484773      2.36914332904194
  H          -3.91469221281291      4.07853128723235      0.26119254010500
  H           1.66102725527864      5.06127639011827     -0.18535180702052
  H           6.05375150448328      1.21154194230446      1.10274261177079
  H           3.87215994351243     -4.10389933007604     -0.13113935586490
  H          -1.60441059859376     -4.99080118345110     -1.69626702399608
  H          -6.13767082468524     -1.25548102668443     -0.93097846173637
  H          -1.43711395761473      2.85975685215078     -1.06351729268747
  H           2.17878160088894      2.07261852035192      0.21424549407000
  H           3.64252025715693      0.22801630733984     -0.50511542063706
  H           1.54190636571018     -2.37522030442770     -1.09843573169974
  H          -2.07299352238537     -2.04481811305476     -1.01958680007315
  H          -3.45865375394423      0.00317063862911     -1.66511610388370
  H          -3.41726225194217      3.13090272805766     -2.48523253828667
  H          -2.08359589908378      4.20831800672837     -2.95793567762358
  H           5.25212705652161      0.40511528982827     -2.40189653343471
  H           4.97031440585590      1.98930758388824     -1.65268097465591
  H           3.80454258374488     -1.94671206938321     -2.11896691449406
  H           2.58029404391679     -2.55692979878121     -3.27349341642110
  H          -4.54517203932890      0.22616930388269     -3.86836456765643
  H          -4.47211143147691     -1.47010878712478     -3.35861778936987
  H          -3.23592749878656      5.87733173854539     -1.85099339982646
  H           7.21631749217106      0.33366882003018     -1.22767362066785
  H           3.57016383894016     -4.63109017065469     -2.95660539944588
  H          -6.74360150775988      0.19727591202431     -3.20342257534785
  C          -0.71833381570674     -0.35342566343805     -3.92301727385244
  H          -1.27332408080807      0.35594676163459     -4.53418456304595
  H           0.02406548565719     -0.90897491665162     -4.49945787249963
  O          -0.23499731907276     -2.97393819757745     -3.34865232302901
  C           1.34874485038348      0.92683468873890     -3.19188659909869
  H           1.98996605655251      0.11286057827388     -3.52990626656089
  H           1.16600383229600      1.66736433482980     -3.97644812281875
  O           1.01389591081298      3.51628485115373     -2.38295432193690
  C          -0.02477445382403      0.38833293099827     -2.71729464929866
  O          -0.03341547259344     -0.57819341938971     -1.73704543695369
  O          -0.73083584288468      1.07179903953529     -1.91348129912430
  O           0.73401895571136     -0.28433365156042     -0.51888115226940
  H           1.39636649076495     -1.54702638985000      5.26471106638591
  H          -1.81100022717895      0.36325192603761     -0.45784681373486
  H           0.00208252926244     -2.95412722667362      3.78459839494022
  H           2.08687178361334      0.71986106866690      4.54321806735041
  O          -1.51062800681292     -0.10086618724470      0.34121737400170
  C          -0.19402261788928      0.30389794834731      0.51052948333906
  C           0.30109195770763     -0.22323586787954      1.83243868470418
  H          -0.09479039710100      1.40310194931429      0.42369139498373
  C           1.07735593782913      0.57313417821786      2.67214103295009
  C          -0.08590793488857     -1.48952975495874      2.23774530617011
  C           1.47679684621024      0.09456923417746      3.90353701714340
  H           1.34695936198006      1.57112957296504      2.34846710369826
  C           0.30664184036785     -1.96055550780896      3.47406049621567
  H          -0.69825268280493     -2.09081584609097      1.56812353344849
  C           1.09198995186851     -1.17257252126743      4.30508864040325
