11
Coordinates from ORCA-job job.QMRegion
  C           0.17914536257079      0.51896625492656     -2.91138902014727
  O           0.59793016962961     -0.49838294594939     -1.95297004874057
  O          -0.66207760574696      1.27746905170893     -2.26718352923706
  O           1.03666503518790      0.05619983200280     -0.68127573068828
  H          -1.38416977234980      0.44192810505443     -1.13941847663933
  O          -1.34029108209777     -0.06369957694525     -0.26547014754735
  C          -0.14253175643054      0.35662040889474      0.25139676495421
  H          -0.09000939656522      1.46031167464690      0.31994784899562
  H          -0.26649409954651     -0.15739834762355     -3.69477799600779
  H           1.06899449624892      1.06466479420749     -3.32236531889175
  H           0.07131618851449     -0.11526474063909      1.22369112830938
