147
Coordinates from ORCA-job job
  C          -0.70539442758874      4.80864553899104      0.67811676005392
  C           4.35116733697020      3.25408931636846      0.60284511854927
  C           4.92822897350303     -1.94862466109726      0.53203209501044
  C           0.65180577181437     -4.88726967192503     -0.51419903090124
  C          -4.31251765064696     -3.14095151827870     -1.32545719280432
  C          -5.03324388322292      1.92761500732588     -0.29465464942429
  O           0.25600968424518      3.78249547761641      0.59912852656301
  O           4.13880681864909      2.03675265837437      1.24287186697796
  O           3.55204095683205     -2.18402499399244      0.66131811768452
  O          -0.35269712343992     -3.92213410187518     -0.33312773793910
  O          -4.31989762096181     -2.10834953386622     -0.39311906707343
  O          -3.70814689764561      2.04262342293888      0.15815204007604
  C          -1.59329791774839      4.55605820566350      1.90751130656684
  C           3.86050081861096      4.37503744451958      1.54298858948151
  C           5.43296261160226     -1.39088823864075      1.87189443835828
  C           1.31213850564122     -5.15454164604317      0.84861246202356
  C          -4.06886174398180     -4.44982176998078     -0.54448154606875
  C          -5.81719111073840      1.08742877973581      0.72908720920789
  O          -0.85364591424303      4.42641372072448      3.09116237899472
  O           4.51424337317782      4.35416756583050      2.77674830992440
  O           5.20721944670033     -2.26991860331073      2.93641572498483
  O           0.39988927160081     -5.57138007331121      1.82761866814904
  O          -5.03547913000088     -4.65498393853764      0.44327902281874
  O          -5.85274128737296      1.67729815698012      1.99748510967232
  C          -2.39438769447583      3.26823133140044      1.68237800638911
  C           2.33471341652750      4.26714540579026      1.73526774389243
  C           4.73540745715834     -0.04414164074253      2.10958559925064
  C           2.03560536778642     -3.87558513765704      1.29584606979680
  C          -2.65866829705989     -4.41094175033906      0.07262294897592
  C          -5.17450940722595     -0.30521647646794      0.77953281310205
  O          -3.33450387027948      3.06388819180849      2.70548931910751
  O           1.83449300054044      5.37161701683646      2.45013888607682
  O           5.19130669850501      0.55834285023343      3.29297773466678
  O           2.74492422100442     -4.07427450876401      2.49358373045231
  O          -2.33188653611460     -5.62651208270019      0.69669216019436
  O          -5.89436012195686     -1.16561134174158      1.62397899229943
  C          -3.15390052292104      3.33028695273542      0.35215838465745
  C           1.60180416782587      4.17542956512302      0.38598015604608
  C           4.97937634745113      0.92418661555434      0.94281824558033
  C           3.02732618614338     -3.42447330896012      0.21919798653188
  C          -1.59284732509869     -4.11307110570181     -0.99509907425549
  C          -5.11649552677800     -0.94937938104462     -0.61165702640877
  C          -2.21595932385849      3.72245496389345     -0.80234422563339
  C           2.27701182440029      3.09458920944074     -0.45664089247808
  C           4.66520487386934      0.24986939434961     -0.41005224224217
  C           2.31160534028508     -3.30176869737305     -1.13625680424703
  C          -2.02104035701972     -2.83454793423499     -1.72471988655836
  C          -4.53472444915402      0.02211330186669     -1.65915683253174
  O          -1.48423250709262      4.90337152300196     -0.47970423726711
  O           3.65208485137860      3.36080619840077     -0.62862535938675
  O           5.23966157423535     -1.05443698491006     -0.49980848731713
  O           1.62120311871751     -4.50713468121838     -1.44923953226582
  O          -3.30165342279307     -2.98829902106513     -2.30725930541676
  O          -5.11119072216925      1.32560821692374     -1.55637454157007
  C          -3.00143251714340      4.03675601385924     -2.08021084962116
  C           1.66772291959358      2.92352292696441     -1.84483369470115
  C           5.29434558391840      0.98755473818873     -1.60572318166780
  C           3.29246694764049     -3.07399103982159     -2.29121100733351
  C          -1.06964103797798     -2.38159886627557     -2.82078115191212
  C          -4.83800662066918     -0.40706578214080     -3.10392973046707
  O          -3.89780511049952      5.10008771973584     -1.91022353719484
  O           2.09469260366175      1.77219810829380     -2.33656446920991
  O           6.67393353701529      1.16650501012899     -1.44430549135604
  O           4.18343240456683     -4.14334285195903     -2.44673888842769
  O          -1.46434292295354     -1.20372518432794     -3.29615082818795
  O          -6.20621140795911     -0.61745425281730     -3.32079074642567
  H          -0.21118937904804      5.78540049753939      0.76364109707474
  H           5.40776353209212      3.39382310087503      0.33837504311059
  H           5.46033882251733     -2.87208243532216      0.26498233429465
  H           0.22464080326660     -5.81482140819181     -0.91906082860274
  H          -5.25211468123685     -3.18492372178088     -1.89170692018689
  H          -5.49203838488225      2.91692162613487     -0.42395877495900
  H          -2.29926751330575      5.39800432034921      1.99421928530784
  H           4.09143332752297      5.33889755942193      1.07622104903052
  H           6.51640464513650     -1.23728702513264      1.81612678602204
  H           2.05779236861899     -5.95148320910536      0.71630584168837
  H          -4.13730365317330     -5.29449869813927     -1.23778566679406
  H          -6.85823524975764      0.99717752509015      0.40076314987956
  H          -0.00207512339033      4.89458198303558      3.00790662220374
  H           4.57521742601563      3.43800577321980      3.09472823134340
  H           4.34087931856786     -2.70413606387379      2.83346607300130
  H          -0.51370398446206     -5.46593521833703      1.50580269872144
  H          -5.18977682801449     -3.81934732803475      0.91567677044665
  H          -4.96869099147194      2.01711909652445      2.23445410084397
  H          -1.69334750347265      2.42175312146057      1.63172307996813
  H           2.11865810012772      3.34099045357932      2.28917658979820
  H           3.65106613449272     -0.22836264441766      2.16554727242581
  H           1.29391203466969     -3.07403982775578      1.42192880912862
  H          -2.62819260235481     -3.58894133589157      0.80528109820358
  H          -4.13421103219019     -0.19726494598230      1.12799879104644
  H          -2.87335268710806      3.13086463862526      3.55785096144354
  H           2.47217491030187      5.58373686716228      3.15558907861625
  H           5.37008738352016     -0.15121621879213      3.93384054360450
  H           2.20505116727978     -4.64108117684450      3.06949185498485
  H          -3.11384304761886     -5.93763007563601      1.18584579376664
  H          -6.12208851035909     -0.67055573888138      2.42870406023567
  H          -3.95520132927454      4.07851195811528      0.43144589103747
  H           1.64292802702678      5.13311072144560     -0.14721295286004
  H           6.02802152901288      1.25505419900841      0.94473467715661
  H           3.83697083565835     -4.16266648820920      0.13181082286721
  H          -1.52105821522853     -4.93993829532328     -1.71144662826942
  H          -6.12583703858459     -1.25504759006557     -0.92280258330636
  H          -1.52922045044565      2.89400479367072     -1.01641681093127
  H           2.15108239639278      2.12251830984531      0.04269656814809
  H           3.57394263894703      0.18814574954402     -0.53526580800454
  H           1.60772777572704     -2.46164268164620     -1.09239219164437
  H          -2.03721843539815     -2.01068959262939     -0.99341693944044
  H          -3.44879676420333      0.08776173435196     -1.51820895840453
  H          -3.58650172223358      3.15766643242484     -2.35635225865621
  H          -2.27618583056105      4.24379726242127     -2.87548005708449
  H           5.07509858081809      0.39804339503627     -2.50424869971847
  H           4.84945069871065      1.97419878593444     -1.72083322764930
  H           3.88974844362501     -2.18415234821811     -2.08595110759614
  H           2.70077339356265     -2.91181028720611     -3.20045973448040
  H          -4.44772576418077      0.37671415027198     -3.76409779038440
  H          -4.32333101460361     -1.33994225395744     -3.33098962186601
  H          -3.38473395617703      5.89546040916213     -1.69980881236008
  H           7.09475942799569      0.29304176442124     -1.42260044830217
  H           3.66248964160661     -4.93850687551742     -2.63922284330952
  H          -6.66771677635683      0.22601095504219     -3.19653746989686
  C          -0.49431675447204     -0.41839007347806     -3.95746150018346
  H          -1.01769768519346      0.21439135330973     -4.67541494173246
  H           0.25803609471167     -1.05398770131121     -4.43181553470325
  O          -0.11245962049170     -2.99496543911701     -3.22251686914200
  C           1.41700322783396      1.20331428061592     -3.43199613715488
  H           2.10601141974509      0.49608097635737     -3.89526343787365
  H           1.07813405660118      1.97648475035818     -4.12941531531525
  O           0.97590659070782      3.72642551388875     -2.42070264882546
  C           0.16727467816739      0.47867949866447     -2.84927290157158
  O           0.51579350740304     -0.52968245848827     -1.90343495260390
  O          -0.62507191968521      1.21655128858824     -2.14652744944327
  O           1.02307522888948     -0.01267837641587     -0.63743780387254
  H           1.02829227915079     -1.68316227759931      5.16098085723242
  H          -1.43568847815325      0.35683356447388     -0.97906365189310
  H          -0.57859412929600     -2.84327923035339      3.68275545966894
  H           2.13892131588566      0.38287648015423      4.38205236325077
  O          -1.33080092695240     -0.12242266058278     -0.10966225956550
  C          -0.10801896501285      0.33286010286580      0.32579353706577
  C           0.24567684160508     -0.26608797762555      1.66427001149709
  H          -0.07199892735901      1.43799329680393      0.35039134703666
  C           1.14911880359320      0.38223605541238      2.49386668400570
  C          -0.37119808962040     -1.43181659828404      2.09760068863731
  C           1.43414925783719     -0.13040302697254      3.74759062159335
  H           1.62136268778663      1.28709545069581      2.14189395357900
  C          -0.09150737673495     -1.93798745113447      3.35666650293566
  H          -1.06842612395049     -1.92311516283058      1.43581320444633
  C           0.81161442670333     -1.28939148799446      4.18123431401609
