147
Coordinates from ORCA-job job
  C          -0.70971607714686      4.77268722201620      0.73332786245048
  C           4.35971898156867      3.25943612585728      0.58581051809647
  C           4.97922686138838     -1.93443754704000      0.48362602062585
  C           0.63813073415315     -4.82323117991583     -0.34063886040853
  C          -4.27924172316671     -3.13855107342072     -1.36431005321557
  C          -5.04932755054789      1.90423442840103     -0.23963142481037
  O           0.25304273723694      3.75135760549171      0.60285306030293
  O           4.17349663712297      2.02055996196922      1.19145051085359
  O           3.60424167666403     -2.13099986380026      0.68242822524632
  O          -0.33521171204505     -3.81148883206605     -0.31685603438102
  O          -4.29994390039158     -2.12315582196153     -0.41304937846118
  O          -3.72449561982067      2.01893078306010      0.21375195099351
  C          -1.57660100712488      4.49305351817709      1.97273852657119
  C           3.85431316513790      4.33976461520583      1.56346765707769
  C           5.56274920601708     -1.37508580478221      1.79139553307580
  C           1.22923090225921     -4.96834652532512      1.07122452455791
  C          -4.02902494188265     -4.45858451888472     -0.60416696674539
  C          -5.82262232684536      1.03935201983987      0.77181546902164
  O          -0.82340494912486      4.33278576295394      3.14360969046749
  O           4.51418771506774      4.29385175936396      2.79314604258851
  O           5.37404257320561     -2.24498795254603      2.87135035435461
  O           0.25319267017831     -5.20557947143779      2.05007214498839
  O          -5.01011994763413     -4.70064061370207      0.36083208441948
  O          -5.85123988047955      1.60463582523981      2.05187444900411
  C          -2.38849796031884      3.21477790097405      1.73440239090754
  C           2.33193732493017      4.19618711569702      1.75768689947836
  C           4.89791760782474     -0.01809582763305      2.05747885891919
  C           1.99859957801577     -3.68580471708334      1.41386105388098
  C          -2.63229460361913     -4.40639243473240      0.04081225447282
  C          -5.17134317803570     -0.35015319114331      0.79268880045688
  O          -3.31319753010917      2.99356535469452      2.76791093197982
  O           1.82371126986704      5.26326020824853      2.52229672172977
  O           5.45193986713440      0.60857321011448      3.18599482858753
  O           2.67047447983551     -3.79859551570049      2.64288149236214
  O          -2.29588459337026     -5.63070205598421      0.64728116659094
  O          -5.88232063230449     -1.23201159965441      1.62195008201449
  C          -3.17000608459878      3.30443147938532      0.41891638958027
  C           1.59866491855348      4.15577431396057      0.40643581337441
  C           5.04124676771028      0.93630079018057      0.86300931824098
  C           3.03798244968033     -3.38032581681318      0.33128325873721
  C          -1.55332515421882     -4.06386847759838     -0.99839340667021
  C          -5.10745760323274     -0.96726080087388     -0.61066335411325
  C          -2.25152037086542      3.72270011667148     -0.74195348475210
  C           2.28229813705554      3.11190640508847     -0.47729542704150
  C           4.67810041342493      0.24581726535287     -0.46862449720738
  C           2.36727656674017     -3.35837954776424     -1.05188081516512
  C          -1.99127298713492     -2.79920969952350     -1.74349400027448
  C          -4.53026647574250      0.03042511363915     -1.63528872911729
  O          -1.51308574221114      4.89530120957972     -0.40509913245497
  O           3.65586215010232      3.39251167432962     -0.63979908953446
  O           5.25465955075282     -1.05566645986898     -0.57139364622664
  O           1.65524477527062     -4.57214815619475     -1.26968148132758
  O          -3.26373840738741     -2.96402151494113     -2.33837112948678
  O          -5.12615998762813      1.32391978645599     -1.51119560067188
  C          -3.05636477770068      4.06418822640379     -2.00059705377756
  C           1.67009724534408      2.98980036735326     -1.87117636335719
  C           5.25080804793047      0.98582749813119     -1.68986039987751
  C           3.38420738907607     -3.26002064012157     -2.19396221434658
  C          -1.01464314516883     -2.36075874696293     -2.82437385055206
  C          -4.81267787086709     -0.37446845229361     -3.09057065807567
  O          -3.95018345204670      5.12286572636370     -1.79277529386774
  O           2.08754262978307      1.85278104536981     -2.40159395957929
  O           6.63842128370813      1.15251715166871     -1.59799951932459
  O           4.27438399771223     -4.34186180137445     -2.20462115177861
  O          -1.40195972685613     -1.19910899733587     -3.33772354356400
  O          -6.17640672866941     -0.59653919527327     -3.32609772680943
  H          -0.21467856490373      5.74749985950289      0.83247087305858
  H           5.41252722458591      3.42518569567945      0.32124719307524
  H           5.47506387674326     -2.87306887549192      0.20165153442837
  H           0.19556684621932     -5.77497736831680     -0.66463931776432
  H          -5.21544391198077     -3.18008561266548     -1.93622884511501
  H          -5.51533664058901      2.89257025187295     -0.34864561541276
  H          -2.27680683937743      5.33669897674202      2.08770936813585
  H           4.06304352691475      5.32273533447098      1.12700172252146
  H           6.64420510396769     -1.24322162417171      1.68032156447460
  H           1.93874107456707     -5.81106911679582      1.05689619122091
  H          -4.06974796133845     -5.28952202726746     -1.31597069166026
  H          -6.86533835212959      0.94972106100434      0.44906802487201
  H           0.03344708038519      4.79322015641834      3.05920290576760
  H           4.60271722599084      3.36996377088054      3.08098747080259
  H           4.47376655137922     -2.61722566343284      2.84422808238160
  H          -0.60933817455872     -5.38008189873542      1.63025716888931
  H          -5.18395224967198     -3.87930317593232      0.85106228215017
  H          -4.96723424413546      1.94504827080358      2.28722269490853
  H          -1.69236795082916      2.36595996033900      1.65631538651422
  H           2.12832095629218      3.24221340945289      2.26808766913048
  H           3.82297015473847     -0.19903771041361      2.20685852145421
  H           1.28681148308521     -2.84866322257319      1.44125974553747
  H          -2.62904777824893     -3.60224350463662      0.79238399251725
  H          -4.13180087634843     -0.23937324889425      1.14271209308151
  H          -2.84093792169165      3.05116750747912      3.61488543495146
  H           2.46568152620908      5.45421104135142      3.23024847030555
  H           5.65984326949881     -0.08162741821494      3.83833650782876
  H           2.07251250417992     -4.24161187895754      3.26649499610816
  H          -3.08760408032126     -5.96676519212868      1.10408196508982
  H          -6.11406394952964     -0.75380949006665      2.43572980444591
  H          -3.97107590716471      4.04937568215144      0.52663741884061
  H           1.63652096622083      5.13403042972841     -0.08828127749078
  H           6.07558283669787      1.30460733674741      0.80664467774190
  H           3.81503801491774     -4.15781907655376      0.33919303692425
  H          -1.42915376498912     -4.88619530302756     -1.71333661960824
  H          -6.11329847542844     -1.27587534119087     -0.92948732991626
  H          -1.56786674477671      2.90051992009246     -0.98484967471836
  H           2.16119742324696      2.12111804629447     -0.01515282422545
  H           3.58339821754585      0.17667599328814     -0.55041562842709
  H           1.68279704828901     -2.50212291479881     -1.10531495397484
  H          -2.01770320977454     -1.96565194876775     -1.02431584339465
  H          -3.44796579844786      0.10787869925616     -1.48027209773235
  H          -3.64482900425732      3.19079981779302     -2.28729175850440
  H          -2.34338582387228      4.28833395577241     -2.80214894102406
  H           4.98033764176264      0.40685183555770     -2.58113679915312
  H           4.80924059053593      1.97754198791538     -1.77260022101351
  H           3.97943098166092     -2.35398358856556     -2.06915307187697
  H           2.82071394875744     -3.19583115517826     -3.13248763232161
  H          -4.42426432329828      0.42618466640921     -3.73128181659012
  H          -4.28451522796861     -1.29663225218025     -3.33007654926370
  H          -3.43396518559739      5.91470513968615     -1.57709449254490
  H           7.05219669637286      0.27541333115285     -1.60050312973524
  H           3.75898695310135     -5.15183907676170     -2.34182450648420
  H          -6.64820337372241      0.23936028356460     -3.19030800354425
  C          -0.42814589009279     -0.42867635869461     -4.01335991288953
  H          -0.94238753308607      0.14849896194367     -4.78352943466511
  H           0.35210476597150     -1.07321306853206     -4.42721474752928
  O          -0.03988125797698     -2.97675024104004     -3.17888927928017
  C           1.40524042444528      1.30809837793606     -3.50968488734187
  H           2.10292660347168      0.63065577085507     -4.00343025566129
  H           1.04661317271963      2.09871751193947     -4.17742854653831
  O           0.97381926530751      3.81206606439961     -2.41167601538406
  C           0.17293747439856      0.54405180341424     -2.94450136262996
  O           0.65917782254453     -0.49481965584669     -1.97358508595905
  O          -0.69586648928019      1.32640929322868     -2.34369343032644
  O           1.05551465990144      0.08236511481209     -0.70173561805665
  H           0.72364900836587     -1.85701947043012      5.00316354953636
  H          -1.36860978767991      0.48854566391441     -1.20968441362410
  H          -1.14947147068709     -2.65036545405508      3.59865555663738
  H           2.20179651953498     -0.06207508703996      4.17851789174435
  O          -1.33217022203043     -0.03909918892726     -0.34416494706054
  C          -0.14749784156060      0.36692615028139      0.20812083945186
  C           0.11282287630053     -0.29418561305527      1.53767203742813
  H          -0.08996453345861      1.46942302789095      0.29333757382639
  C           1.16557208947311      0.14994719355435      2.32621216733008
  C          -0.72126376274395     -1.30097630847069      2.00290185597054
  C           1.38554093139226     -0.41623619254656      3.56928159588963
  H           1.80217255543009      0.93692939831162      1.94749820741982
  C          -0.49969940681241     -1.86429868526522      3.24879771077655
  H          -1.53996303726338     -1.62201690222215      1.37715623738561
  C           0.55337392894525     -1.42295941822909      4.03143417445431
