147
Coordinates from ORCA-job job
  C          -0.70646871356670      4.81162394684981      0.66954218248351
  C           4.35005459640933      3.25156163549558      0.62128654915261
  C           4.92513287889722     -1.94678165795251      0.52568505021848
  C           0.65796794039300     -4.88922634195961     -0.56950126937978
  C          -4.32977636593030     -3.14769213609960     -1.29666849917154
  C          -5.02717549297345      1.93941941894728     -0.35883198719708
  O           0.25212788201967      3.78177800692120      0.62008693101121
  O           4.14583787946983      2.03833696797055      1.27143234361390
  O           3.54761850084248     -2.18394434653180      0.63389315613569
  O          -0.35614984367581     -3.94458082168712     -0.33908127455146
  O          -4.33425949277062     -2.09797869288913     -0.38386053317219
  O          -3.70285658974821      2.05057821263236      0.09835595152651
  C          -1.61813710426137      4.56798838927817      1.88275546541542
  C           3.85851025842457      4.38000032118522      1.55275384702671
  C           5.41357924085307     -1.40348931426682      1.87725316177260
  C           1.34489801823031     -5.18656713759528      0.77444966842328
  C          -4.07873035225854     -4.44224309798217     -0.49464125990819
  C          -5.82684553949468      1.12180848231729      0.67092680207101
  O          -0.89844624895426      4.44356396199376      3.07947945567484
  O           4.51396809063558      4.36986321379323      2.78569639619389
  O           5.17125370095640     -2.29113162777973      2.93087970033916
  O           0.45577155103328     -5.65070318542331      1.75243590509541
  O          -5.03293216513504     -4.62537015116666      0.50940407281072
  O          -5.87635321848115      1.73389201689000      1.92794747283322
  C          -2.41801662693894      3.28066307590957      1.64914220488577
  C           2.33266432963693      4.27458613364233      1.74796181070892
  C           4.71782602930120     -0.05637814123905      2.11910569025334
  C           2.05606016696518     -3.90890204547819      1.24545464074790
  C          -2.65971973429920     -4.39986970356333      0.10273790841933
  C          -5.19053795665637     -0.27215838850108      0.75255338232282
  O          -3.37943818300373      3.08617690749178      2.65455232204980
  O           1.83038927374295      5.38565189968231      2.45049995326322
  O           5.15854273800607      0.53022190767086      3.31593416622938
  O           2.77999610583948     -4.12690958339293      2.43103101198639
  O          -2.33110204811809     -5.60658505988906      0.74149733210273
  O          -5.92081673355706     -1.11382259432228      1.60708797201939
  C          -3.15035351272444      3.33759261725533      0.30321867321235
  C           1.59882291785522      4.16690925105286      0.40040344066181
  C           4.98236839539332      0.92366610442251      0.96678509929528
  C           3.02846237679442     -3.41855503580937      0.16857954586402
  C          -1.60655359074369     -4.12429020427280     -0.98415702266735
  C          -5.12751911728325     -0.94159433518293     -0.62636651630126
  C          -2.18958065943889      3.72179774597842     -0.83502588159646
  C           2.27189908215970      3.07319165531199     -0.42586133422862
  C           4.68019330720264      0.26382639877159     -0.39619920649083
  C           2.28892915573859     -3.26553146801226     -1.17089206809751
  C          -2.04092493097427     -2.84842297164829     -1.71540489924763
  C          -4.54174304468570      0.00699365214789     -1.69308576426506
  O          -1.46054419302317      4.90222487242738     -0.50484447717539
  O           3.64519618341480      3.34268633889849     -0.60833299343105
  O           5.25025516598473     -1.04206068570265     -0.49264312262303
  O           1.60673438319225     -4.46903775891699     -1.50842209546343
  O          -3.32574835480754     -3.00901781722581     -2.28707745822506
  O          -5.10186142158331      1.31888885719213     -1.61165463415123
  C          -2.95187073876855      4.03165828214978     -2.12789249994693
  C           1.66146614378138      2.87665553882270     -1.80924934824755
  C           5.32605392865734      1.00768323395312     -1.57950971542194
  C           3.24817565311939     -2.99127612817676     -2.33375033318144
  C          -1.10671145444557     -2.38728892421473     -2.82215510693213
  C          -4.86072925323664     -0.44404765573299     -3.12826343901833
  O          -3.84965515464425      5.09702602228616     -1.97953554931057
  O           2.08472215257832      1.71363662837333     -2.27665892531133
  O           6.70252791883999      1.18918239233794     -1.39668887915105
  O           4.13685946088706     -4.05208153183359     -2.54823960528662
  O          -1.51264422875399     -1.20527862345295     -3.28135789866355
  O          -6.23286778124316     -0.63995543396794     -3.33197234850142
  H          -0.21078417120791      5.78734167247927      0.75956060039879
  H           5.40498472831209      3.39412987593676      0.35158349642668
  H           5.46087920038649     -2.86727253622770      0.25553557092133
  H           0.23577866359906     -5.80968610221851     -0.99514216568853
  H          -5.27280512347081     -3.20385574596242     -1.85626554887469
  H          -5.47637049428464      2.93052009329023     -0.50692379640185
  H          -2.32379195709784      5.41156490468147      1.95315520648828
  H           4.08894211935253      5.33978851756640      1.07736059911942
  H           6.49816937683728     -1.25260062386747      1.83629015244043
  H           2.09905520893883     -5.96858795390720      0.61048434947967
  H          -4.15953520609310     -5.29957958595338     -1.17101605109804
  H          -6.86409623213360      1.03000250399040      0.33093196692173
  H          -0.04527057933332      4.90904638611560      3.00795392036156
  H           4.57320963523651      3.45656581804553      3.11197746632702
  H           4.31125700694341     -2.73264002753334      2.80570844037656
  H          -0.46403840000129     -5.47362488595401      1.48426478257205
  H          -5.18196445976467     -3.77928237249655      0.96461868544149
  H          -4.99313892357828      2.07243688000161      2.17199565552328
  H          -1.71900415721241      2.43194503848677      1.61768045804624
  H           2.11838201452800      3.35462157923876      2.31271056836212
  H           3.63195504337780     -0.23639753561903      2.15691222335654
  H           1.30646127083722     -3.11974315009584      1.39854986984708
  H          -2.61503474538001     -3.56561235281299      0.82099987622620
  H          -4.15224408158983     -0.16317686029376      1.10655193317934
  H          -2.93469338795641      3.14688415758626      3.51598533076573
  H           2.46663979809278      5.60625270237008      3.15444897333430
  H           5.32169139568846     -0.18767854207052      3.95168726310600
  H           2.25725300474036     -4.72266592866812      2.99345302839434
  H          -3.10629367350698     -5.90453125141908      1.24907905272007
  H          -6.15312297157346     -0.60256760079785      2.40033075669834
  H          -3.95150424048077      4.08768444817435      0.36328085094009
  H           1.64300836049840      5.11659091550111     -0.14659050032936
  H           6.03288398646986      1.24814227045626      0.98424227088612
  H           3.84375203121095     -4.14567184809536      0.04792058998342
  H          -1.55479340302246     -4.95825809557723     -1.69389656818399
  H          -6.13671150925310     -1.25117104902681     -0.93462727137930
  H          -1.50252954303926      2.88904666268869     -1.03355486948169
  H           2.15206152660845      2.10962261311637      0.09097975389617
  H           3.59001245328919      0.20750490144236     -0.53346716396865
  H           1.57655327549027     -2.43548877904601     -1.09059783250841
  H          -2.05457117947843     -2.02460645704715     -0.98376162591256
  H          -3.45349493788409      0.06258406946723     -1.56242465995855
  H          -3.53323147781463      3.15183505054829     -2.40966886958816
  H          -2.21247303070430      4.23386308843006     -2.91129564477783
  H           5.12208023722989      0.42003992723931     -2.48287575302115
  H           4.88072157556356      1.99355196574451     -1.69874824783617
  H           3.84847522752567     -2.10934167057475     -2.10426756363953
  H           2.63986881956716     -2.79418111113322     -3.22522845810550
  H          -4.46496257449259      0.32264339261287     -3.80503158674292
  H          -4.36010065990270     -1.38768604930786     -3.34183979783796
  H          -3.33926461045621      5.89266251113833     -1.76352867880547
  H           7.12560108679450      0.31683914071389     -1.37422316943675
  H           3.61185880078617     -4.84159655454052     -2.75286750585649
  H          -6.68278806728743      0.21134172183082     -3.21884586384907
  C          -0.54647657016931     -0.40315211495116     -3.92730350808072
  H          -1.07533373981676      0.25745917546556     -4.61539417546478
  H           0.19580193547953     -1.02568064979128     -4.43367777944238
  O          -0.15562368386484     -2.99438078024461     -3.24637719240375
  C           1.41253647556054      1.13792625153114     -3.37009933423122
  H           2.09244698003288      0.40590859903841     -3.80786527537115
  H           1.10193358088829      1.90382677951967     -4.08844976387011
  O           0.97887370016615      3.67232899998132     -2.40633476390789
  C           0.13909819272290      0.45036995098699     -2.79575162676535
  O           0.40308120962783     -0.54639014449116     -1.84852987438389
  O          -0.61468091432824      1.16397453140403     -2.04553967758375
  O           0.97266761454646     -0.07049052681086     -0.59117196761345
  H           1.19994378092531     -1.68770828206202      5.19580086896200
  H          -1.51120433216743      0.31654580233123     -0.83534940355001
  H          -0.38535451457128     -2.90043365451060      3.73708454472388
  H           2.19589038819138      0.43875150054118      4.42196264640698
  O          -1.35997698567650     -0.14551642639714      0.02725336269825
  C          -0.11363679963472      0.31507134165771      0.39807596636946
  C           0.28636393717582     -0.27010844286075      1.73047018187585
  H          -0.07584803591358      1.41987948011778      0.40146323416537
  C           1.17100796784341      0.41198703520343      2.55258533919319
  C          -0.26956254550149     -1.46687902226333      2.16273905530202
  C           1.50272345552555     -0.09966182998537      3.79557676452847
  H           1.59318949824229      1.34210088298740      2.20374760475493
  C           0.05536838351542     -1.97162603928535      3.41137108106330
  H          -0.95596564534195     -1.98286753137577      1.50798109584890
  C           0.94448697216224     -1.29184835526664      4.22628203361455
