11
Coordinates from ORCA-job job.QMRegion
  C           0.16727467816739      0.47867949866447     -2.84927290157158
  O           0.51579350740304     -0.52968245848827     -1.90343495260390
  O          -0.62507191968521      1.21655128858824     -2.14652744944327
  O           1.02307522888948     -0.01267837641587     -0.63743780387254
  H          -1.43568847815325      0.35683356447388     -0.97906365189310
  O          -1.33080092695240     -0.12242266058278     -0.10966225956550
  C          -0.10801896501285      0.33286010286580      0.32579353706577
  H          -0.07199892735901      1.43799329680393      0.35039134703666
  H          -0.30796938512722     -0.16571667621061     -3.64532319260988
  H           1.06755604764035      1.00069301434917     -3.26905595981620
  H           0.15042003542977     -0.10478020935430      1.30379360292931
