14
Coordinates from ORCA-job job.QMRegion
  C           0.24632832518125      0.13960373319060     -3.08668109382435
  O           0.68613032156239     -0.90159754965274     -2.26797139330639
  O          -0.86419152142198      0.84677633539749     -2.55619545695840
  O           0.70719305880238     -0.26499602079746     -0.60950414095083
  H          -1.64569826292147      0.31287907374464     -2.77639774939664
  H          -2.13538612824796      0.98519550024857      0.87860561145402
  H           1.53127972688703     -0.74445399149659     -0.37482286517595
  H           0.31119155430234      0.21236033110081      0.67854042774825
  O          -1.67366201766353      0.23696109215324      1.28966065480306
  C          -0.35368079405189      0.56233532839702      1.60011573341533
  H          -0.16065226813056      1.64702311422200      1.63874253407215
  H          -0.10755123387667     -0.41644776550702     -3.97430127680437
  H           1.02264173473920      0.88378761397929     -3.31108159991628
  H           0.02846120486677      0.02523090328199      2.45850128153989
