9
Coordinates from ORCA-job job.QMRegion
  C          -0.38878974112005     -0.83941064647297      3.10259546038490
  O           0.07438303730742     -1.72668211089959      0.59057785592994
  O          -1.50844823165188     -1.30434452646069      3.14508785505980
  C           0.82109394583806     -0.07976183827816     -0.95470783698414
  O           1.61105339152407      0.38459129701747     -0.13391136559822
  O          -0.02146329819583     -1.11116328013268     -0.72022952149052
  H          -0.18659619238739      0.19129142788679      2.74482447341184
  H           0.49747742856132     -1.37702474340340      3.47900954144342
  H           0.72121017795090      0.27444942671855     -2.00261469112571
