145
 xtb: 6.7.1 (edcfbbe)
C           -0.98001941712354        4.44996889148837       -0.44831926483468
O           -1.33365559104452        3.17271878527981       -0.92300090625254
C           -0.01564994049943        5.07605817213784       -1.46749899509833
O           -0.41580970931693        4.41582736985668        0.83081625476199
C           -2.68082375511381        2.76825855177458       -0.76962796076581
O           -0.56980513945000        5.17661380424268       -2.74701358657638
C            1.27689444235718        4.24568341684960       -1.47381142602488
C            0.82432399837051        3.71835597349735        0.94850648158293
C           -3.27829547614152        2.54157795935621       -2.16686381149451
C           -2.78617927831643        1.44492101766968        0.00573946072277
O            2.23524819679264        4.78127789185562       -2.34625609002752
C            1.86456896589253        4.23740888014374       -0.05837742689008
C            1.27505104884528        3.94654332936102        2.39842365038796
C           -4.71654096419472        2.00337189102954       -2.04277219636223
O           -3.23220217191220        3.75639912702565       -2.86507811182145
O           -4.13601112956577        1.04842371341064        0.10765223737396
C           -2.22057668978475        1.51588470820533        1.41912520928053
O            3.01060463087323        3.41035634478613       -0.11222565851196
O            1.49873764173726        5.30220739456229        2.66988051669003
C           -4.69385972253482        0.74044094368374       -1.15853389580229
O           -5.26779098523357        1.75079516237659       -3.29999722307492
O           -1.01509705267489        0.97876713917003        1.42794293383725
O           -2.78582287107411        1.99030110732100        2.37377708600306
C            4.14637250800050        3.77525733652993        0.62732798828699
O           -3.96148262732241       -0.21661808883040       -1.85661782302851
C           -0.40137565635723        0.56847162372279        2.64165767566400
C            5.36040605245901        3.61771736606646       -0.30350997310633
O            4.32113426045627        2.99642626116649        1.77860902669564
C           -4.28878340963503       -1.59800621857996       -1.73770578781773
C           -0.45131797533729       -1.00039668288894        2.68672056573563
O            5.26229297129903        4.43296553357874       -1.43680920347652
C            5.45999182102441        2.13676353202109       -0.69481268645861
C            4.38221141481991        1.58808317405307        1.55825431272766
C           -3.87994378710551       -2.17356265935007       -3.10142430961467
C           -3.55911111562839       -2.27662199455443       -0.56039386018185
C            0.87336870369609       -1.55886101880018        3.29362602516353
O           -0.74324874242587       -1.51468327091995        1.34587859644470
O           -1.50580180173666       -1.53577667785730        3.20291517086865
O            6.62225547990369        1.87149050206999       -1.43485884124203
C            5.46783018381560        1.21249956550247        0.53114512436579
C            4.66581298993576        0.99556950615348        2.94817281407990
C           -3.84094993149518       -3.70643274819554       -3.09509333399481
O           -4.77435812064036       -1.67110941858203       -4.05931099803903
O           -3.52687263606143       -3.69262561216792       -0.70459450921346
C           -4.26592888617676       -2.02735757637800        0.78071978500562
O            1.98329662946583       -1.39547812001012        2.41827921757481
O            5.26440119400351       -0.07986216089035       -0.03490558907641
O            5.93317919316979        1.35337362386887        3.42557643092437
C           -2.96227212749084       -4.14237497589280       -1.90809201599337
O           -3.35704037145280       -4.19900841359364       -4.31254465993706
O           -5.56141374634977       -2.56018194339632        0.78858937767934
C            2.39792649513958       -2.44545640813549        1.73609079696788
C            5.67976203905179       -1.21443189216225        0.65447040248204
O           -1.68247403958745       -3.61178658794157       -2.13118983318369
C            3.48545125659168       -2.03048581470505        0.74836535172977
O            1.99457500468692       -3.57484702415281        1.86934619262396
C            6.09605385407897       -2.24866888315008       -0.41136018853483
O            4.66434739982607       -1.76501593189833        1.47968400267382
C           -0.55719043790228       -4.46445338127993       -2.04425153256839
C            3.72706845892163       -3.10207342394299       -0.31677341548248
O            7.11999407988163       -1.76979649363355       -1.23253006553685
C            4.85568692800786       -2.62671346310239       -1.24192834424969
C            0.45474628902077       -3.87266767814577       -3.03299634862441
C            0.03774018951735       -4.53189587344036       -0.62866729492316
O            2.54102685677137       -3.28224020662801       -1.07348156874365
O            5.14480465004744       -3.64505102604699       -2.16940890005997
C            1.80016678651131       -4.59936507636600       -2.93422985653708
O           -0.09927223148573       -3.97131870833549       -4.31876459099660
O            1.29064865949633       -5.20744483572229       -0.65372700439859
C           -0.84835571909997       -5.31260450959798        0.34855128479809
C            2.25518978789418       -4.60402859395862       -1.46730846386043
O            2.72170359382480       -3.97389003615482       -3.78590629122415
O           -1.12384406668941       -6.60967774369575       -0.10220773664256
C            0.73910668662201       -0.25027578623251       -0.31871986376235
O            1.43193247808469        0.38831181317596        0.45669014282140
C            0.79007719491120       -0.04957572516748       -1.78835141648953
C            1.96260686696708        0.47601606513057       -2.32998267064517
C           -0.29998908300825       -0.31806703682624       -2.61364474624814
C            2.04579333339597        0.72176610765872       -3.68753574907693
C           -0.21162908616336       -0.05642662244614       -3.96939791606537
C            0.95819755599347        0.45857738331208       -4.50657722185214
H           -1.87521182686803        5.07715407590665       -0.33819896353076
H            0.22540736751072        6.09512072420415       -1.14001200686069
H           -3.25691008794379        3.53341917768351       -0.23345933613862
H           -1.27671754208178        4.51829219534523       -2.86841724525585
H            1.03919830497934        3.20704036133940       -1.75639997468321
H            0.67680664482855        2.64463316616179        0.76499246161848
H           -2.66123806069978        1.78708143495148       -2.67762502246061
H           -2.20909721507838        0.68039395568509       -0.53354159443255
H            1.77514556391556        5.10666180236134       -3.13932146549013
H            2.15482488881743        5.25938702953733        0.22009307008235
H            2.21940080127849        3.42709514441088        2.56944642655833
H            0.50835191477087        3.52791555536206        3.06359975268025
H           -5.34486849122510        2.76267335666784       -1.56335296456360
H           -3.85029368526338        3.70326881249864       -3.61650456579927
H            0.65556364119229        5.77293682162968        2.58664781379660
H           -5.71146300226807        0.39002564840491       -0.93511877562842
H           -4.97985485759383        0.87767823963454       -3.61536893300735
H            4.06401877069551        4.80712661979127        0.99338497085442
H            0.64707115589747        0.90025136005407        2.57819138203666
H           -0.92716850882908        0.97525406139691        3.47926337026704
H            6.26886074792121        3.92043174102669        0.22539554598747
H           -5.37346581998313       -1.71552281887109       -1.59922217149641
H            4.35002017668693        4.41284588064270       -1.77994521713848
H            4.56526096487151        1.88498157963209       -1.28550124748952
H            3.41056431593166        1.22745296255624        1.19972917594136
H           -2.86071558298667       -1.81766815722908       -3.31378849601868
H           -2.53314327984359       -1.89224322612628       -0.49473058823371
H            1.08999469467169       -1.01830440141334        4.22941855538074
H            0.70329511992881       -2.62462141771311        3.51469614187342
H            6.73466765284869        2.57949516034892       -2.08797464327985
H            6.45405720239161        1.25180688957430        1.01479986469906
H            3.87639713458869        1.34386873658320        3.62779098662232
H            4.62958469323274       -0.09113094154495        2.90573875137842
H           -4.85088355326125       -4.10873124568732       -2.96896991399689
H           -4.68699065933852       -2.20406069365747       -4.86811743593373
H           -3.64151480733964       -2.44637280216884        1.58077623187751
H           -4.35736211679380       -0.95554261033473        0.96228136570632
H            5.95365818557629        2.31508277821568        3.55473295629482
H           -2.93153300417723       -5.23547006588877       -1.81952636406133
H           -2.39509274116350       -4.05437838039893       -4.36442903138481
H           -5.49619380546712       -3.52257204547620        0.70946013368507
H            6.50436467247604       -0.99461792932491        1.34618266531244
H            3.14170223135165       -1.10670787021867        0.27172744553569
H            6.47637708821185       -3.14370871739518        0.09549854186584
H           -0.83120340512742       -5.47829622974035       -2.36445466854393
H            3.99892873454496       -4.03747562781848        0.18951345350781
H            6.93807813695399       -0.84464154415637       -1.46258989091150
H            4.49147923412315       -1.72911879295143       -1.76315972926300
H            0.61124691680320       -2.81494310394310       -2.76016307995910
H            0.16556514503454       -3.51372941957914       -0.24342511663283
H            6.01851462040372       -3.46458420089759       -2.54160786517674
H            1.65988626833640       -5.64550977841488       -3.24158844534668
H            0.61239373978358       -3.83498077044212       -4.96539754557804
H           -1.80217400238782       -4.79440810546928        0.46113104455592
H           -0.34199705018963       -5.32198374436734        1.32011057833534
H            3.14725129073341       -5.23118052112720       -1.35369660672550
H            3.59205359795604       -3.90759039992475       -3.34790143568666
H           -0.29540127622499       -7.11548779454024       -0.10486910817491
O           -0.10475206402198       -1.22356966640325       -0.03789502619809
H            2.77223499493462        0.70158277956845       -1.66603051420116
H           -1.21310738050683       -0.70743313537829       -2.19137661850314
H            2.95351735351660        1.12635577603391       -4.10825379348440
H           -1.06039269967303       -0.25870127468010       -4.61808526023252
H            1.02418907085354        0.65052788833558       -5.57552383480095
