11
Coordinates from ORCA-job job.QMRegion
  C           0.18375721366445      0.56928881404429     -3.02104127720338
  O           0.72376492540432     -0.49355875118519     -2.01221754974899
  O          -0.70715776038358      1.37727063251793     -2.47123554775729
  O           1.06667856304273      0.11190885970214     -0.74306624524368
  H          -1.34854779040611      0.54629148093022     -1.33575023134170
  O          -1.33309228219946      0.00419172540145     -0.47464411842193
  C          -0.16677535032852      0.38996523251052      0.12614895071274
  H          -0.09968062919955      1.49062141784695      0.22846406186255
  H          -0.23014154494799     -0.15685901031419     -3.76576068278094
  H           1.07985261031888      1.11116332441181     -3.41404353441943
  H          -0.01839046053933     -0.10183729024208      1.09876692961872
