147
Coordinates from ORCA-job job
  C          -0.72881134360392      4.77410520747604      0.74160385940707
  C           4.28766827479287      3.17893867371356      0.35784189832012
  C           5.00369223306719     -2.01294593663011      0.63417696871611
  C           0.63104106170964     -4.78465011228087     -0.18835343010212
  C          -4.09789776219956     -2.98886844843400     -1.56858251710124
  C          -5.08741746209157      1.88619586157347     -0.09435875253528
  O           0.21511932793627      3.74523727473754      0.55102459406294
  O           4.07092158921300      1.95359188716629      0.98151867541610
  O           3.64348446887822     -2.23371117285113      0.88046689221310
  O          -0.22491683488297     -3.68436178684352     -0.34261345714570
  O          -4.19673250870702     -2.08901779807519     -0.51514808210753
  O          -3.75136656853418      2.03085431021684      0.30959137230417
  C          -1.54753932435846      4.48854442335546      2.01237463534608
  C           3.85393741685347      4.26991381738420      1.35344208284841
  C           5.55822540870318     -1.32773003264465      1.89326996764071
  C           1.06283238037450     -4.84961558260803      1.28824337831177
  C          -3.86933129925995     -4.37515506154609     -0.94120612492685
  C          -5.76958015028542      0.93537006563360      0.90417052468891
  O          -0.74544579550023      4.28723102054289      3.14419870502738
  O           4.57651577660592      4.21385323908593      2.54807263509537
  O           5.33933972665233     -2.10866544464242      3.03408110970391
  O          -0.05442538782623     -4.87080161927697      2.13576952323530
  O          -4.91343598999924     -4.74229841184688     -0.08863281383933
  O          -5.75426387501201      1.43681651998476      2.20947955410247
  C          -2.39092395519783      3.22947995681302      1.79295570975277
  C           2.34576005642558      4.12735364905268      1.61965448177559
  C           4.88109262203797      0.04199538710003      2.02756671693652
  C           1.93618182499956     -3.62523789715625      1.58842640973872
  C          -2.53114663807828     -4.35339491537337     -0.18731248590095
  C          -5.05003674990455     -0.41639514869227      0.81326059021416
  O          -3.29032866848130      3.01706005139765      2.84951200841880
  O           1.87975631721496      5.17107822859434      2.43807144232720
  O           5.45697420067898      0.80851418487848      3.05317187401761
  O           2.52319719538644     -3.67679058043074      2.86621447672359
  O          -2.22724461418274     -5.62162859647850      0.34244714858708
  O          -5.66088409487792     -1.38745140957868      1.61978464150330
  C          -3.21138454214732      3.32209385813724      0.50262581080423
  C           1.55566975037965      4.13731164373723      0.30223498905223
  C           4.95817835796403      0.86895583149367      0.73671548146291
  C           3.07507676321319     -3.49089497914511      0.56978440623473
  C          -1.39042859454040     -3.90093737274565     -1.11366043816206
  C          -5.03734429234485     -0.94930945951666     -0.62373709168611
  C          -2.32418238379877      3.74698141627966     -0.67903983687379
  C           2.17450238832415      3.12516192162879     -0.66814625775469
  C           4.55743412902225      0.03550797256365     -0.49224437439019
  C           2.53955826236200     -3.55730901245398     -0.86842338599707
  C          -1.79021731416585     -2.57612779471298     -1.76495503230486
  C          -4.53377656343674      0.12314258774625     -1.60640787830811
  O          -1.57908658666529      4.91591194057797     -0.35848770235688
  O           3.55913762593354      3.33791313621101     -0.84701608403279
  O           5.23074125208163     -1.21998329379080     -0.49677486639290
  O           1.73813780830658     -4.72261118539798     -1.03736291443581
  O          -3.02846213068652     -2.68502737728512     -2.44389772250543
  O          -5.18924422368057      1.37267909726037     -1.39178503027990
  C          -3.15863739650467      4.09225682954003     -1.91743147874489
  C           1.51145144519969      3.17372502308208     -2.04308499722850
  C           4.96663546108152      0.69664749123588     -1.81509689021764
  C           3.65319065496234     -3.68630432057098     -1.91113939653396
  C          -0.79354872757133     -2.07600241965107     -2.80249554377367
  C          -4.81398054695990     -0.21107037242464     -3.07981466485747
  O          -4.03419842758307      5.15824309593217     -1.68217017226110
  O           1.91236445084078      2.14818585058887     -2.77079190672348
  O           6.33945133620508      0.96540327196303     -1.86913201636232
  O           4.41939112430110     -4.84416315982959     -1.72128945362142
  O          -1.24705194404305     -0.93819995163235     -3.31635282992238
  O          -6.14577492600208     -0.58465921649968     -3.30529374304338
  H          -0.22111472691943      5.74007223981007      0.83244964409815
  H           5.33705503181755      3.30077501796085      0.06324745462846
  H           5.52778544713285     -2.95490610751119      0.43500274017245
  H           0.11870705240693     -5.71286266813569     -0.46870359501849
  H          -4.99482105376528     -2.98014360009548     -2.19995760582202
  H          -5.59750958247131      2.85551491615955     -0.12803244954793
  H          -2.22171350240035      5.34259883974566      2.17365593033600
  H           4.04863029314284      5.25004867240802      0.91129382733734
  H           6.64076225463908     -1.19569458911633      1.79765309992424
  H           1.66704877633770     -5.75661779564481      1.43938484466948
  H          -3.82828574859953     -5.12562755712468     -1.73519358251539
  H          -6.82155886134777      0.80811307027898      0.63235197057477
  H           0.09939057963228      4.76121666335821      3.04438576096939
  H           4.68198470439242      3.29138534115423      2.82293181935675
  H           4.46856868390842     -2.54248353408944      2.97069887968390
  H          -0.79676143335628     -5.29039305996775      1.66307402996759
  H          -5.12642276543407     -3.99320808874909      0.48990921746755
  H          -4.88782410229330      1.83728938484985      2.39960722174706
  H          -1.70500229473794      2.37666298697323      1.69368849012144
  H           2.16246221358872      3.15848980532902      2.10432789688775
  H           3.80995769753804     -0.12593959062458      2.21794138773818
  H           1.31296350593098     -2.73326288654072      1.49033667939380
  H          -2.59623830880023     -3.61811848154415      0.63064635578237
  H          -3.99888865812220     -0.27026828949512      1.10745877596358
  H          -2.79696103437298      3.03597623699145      3.68352516750395
  H           2.56532793661204      5.35393793302785      3.10518381010818
  H           5.62371260812243      0.22873973213427      3.81204807695133
  H           1.91679083383585     -3.25480991401315      3.50304519337157
  H          -3.06107814182675     -6.01784793994277      0.65114871648679
  H          -5.75825405830749     -1.01971379534497      2.51079821739675
  H          -4.01503456379263      4.05672987378695      0.63597073716271
  H           1.57991146237919      5.13431726475521     -0.14980389822995
  H           5.97787306483836      1.25171494271649      0.59982024418201
  H           3.81431534558875     -4.28645290207935      0.73013250667754
  H          -1.19915673802461     -4.64933395346648     -1.89201579643446
  H          -6.04657903771991     -1.26997082462487     -0.91615028985912
  H          -1.64233278347332      2.92474946800290     -0.91958750584875
  H           1.99742006444206      2.11083099086990     -0.28837490273642
  H           3.47013320214083     -0.11849383544390     -0.48015845311232
  H           1.95373304004931     -2.64345740143340     -1.05020947219513
  H          -1.83452312459663     -1.81452107443968     -0.97772308314147
  H          -3.45440509176912      0.24379062413575     -1.46020917731609
  H          -3.76665331843527      3.22852165954832     -2.18563614528692
  H          -2.46726282170686      4.31831048830719     -2.73660186553095
  H           4.65935520119079      0.02424325416996     -2.62305250988969
  H           4.44730257404056      1.64491872146684     -1.93290849383437
  H           4.32677268656251     -2.83507494575810     -1.83575323157268
  H           3.17952881070914     -3.68586037756402     -2.89882131953245
  H          -4.54933463221927      0.67357936329937     -3.66634231519504
  H          -4.18395062563983     -1.04113208548614     -3.39247718672920
  H          -3.50515415705525      5.93754371448736     -1.46398765891607
  H           6.81769281849362      0.12612667748196     -1.82022849633449
  H           3.81844577496659     -5.60155396869338     -1.75327605560887
  H          -6.70972798543263      0.18396063707545     -3.13878985671896
  C          -0.41186376110434     -0.21633324707283     -4.21016925311560
  H          -0.97944118211265     -0.02448313701409     -5.13275412396270
  H           0.48992682906646     -0.80244702246869     -4.42477487845051
  O           0.15353964746057     -2.68793680731608     -3.22693033491172
  C           1.20324972565957      1.83735356539037     -3.96469452602147
  H           1.87341737833368      1.22396709929550     -4.56839069615861
  H           0.91391115663100      2.76195133348388     -4.48839195951306
  O           0.75981863773962      4.03502973199366     -2.41953052984511
  C          -0.06097641734264      1.09178759153528     -3.53291214341813
  O           0.80032805469532     -0.96066372123038     -1.33060391684330
  O          -0.71857486046821      1.52614442804484     -2.63590036149940
  O           0.90712072641195      0.24206402247142     -0.56621086181287
  H           0.64131796588417     -2.14850972382224      5.11943407880229
  H          -1.43563508278091      0.53391324955813     -0.97729459674314
  H          -1.15543674526812     -2.93503703741815      3.54362965926650
  H           2.20564244517588     -0.35544453177888      4.33139016236420
  O          -1.40964998729014      0.10662878877428     -0.10424600231051
  C          -0.12033939948605      0.37549305345735      0.41875462397904
  C           0.09873763254954     -0.41283958889408      1.68490436252958
  H          -0.02729748406954      1.45108331199399      0.65340243241586
  C           1.15219498067518     -0.02556190336722      2.50384967390265
  C          -0.71984794221296     -1.46541936474239      2.06243444275618
  C           1.38251608055170     -0.66760292251468      3.70241415694989
  H           1.78617147444360      0.79063273580317      2.18390352096057
  C          -0.51240380829506     -2.10833421198354      3.27190109207795
  H          -1.49975556919062     -1.77561471521007      1.38136652026224
  C           0.54110592392963     -1.71166608596262      4.11126051704557
