147
Coordinates from ORCA-job job
  C           1.65525731122474      3.60544515714737     -0.21303269331850
  O           0.85960751776200      2.44203402320802     -0.30003305871503
  C           2.71362749763573      3.58875562694122     -1.32971174303692
  O           2.29332109986902      3.75402104723489      1.02356447433417
  C          -0.54470944342654      2.62089403991532     -0.18345788560496
  O           2.16248366112160      3.43398959012882     -2.61041897084143
  C           3.69186200752472      2.43484129131699     -1.08455730303199
  C           3.17107205208995      2.68804195264522      1.38843912557335
  C          -1.13776510990246      2.76339448227809     -1.59615711380197
  C          -1.19966148258725      1.39335441446090      0.46277458914411
  O           4.77458686252237      2.47485540075660     -1.97706098512762
  C           4.26827088615294      2.45079293842409      0.33664008083072
  C           3.74445004174564      3.08046904762824      2.75746534399731
  C          -2.67390216234497      2.79426721207935     -1.55006204585729
  O          -0.63657194538180      3.93019315694418     -2.20622795158075
  O          -2.60201081001825      1.52755956633237      0.49600639618086
  C          -0.75996970911477      1.13680311491379      1.93158020678028
  O           4.87820641583398      1.17603438915637      0.47980968204407
  O           4.58674338055012      4.19833837638827      2.68606523180356
  C          -3.18611785763760      1.55766025485371     -0.78909323762982
  O          -3.20528939509871      2.88695707931384     -2.83987383621309
  O           0.69095630976108      0.97989064781627      1.87669902584729
  O          -1.18466646009589      1.88575546450146      2.83586384498535
  C           5.93934279852815      1.01321787174756      1.38556500800106
  O          -2.89304041823427      0.43741588727342     -1.56769523174325
  C           1.06641929302127     -0.23056451120615      2.43260559922364
  C           7.03738118424365      0.20797441311435      0.66484071381258
  O           5.55146661491020      0.35895467267560      2.56543982932640
  C          -3.71489454777508     -0.72619927411993     -1.46499127470172
  C          -0.09483436798471     -1.14340550686948      2.02100209795678
  O           7.43768136253027      0.83405071584757     -0.52214230662709
  C           6.51346871810961     -1.20960724565267      0.38797169864250
  C           5.00607229304311     -0.94814495922084      2.38663836604877
  C          -3.43891504804903     -1.47094744004847     -2.77994800215655
  C          -3.39279142343528     -1.57881589761846     -0.21971410348468
  C          -0.04558551808533     -2.47809238645834      2.77435005937665
  O          -0.08514900446446     -1.42034914382245      0.55424870940257
  O          -1.20627374291068     -0.35819016227127      2.18936082095425
  O           7.51528618540120     -2.03018489476770     -0.15723563406358
  C           5.99611046581559     -1.88146409063320      1.66612853914529
  C           4.65802128149845     -1.43409351874874      3.80089950511486
  C          -3.93854145355452     -2.91912611340129     -2.75884557045026
  O          -4.01624540127844     -0.73786615050089     -3.82934586277714
  O          -3.78644544319784     -2.94241343644025     -0.36036140955435
  C          -4.15342746389621     -1.09331710631519      1.02507432684471
  O           1.28722046631348     -2.91403899504332      2.56219511017886
  O           5.39515142560674     -3.07971814520242      1.19267060568543
  O           5.80051624052746     -1.62386064577411      4.58989522080363
  C          -3.33836208263130     -3.59683189210234     -1.51627071682311
  O          -3.58780689376657     -3.58049306025224     -3.94184488722289
  O          -5.53585862415891     -1.04255618632196      0.80838391893168
  C           1.56941149197119     -4.17654012536317      2.26147816966016
  C           5.23615492681546     -4.18509863281256      2.02629117767475
  O          -1.93828580340839     -3.56946960420696     -1.64125378410165
  C           2.93481294654129     -4.22302983408081      1.57978930281196
  O           0.84496887048974     -5.11282913576838      2.47250975119354
  C           5.50361240891968     -5.42999894203806      1.15672316022161
  O           3.93312662254729     -4.28224594100208      2.58070932699999
  C          -1.22685451272653     -4.79167077137168     -1.54300735895228
  C           3.02186035003999     -5.38600970255514      0.58028514102784
  O           6.79503414801616     -5.41835904016531      0.62071742787781
  C           4.45274006890238     -5.48350909455364      0.02995383660322
  C          -0.01554717730153     -4.66078067656858     -2.47083047364401
  C          -0.74547897039158     -5.07024643264439     -0.11174011393535
  O           2.13969912325304     -5.11706932879707     -0.50971797108994
  O           4.55476593286797     -6.67071216138930     -0.71109470752666
  C           0.86080391468350     -5.91962450279961     -2.35002638598863
  O          -0.48085416607164     -4.48859760553888     -3.78415397744113
  O           0.10623468652671     -6.20815827001263     -0.06956630638001
  C          -1.90840331491995     -5.38676211250581      0.83925619673279
  C           1.24852824925358     -6.14124620985854     -0.87661125786872
  O           1.97794132272929     -5.84334519696333     -3.18627047991564
  O          -2.68135933254446     -6.46236263463278      0.38315206182590
  C           2.00004151857525     -1.03125771414388     -0.59200322650116
  H           1.92091900710919     -0.07083386592040     -0.05939001516549
  C           1.63531198246841     -0.79633103819302     -2.04529588044046
  C           2.65796011642113     -0.49633637901301     -2.94019889629706
  C           0.31823628984401     -0.77003259800792     -2.47525811243382
  C           2.36345403651063     -0.17855510917503     -4.25367015163763
  C           0.02870319245164     -0.43476993474601     -3.78791054331476
  C           1.04696263752251     -0.13972657123607     -4.67766089948624
  H           1.02471110352196      4.49934860424864     -0.30818783603148
  H           3.26305678197561      4.54284684275271     -1.27292448949264
  H          -0.77164173055861      3.49677559595532      0.43718764967736
  H           1.22349903893059      3.69576011605672     -2.59625794483882
  H           3.12833450480045      1.49897869548856     -1.20789002320764
  H           2.58649045807024      1.77056982232911      1.49372896130271
  H          -0.81608357558373      1.87887991601222     -2.16989090463895
  H          -0.91987727217494      0.51136715491814     -0.12387635143106
  H           4.43158986735113      2.67906877292927     -2.86147531689480
  H           5.02966001642753      3.23990340410173      0.41153869399757
  H           4.34149668106261      2.25639438927744      3.15027754934694
  H           2.89566716723976      3.25981277664936      3.42791944093520
  H          -2.99255272548120      3.68820491096657     -1.00245017857998
  H          -1.23670487844204      4.15868756595685     -2.94042285450617
  H           4.05870700411076      4.96414316588667      2.41621082716430
  H          -4.26607575054920      1.63084435786257     -0.59718037335998
  H          -3.24942152237508      1.99910386237978     -3.23252220043373
  H           6.32784619489123      1.98692586279333      1.71179166843238
  H           2.03983354447062     -0.54235986070223      2.05705445043911
  H           1.08495984258237     -0.18672256598371      3.53197061646713
  H           7.92478253309641      0.15157942695999      1.30365382916683
  H          -4.77114633589860     -0.42317419130055     -1.42674269384837
  H           6.64986226709570      1.14910552884051     -0.99771936978409
  H           5.65623213461954     -1.13263552567138     -0.29746652314676
  H           4.09600260215952     -0.88882971979029      1.77637131962246
  H          -2.34724746603466     -1.51163064789100     -2.90144458725493
  H          -2.31415950306075     -1.52166098527661     -0.01931385515098
  H          -0.23268193950004     -2.31048251023226      3.84104268698727
  H          -0.76526459377841     -3.20109494399354      2.37579391871306
  H           7.97456476021630     -1.52577670094158     -0.84876841185446
  H           6.83215455233591     -2.12216680219980      2.33606158271306
  H           3.98159192414608     -0.69772581944026      4.25327158371266
  H           4.14310459102254     -2.39413164549554      3.74704541699941
  H          -5.03042769492163     -2.94448782481183     -2.69507258928639
  H          -4.13234039113558     -1.33668570460000     -4.58709833973086
  H          -3.90213648363251     -1.76724828295526      1.85238064658796
  H          -3.81497583955683     -0.09397606782449      1.29895966977688
  H           6.24347332503654     -0.76871317959371      4.70078156917397
  H          -3.70460080621822     -4.62685117135227     -1.41613009555991
  H          -2.62945492658679     -3.75572178189270     -3.94733303142281
  H          -5.85718385191068     -1.94894918739735      0.67803935381373
  H           5.90809399275642     -4.14852067565167      2.89278039931547
  H           3.03618793595271     -3.28155532605807      1.02243001602889
  H           5.42217626242542     -6.32813237991923      1.77670806399552
  H          -1.86219122896153     -5.62066342645193     -1.88258927998057
  H           2.73799570338878     -6.32173578479069      1.07354187179957
  H           6.99251224956994     -4.52758759614925      0.28181213157971
  H           4.61627502055086     -4.60811653943698     -0.61766362911118
  H           0.56038473474354     -3.77729489562595     -2.15093817214298
  H          -0.20816022556070     -4.17712150130042      0.23684180836714
  H           5.49486568829180     -6.83492222566521     -0.89674817789883
  H           0.27405067219493     -6.78195198952744     -2.68745031694827
  H           0.22899117177029     -4.75044540481247     -4.39531838913164
  H          -2.57061975181297     -4.52015437395656      0.90195352973948
  H          -1.48454402555708     -5.59524243911312      1.82832711438288
  H           1.73290009722752     -7.12005022378135     -0.75634975976130
  H           2.69150144190869     -5.38815225258153     -2.71598101133738
  H          -2.14179845785860     -7.26709726122001      0.42735065062065
  O           1.18270355293824     -2.01725470281557      0.11411711816074
  H           3.68148795639075     -0.48653418638640     -2.59629185820331
  H          -0.47179606304735     -1.00693889119888     -1.77650903878708
  H           3.16358354875817      0.04744504512923     -4.93913598842366
  H          -0.99998528159381     -0.38961199733608     -4.10846654609614
  H           0.80998925744296      0.12478320419916     -5.69531341491561
  H           3.43062687294824     -2.19096081746727     -1.15772670039534
  O           3.29925594396069     -1.53610246568949     -0.45279039554761
