11
Coordinates from ORCA-job job.QMRegion
  C          -0.09483436798471     -1.14340550686948      2.02100209795678
  O          -0.08514900446446     -1.42034914382245      0.55424870940257
  O          -1.20627374291068     -0.35819016227127      2.18936082095425
  C           2.00004151857525     -1.03125771414388     -0.59200322650116
  H           1.92091900710919     -0.07083386592040     -0.05939001516549
  O           1.18270355293824     -2.01725470281557      0.11411711816074
  H           3.43062687294824     -2.19096081746727     -1.15772670039534
  O           3.29925594396069     -1.53610246568949     -0.45279039554761
  H           0.74240674088034     -0.48526505651812      2.31776014779997
  H          -0.05913564103849     -2.11087221056910      2.56707704641078
  H           1.73276408489829     -0.85910110812662     -1.65699054579710
