14
Coordinates from ORCA-job job
  H          -3.77863365579036      0.87943653807471     -1.58157918076216
  C          -2.93998828996322      0.94730906550267     -0.90598516461916
  C          -2.96706935720319      0.25845913452740      0.29865089422439
  C          -1.89620241457945      0.34204408261227      1.16707840216445
  C          -0.78733613701734      1.12127184934545      0.83021192973420
  C          -0.76699132107796      1.81194609197926     -0.38438025039639
  C          -1.84074248122577      1.72310761914486     -1.24715014067636
  H          -3.82517677585501     -0.34240565645688      0.55643311151449
  H          -1.90734406118616     -0.18953963960783      2.10662651762943
  C           0.35142877037732      1.21821643564477      1.74537404675575
  H           0.10206257124561      2.40757125057910     -0.62174122532610
  H          -1.82472368367037      2.25641495970877     -2.18477269799490
  H           0.26523961873176      0.63611916031258      2.69168421983740
  O           1.36155570181415      1.88282704113288      1.53816191101496
