14
Coordinates from ORCA-job benzaldehyde_es_opt E -345.459775317267
  O           2.93634405457637      1.23203319433138     -0.49148420952794
  C           2.27179244996123      0.14316908509238     -0.37011306894550
  C           0.86733051913906      0.06077432479161     -0.15162653424487
  C           0.24781882203505     -1.20032255193858     -0.03588179028698
  C          -1.10598987527417     -1.28758715200516      0.19664902319923
  C          -1.88232415574904     -0.13638036546435      0.31732945311916
  C          -1.28086991385186      1.10778804113421      0.20019631566465
  C           0.07759946531672      1.22043168130128     -0.03232164239174
  H           2.87882865579367     -0.76616346693380     -0.46577420926261
  H           0.84427008630460     -2.10040468072667     -0.12960925495632
  H          -1.56797563628119     -2.26347758937594      0.28684702759054
  H          -2.94621852747073     -0.21311532621010      0.50165166977416
  H          -1.87792811077066      2.00714697503361      0.29465047629997
  H           0.53732016627096      2.19610883097013     -0.12051325603173
