14
Coordinates from ORCA-job benzaldehyde_es_opt E -345.451048405163
  O       2.917369      1.201151     -0.495830
  C       2.307425      0.170484     -0.385829
  C       0.849787      0.072973     -0.142110
  C       0.258833     -1.179514     -0.031092
  C      -1.103902     -1.288898      0.196846
  C      -1.873603     -0.141617      0.313219
  C      -1.285825      1.113812      0.202754
  C       0.073157      1.222696     -0.024276
  H       2.829131     -0.806128     -0.464564
  H       0.870891     -2.070912     -0.123264
  H      -1.565322     -2.264805      0.283146
  H      -2.939285     -0.224159      0.490742
  H      -1.893207      2.005911      0.293931
  H       0.554550      2.189007     -0.113673
14
Coordinates from ORCA-job benzaldehyde_es_opt E -345.457327388889
  O       2.935226      1.226071     -0.493343
  C       2.295039      0.164672     -0.374259
  C       0.856315      0.067913     -0.152209
  C       0.256737     -1.192310     -0.039511
  C      -1.101434     -1.289941      0.194966
  C      -1.874245     -0.139956      0.315421
  C      -1.283006      1.112057      0.199889
  C       0.074748      1.226270     -0.033048
  H       2.821789     -0.802389     -0.453540
  H       0.860597     -2.088192     -0.130179
  H      -1.562999     -2.265356      0.286625
  H      -2.938402     -0.219933      0.501106
  H      -1.887901      2.005210      0.297291
  H       0.547536      2.195887     -0.119209
14
Coordinates from ORCA-job benzaldehyde_es_opt E -345.459290013771
  O       2.939579      1.235631     -0.491334
  C       2.278053      0.154024     -0.366299
  C       0.865223      0.064849     -0.154683
  C       0.255692     -1.198623     -0.040824
  C      -1.098903     -1.287933      0.194937
  C      -1.875643     -0.138105      0.317554
  C      -1.280009      1.109353      0.199393
  C       0.077418      1.226524     -0.036000
  H       2.826695     -0.791704     -0.452931
  H       0.852920     -2.097964     -0.134129
  H      -1.560349     -2.263894      0.286189
  H      -2.939032     -0.216681      0.504845
  H      -1.882692      2.004639      0.296696
  H       0.541045      2.199883     -0.123413
14
Coordinates from ORCA-job benzaldehyde_es_opt E -345.459609645075
  O       2.941875      1.236077     -0.485994
  C       2.273471      0.147922     -0.367164
  C       0.868095      0.063715     -0.156140
  C       0.252508     -1.199586     -0.040796
  C      -1.100680     -1.286965      0.195807
  C      -1.878608     -0.137282      0.318969
  C      -1.280337      1.108139      0.199160
  C       0.077105      1.224662     -0.036719
  H       2.845997     -0.783055     -0.456365
  H       0.847911     -2.100048     -0.135563
  H      -1.561753     -2.263276      0.287356
  H      -2.941667     -0.215276      0.507240
  H      -1.880906      2.005089      0.295676
  H       0.536988      2.199885     -0.125466
14
Coordinates from ORCA-job benzaldehyde_es_opt E -345.459735804689
  O       2.941041      1.234252     -0.488689
  C       2.272711      0.143703     -0.367542
  C       0.868968      0.062445     -0.153755
  C       0.249179     -1.199720     -0.038341
  C      -1.103885     -1.286820      0.196270
  C      -1.881711     -0.136724      0.318739
  C      -1.280994      1.107507      0.199738
  C       0.076864      1.222015     -0.034537
  H       2.867505     -0.773161     -0.461881
  H       0.844411     -2.100425     -0.133452
  H      -1.565057     -2.263185      0.286962
  H      -2.945036     -0.214071      0.505546
  H      -1.879345      2.006066      0.294734
  H       0.535347      2.198118     -0.123792
14
Coordinates from ORCA-job benzaldehyde_es_opt E -345.459768905373
  O       2.938562      1.232615     -0.489540
  C       2.272420      0.142559     -0.369491
  C       0.868132      0.061471     -0.152485
  C       0.247765     -1.199798     -0.036695
  C      -1.105649     -1.287187      0.196698
  C      -1.882705     -0.136476      0.318105
  C      -1.281127      1.107535      0.200047
  C       0.077076      1.220548     -0.033126
  H       2.877635     -0.767739     -0.465050
  H       0.843676     -2.100186     -0.131277
  H      -1.567130     -2.263358      0.287008
  H      -2.946346     -0.213398      0.503520
  H      -1.878324      2.006845      0.294401
  H       0.536013      2.196569     -0.122113
14
Coordinates from ORCA-job benzaldehyde_es_opt E -345.459773327314
  O       2.936656      1.232048     -0.491731
  C       2.272107      0.142848     -0.369717
  C       0.867575      0.060998     -0.151444
  C       0.247747     -1.200060     -0.035855
  C      -1.106005     -1.287476      0.196639
  C      -1.882546     -0.136405      0.317438
  C      -1.280965      1.107715      0.200225
  C       0.077469      1.220346     -0.032245
  H       2.879080     -0.766398     -0.465886
  H       0.844101     -2.100207     -0.129821
  H      -1.567818     -2.263466      0.286694
  H      -2.946409     -0.213186      0.501842
  H      -1.877986      2.007117      0.294511
  H       0.536993      2.196127     -0.120649
14
Coordinates from ORCA-job benzaldehyde_es_opt E -345.459775317267
  O       2.936344      1.232033     -0.491484
  C       2.271792      0.143169     -0.370113
  C       0.867331      0.060774     -0.151627
  C       0.247819     -1.200323     -0.035882
  C      -1.105990     -1.287587      0.196649
  C      -1.882324     -0.136380      0.317329
  C      -1.280870      1.107788      0.200196
  C       0.077599      1.220432     -0.032322
  H       2.878829     -0.766163     -0.465774
  H       0.844270     -2.100405     -0.129609
  H      -1.567976     -2.263478      0.286847
  H      -2.946219     -0.213115      0.501652
  H      -1.877928      2.007147      0.294650
  H       0.537320      2.196109     -0.120513
