147
Coordinates from ORCA-job job
  C          -0.74687984229852      4.76027918417413      0.87447078504359
  C           4.23519194891076      3.08316706175260      0.40127397069242
  C           5.05787935564640     -2.06646470741532      0.24282802288744
  C           0.61945970761013     -4.93805725334862      0.14235652720735
  C          -3.97635892527639     -3.01796369747359     -1.62369969888791
  C          -4.98233400756139      1.90464619445406     -0.43527123618462
  O           0.16180001708401      3.69067995091978      0.72852001344395
  O           4.04982390696910      1.82071401925276      0.96087155160980
  O           3.66588272191539     -2.23591265205581      0.35342443085360
  O          -0.27091665697592     -3.83706797395985      0.11125542866900
  O          -4.33090718118038     -2.15992162111254     -0.58573950395690
  O          -3.71348278303245      2.04595463419629      0.17231366373187
  C          -1.65524859317385      4.49942787612763      2.08726767042419
  C           3.82863739928228      4.12364694348768      1.46553896235933
  C           5.60290182023819     -1.49637049515945      1.56822291209981
  C           1.32016615932505     -4.87428152811093      1.51329299684947
  C          -3.81857356142982     -4.43137241128016     -1.03185555295543
  C          -5.86919106589556      1.04402912686900      0.47950037559458
  O          -0.92973175208704      4.26996222793709      3.26516206593534
  O           4.58399015530591      3.99286443342994      2.63303350631331
  O           5.49106127406875     -2.37595133208508      2.64728365358337
  O           0.39015786048253     -4.96986119025061      2.55049453306468
  O          -4.96572200374105     -4.84127568268963     -0.34480991657405
  O          -5.99499118296324      1.59170489280785      1.76153071699266
  C          -2.53705348366498      3.27226108386134      1.81252861388625
  C           2.32471071727811      3.98489927936902      1.76459229550612
  C           4.82288373379171     -0.20254624729226      1.82826032721259
  C           2.12542438875467     -3.56322059693745      1.53837359114197
  C          -2.58259542488196     -4.49351524559790     -0.11717007663848
  C          -5.30511996456345     -0.38466237874809      0.53233448955122
  O          -3.55867535561191      3.13320520878589      2.76572506679919
  O           1.86865725253243      5.01174581515622      2.61241373891023
  O           5.23696334917146      0.43094556649015      3.01097380744801
  O           2.84305791599042     -3.39351935537557      2.73678104773771
  O          -2.32323890845731     -5.81676669375865      0.27251665111684
  O          -6.19211336994433     -1.24164219165751      1.20444021229826
  C          -3.21856035632853      3.35467524905961      0.43970686458743
  C           1.51269161827438      4.04080556080519      0.46367858282928
  C           4.97431469481641      0.77969247104454      0.66072200803959
  C           3.11476896215330     -3.54090047994940      0.36778659213670
  C          -1.33999754966673     -3.91923874179734     -0.81613900853776
  C          -5.06846390129404     -0.97010026795578     -0.86908560808288
  C          -2.26113525328555      3.81069445561382     -0.67231463680985
  C           2.08803559235702      3.05330067096929     -0.55844086874910
  C           4.68812770261934      0.09202471038760     -0.69078286074981
  C           2.37730399030343     -3.78955999331335     -0.95605432383567
  C          -1.70334719478090     -2.52903367762093     -1.34052838710616
  C          -4.35118143413337      0.02564238166404     -1.80464159605110
  O          -1.51740433135876      4.95428938732854     -0.27590722523318
  O           3.46661717088691      3.27323649660113     -0.77513369747583
  O           5.34907408302299     -1.16982217739768     -0.79339187768724
  O           1.55200160635434     -4.94986012510264     -0.89782785160983
  O          -2.77189315763721     -2.63610416814707     -2.26042715823012
  O          -4.89910677730376      1.34261432153473     -1.70898643353572
  C          -3.02397542278060      4.20328529516701     -1.94432310236080
  C           1.39338316018628      3.20211010163478     -1.90820217248822
  C           5.21752988028065      0.90060785482144     -1.88642183667659
  C           3.34881227664242     -3.99841836820040     -2.11954374353155
  C          -0.54296256188973     -1.83551311465129     -2.09989632241723
  C          -4.50295976023927     -0.32053546704341     -3.29682589935820
  O          -3.99502490631233      5.18307688210593     -1.70189137039399
  O           1.64916387819529      2.15603582318806     -2.67742292406160
  O           6.57604462081923      1.21562300274605     -1.75210144977788
  O           4.17551600254246     -5.11457260469410     -1.93332393570097
  O          -1.17597726714832     -0.74345812832265     -2.76148189931593
  O          -5.82257972869221     -0.61039061030608     -3.66290778210237
  H          -0.20350542564615      5.70294961278760      1.01608188717030
  H           5.27435987666974      3.23580622047432      0.08325218430316
  H           5.55658972270488     -3.00627079805515     -0.02427156558303
  H           0.05771276982927     -5.87570850775764      0.03597146308285
  H          -4.73575180777005     -3.01753167957980     -2.41755816958957
  H          -5.43720423408731      2.89126910080198     -0.59072163247841
  H          -2.30543911792511      5.37996064640206      2.21162101445918
  H           4.02545373519805      5.12631292427249      1.07162375294393
  H           6.67092395056485     -1.28469627850201      1.45345926901281
  H           1.99918476199702     -5.72390559016511      1.62756200975968
  H          -3.67199779889845     -5.13478893302729     -1.85846540388455
  H          -6.88048790707879      1.00711090671980      0.06004425246587
  H          -0.02804734221359      4.63166804267662      3.18836219086199
  H           4.66229988239034      3.05238731540486      2.86817377862133
  H           4.56995699440945     -2.71493993519560      2.71870160124853
  H          -0.36132245378021     -4.40377132356389      2.32490902125381
  H          -5.27016062659517     -4.11359842869157      0.22342515108557
  H          -5.13289967633889      1.91337028277150      2.08496408941768
  H          -1.88538669390948      2.38839427185055      1.83314592405282
  H           2.14824178041355      3.00899789741717      2.23911648512056
  H           3.75808712262513     -0.47593332196004      1.89074562544540
  H           1.42864925349667     -2.73426751934084      1.37632230050639
  H          -2.77532646730189     -3.86281918303635      0.76750052139785
  H          -4.32942900375076     -0.36967412816622      1.04193600297566
  H          -3.15925222446671      3.13159606975574      3.65107514307569
  H           2.53618896258592      5.14206666838963      3.30946609694621
  H           5.48759394817168     -0.27009698267279      3.63835626346098
  H           2.31769158955657     -2.79974259740026      3.33056094286728
  H          -3.16006749479249     -6.22040176271085      0.56409004926896
  H          -6.43101398529305     -0.82648726631369      2.05041145806484
  H          -4.05509756860404      4.06214073788836      0.50959552899434
  H           1.56266323683819      5.05022461179640      0.03635305530779
  H           5.99421786014491      1.18876879155572      0.64976612626420
  H           3.89918206062553     -4.29252891798636      0.51986697390679
  H          -1.04128902160171     -4.53516959993160     -1.67330594632877
  H          -6.03229933694976     -1.25093961478777     -1.31903884727391
  H          -1.57841769222181      2.98466921193691     -0.91557969669775
  H           1.91358046976463      2.02011933199446     -0.22334273911637
  H           3.60257317980308     -0.05236417051099     -0.79173045366699
  H           1.75454453331504     -2.90742998698721     -1.15391618878299
  H          -1.99495208025906     -1.87861232218174     -0.50720501846966
  H          -3.27961449194854      0.03969311280859     -1.57226211191868
  H          -3.53728722496268      3.32232160017755     -2.33331337443960
  H          -2.28743149399781      4.53656417072182     -2.68227012520051
  H           5.03684473693368      0.30664537082049     -2.78975908791306
  H           4.67498732949707      1.84259099673378     -1.96793860631688
  H           4.00060383994392     -3.12602509567601     -2.19596673352498
  H           2.75287836989456     -4.08111268381961     -3.03521207128767
  H          -4.11249919117388      0.53616859925224     -3.85851362320691
  H          -3.89071394553561     -1.19033110383885     -3.53157170577095
  H          -3.54704467182361      6.00671146342974     -1.45475710181996
  H           7.08451543564123      0.38999421793835     -1.75408926830450
  H           3.61092221301393     -5.89837466691496     -1.85195387772359
  H          -6.35237647413514      0.19805137288051     -3.58083014905780
  C          -0.42226267471202     -0.18036371757391     -3.80617233816046
  H          -0.94031283557457     -0.36221650806060     -4.76285258884927
  H           0.56102785446886     -0.67164209275557     -3.84155411132847
  O           0.23042931496717     -2.53841858214851     -2.80728421264632
  C           0.94782717847112      2.06171983529401     -3.91924669017944
  H           1.59031913458064      1.49774546620215     -4.60026772326163
  H           0.72524556834485      3.07151950413557     -4.29599623440130
  O           0.72173527325903      4.14451870922566     -2.23904474451489
  C          -0.34845998534958      1.31546430523496     -3.54658948689519
  O           0.35601538825900     -1.20734521572117     -1.00108115681919
  O          -1.22303924740243      1.88668607206560     -2.97731977649227
  O           0.07934645225048      0.14383277036079     -0.65642112284720
  H           1.53465645699819     -1.65762987520642      5.16852130610959
  H          -2.46695947179877      0.77475502370346      0.31473740547377
  H          -0.49633271784897     -2.69070933810319      4.17989173628008
  H           2.69209111143157      0.17473989047308      3.92232998931656
  O          -1.93591601289023      0.02119430881152      0.63401818650135
  C          -0.57217232387770      0.34196091070941      0.64547360894553
  C           0.08650737750660     -0.33583266941623      1.82504039243766
  H          -0.41221065158866      1.43048338063510      0.70879810564558
  C           1.25781204181294      0.20400888149894      2.34046805966386
  C          -0.52961207916945     -1.39215506216892      2.48244995798206
  C           1.79378570861935     -0.27768389101194      3.52030925706614
  H           1.73589581369757      1.01138543083989      1.80613103671410
  C           0.00518171520705     -1.88222699710625      3.66223528254306
  H          -1.43578842092998     -1.80829719772508      2.06962513126448
  C           1.17919861008001     -1.33899247800945      4.18706634598611
