17
Coordinates from ORCA-job job
  H          -3.94925253258342      4.44560199108413      1.93552682489092
  C          -3.16904481240388      5.15468283375098      1.69442701245975
  H          -4.47500557019687      6.80156910030158      1.31737343616729
  H          -0.29567577648200      7.56858497261490      0.85383275816110
  H          -0.72280125467724      2.87002243905693      1.49010525744875
  C          -1.85826937685305      4.70865420735911      1.73594810852109
  C          -1.55476385261214      3.27257478412331      2.13485225122152
  H           0.19342257593784      5.22205621620947      1.47894671069610
  O          -2.57010873672223      2.45981923430516      2.33179587895333
  O          -0.68274298972739      3.37867004930299      3.42730250657978
  C          -0.82514508167209      5.58244600597260      1.42957709243223
  C          -1.10478096678459      6.89274457685710      1.08697983003674
  H          -2.36720666683626      3.02889884148484      4.19994164449434
  O          -1.63602567792414      3.62275590886403      4.50807076389865
  H          -2.63345562971357      8.35770078794602      0.77443582091447
  C          -2.41745444973983      7.33501472198788      1.04338921004157
  C          -3.44979384670911      6.46459430187896      1.34682414888234
