22
Coordinates from ORCA-job job.QMRegion
  O          -1.38221575743788      1.64955639422133      3.56438310378845
  O           1.70409857750221     -4.36821288356080      3.52421617972230
  C           1.37741789491731     -4.95175951536578      4.59839131609489
  H           0.84963340393025     -4.30424673235551      5.29382040674088
  H           1.63408096790456     -6.01045645233868      4.73000286424530
  C          -2.03344483034621      0.93602664587049      4.52740532476025
  H          -2.56533064997647      0.10330166960425      4.05901665075003
  H          -2.74286712870128      1.53512223213293      5.11622508946350
  C          -1.13004208469976      0.20985473851019      5.58396762075148
  O          -1.10719443812197     -0.95560559177398      5.68864133046014
  H          -1.38563373190672     -0.50783631763500      1.89787239322595
  O          -2.28059705364205     -0.32759303352027      1.65975835748339
  H           0.25105201393271      2.03920347784504      0.67804389035245
  O           0.98173970302551      1.84863960863667      0.45592737847732
  H           0.93756038526520      1.13339653899001      0.78326357371517
  O          -0.44805942187135      0.91673636759072      6.43685431794049
  O          -0.61618798037395      2.30990631959401      6.18324502874630
  H           0.31349988280523      2.61472366805736      6.22433126433594
  H          -2.33346050069400     -0.87559070255658      0.87250193376452
  H           0.61167806413745      1.55241782817646     -0.16380015869621
  H          -1.55220947408780      2.58676890390086      3.44059392129166
  H           2.15849231663323     -4.82466746484682      2.85333623892849
