140
Coordinates from ORCA-job job
  C           0.70465987246582      5.47095289825134     -0.00092041614177
  C          -4.10570672872884      3.23949938562231      0.94415802134880
  C          -3.08456800083333     -1.27771603482927     -1.66883719451023
  C          -0.62165477715738     -5.52388501648430     -0.02591504267850
  C           4.20462745534199     -3.36445974426637     -0.14991763085381
  C           3.45557117618177      1.57358040039762     -2.13800275698035
  O          -0.00075857044974      4.41858701218586      0.64294175731344
  O          -4.18621050419454      1.87411541998877      0.62545678562023
  O          -2.75127806206848     -2.00498546824187     -0.48849714561471
  O           0.46371119817952     -4.72602111877680      0.40569308421693
  O           3.58616915896971     -2.12008352485251     -0.07104019573853
  O           2.94609255095719      2.33219292979238     -1.07978457150622
  C           0.84993892547425      5.39184146659071     -1.56246589526838
  C          -3.73170935332999      4.35742008630658     -0.07023921895407
  C          -2.10564043082468     -0.08639603313350     -1.79260061996483
  C          -1.12924147138478     -5.21061967937953     -1.46009297396344
  C           3.76328746196845     -4.27369470916338     -1.32151018554679
  C           2.43539634752205      0.47496516338130     -2.55929102012034
  O          -0.24583069516805      5.82156669023764     -2.32571600883283
  O          -4.20091077446895      4.18495734843634     -1.38190073300353
  O          -0.85881165906496     -0.49637595783005     -1.31959380351971
  O          -0.47804559522435     -5.83839672081992     -2.51252036505253
  O           3.99124830127815     -3.76297625871011     -2.60743731520297
  O           1.14820130230521      0.97838592549493     -2.64357978185425
  C           1.25588143515644      3.94957814965171     -1.89600442663349
  C          -2.24092238986009      4.74361905786327     -0.13555494557194
  C          -2.53107546126401      1.17904120503964     -1.02252868687730
  C          -1.21008733702846     -3.66868422039502     -1.49672708096402
  C           2.29071758885124     -4.67911557600089     -1.23082312683577
  C           2.42975848749906     -0.76307200188076     -1.64051764772210
  O           1.30222482128546      3.68498883278662     -3.28971303045703
  O          -2.20180052662837      6.12109327051549     -0.51697430855136
  O          -2.14547474217203      2.31266739206869     -1.77471379504084
  O          -1.22680090663053     -3.15146289416859     -2.80036544187521
  O           2.11749216221847     -5.79212582114199     -2.09485126105705
  O           1.81436440393569     -1.83436772991141     -2.34551252202612
  C           2.64240381005406      3.71130637243084     -1.24665714773944
  C          -1.34296442744332      4.56795192887558      1.11512720501807
  C          -4.01915540199033      1.32136840187501     -0.68763377662126
  C          -2.46101976784465     -3.37620656510136     -0.64079338290526
  C           1.82151746583833     -5.06108754311664      0.17431727966579
  C           3.80905282661753     -1.17781113558673     -1.14498691410599
  C           2.76068940997833      4.27927416215221      0.18814355885137
  C          -1.83574443308364      3.28125573302282      1.86609386885392
  C          -4.79561512555626     -0.00600661031793     -0.62868296488214
  C          -2.16386108055123     -3.88959752805573      0.78519130663523
  C           2.54229664903810     -4.26247081298100      1.28365871509429
  C           4.55102951119910      0.08930858934372     -0.67046872089372
  O           2.02244289102476      5.47525113966820      0.48171695175417
  O          -3.26827669603494      3.38095368938411      2.06877564027687
  O          -4.42789743493805     -0.89602914427100     -1.67216652914543
  O          -1.67887027538236     -5.24310637103316      0.84597866988281
  O           3.93952894234742     -4.07290225385063      1.04672919161159
  O           4.68640206557646      0.98455435101241     -1.77758187126037
  C           4.23525376905112      4.60821569201537      0.44701719428526
  C          -1.61761092611054      2.94734140148999      3.39296867702060
  C          -6.29526363202188      0.23967703673117     -0.83043683424300
  C          -3.43446477467656     -3.86395517832060      1.64381303686013
  C           2.34933859264142     -5.01637929866722      2.57156532678092
  C           5.96326108058820     -0.24082676292469     -0.18912735176434
  O           4.71647329028415      5.58598943851171     -0.45275448581277
  O          -1.38221575743788      1.64955639422133      3.56438310378845
  O          -6.55591976449650      0.79599508613497     -2.09497504621496
  O          -4.41055069907395     -4.75209868549524      1.16103521095715
  O           1.70409857750221     -4.36821288356080      3.52421617972230
  O           6.68707875159993     -0.98684415442084     -1.14521704893716
  H           0.27816868203108      6.44534671272017      0.26332550776634
  H          -5.09984482153194      3.50065970173422      1.34004926852696
  H          -3.01131418121594     -1.93151563613391     -2.54257011740946
  H          -0.38740712363196     -6.59211448799749      0.08524042615887
  H           5.30091738036873     -3.25374318627350     -0.19002919467231
  H           3.68195324854888      2.20574589469306     -3.00540218753882
  H           1.68278339861596      6.07075815911175     -1.80490369425286
  H          -4.26360654064949      5.23488760455889      0.32129676060717
  H          -2.04381375033535      0.17576540113720     -2.86083486450535
  H          -2.14776113376950     -5.62211445878677     -1.50329962392808
  H           4.37707914517728     -5.17861826926514     -1.22463417963131
  H           2.71736082471816      0.14614100473473     -3.56604089567650
  H          -0.98276055812754      5.98928342969746     -1.71062774269809
  H          -3.52891002819652      3.63441559235743     -1.84807290907986
  H          -0.39108649556695      0.36016581326503     -0.88322693849669
  H           0.49583484053426     -5.75545244292766     -2.42002494104007
  H           3.27626209219011     -3.11445919404592     -2.80073428571954
  H           0.73893643153441      1.02776003245255     -1.67876197506546
  H           0.47721853603296      3.32734751686127     -1.46056337141208
  H          -1.77893152360358      4.13675091420315     -0.92974018993709
  H          -1.97072958761624      1.14673865140403     -0.06865827373154
  H          -0.33844700150103     -3.26649749029913     -0.96738468759463
  H           1.68362941877438     -3.83054227089618     -1.58160800537738
  H           1.84345827415818     -0.56578258581121     -0.73054212697965
  H           1.08365121698801      2.72137170358866     -3.30544785249130
  H          -2.84940783124723      6.22776253408307     -1.22902598500679
  H          -1.16730404284305      2.32436272830694     -1.58618831106815
  H          -0.93534070828173     -2.21855133974875     -2.71098472453135
  H           2.53606002270038     -5.55564844676568     -2.94356820189273
  H           0.95202604302482     -1.43506700039210     -2.57387442555644
  H           3.38021254535895      4.19412580164402     -1.90218268453785
  H          -1.44423475048109      5.44609760031101      1.76130839857840
  H          -4.50917722535932      1.93896718272103     -1.44814183910236
  H          -3.33265108889314     -3.89251283430509     -1.06830673572725
  H           2.00250840457484     -6.13481864184616      0.33933967181230
  H           4.41162474607286     -1.63055941840712     -1.93506313485757
  H           2.44145159531071      3.49243355124802      0.87507080854136
  H          -1.59634188885497      2.38798954812751      1.26052530562968
  H          -4.62732337563757     -0.46793754532921      0.34971727590500
  H          -1.40781695511964     -3.22791111890353      1.22230002053956
  H           2.06254098655350     -3.27702102364027      1.35974381072935
  H           3.98831785824847      0.58654730179874      0.12568463457850
  H           4.83891988289607      3.71398453536359      0.28367652715069
  H           4.35578661193763      4.95595399266855      1.47779806571049
  H          -6.82543851727879     -0.71428560164443     -0.71530049332191
  H          -6.65955238913990      0.94978418364231     -0.08781294730392
  H          -3.87985316825447     -2.86903814856398      1.60108958611287
  H          -3.16398152957766     -4.10869433782298      2.67682889332566
  H           6.48971659825197      0.69497922172829      0.03377300112320
  H           5.91052072613886     -0.85648186141049      0.70952986019508
  H           4.05793681075542      6.29389143955694     -0.46308580580045
  H          -6.05723446434816      0.27184954418946     -2.74082352390529
  H          -3.99368787770782     -5.61634424627597      1.05143248361381
  H           6.64314971463052     -0.48457128755537     -1.97273900217094
  C           1.37741789491731     -4.95175951536578      4.59839131609489
  H           0.84963340393025     -4.30424673235551      5.29382040674088
  H           1.63408096790456     -6.01045645233868      4.73000286424530
  O           2.59349847151338     -6.25780725309725      2.75386632276378
  C          -2.03344483034621      0.93602664587049      4.52740532476025
  H          -2.56533064997647      0.10330166960425      4.05901665075003
  H          -2.74286712870128      1.53512223213293      5.11622508946350
  O          -1.90358724655882      3.69109263543086      4.29001091840413
  C          -1.13004208469976      0.20985473851019      5.58396762075148
  O          -1.10719443812197     -0.95560559177398      5.68864133046014
  H          -1.38563373190672     -0.50783631763500      1.89787239322595
  O          -2.28059705364205     -0.32759303352027      1.65975835748339
  H           0.25105201393271      2.03920347784504      0.67804389035245
  O           0.98173970302551      1.84863960863667      0.45592737847732
  H           0.93756038526520      1.13339653899001      0.78326357371517
  O          -0.44805942187135      0.91673636759072      6.43685431794049
  O          -0.61618798037395      2.30990631959401      6.18324502874630
  H           0.31349988280523      2.61472366805736      6.22433126433594
  H          -2.33346050069400     -0.87559070255658      0.87250193376452
  H           0.61167806413745      1.55241782817646     -0.16380015869621
