147
Coordinates from ORCA-job job E -274.683740042760
  C          -3.26661212931509      2.74373596213254     -1.52091888565707
  O          -3.08370024997731      1.43099208459390     -1.02790842161111
  C          -2.88067828848364      2.77866064530019     -3.01291849115643
  O          -2.55220162870050      3.70809674087270     -0.80727663984514
  C          -4.13745051436160      0.91384826703918     -0.22635778891366
  O          -3.51309022274356      1.76366778739270     -3.74486177598912
  C          -1.36988430648113      2.58883094170673     -3.17223716985827
  C          -1.13544495967659      3.53381109737251     -0.80655156980826
  C          -5.14795065354362      0.19948521095968     -1.14092382034676
  C          -3.60219901358048     -0.11084936141410      0.77992040222905
  O          -0.93723066571807      2.86216684336901     -4.48161341905193
  C          -0.55963220051754      3.48995833867221     -2.23292705507621
  C          -0.56793948684917      4.71793194309564     -0.01097976185613
  C          -6.21494816190218     -0.52919582772000     -0.31283614753101
  O          -5.74296430088386      1.12467473882425     -2.02360908426209
  O          -4.66460530414400     -0.65521635353719      1.53323952962064
  C          -2.57682900002372      0.48235741030307      1.79889057240520
  O           0.73870107260085      2.91615622316735     -2.24617399324601
  O          -0.83499143672975      5.94919903019190     -0.62861852705934
  C          -5.53180395730547     -1.43281792527298      0.72982126583633
  O          -7.08347680711573     -1.23903485403612     -1.14834151228977
  O          -1.43778226423297      0.89294168331438      0.93965503034722
  O          -2.96991955294694      1.36465189782620      2.60066939078815
  C           1.87075445122073      3.73980201959280     -2.20029823522026
  O          -4.84796904721432     -2.43790597500524      0.04488556639369
  C          -0.26375180730626      0.38259338886746      1.50185115677681
  C           2.85386179596425      3.19098905021281     -3.25057346409352
  O           2.47222637081711      3.75509910010157     -0.93257805945944
  C          -4.64885586075541     -3.69957829122519      0.68205811465767
  C          -0.73126071935071     -0.99175155588572      2.01003056578175
  O           2.31527153740980      3.22115996969889     -4.54234220739074
  C           3.21691058467645      1.75716988908588     -2.83704980856374
  C           2.84592081803579      2.47428426909861     -0.42806317100427
  C          -3.92479689214972     -4.52811940600346     -0.39160314214737
  C          -3.83375409999706     -3.62142640004271      1.99112464482520
  C           0.18777716298740     -1.57416702502796      3.10126220914538
  O          -0.75897686402488     -1.84869721220960      0.89428272039568
  O          -2.00985574730796     -0.73505777251548      2.49036181693121
  O           4.17425419997533      1.18450497356455     -3.68881120012977
  C           3.77189037335604      1.72524674265281     -1.40690376082092
  C           3.52966641140734      2.75712088362732      0.91990059315327
  C          -3.45667045600895     -5.86673600157208      0.18782626158541
  O          -4.78037442601420     -4.71284021937759     -1.48804437931603
  O          -3.26613209733984     -4.88055169104322      2.36330900513695
  C          -4.67966738171190     -3.21526531626184      3.21418386919503
  O           1.39179712417222     -1.94263434475578      2.42853426191971
  O           3.88010952334097      0.33866904323655     -1.10928004503937
  O           4.75247034259817      3.42525184743377      0.75623819549042
  C          -2.53539241629479     -5.55256995006269      1.38205329340535
  O          -2.87114482132899     -6.67034448671525     -0.79127899026718
  O          -5.92595271534604     -3.85735159301499      3.26299102675093
  C           2.33558827005445     -1.01581220532215      2.28876007249291
  C           4.82600212873642     -0.09860590257277     -0.17961755493752
  O          -1.42861854037293     -4.76915092388372      0.98233222189214
  C           3.15791180832914     -1.20838712317230      1.02413732592962
  O           2.45788145837943     -0.05689000641613      3.00880320699008
  C           5.41545890521443     -1.41958273601855     -0.70984270989970
  O           4.25423430940641     -0.32597484071163      1.09390817342247
  C          -0.18319496158075     -5.43696049251687      0.78452679648146
  C           3.60090271850275     -2.62451166881060      0.61113667552935
  O           5.99828512185545     -1.26856772198741     -1.97192248155100
  C           4.30519166892216     -2.48500624638019     -0.75754108469170
  C           0.36832695663247     -4.97974752795231     -0.57269059344739
  C           0.76629242090288     -5.06609904728550      1.93926830750220
  O           2.44220990919689     -3.41897623461473      0.46847495629047
  O           4.82557686840272     -3.73192152965780     -1.15879957195867
  C           1.83440569852622     -5.39806004655045     -0.71980916276086
  O          -0.43255421366083     -5.52421416496786     -1.59549692561187
  O           2.12320367809253     -5.39775198423578      1.66126403579651
  C           0.37499377727949     -5.79606594093722      3.23173158740055
  C           2.60486749230787     -4.81855676348321      0.47811913459684
  O           2.30710270838745     -4.93487232324974     -1.95466348998189
  O           0.30580001110466     -7.18729978951588      3.06303690103229
  C          -1.27651137177525     -1.21429661089764     -1.96671773484773
  O          -0.78833650604276     -0.14590263463160     -1.48698294692326
  C          -0.53022978183990     -2.06130123431679     -2.81285772430675
  C           0.84032755812070     -1.81485013905302     -3.06505440922931
  C          -1.16650574020295     -3.15694257711166     -3.43733522983873
  C           1.53849680533241     -2.63581917236139     -3.91705768257601
  C          -0.45218743730371     -3.96264244085279     -4.29575230654775
  C           0.89565456153269     -3.70765690564893     -4.53298133131454
  H          -4.31686631363939      3.03919576352797     -1.40822665822277
  H          -3.16001006695516      3.77182170231671     -3.39973014056470
  H          -4.61709744042958      1.71773838486050      0.34409968585291
  H          -4.41373207725837      1.62777501730591     -3.39943136587927
  H          -1.13123394375026      1.54946832560892     -2.91478260394837
  H          -0.88713950922347      2.60486642390981     -0.28259120107443
  H          -4.59492934254321     -0.55046061666885     -1.72822015265485
  H          -3.09041111458412     -0.92332775515834      0.24727206854876
  H          -1.51385017255781      2.38756455878022     -5.10123513049360
  H          -0.53286560584107      4.50816949289626     -2.64350070130496
  H           0.51815399464628      4.62741187447108      0.05039128276826
  H          -0.99066089248765      4.67886577620587      1.00015193287031
  H          -6.81790980428132      0.21049514270828      0.22453322538251
  H          -6.58497266356387      0.74233660801332     -2.32802422994795
  H          -1.79381537420385      6.08376987550245     -0.63636642333293
  H          -6.27769038576642     -1.85040588668206      1.41734040972331
  H          -6.64547076537908     -2.05567319619972     -1.44233972957556
  H           1.61519092153308      4.78631211531621     -2.40923123193577
  H           0.49483349269060      0.31620706041287      0.72361057450002
  H           0.08084486013158      1.00275489387090      2.33711728067771
  H           3.75551693346799      3.81150858174284     -3.26896788669909
  H          -5.62897392988073     -4.14809694005019      0.89833634966190
  H           1.37369120476290      2.97432639951494     -4.51436698238188
  H           2.29285723592198      1.15921404777534     -2.85222149041777
  H           1.94172081088892      1.87316310213618     -0.25864424357954
  H          -3.03383656022187     -3.96066355179023     -0.70775959924237
  H          -3.04240123699538     -2.87156462885926      1.87723685934921
  H           0.37187832091319     -0.83634601035567      3.88334614416431
  H          -0.25043974425322     -2.47825878486943      3.52395635273779
  H           3.98791912178623      1.47807257922642     -4.59568037425777
  H           4.76622702746526      2.18990670387200     -1.38732704659702
  H           2.83608675124911      3.34371725685642      1.53347676437667
  H           3.74280695975817      1.82210814378649      1.44027236649012
  H          -4.31875868363394     -6.42641650688981      0.56750540814150
  H          -4.56914360463277     -5.57303798476623     -1.89107457980388
  H          -4.08286735122375     -3.44051055202891      4.10426295925989
  H          -4.85758970102474     -2.13970382723921      3.19198044501730
  H           4.57569955879769      4.31653324008790      0.42031839734497
  H          -2.19868686565454     -6.48167094973651      1.85981687238693
  H          -2.04068076878495     -6.26080029451022     -1.11609500315357
  H          -5.79147509479590     -4.78383196282907      3.51292330337405
  H           5.61088328422958      0.64843431440408     -0.01393590223718
  H           2.46590208604773     -0.86581254540632      0.23300614466863
  H           6.20703219857490     -1.74880390093263     -0.02796470416576
  H          -0.33439810512396     -6.52277078385337      0.76781776041186
  H           4.28525668429957     -3.04649078645868      1.35739612579264
  H           5.44638099625994     -0.68116286742741     -2.51711790415440
  H           3.54373828032694     -2.16009688654380     -1.48331246099535
  H           0.32057721189621     -3.88191947539177     -0.60993753546756
  H           0.70000834817946     -3.98679610528712      2.09306384312430
  H           5.56704726109503     -3.56199789945827     -1.76587932266174
  H           1.91047228592611     -6.49644959031077     -0.66774306047577
  H           0.13570667298256     -5.71214952846170     -2.35843386947422
  H          -0.62160745492305     -5.46861019831243      3.53728636315385
  H           1.09416473790650     -5.52827553368949      4.01355447928105
  H           3.66368618869970     -5.09702635326074      0.43260787134152
  H           3.25775177670931     -4.73750327544093     -1.87899784868243
  H           1.19948268074791     -7.52337471775594      2.89993651969132
  H          -1.02024989725799     -2.75323839647022      1.15233391963189
  H           1.31570033614362     -0.98092188561818     -2.57171443968168
  H          -2.21152313829660     -3.34084948657070     -3.24499744685832
  H           2.58154285029860     -2.45115113047434     -4.11352407813237
  H          -0.93840095448097     -4.79185675564604     -4.78349726630494
  H           1.45158502010101     -4.34652977202247     -5.20074391386279
  H          -2.31242832442666     -1.48457469897675     -1.76060421181098
  H          -1.37825879998086      0.38151911180259     -0.88498139038432
