147
Coordinates from ORCA-job job E -274.679090972190
  C          -3.37780754953446      2.75800969752063     -1.60742747317135
  O          -3.14474883262448      1.45730900966155     -1.11327379843375
  C          -2.90112374814069      2.81125652282075     -3.07094067945108
  O          -2.72783249042612      3.75112311067882     -0.86549926308696
  C          -4.18877347767255      0.86883845012104     -0.35535006731610
  O          -3.53103935550403      1.85403752670149     -3.87892945577364
  C          -1.39603411637458      2.52470352680672     -3.09543052554931
  C          -1.32074292410626      3.54860807787314     -0.74467164580608
  C          -5.13833506766786      0.13112369681844     -1.31684271194244
  C          -3.62113911134492     -0.16846152724806      0.61958988228710
  O          -0.82654059410150      2.71398319220427     -4.36478131923935
  C          -0.63246432166866      3.42346381655882     -2.11543092372200
  C          -0.76535180777283      4.74721458580478      0.03674863583593
  C          -6.18598035628135     -0.68151196410474     -0.54413089111789
  O          -5.76049508391570      1.05045838154951     -2.18718100918423
  O          -4.66955922188193     -0.79222776198911      1.32931016487175
  C          -2.65944674128986      0.40115653002471      1.70986098585612
  O           0.65640656709787      2.83744277914592     -1.95872635812651
  O          -0.91122911909781      5.95412160773720     -0.66394686878229
  C          -5.49027344211650     -1.58179155618706      0.49351773331906
  O          -6.99236594529216     -1.40744268637804     -1.42720658109451
  O          -1.53253439971185      0.98231550377270      0.98159322829917
  O          -3.14211152005431      1.13333485906469      2.60999842588846
  C           1.78881316986524      3.68279759962634     -2.00010650513155
  O          -4.76211267124694     -2.55777790921867     -0.18934408115597
  C          -0.37533652484539      0.61222122811623      1.67774375229425
  C           2.72358419819079      3.21072232459417     -3.12686338120051
  O           2.46294656934509      3.70185574645500     -0.77730690221392
  C          -4.56060691781629     -3.82489854922788      0.43738868156623
  C          -0.66989006887620     -0.87158225981935      1.93631356883362
  O           2.11472966814573      3.24619677462717     -4.38684087988109
  C           3.22458038847269      1.79889214727352     -2.78936019405850
  C           3.00566519315796      2.46120669955315     -0.32482954979377
  C          -3.85470821639086     -4.65319859031107     -0.64833418697005
  C          -3.72316874407956     -3.75478774934330      1.73331274625112
  C           0.20513324186707     -1.51857447099340      3.03306089403364
  O          -0.45279998791552     -1.54032476772958      0.70630246420208
  O          -2.01054084270362     -0.87119891041713      2.27475409960169
  O           4.18876254190585      1.36051380009289     -3.71221533098651
  C           3.86635356895993      1.75707501816102     -1.39491364199620
  C           3.81893180467605      2.83193114611011      0.93077001615410
  C          -3.37187262769867     -5.99502176451328     -0.08873740977968
  O          -4.72015914619297     -4.83458401854475     -1.73882305551064
  O          -3.16165367860498     -5.01845267329530      2.09377296784406
  C          -4.54788579468028     -3.34805052181769      2.96970639030614
  O           1.43194702463258     -1.88231919945936      2.40422639265694
  O           4.03319592694092      0.36578216839205     -1.14484538461005
  O           5.00105075323509      3.51806598267840      0.61597985411507
  C          -2.44338961635379     -5.68766752262817      1.09821594800676
  O          -2.76874420588238     -6.76899490625320     -1.08350057443646
  O          -5.78000854111433     -4.01386666315026      3.04961850732303
  C           2.32243246397175     -0.91369677673035      2.21085901305729
  C           4.92597086957147     -0.05063827249303     -0.15781332460152
  O          -1.34987837613945     -4.91418367993670      0.66058205481951
  C           3.19334781894509     -1.14096787797194      0.98600079632324
  O           2.36800931627338      0.10378691120642      2.85698546942835
  C           5.54898418892181     -1.38302509892224     -0.61563287081553
  O           4.28316012997877     -0.25091912879095      1.08710522024944
  C          -0.05863623272416     -5.51552814152191      0.67858188948316
  C           3.66691064951569     -2.56496303769048      0.64168778946244
  O           6.19776418320940     -1.27259202758741     -1.84900527779369
  C           4.45517584622768     -2.46324198165244     -0.68289563784933
  C           0.60302290358299     -5.16507588685453     -0.65852079404643
  C           0.74516100896528     -4.96896183510816      1.87053246516098
  O           2.53438384565687     -3.38868972064504      0.44364079244223
  O           5.01671465314747     -3.71789290922899     -0.99701434055696
  C           2.09836871603800     -5.49341224657230     -0.62386906888086
  O          -0.06560187766643     -5.86361786524188     -1.68079768155430
  O           2.13432147792646     -5.26364597731353      1.76777100882556
  C           0.25022294962598     -5.56795409623293      3.19387013442525
  C           2.71930714334507     -4.77715998700568      0.58859037932691
  O           2.66035237566965     -5.10139963152928     -1.84464695608660
  O           0.28902921502232     -6.97045844090538      3.19393797789070
  C          -0.51425991826303     -0.56766415304892     -1.66573760989939
  O           0.58853343716466      0.06348446574375     -1.52799800896151
  C          -0.57093741053421     -1.78695148849040     -2.37062593537541
  C           0.59805518513531     -2.37482329634711     -2.90947047577566
  C          -1.82646807547731     -2.38428695513569     -2.62069966752796
  C           0.50169337940868     -3.50270584294291     -3.68990839284772
  C          -1.90552185586381     -3.51063212302258     -3.40741184991460
  C          -0.74639261652452     -4.07051461793140     -3.93926959694495
  H          -4.44299782902805      3.00991205362504     -1.54556111517702
  H          -3.09460291508857      3.82629284155265     -3.45122753446197
  H          -4.72233820618030      1.62814342265287      0.22879732366533
  H          -4.42196444811772      1.66775980316738     -3.53444971984291
  H          -1.27922977098169      1.47630435597681     -2.79160866279083
  H          -1.15247780048487      2.63667863985794     -0.16287706090187
  H          -4.52757577057564     -0.56574849047274     -1.91228310896336
  H          -3.06052721291297     -0.92541547133347      0.05494132825720
  H          -1.39019941078815      2.28144260826057     -5.02592901882497
  H          -0.54439901119619      4.42136770545635     -2.56291819716638
  H           0.30587734127021      4.60672420258399      0.19684626451099
  H          -1.27030409952893      4.78410631122444      1.00850901164073
  H          -6.84179252015805      0.00944228038469     -0.00311583600621
  H          -6.57455114819103      0.63331219473709     -2.52074002667479
  H          -1.85564411776485      6.15228696886291     -0.74134891409463
  H          -6.23453404155309     -2.03546071186511      1.16065127947378
  H          -6.51219463526759     -2.20173829010169     -1.71671951933517
  H           1.48492613913096      4.72228045028028     -2.17217223634542
  H           0.49742414984354      0.79285528425343      1.05546508626685
  H          -0.29314914465143      1.15141573356972      2.62835694661182
  H           3.58039257271048      3.89190544690729     -3.17771697507795
  H          -5.53978424610896     -4.26790468010378      0.66917121812908
  H           1.18948009088606      2.94013306863087     -4.33494883939950
  H           2.36735795083074      1.10994236253093     -2.79082338602798
  H           2.19088885008833      1.79086175953512     -0.01880020060621
  H          -2.96977373555332     -4.08380734362896     -0.97231625593511
  H          -2.92509082099896     -3.01247340570670      1.60565522054697
  H           0.36453261187664     -0.81913473425108      3.85483573407804
  H          -0.26413335035477     -2.43306386984890      3.39411972746986
  H           3.88810921576423      1.60118714281171     -4.60343779134820
  H           4.84931719270473      2.24566288849776     -1.43671870511500
  H           3.17046592427499      3.43284935066673      1.57775042780748
  H           4.10137773212079      1.92870566467236      1.47231436826630
  H          -4.22570554246400     -6.57409414540727      0.27948815320276
  H          -4.55147442049121     -5.71778194048823     -2.10989660308095
  H          -3.92954542710784     -3.55377620378614      3.84999340746479
  H          -4.74573609654085     -2.27643764419514      2.94132242426718
  H           4.77184773284308      4.40048050333420      0.28989568199251
  H          -2.10185104427871     -6.61716014723066      1.57087701464107
  H          -1.89498694600445     -6.40013799904924     -1.32313114862024
  H          -5.61921127107434     -4.93936606789490      3.28823361761737
  H           5.70235947562842      0.69983425425985      0.03261709688383
  H           2.53559414568097     -0.82668851660420      0.15422582094672
  H           6.30720919845055     -1.68044733254400      0.11678706798486
  H          -0.14755584099188     -6.60556557556494      0.76297082521131
  H           4.30697342996531     -2.95657327931110      1.44142064237584
  H           5.64810271138859     -0.75108688481232     -2.45832052449071
  H           3.73655428803542     -2.17847740020511     -1.46622452760922
  H           0.49948723303839     -4.08184500119695     -0.81949534283301
  H           0.61992057925322     -3.88368233727259      1.88854258892225
  H           5.76492561364906     -3.56365538666311     -1.60003783608956
  H           2.23146305875389     -6.57707083443174     -0.47034743051905
  H           0.57647046202511     -6.06970954069417     -2.37786372972747
  H          -0.79432447846515     -5.28451303929033      3.34512182494182
  H           0.85492825126848     -5.15617865495694      4.00975220079166
  H           3.78318738614181     -5.02707719357493      0.67461440581376
  H           3.57968700882512     -4.80933692010982     -1.70132028198619
  H           1.21487093655470     -7.25403136359758      3.16035661236984
  H          -0.76969265220953     -2.45751617696321      0.77781790863043
  H           1.55081145889618     -1.91374404313264     -2.70490030619204
  H          -2.71400060969029     -1.93726343394100     -2.19941974626763
  H           1.39301024413943     -3.95065794616719     -4.09807108106527
  H          -2.86668193929424     -3.95702440550850     -3.60575272173344
  H          -0.82174383166108     -4.95057814910578     -4.55786240690389
  H          -1.44243295207123     -0.12216229486153     -1.30891889345326
  H           0.49440310216913      0.98444973956890     -1.20166273760161
