147
Coordinates from ORCA-job job E -274.667867371720
  C          -3.23232328427690      2.43794272241386     -1.90321263723523
  O          -3.07141721918587      1.16081439065088     -1.33875650546288
  C          -2.71587365440063      2.38535702320449     -3.35125578081447
  O          -2.56856857388783      3.44647655280375     -1.19473451969983
  C          -4.11977840332711      0.70580976430517     -0.49939834642196
  O          -3.34712663441754      1.38533348825932     -4.10680883792819
  C          -1.21575510119339      2.08979642698141     -3.31444795838297
  C          -1.16209186838414      3.24269415641039     -1.05426373988902
  C          -5.13779582999668     -0.07237684918067     -1.35085935115474
  C          -3.56060429640317     -0.25898514442172      0.55074192999606
  O          -0.63041595365636      2.14861627867403     -4.59159335362818
  C          -0.47249911065420      3.08824416423130     -2.42026506202372
  C          -0.63225437132013      4.45989762514437     -0.28638742876232
  C          -6.18083294125307     -0.75877230849476     -0.45581632730098
  O          -5.74998965386707      0.79191431751075     -2.28027522731558
  O          -4.59562408045421     -0.75995172604056      1.36658609056464
  C          -2.48162889243993      0.39182663751155      1.45297085191707
  O           0.83356004998383      2.55129681729937     -2.28001817847897
  O          -0.83927136381500      5.65797035375407     -0.98743498976445
  C          -5.47243373703768     -1.59119744060473      0.62976306204034
  O          -7.06394483543840     -1.52643022869513     -1.22313647530135
  O          -1.33314660248276      0.55072400519521      0.59632947342319
  O          -2.76828884295560      1.34320831507276      2.20244789646454
  C           1.93896534354655      3.41652094169328     -2.28752926922185
  O          -4.78912403413160     -2.63374115981782      0.00128624126501
  C          -0.18838780612103      0.24974535817034      1.34305360100176
  C           2.97968567095259      2.81115702522321     -3.24644825213561
  O           2.49109792519650      3.58975727469902     -1.01202352543196
  C          -4.52127222552148     -3.83464625479926      0.73189302968517
  C          -0.64575265954395     -1.01941787393778      2.09037256271161
  O           2.46421435101537      2.64809264742945     -4.53928787045339
  C           3.44499991677041      1.46622487193251     -2.66838700272348
  C           2.90611173635485      2.38787100421981     -0.36413159430186
  C          -3.71602578563124     -4.68167753021067     -0.26660018268845
  C          -3.75079524414446     -3.61407254742102      2.05012379028105
  C           0.21621452682955     -1.38888865430122      3.30943757481371
  O          -0.39651979929619     -2.15246343496800      1.11602259912655
  O          -1.95802670546929     -0.87080961241347      2.30711182861930
  O           4.50175392886424      0.91670717963399     -3.41258323699248
  C           3.92785862096025      1.61320088765805     -1.21897365876577
  C           3.49384286993373      2.84313882554225      0.98197985524753
  C          -3.14920800574107     -5.93885039161822      0.40245764263695
  O          -4.54851088000426     -5.00872765620838     -1.34799155836686
  O          -3.09147723656449     -4.79687264454599      2.51697624532001
  C          -4.65896247253976     -3.20442555169926      3.22911824777718
  O           1.49479816398588     -1.75578173309137      2.79029572013581
  O           4.11115327344112      0.27217080317639     -0.78368978737010
  O           4.67753909910364      3.57673274597022      0.81197920327753
  C          -2.30363645888306     -5.49947306918842      1.61207194296790
  O          -2.45434194987613     -6.73336603043146     -0.51393224041586
  O          -5.88253239908243     -3.89152069648749      3.25950717675074
  C           2.39888100427347     -0.79638309517056      2.61034480066308
  C           5.01862451662077     -0.01546152701087      0.23946406324347
  O          -1.19558663158633     -4.70768230816150      1.20075729099300
  C           3.32467604318054     -1.08386239731271      1.43839920568693
  O           2.40710697404743      0.24667324884353      3.21174888907397
  C           5.69888822701959     -1.35240592067434     -0.11138166181424
  O           4.38013590188434     -0.15118271428837      1.49284345390131
  C           0.08190880713920     -5.35263353047573      1.14829085612843
  C           3.83494227471241     -2.51687143397444      1.18965633304949
  O           6.37130713013992     -1.30173154911305     -1.33701129053595
  C           4.64067478191337     -2.47076705681137     -0.12870346575761
  C           0.75418645502782     -4.94316626450108     -0.16828035278445
  C           0.91908208819080     -4.94936999915757      2.37944320146326
  O           2.69948082511621     -3.34118472597695      1.03232272338664
  O           5.24975029379665     -3.72116973512227     -0.36609922020262
  C           2.22854813554100     -5.36529800726566     -0.16313840576235
  O           0.03618750748114     -5.53103149699963     -1.22849489642897
  O           2.29580328263571     -5.29247668677656      2.22926562737235
  C           0.41220783649755     -5.65095207346465      3.64951892476900
  C           2.88146037175835     -4.73936563263797      1.08360404946937
  O           2.80577119112467     -4.93272963680796     -1.36541606899361
  O           0.30514468274273     -7.04308854339755      3.49292317565831
  C          -1.59708568027487     -1.82489684975115     -2.18441981688505
  O          -0.68840980773589     -1.66719183366868     -1.37759101623212
  C          -1.51188059790000     -1.57154783629814     -3.60112082975830
  C          -0.31278490345931     -1.12786932824923     -4.17593279028711
  C          -2.63916158528019     -1.76259898369298     -4.40789432726653
  C          -0.25171718886861     -0.87284744919060     -5.52946924932068
  C          -2.56886236551335     -1.50371769138779     -5.76103218605821
  C          -1.37900094588496     -1.05816468431792     -6.32021614146649
  H          -4.28881597736034      2.73614843579994     -1.88695934443793
  H          -2.88250160918524      3.37509127463127     -3.80644112989680
  H          -4.59551032702518      1.54724235746080      0.01896123348337
  H          -4.26811860193997      1.29697403495369     -3.81176347117325
  H          -1.08482857540491      1.08910685253316     -2.87854231660158
  H          -0.99034734858438      2.33190072035878     -0.47146358915191
  H          -4.57954655498379     -0.84797923743993     -1.89869999973862
  H          -3.07767309260358     -1.08794751691058      0.02132655354954
  H          -1.24571660406393      1.74889588525795     -5.22482113494781
  H          -0.43003028036899      4.06426461813080     -2.92228481290859
  H           0.44593299057933      4.36126133931073     -0.14821711968046
  H          -1.12248941603218      4.48318559329340      0.69410208193094
  H          -6.77840585998418      0.01039056819996      0.04525572870910
  H          -6.59793554027456      0.39155411361168     -2.54169321597300
  H          -1.79370087946834      5.79451159110371     -1.07840404498628
  H          -6.20607940367804     -1.96960202250428      1.35174518495599
  H          -6.63517725447512     -2.36657307305686     -1.45500631162754
  H           1.65099959133836      4.42441349195866     -2.61327441778544
  H           0.63211745155894      0.08660053216071      0.64700986210626
  H           0.04926904409258      1.04614819494855      2.05828515699267
  H           3.83685086598921      3.48819334160926     -3.32733438469413
  H          -5.47473529148137     -4.33593097991710      0.94932436372936
  H           1.52711271112931      2.38574368785778     -4.48840795170707
  H           2.58386100888934      0.77925627004657     -2.66647471688494
  H           2.02813363565480      1.75155145958181     -0.18882792617077
  H          -2.86860925808380     -4.07414060383167     -0.62479229608497
  H          -3.02612558936197     -2.80525342899393      1.91253753263867
  H           0.28556521105869     -0.53710703569564      3.98875311567669
  H          -0.19802151330230     -2.25532666086559      3.82451152814028
  H           4.31990437324778      1.05832007696103     -4.35544992313803
  H           4.88785202852765      2.14539897682629     -1.20465045206130
  H           2.73118652143178      3.43719246700306      1.49866013482296
  H           3.73903894452998      1.97926262141070      1.60115163645891
  H          -3.97437911964970     -6.55643285844787      0.77353616970203
  H          -4.18875432442250     -5.80512595102561     -1.77442391374589
  H          -4.08579165161864     -3.37759095560512      4.14517062314209
  H          -4.87731239528584     -2.13831959066390      3.16126782706264
  H           4.46213761286694      4.40869264377140      0.36525314594326
  H          -1.95047711899321     -6.38104881641141      2.16070800713797
  H          -1.63821042303476     -6.28266734017777     -0.81369249785821
  H          -5.72906883661925     -4.79399695354371      3.57558071277314
  H           5.75527063461132      0.78551773256290      0.36984892122125
  H           2.68825675004720     -0.84733817785833      0.56516511207637
  H           6.45087752646006     -1.57351624770716      0.65364174188738
  H          -0.05281187692326     -6.43999712676448      1.14282251752270
  H           4.46881446933300     -2.86008782332268      2.01617687130763
  H           5.81875017541808     -0.84000288167869     -1.99057829398164
  H           3.92581880960258     -2.25472834761515     -0.93815574278483
  H           0.73670145828478     -3.84991413669304     -0.27241279920032
  H           0.85871231387955     -3.86740610451519      2.51210043254402
  H           6.01881061467517     -3.56864300644809     -0.94186618488058
  H           2.30470997193181     -6.46049726088787     -0.07314935010295
  H           0.60609198764932     -5.54015864807737     -2.01246474032226
  H          -0.59177694687233     -5.28950500401389      3.88286971030169
  H           1.08580837772318     -5.39781736995135      4.47441523046061
  H           3.94301205406948     -5.00232131406812      1.13964240745365
  H           3.76000361963556     -4.79762598843466     -1.23538896036121
  H           1.19492236567857     -7.41735142250461      3.42364960177905
  H          -0.86806461385144     -3.01803800861489      1.33801552608777
  H           0.54929350229693     -0.99298767055258     -3.54012452080821
  H          -3.55671868004609     -2.11448052113399     -3.96235222453865
  H           0.66710404402182     -0.52655455651543     -5.97367633066180
  H          -3.43721549737700     -1.64690463946107     -6.38356626118378
  H          -1.32780293008140     -0.85626704699825     -7.37872151172742
  H          -2.57453999059017     -2.20611053513029     -1.84415794406687
  H          -0.60519447106566     -1.90669634068631      0.16942162138165
