147
Coordinates from ORCA-job job E -274.679712447490
  C          -3.38119342929743      2.78267851931349     -1.62804919840267
  O          -3.14440106932550      1.46584177523507     -1.18167400528624
  C          -2.91971690126760      2.88524269024968     -3.09354898033984
  O          -2.72388208542402      3.75065463739322     -0.86017992231799
  C          -4.16846983722109      0.86665056123883     -0.40518704781433
  O          -3.56116941178635      1.95771570757140     -3.92730216660200
  C          -1.41553109843975      2.59505577334055     -3.13977654740278
  C          -1.31647707519326      3.54081953283026     -0.75423556143371
  C          -5.13200117631625      0.12690685711617     -1.34963838630269
  C          -3.58738185651703     -0.16756713936683      0.56441403356419
  O          -0.84969877565228      2.82631331294252     -4.40359966751395
  C          -0.63971141132036      3.45413491562361     -2.13348968038588
  C          -0.75607651206441      4.71644894866720      0.05785867054163
  C          -6.17323074249012     -0.67314349752847     -0.55502934444457
  O          -5.75770260809691      1.04534544669098     -2.21821215802311
  O          -4.63121583874934     -0.76583363103594      1.30316367345873
  C          -2.58767557555731      0.41318969903532      1.61289351749459
  O           0.64742347369410      2.85333742542667     -2.01276139305969
  O          -0.90933473612352      5.94328431977581     -0.60571228248959
  C          -5.47164051397555     -1.56058706250422      0.49071159619906
  O          -6.98976196868501     -1.41106386478240     -1.41834996440846
  O          -1.43745564185029      0.86986159485426      0.82398333226277
  O          -3.01541765201750      1.24599471465392      2.45243535274238
  C           1.78438250786132      3.69416019494616     -2.00340348733551
  O          -4.76085902029098     -2.55572053458087     -0.18256284978780
  C          -0.28869381197191      0.45720827882975      1.50471888415625
  C           2.75108063153088      3.22741323445610     -3.10488025434964
  O           2.41825744178669      3.70564996486511     -0.75942106736001
  C          -4.54902325880950     -3.80776936105333      0.47130893160080
  C          -0.68522504172903     -0.97292044330279      1.89844698134079
  O           2.16695394446045      3.25284874227289     -4.37719844557988
  C           3.26753838958939      1.82228611547447     -2.75875088316318
  C           2.94484692178588      2.46162658596703     -0.29858321837491
  C          -3.80492597676931     -4.64273603672489     -0.58329081204596
  C          -3.73855953762211     -3.70291554734399      1.78215713629046
  C           0.18170856015278     -1.56480901702807      3.02882504196214
  O          -0.55010719139400     -1.75492520946903      0.73144582363338
  O          -2.01351472286924     -0.83935665846462      2.26943569203259
  O           4.27976605684221      1.41642053157508     -3.64510981687576
  C           3.85250004386359      1.77374075953306     -1.33946865873802
  C           3.70645935807108      2.81820737940426      0.99237188919683
  C          -3.32641857405313     -5.96969578220194      0.01374582689185
  O          -4.63641815846911     -4.85385798333941     -1.69410085945346
  O          -3.16134286499578     -4.95065939541238      2.17584274286056
  C          -4.59115600299197     -3.28895121569281      2.99793870631786
  O           1.42328649797789     -1.91683767981207      2.41950386464419
  O           4.01743141660243      0.38138958998390     -1.09034830966039
  O           4.88343158652464      3.53519418817513      0.73236649572957
  C          -2.41791003140998     -5.63171923876853      1.20888122259205
  O          -2.71868353302414     -6.77183731426922     -0.95426342554778
  O          -5.82978724119811     -3.94530883856186      3.05300471330636
  C           2.32440229917927     -0.95176298650469      2.26018592166038
  C           4.91503277085805     -0.04056102782109     -0.11010553066271
  O          -1.31593936443357     -4.85405014689768      0.79154967475307
  C           3.19837717785492     -1.15661942527304      1.03236624503898
  O           2.37786666040048      0.04557642347857      2.93603002570635
  C           5.54301435089452     -1.36526377246535     -0.58419038572020
  O           4.27923234418441     -0.25730865833600      1.13661780764374
  C          -0.04249338717320     -5.49397318224955      0.72972963315432
  C           3.67991923561064     -2.57321488663150      0.66830582095962
  O           6.19301931173439     -1.23883245809876     -1.81514891300941
  C           4.45028994605781     -2.44618860163751     -0.66463631577587
  C           0.58195918999818     -5.11391906587192     -0.61833271303971
  C           0.81582772140545     -5.01875394366017      1.91580762596007
  O           2.54812218884682     -3.39755873160207      0.47598202638863
  O           5.00780477119450     -3.69239463926598     -1.01473745875345
  C           2.07385090323772     -5.46039377237318     -0.64328261880050
  O          -0.12166274466378     -5.78130708436377     -1.63930480002597
  O           2.19725471019666     -5.32013306021048      1.74859390401649
  C           0.36218946251241     -5.67996405752871      3.22462784388771
  C           2.74117399052308     -4.78950132120918      0.56909318003605
  O           2.60127859895257     -5.03604650600553     -1.86900902041294
  O           0.36190570601815     -7.08070241639272      3.14434206658507
  C          -0.52802645782184     -0.55147617630251     -1.83035074530112
  O           0.57580792863291      0.08653046319648     -1.73609775800400
  C          -0.60288818508537     -1.79480664162061     -2.48424961294818
  C           0.54810838315829     -2.40491754383190     -3.03915775066249
  C          -1.86692245804954     -2.39946904687590     -2.67131183193995
  C           0.42433478282187     -3.55883311486115     -3.77524027953932
  C          -1.97405569050987     -3.55071084130416     -3.41686284358455
  C          -0.83301354516428     -4.13001434637413     -3.96716012986960
  H          -4.44594964343585      3.03214306906826     -1.54749022046066
  H          -3.11582164065525      3.91245180121461     -3.43738814394363
  H          -4.69506877863669      1.62222457224751      0.19012435355213
  H          -4.43326517735949      1.73036898363139     -3.56033915245046
  H          -1.30813391619788      1.53544290551334     -2.87510227481307
  H          -1.14536672091928      2.61251899541403     -0.19923941090862
  H          -4.53335633325956     -0.57803962531832     -1.94775260827527
  H          -3.04763522538877     -0.94032781147612      0.00068885910960
  H          -1.41657811092053      2.41889037957687     -5.07766544787737
  H          -0.54652402921801      4.46567694800166     -2.54815244578281
  H           0.31648158707221      4.57351760926488      0.20601341201022
  H          -1.25390516755972      4.72260059932266      1.03409217322783
  H          -6.82251253053876      0.02744792388598     -0.01850319075453
  H          -6.57147773085383      0.62719894383219     -2.55089261598262
  H          -1.85453974077582      6.14292765216951     -0.66813753681373
  H          -6.21324044446151     -1.99467979489852      1.17343757235668
  H          -6.51235339878528     -2.20900903894236     -1.70226220407910
  H           1.48889353817890      4.73547055729200     -2.17890758037274
  H           0.56458684033247      0.50142586356532      0.83245622782204
  H          -0.11357474006905      1.06462511550080      2.40064687583249
  H           3.60087381607799      3.91860226503348     -3.13836064421670
  H          -5.52532305356615     -4.26335741194629      0.69083414695783
  H           1.23481767398532      2.96933847689166     -4.33682026538336
  H           2.42966386492779      1.11246730233690     -2.80438620948244
  H           2.11914462691863      1.78642851491827     -0.03611251391044
  H          -2.91783167746533     -4.06781588554206     -0.89271512465296
  H          -2.95292282611202     -2.94787717689678      1.65780745952279
  H           0.31710184795417     -0.83621621671686      3.82930925579744
  H          -0.27024052254924     -2.47821914132496      3.41432185280993
  H           4.00104293187224      1.63908900474238     -4.54804062810200
  H           4.83288977211556      2.26892259163079     -1.33720195891118
  H           3.02498900241098      3.39009896042343      1.63204618498401
  H           3.99103036229360      1.90857065853669      1.52230383458901
  H          -4.18431856648206     -6.53863553323218      0.38912620665145
  H          -4.45458246900706     -5.74741315114642     -2.03369993616844
  H          -3.99372989879080     -3.49544031984752      3.89214873726253
  H          -4.78021301284177     -2.21592400535144      2.96112860261776
  H           4.64631123280593      4.41754985534408      0.41132335397696
  H          -2.07925156928696     -6.55019166597102      1.70503412640735
  H          -1.86080565955557     -6.38872454395263     -1.23043306887963
  H          -5.68450497659913     -4.86616286462566      3.31776134129743
  H           5.68761853388589      0.71210217492487      0.08703511729565
  H           2.53667922077563     -0.84113794555170      0.20441267683861
  H           6.30091251207497     -1.66980425867621      0.14569189982422
  H          -0.16211023166696     -6.58317155641847      0.77632037466525
  H           4.33201852279019     -2.96987571983834      1.45587480544699
  H           5.64874704642042     -0.70314751126008     -2.41694846328115
  H           3.72100899085509     -2.14459619753474     -1.43187205782204
  H           0.48338652492546     -4.02614468019505     -0.74770778855253
  H           0.70514064807286     -3.93518727444807      1.99290944257204
  H           5.75702164377045     -3.52259601482277     -1.61249436505041
  H           2.19797956976291     -6.54984481000611     -0.52872456167811
  H           0.50315538358447     -5.98653200641394     -2.35217250221220
  H          -0.66610116784415     -5.37847249576728      3.43838524673295
  H           1.01264792818218     -5.33162212868072      4.03463944864480
  H           3.80754227933194     -5.04005864960728      0.60844693599527
  H           3.53067985520609     -4.76931743622279     -1.74810534128733
  H           1.27737795504539     -7.38397006651079      3.05249789910364
  H          -0.86825675155134     -2.66133519717649      0.89574068021116
  H           1.50830644898167     -1.94101432630979     -2.88158486290314
  H          -2.73861071241295     -1.93742066552969     -2.23385082852063
  H           1.30113873150359     -4.02408352533906     -4.19534551283094
  H          -2.94199476969318     -4.00220136867249     -3.56628156723762
  H          -0.92970832682997     -5.02918625795277     -4.55471468062650
  H          -1.44481708757556     -0.10500228081257     -1.44538757961863
  H           0.49263916960487      1.02746285934874     -1.45180961233279
