147
Coordinates from ORCA-job job E -274.681084951850
  C          -3.23105737892596      2.60299298403565     -1.67157141599916
  O          -3.05570778501661      1.33126485140097     -1.08981189713018
  C          -2.73770284172316      2.53744456490493     -3.12927975130932
  O          -2.57213071868709      3.62658829082883     -0.98102165160460
  C          -4.11720115835924      0.87705849131865     -0.26545390345266
  O          -3.34359827913735      1.49698533156452     -3.84761100976794
  C          -1.22816384178609      2.28775348040118     -3.12647372368138
  C          -1.16102821733686      3.44717995026702     -0.86393799282298
  C          -5.14974713365392      0.14953786339904     -1.14516173653654
  C          -3.58813332074710     -0.11974411269620      0.77179423288252
  O          -0.66698381295572      2.36741927812129     -4.41152063708991
  C          -0.49463404079297      3.30188307516530     -2.24230066329329
  C          -0.63430686215306      4.67388227195107     -0.10880716831905
  C          -6.22029089018214     -0.52274771408271     -0.27601287932877
  O          -5.73075740812504      1.04510550051255     -2.06561751283961
  O          -4.64517616901171     -0.64116670316814      1.54806802137063
  C          -2.54731411468170      0.50176642619305      1.75124210672326
  O           0.82136912695489      2.78626777073359     -2.12756055109175
  O          -0.84660801932739      5.86634304494185     -0.81781803955731
  C          -5.52833889797811     -1.42345536044811      0.76314712208735
  O          -7.13436724652725     -1.22174302265405     -1.07040292997258
  O          -1.38764733810798      0.81873743322093      0.87415378515903
  O          -2.90493460427756      1.44154760541231      2.50071595502748
  C           1.91316091810818      3.66611097334301     -2.12002838703017
  O          -4.85736330563095     -2.42936278436210      0.06820742201335
  C          -0.24394988251582      0.44135081314610      1.59107673405641
  C           2.92590683484110      3.13219080670549     -3.14934498685384
  O           2.50851712071538      3.75589977164269     -0.85292776583010
  C          -4.61934363928524     -3.68711608084770      0.70049718234800
  C          -0.70159437583812     -0.93577763412853      2.09415017829897
  O           2.38674809808443      3.08346791863248     -4.44024245354626
  C           3.37055012900418      1.73782034263949     -2.68518006480402
  C           2.92777224180697      2.50872126562770     -0.30280233413713
  C          -3.84510071777766     -4.47514622335390     -0.37145123229516
  C          -3.81991384360483     -3.59498775984005      2.01811142337585
  C           0.19333316783337     -1.52684041915284      3.19528547760323
  O          -0.70308939220005     -1.76762034698019      0.95869339935781
  O          -2.00240903951331     -0.69221390590421      2.52057991652382
  O           4.38070626189079      1.20837394807653     -3.50311389370197
  C           3.89903970489784      1.77026100272644     -1.24486319288393
  C           3.57439806211029      2.85894659932785      1.04738495004275
  C          -3.34899453464405     -5.80768207841992      0.19435541117804
  O          -4.65015832918790     -4.65679392212557     -1.50565800100971
  O          -3.23270834244763     -4.84676726967639      2.38552438566321
  C          -4.68294960508922     -3.20943135344391      3.23594223961204
  O           1.41809454665986     -1.87378208636583      2.54562157820415
  O           4.04844524058203      0.39525578088568     -0.91554208981239
  O           4.77623882945922      3.56418158165051      0.88615177881880
  C          -2.46102864827053     -5.47958514523688      1.41118698749941
  O          -2.72069064765278     -6.57578681643345     -0.78692883078249
  O          -5.92935574991499     -3.85276662023255      3.25972781877461
  C           2.34820647864356     -0.92978466588189      2.42943839548986
  C           4.94701713768241      0.00336329443782      0.07718506622786
  O          -1.37476676191001     -4.64689988201843      1.04975849526647
  C           3.22531709950187     -1.11303987348553      1.19948077171458
  O           2.42424380763255      0.03693311307898      3.14576407678552
  C           5.58825739444608     -1.31663223930060     -0.38878989845048
  O           4.30634092182974     -0.21720688282472      1.32020401529500
  C          -0.13255222581415     -5.28706374386769      0.76399397052028
  C           3.68602948241738     -2.52824266242708      0.80002212326170
  O           6.26900240172786     -1.17897410203881     -1.60220961532284
  C           4.48877311339553     -2.38647538047189     -0.51307637046024
  C           0.39380718825870     -4.70963342426689     -0.55645784073261
  C           0.84364915444962     -5.01716607952747      1.92551678297591
  O           2.51777234670214     -3.28659902279749      0.56494016617509
  O           5.04541446384903     -3.62651745490759     -0.88216304320086
  C           1.84625243824083     -5.14085959195737     -0.77476711530596
  O          -0.43743705338729     -5.13765825534529     -1.61143476904873
  O           2.18619086894283     -5.35439038357631      1.59185957296592
  C           0.46528567487953     -5.83167813086512      3.17058704859273
  C           2.65649041659949     -4.68418536245886      0.45246146517348
  O           2.28786067962548     -4.56458302798481     -1.97273189232554
  O           0.33747752694306     -7.20258898222918      2.89973086182356
  C          -1.36793087249248     -1.53751456321553     -1.95237450011475
  O          -0.66662328063481     -0.64377765934855     -1.38835175335001
  C          -0.92700835272680     -2.23668535650792     -3.09519515093975
  C           0.36390075490998     -2.01769793208206     -3.63019506610551
  C          -1.78186289340742     -3.18679195405041     -3.69830689118245
  C           0.77753169249255     -2.72742254256576     -4.73261650459423
  C          -1.35132243392959     -3.88462386536932     -4.80454980082789
  C          -0.07778584420698     -3.65722814708577     -5.32074584138953
  H          -4.28910337249463      2.89135770239322     -1.64629226286896
  H          -2.94841702211367      3.51144599824410     -3.59887796943081
  H          -4.57333949300038      1.71460724138022      0.27649057691726
  H          -4.27808668731299      1.42690084756614     -3.59182453003745
  H          -1.06295786229702      1.29064946991946     -2.69723793612792
  H          -0.96306343735726      2.54702542612041     -0.27302138569345
  H          -4.61333518414593     -0.63486975312829     -1.70201745861444
  H          -3.08935351180761     -0.94926280108670      0.25536450265191
  H          -1.24607551044098      1.89546395290141     -5.03094870542046
  H          -0.47928438622406      4.27872903245914     -2.74389022839601
  H           0.44443785031243      4.57910230463230      0.02956928097165
  H          -1.12098994770855      4.70233130455869      0.87354882175737
  H          -6.78472694405249      0.24553661628044      0.26271796912345
  H          -6.59821845730073      0.68321078388118     -2.32000688964415
  H          -1.80161538053008      6.00481569400746     -0.89971139896061
  H          -6.26410928273373     -1.83499769348174      1.46451870325606
  H          -6.72091759173878     -2.04463764266869     -1.38139898067020
  H           1.60577347476200      4.68988050694506     -2.36743841167887
  H           0.60559752792133      0.41224858774991      0.91205363546790
  H          -0.05711285126941      1.11842773856055      2.43115212978019
  H           3.79118121000505      3.80134076186333     -3.19300212030593
  H          -5.58449304455463     -4.17328303804620      0.90147593724977
  H           1.46980761551186      2.75286132046514     -4.40554833915093
  H           2.48762243842702      1.07972600124665     -2.69714142612448
  H           2.04616324332863      1.87559562574465     -0.13105505607839
  H          -2.96041442290352     -3.87862884706704     -0.64738299234476
  H          -3.04035858438905     -2.83101977761876      1.91648084807418
  H           0.35219128920831     -0.79798476208478      3.99130797140170
  H          -0.24285176639190     -2.44322819713149      3.59272753321148
  H           4.16050377633701      1.41190625595350     -4.42712348502795
  H           4.87619504435925      2.26978218476698     -1.21962811335334
  H           2.84844035361075      3.44044932694561      1.62763926914523
  H           3.80769168731025      1.94865055283008      1.60184813914827
  H          -4.19599555274828     -6.40274009519774      0.55357121314453
  H          -4.49610922930539     -5.55462155773980     -1.84641031196904
  H          -4.09702309602234     -3.44723719634073      4.12986097610821
  H          -4.86127834465120     -2.13358671842024      3.22658522524353
  H           4.57563471865550      4.43416220047723      0.51005778966243
  H          -2.09877308004061     -6.40292924126419      1.88113535727040
  H          -1.94022979365514     -6.09772339102637     -1.13986554393544
  H          -5.79952293477800     -4.77990977994243      3.50942488568575
  H           5.70465002172090      0.77085548749224      0.27300736155710
  H           2.56723107669813     -0.77662182727843      0.37672036056883
  H           6.32586436284994     -1.63213966578495      0.35661451143954
  H          -0.28047203523493     -6.36771660687200      0.65482736098654
  H           4.30476518055499     -2.97820529438479      1.58617671912366
  H           5.73160054786396     -0.65042927702759     -2.21748155631507
  H           3.77888971808026     -2.06035249607154     -1.28938940364471
  H           0.37425770277605     -3.61263668788162     -0.48979722231583
  H           0.80281050873276     -3.95069999321347      2.16124298091186
  H           5.83241193358761     -3.44530641958585     -1.42525308795907
  H           1.90187367941360     -6.24018135341385     -0.82493077921875
  H           0.10531907801169     -5.19004971216807     -2.41320792669253
  H          -0.50724304143582     -5.49338423144786      3.53544183495292
  H           1.21928264836732     -5.65010735487171      3.94408488149581
  H           3.70813094494396     -4.97473488007578      0.36014324623785
  H           3.25617551261609     -4.60220851515238     -2.00700835254335
  H           1.21273405884758     -7.55847776315339      2.68700382659577
  H          -0.96665795857111     -2.67817457047532      1.19671618846436
  H           1.00513818399826     -1.29376624175588     -3.15330300290920
  H          -2.76555486636136     -3.35173643544390     -3.28733122009137
  H           1.76028945381164     -2.56490900237162     -5.14360369092581
  H          -1.99891333381653     -4.60764966833224     -5.27295515721301
  H           0.25195178759177     -4.20929816567757     -6.18715625663601
  H          -2.35122429295814     -1.79327647240996     -1.55564319348842
  H          -1.03785780441172     -0.26589269657198     -0.54543881087189
