147
Coordinates from ORCA-job job E -274.683169341790
  C          -3.02642135532421      2.42485988917702     -1.89744955536030
  O          -2.89294366301990      1.19566149025724     -1.22374995842905
  C          -2.44153776358664      2.25331496311507     -3.31162201982747
  O          -2.40139665704679      3.49422750654686     -1.24434861507019
  C          -4.01616881751397      0.76341516157826     -0.47277970925939
  O          -3.03214561424379      1.18578112459285     -4.00444795258549
  C          -0.94339877176608      1.97760533989070     -3.18048739758498
  C          -1.00062760370602      3.31998187065011     -1.02956839298922
  C          -4.94413278935121     -0.02838901552187     -1.41473216907101
  C          -3.55127739857943     -0.17325927083922      0.64725018991239
  O          -0.29858765645028      1.91092853921506     -4.42779130095405
  C          -0.25787138276832      3.07103289414538     -2.35328972488168
  C          -0.51363222666587      4.59880452172271     -0.33725976627040
  C          -6.05528218606293     -0.73363519039086     -0.62802472736381
  O          -5.48125914573828      0.82105523367033     -2.40475061853096
  O          -4.64715099274781     -0.74643743076048      1.32733281882534
  C          -2.66242511974566      0.50668948830752      1.74236375247261
  O           1.05703673121207      2.58539863896886     -2.13272269708186
  O          -0.67155606410405      5.73360003200415     -1.14812144797902
  C          -5.42029092106609     -1.58093479460848      0.48790649826617
  O          -6.86379011742394     -1.48780733696759     -1.48461682673745
  O          -1.49562536947817      1.01091742035536      1.00925411185033
  O          -3.20444403697827      1.33597873269194      2.51577303779439
  C           2.12791059908587      3.49137324305099     -2.11116989616323
  O          -4.65016884493159     -2.58175855037544     -0.10975390244531
  C          -0.32276307709146      0.50416369015745      1.57261082219728
  C           3.20869864728308      2.94198091187515     -3.05952917108008
  O           2.65243080749508      3.66005430219658     -0.82159795672709
  C          -4.44925101001666     -3.81027103415734      0.59273602022564
  C          -0.76592688807741     -0.88123189041607      2.07236340152709
  O           2.73110254625702      2.79754834576421     -4.36722359998068
  C           3.69668486478224      1.59741560808947     -2.50033461774914
  C           3.08561748155981      2.45896179393193     -0.18658281159273
  C          -3.59730111469306     -4.64137424046270     -0.38113159607662
  C          -3.76019446999356     -3.64480168715538      1.96437228665347
  C           0.11488865908015     -1.42810330299962      3.21055758034561
  O          -0.69877634524927     -1.75716286378235      0.96536853111769
  O          -2.06994473812821     -0.68262936712019      2.48578088754480
  O           4.78235435345601      1.09496335124156     -3.23538555729124
  C           4.13904874096351      1.71853836152701     -1.03540554634983
  C           3.63324253264481      2.90871200221584      1.17843865648964
  C          -3.09800730113010     -5.92627410074967      0.28237638852240
  O          -4.33767112030584     -4.89643562378951     -1.54460702808437
  O          -3.15437854827001     -4.85640212034896      2.42541031891192
  C          -4.73606747295383     -3.25763396472047      3.09372143002265
  O           1.37235298137063     -1.75339640518587      2.61863428873332
  O           4.33005280752646      0.36570038164201     -0.63891184962810
  O           4.82526523286403      3.63718399297643      1.05310331637627
  C          -2.30085898174385     -5.50479027371304      1.53461095576707
  O          -2.37820261329416     -6.71233532229931     -0.62027548216671
  O          -5.95008140231321     -3.95861091952702      3.04065388756114
  C           2.31182573732498     -0.81374107945173      2.58311861696802
  C           5.12097531571518      0.06342984786215      0.46898437714648
  O          -1.22016456404375     -4.64902983760436      1.20379703669468
  C           3.30758808126460     -1.03314103922256      1.45527888410248
  O           2.32376669739572      0.16146019968605      3.29118742098305
  C           5.84643503729417     -1.26071317555719      0.17034760497008
  O           4.35158739159340     -0.10671082924280      1.64515898538851
  C           0.05346719775887     -5.26248371367826      1.01065898985823
  C           3.82995038004231     -2.46046871771378      1.19532876928272
  O           6.65862503064065     -1.17957007145293     -0.96524640382572
  C           4.80917343540915     -2.38669342494066      0.00220806417882
  C           0.64419656792679     -4.71361731805843     -0.29306106287005
  C           0.96287846167904     -4.93108930126211      2.21032774922355
  O           2.70406515360273     -3.24032817486528      0.84250022320893
  O           5.46033804026046     -3.62528604686920     -0.15523406743389
  C           2.10059468323136     -5.16819271690722     -0.42268101794401
  O          -0.14167682233684     -5.14630882130867     -1.37784033774291
  O           2.32820569256824     -5.25712449751510      1.96335984186992
  C           0.53107557750743     -5.70363390399314      3.46503336085978
  C           2.85328630885537     -4.64147125740598      0.81569420844591
  O           2.59200216509127     -4.66176996307557     -1.63107367796806
  O           0.43878405195003     -7.08620980093468      3.24228053722575
  C          -1.69239708209613     -1.82444578365259     -2.17491218507213
  O          -0.62533770594570     -1.29632706411136     -1.72779897697150
  C          -1.99739570338059     -1.91952554341767     -3.54576681188890
  C          -1.14928773929428     -1.37364528516919     -4.53631234872950
  C          -3.18968405515710     -2.57755327502713     -3.92902575736659
  C          -1.50131923136643     -1.46995343028661     -5.86220203246330
  C          -3.52281477098226     -2.66322707351867     -5.26105642641445
  C          -2.68707843602997     -2.10417085312785     -6.22510699689373
  H          -4.08180291695039      2.71890386306136     -1.95564927321007
  H          -2.59384393184756      3.19990002597431     -3.85481893264681
  H          -4.53652076112598      1.61486744082581     -0.01763694613836
  H          -3.97219344120281      1.13466293387504     -3.75989367711594
  H          -0.82063556642786      1.03036618473020     -2.63726033757236
  H          -0.84777524707608      2.46568499382838     -0.36290084937815
  H          -4.32729199116162     -0.79459955043835     -1.90899264538942
  H          -2.94171056200413     -0.96673297589209      0.19956873533622
  H          -0.92406036480370      1.54813738229310     -5.07416594460557
  H          -0.22470410890954      4.00405111439286     -2.93231116595182
  H           0.55277209487710      4.51224911837041     -0.12129431262424
  H          -1.06233436999548      4.70343622838035      0.60621194096239
  H          -6.69642004915041      0.01777340102268     -0.15496232677878
  H          -6.31542607386328      0.42303382597562     -2.71205541213713
  H          -1.61877866993967      5.86752799964181     -1.29936179237095
  H          -6.19965948536905     -2.00705444646659      1.13165262207851
  H          -6.41327368261584     -2.32262916827601     -1.69499056702292
  H           1.80891551472228      4.49356306292537     -2.42413626650405
  H           0.44056789902222      0.45783585939496      0.79368591628865
  H           0.02066592453594      1.12270137670754      2.41186682892613
  H           4.04579502355056      3.64604098681755     -3.10439640811155
  H          -5.42292285411698     -4.29816770530221      0.74208330678654
  H           1.83393146826894      2.41565941152764     -4.35065218289169
  H           2.85552337554148      0.88726127996819     -2.53145867549955
  H           2.22054360364659      1.79925235448586     -0.03045719715822
  H          -2.70328333203821     -4.05234497407910     -0.63943949131657
  H          -3.00847661316192     -2.84960437197975      1.90154616707186
  H           0.22313752378188     -0.68330512843110      4.00000418480168
  H          -0.31631917026941     -2.34687446735641      3.60915113821122
  H           4.59028820333471      1.21588642714786     -4.17991575691460
  H           5.09194513763873      2.26094679465456     -0.97912018976805
  H           2.85469762130172      3.50415547094115      1.66980869980719
  H           3.84914499072355      2.04199900810850      1.80429479535210
  H          -3.94220296355242     -6.53846685753020      0.61711979502045
  H          -4.07875783248705     -5.77040091059226     -1.88341106462521
  H          -4.21542150029259     -3.43621304410988      4.04019899272396
  H          -4.95963879465717     -2.19211589687238      3.02892737691347
  H           4.62894781196751      4.47687477626641      0.61159334649584
  H          -1.93732496163493     -6.39047102587811      2.07107897289940
  H          -1.60439531627329     -6.21257597966787     -0.95715189787735
  H          -5.80191721094581     -4.86674957901812      3.34403582925616
  H           5.83174694795480      0.86600045037476      0.69848332229896
  H           2.73859017962048     -0.75695148066265      0.54884903577272
  H           6.50358245135203     -1.49531890003338      1.01446367857302
  H          -0.06146737786818     -6.34934894520000      0.92952073874963
  H           4.33533098272999     -2.86467321770646      2.08087809988274
  H           6.17338262664209     -0.72664261112191     -1.67573821242970
  H           4.20690061102051     -2.16852475103870     -0.89403197369289
  H           0.64599204966852     -3.61587456539771     -0.24657900535213
  H           0.89327666756128     -3.85782114359181      2.40179625745468
  H           6.28473154799958     -3.46678918429436     -0.64648910902104
  H           2.14956996306547     -6.26780057499704     -0.40513361112601
  H           0.42051910010364     -5.14370611210006     -2.16984979912546
  H          -0.46488980934454     -5.36848011522451      3.76390331818372
  H           1.23893844523827     -5.47917951232011      4.27000909124882
  H           3.90952071780482     -4.92800956469497      0.79039720959428
  H           3.53151725968423     -4.87482922403357     -1.72103039555630
  H           1.33003280145750     -7.43747067768317      3.10022679382749
  H          -0.92824889908481     -2.67320360006939      1.22640556683573
  H          -0.23515020961132     -0.88937333202583     -4.23296938026178
  H          -3.81513698387626     -3.02521511543622     -3.17040059937724
  H          -0.85877339108681     -1.05887068614889     -6.62386146587659
  H          -4.42981477226644     -3.16306647636241     -5.56014818858242
  H          -2.95797354414777     -2.17035510606387     -7.26746670631092
  H          -2.42289505337520     -2.24128625745643     -1.48131262294006
  H          -0.54959103278125     -1.31566270998243     -0.73987623071950
