147
Coordinates from ORCA-job job E -274.678670968580
  C          -3.37281804052373      2.82603294346948     -1.60804867704626
  O          -3.14408444184264      1.47338900968927     -1.28087616084508
  C          -2.96832611052499      3.05423779738442     -3.07513455869867
  O          -2.67683150619723      3.72140935039805     -0.78990691564085
  C          -4.13656260713921      0.84102649404398     -0.48775322489232
  O          -3.64405072980046      2.20281209035511     -3.96266628526391
  C          -1.46463032128131      2.78480426732785     -3.21218817112276
  C          -1.26599238984095      3.50713565909072     -0.75654041625340
  C          -5.10390570397768      0.09158441023680     -1.41803797454922
  C          -3.53976922718041     -0.18804180925613      0.47710076241585
  O          -0.95774152454223      3.13939556053943     -4.47227008288237
  C          -0.64337385540731      3.54836533659442     -2.16409002497981
  C          -0.69457098438076      4.61340636079929      0.14119148263308
  C          -6.13859201762834     -0.69830310026689     -0.60311838306606
  O          -5.73253312920410      1.00780406835407     -2.28605023610022
  O          -4.57800327289205     -0.75418894436261      1.24963978836208
  C          -2.49292579425753      0.40819883069937      1.46770412816422
  O           0.64860451583228      2.93843323110825     -2.16879279140957
  O          -0.88891729203179      5.89125845052540     -0.40525175244609
  C          -5.43859350402411     -1.55925294532084      0.46796771890992
  O          -6.95124895030535     -1.46409468291973     -1.44568129686902
  O          -1.33821881576890      0.70900183593223      0.60387539439896
  O          -2.84421000651618      1.34922098660771      2.22515636424691
  C           1.79271516434534      3.75749061775538     -2.01921376351270
  O          -4.74975697667601     -2.58951119743666     -0.17448110739170
  C          -0.19357022399545      0.23404574200999      1.24201024557724
  C           2.83878166159443      3.33138920085127     -3.06459128515909
  O           2.32994905618779      3.71034760349375     -0.73171845281788
  C          -4.55096860175302     -3.82176697512607      0.52179853165177
  C          -0.69266348360037     -1.09282984476366      1.83760405269882
  O           2.33334890022324      3.38067253703993     -4.36986247544662
  C           3.37936365777882      1.92883501352490     -2.73507776967993
  C           2.82033674569758      2.44651682353890     -0.28586312456625
  C          -3.78422798984422     -4.68735850148918     -0.49123274205891
  C          -3.76516343191085     -3.67902579289200      1.84384148253474
  C           0.18169690716440     -1.57850292194075      3.01231098724884
  O          -0.66125023441972     -2.02845531168626      0.79030569605608
  O          -1.99078879488428     -0.80032637483565      2.23254835130860
  O           4.49373334122886      1.61386790190423     -3.53366860371027
  C           3.82716551897651      1.81607139520708     -1.26974679413537
  C           3.46941963094481      2.74590563568362      1.07824691200828
  C          -3.32383480284218     -5.99757983318863      0.15510552616193
  O          -4.58769498623814     -4.93049950453457     -1.61633831679872
  O          -3.18394783752744     -4.91140802430258      2.28345312921756
  C          -4.64007824288200     -3.23683278077170      3.03412031409112
  O           1.43073131159839     -1.93993123132198      2.42240939214218
  O           3.97998719845410      0.41409313807850     -1.06005894484150
  O           4.61529913963057      3.54316585802143      0.94657968714114
  C          -2.42889446367768     -5.62758964840555      1.35202462533340
  O          -2.71566829017430     -6.83822656199286     -0.77821155210014
  O          -5.88626744033075     -3.87940921647876      3.07675747799978
  C           2.35114807414198     -0.99014863527246      2.28488214895196
  C           4.89838646383843     -0.04757699381147     -0.11646474696898
  O          -1.31484350414624     -4.86418746191723      0.93695906185128
  C           3.21456031009731     -1.18504760277309      1.04781466092413
  O           2.42586102060086     -0.00932663614440      2.98208291443362
  C           5.49860493920912     -1.36464603607909     -0.64651498871853
  O           4.30118911339278     -0.29364299799273      1.14374369757376
  C          -0.05086204658698     -5.51890493360669      0.82442159454763
  C           3.68052494088012     -2.59704689567043      0.64891476734881
  O           6.10181877461848     -1.21116144878361     -1.89804550267577
  C           4.39970277915243     -2.44288654316040     -0.70996863712808
  C           0.53307801476695     -5.13568967679153     -0.54299363674618
  C           0.85140609230171     -5.05208670865421      1.98225979463471
  O           2.54339867942347     -3.42082175032563      0.48736466451258
  O           4.93964836904627     -3.68239745032558     -1.10543603702096
  C           2.02416116540419     -5.48093170837651     -0.61627824979669
  O          -0.19523904969349     -5.80096422160356     -1.54919128188750
  O           2.22781952749909     -5.34907504703471      1.76717128984267
  C           0.44425366848263     -5.72177369464827      3.30206803603323
  C           2.73377542936725     -4.81395481333668      0.57306905545814
  O           2.51510146486625     -5.06149764051346     -1.85902938220013
  O           0.43482277279071     -7.12184763776308      3.21223525301744
  C          -0.46923496916883     -0.43638352338221     -2.14591657230504
  O           0.62230381747041      0.22364985242517     -2.20980033610966
  C          -0.56388686931014     -1.74791336609606     -2.64620406919745
  C           0.55666477393771     -2.40651764686632     -3.20842238689503
  C          -1.82681953732036     -2.38221753052987     -2.67615124266401
  C           0.40284049969917     -3.63634886077734     -3.80129485039292
  C          -1.96738462252655     -3.60536643777406     -3.28889215431454
  C          -0.85679783604186     -4.23250614704055     -3.84939018587322
  H          -4.43093271394262      3.08001679003771     -1.46711161564005
  H          -3.18356421036144      4.10540377091942     -3.32068154200188
  H          -4.66669873529070      1.58265287344408      0.12167870038384
  H          -4.44893654884775      1.85323703062425     -3.54116037151213
  H          -1.34550965483119      1.70525508168840     -3.05745708856226
  H          -1.07244815125886      2.53406962566289     -0.29234420755097
  H          -4.51164133542747     -0.61940822131176     -2.01474551315240
  H          -3.02423037922590     -0.97946357083225     -0.08345234132069
  H          -1.56492224197501      2.81340875274560     -5.15509363999104
  H          -0.56014294298819      4.59358841126096     -2.48736799644995
  H           0.38354755922854      4.47995948488595      0.24647613080051
  H          -1.16569233284534      4.52072249375852      1.12666821074273
  H          -6.79222817154114      0.01294407830017     -0.08597245983427
  H          -6.52579176932778      0.57608117110616     -2.64919117345803
  H          -1.83933275559629      6.07322618230120     -0.42708793157163
  H          -6.18388308239303     -1.95784571054748      1.16814761843040
  H          -6.47238651147039     -2.27110457796983     -1.69975520305221
  H           1.51998124035169      4.80908046481419     -2.17094899723122
  H           0.58475000925310      0.08376872344077      0.49644123790006
  H           0.13693850178206      0.91595254398228      2.03538873878725
  H           3.67175089751754      4.04270054019775     -3.02385962431111
  H          -5.53246787628780     -4.26978761386084      0.73435041581675
  H           1.40134079427177      3.10319227590158     -4.38574157806828
  H           2.58853299296491      1.18745867141431     -2.90658984567136
  H           1.97946194055431      1.75736951298874     -0.13111346118259
  H          -2.88972395199275     -4.12082560564570     -0.79511624822597
  H          -2.98648107175989     -2.91925535294651      1.71192021529475
  H           0.30007298105628     -0.78855617816911      3.75533055526410
  H          -0.24796759844957     -2.47081125385551      3.46684915558960
  H           4.29242426355173      1.85827523984849     -4.45114570139802
  H           4.79673381419555      2.31798766663861     -1.15292093428917
  H           2.71710150137936      3.23089475418553      1.71114695478363
  H           3.77666364101814      1.81824497782240      1.56252819534139
  H          -4.19054989698871     -6.54608506463430      0.54116262271533
  H          -4.42536126095518     -5.84568907167194     -1.90529215924626
  H          -4.06240528796948     -3.43193343099661      3.94366292934761
  H          -4.81766694558280     -2.16278628370475      2.97251488069300
  H           4.34749051281329      4.42441440046073      0.64659330448144
  H          -2.10156000925014     -6.53164446792804      1.88188239982442
  H          -1.87210727402308     -6.44923110485893     -1.09163488128434
  H          -5.75818867858272     -4.79345884929984      3.37199639206071
  H           5.68357212428145      0.69197793907699      0.08086522409091
  H           2.54493829957004     -0.85177537963133      0.23375614376099
  H           6.28106891774812     -1.69144176741148      0.04738021813746
  H          -0.18202963230078     -6.60653008617650      0.87331088917680
  H           4.36275131571491     -3.00322592632197      1.40530136568746
  H           5.56680312307612     -0.61492575698648     -2.44915170573454
  H           3.64170637850233     -2.12499395800395     -1.44229267719273
  H           0.42402284272968     -4.04826384433144     -0.66491961766759
  H           0.74370366127330     -3.96942067834536      2.06921640591465
  H           5.65783452628719     -3.50323194149953     -1.73767517720191
  H           2.15037305788288     -6.57078077659784     -0.50482167804202
  H           0.42433845536681     -6.06809819332347     -2.24584135873397
  H          -0.57413859693268     -5.41795919207546      3.55590681369245
  H           1.12539888359052     -5.38152954114250      4.08992458119775
  H           3.80042731810718     -5.06763718719559      0.57603568510208
  H           3.43851107670187     -4.76527738309146     -1.76136835866314
  H           1.34516720470104     -7.42863796995101      3.08751490038976
  H          -0.98277987757747     -2.90381590812343      1.07971415578679
  H           1.51752503877947     -1.91933496004310     -3.17122762560495
  H          -2.67338642373579     -1.88554423896374     -2.22776603015960
  H           1.25643782432959     -4.14035771317528     -4.22407721648323
  H          -2.93729221178321     -4.07565560811004     -3.32815298849653
  H          -0.98152766574929     -5.18783596692714     -4.33384399329445
  H          -1.36607017486930      0.02419917299513     -1.72881365645019
  H           0.56848429370676      1.20315895281302     -2.01886628671706
