147
Coordinates from ORCA-job job E -274.679645328890
  C          -3.38155087112964      2.81010661989316     -1.62144279282760
  O          -3.14848695692769      1.47217802046553     -1.24106534191797
  C          -2.94406358528233      2.98051346572444     -3.08760545688915
  O          -2.70731384469346      3.73900284145888     -0.82169585385796
  C          -4.15366629985574      0.85490546768221     -0.45326176084126
  O          -3.60581461212957      2.09885912379075     -3.95538192625824
  C          -1.44102369585355      2.69022448156527     -3.17252110107085
  C          -1.29844220128028      3.52295493821434     -0.74736401947591
  C          -5.12163940037958      0.11042007303294     -1.38804945723761
  C          -3.56229524354137     -0.17740796565851      0.51178942617274
  O          -0.89340466877836      2.97695405138319     -4.43291514119879
  C          -0.64494512477371      3.49938534757006     -2.14039472854260
  C          -0.73024336850112      4.66150846762715      0.11073989168984
  C          -6.15989156959093     -0.68046461472905     -0.57959134637312
  O          -5.74614844633830      1.02776491699794     -2.25806142449222
  O          -4.60253944109098     -0.75583146401769      1.27178096981275
  C          -2.53273843597256      0.41069369913074      1.52534425979090
  O           0.64398914889886      2.88993430704428     -2.07759583720976
  O          -0.89873107634580      5.91700651308826     -0.49292064175806
  C          -5.45740124556501     -1.55471269296428      0.47805566535063
  O          -6.97774374032001     -1.43283649878074     -1.42915835195813
  O          -1.37793377829074      0.77430712529272      0.69017106213180
  O          -2.91316379460471      1.30965699931687      2.31868468341884
  C           1.78487396455547      3.72321211823083     -2.00276973939219
  O          -4.76137072034781     -2.56909712309079     -0.18157528796680
  C          -0.23192478904946      0.33369017454947      1.35381865696535
  C           2.78635725437582      3.27708609605200     -3.08158870791556
  O           2.37502254393084      3.70768184993457     -0.73788743873572
  C          -4.54967372698430     -3.80905752556495      0.49591334330236
  C          -0.68890461162417     -1.04321781929484      1.85953739659802
  O           2.23214244924298      3.31127673796963     -4.36746738448073
  C           3.31519682052123      1.87302915803919     -2.74426099973166
  C           2.88724922807386      2.45491513438545     -0.28481575963263
  C          -3.79017915950882     -4.65793119799254     -0.53644814288775
  C          -3.75158624088049     -3.67984395363076      1.81210179657835
  C           0.17925025442426     -1.57745199210589      3.01676385840023
  O          -0.61145105903265     -1.91223898011842      0.75496753949626
  O          -2.00283406115075     -0.81922027871876      2.24524199714752
  O           4.37263051102184      1.50816797285133     -3.59548912443699
  C           3.84073574305775      1.79549203352472     -1.30294431152666
  C           3.59863408410288      2.78554273051678      1.04065540095452
  C          -3.31833517469743     -5.97450503178362      0.08825457663838
  O          -4.60516487309553     -4.88960528071967     -1.65539010689823
  O          -3.16765513380554     -4.91710444339514      2.23146658376628
  C          -4.61657415710918     -3.25244489802491      3.01481596930671
  O           1.42762805774505     -1.93129873724847      2.42116203481110
  O           4.00156503092296      0.39846223765469     -1.07278784787061
  O           4.76014950026335      3.54513681465527      0.83952365170175
  C          -2.41755513531961     -5.61723956473774      1.28407912182808
  O          -2.71019679735034     -6.79779671636995     -0.86095997835876
  O          -5.85890253810112     -3.90222145294482      3.06295752646533
  C           2.33502724159009     -0.97076781492155      2.27123779271147
  C           4.90860995783180     -0.04227321269859     -0.10923748810744
  O          -1.30821139796773     -4.84789366891392      0.86776125312082
  C           3.20770929091932     -1.17147676565800      1.04144363294630
  O           2.39407968205755      0.02117174171292      2.95428391072977
  C           5.52568867696751     -1.36312705764834     -0.60944791421522
  O           4.28999242000088     -0.27467882028510      1.14350192923198
  C          -0.04183434659228     -5.50071528397841      0.77787769879026
  C           3.68449914687881     -2.58532877364334      0.66205665108421
  O           6.15546368569353     -1.22382123889013     -1.84943803036796
  C           4.43092631470100     -2.44373235898819     -0.68323456793516
  C           0.56297177624114     -5.12049217871303     -0.58023926424536
  C           0.84091155163222     -5.03627900264125      1.95087286448320
  O           2.55122151931638     -3.41062375995690      0.48349025177279
  O           4.98111679898258     -3.68612273691393     -1.05624716473733
  C           2.05381862936698     -5.47000004176032     -0.62986826775165
  O          -0.15467883842906     -5.78590479503903     -1.59330648616204
  O           2.21939596799585     -5.33778608869355      1.75773895460188
  C           0.41019123804056     -5.70517134947076      3.26354746343308
  C           2.74370726727593     -4.80310131011369      0.57142627262512
  O           2.56460359191722     -5.04906141117917     -1.86391865126103
  O           0.39873108629154     -7.10521532627476      3.17266778508794
  C          -0.51076379754699     -0.50209610059391     -1.99168596347264
  O           0.59101269080949      0.14501085763441     -1.95788012195241
  C          -0.59351863609358     -1.78144581560584     -2.56976012173168
  C           0.54588472786376     -2.41885627760886     -3.11814842586042
  C          -1.85927849623377     -2.39965998994973     -2.69046496140224
  C           0.40827814908466     -3.61233808431493     -3.78500275490692
  C          -1.98120849426534     -3.58953676631509     -3.36941700803845
  C          -0.85158580391776     -4.19555095176930     -3.91499169473631
  H          -4.44370954331510      3.06156843226368     -1.51266951593025
  H          -3.14336943541512      4.02307498478606     -3.37883979842042
  H          -4.68033032797822      1.60274475394531      0.15154288399580
  H          -4.43858750495629      1.79774437401735     -3.55139054900971
  H          -1.33664388778102      1.61889208402806     -2.95983467115981
  H          -1.11950558747824      2.57030053838344     -0.23776816899886
  H          -4.52956768561928     -0.60183087652778     -1.98382504651416
  H          -3.03854639066258     -0.96131887662227     -0.05174048438427
  H          -1.48568516383842      2.62695138400346     -5.11706506778780
  H          -0.55400498075069      4.52891076918243     -2.50889940101345
  H           0.34474092004506      4.51825129800152      0.23790618297594
  H          -1.21550383746329      4.61837764990647      1.09251256399067
  H          -6.80879510825803      0.02758092857209     -0.05243688287994
  H          -6.54962530695097      0.60380888659470     -2.60777753055160
  H          -1.84586744091194      6.11241949430273     -0.53497752490641
  H          -6.19947087825945     -1.96937438174386      1.17227628325615
  H          -6.50142761007802     -2.23697303776624     -1.69687761547589
  H           1.49844076288442      4.76910445328208     -2.16650868403590
  H           0.58847377780382      0.27186097629823      0.64254637446967
  H           0.02150049528342      0.98880196183507      2.19612484724107
  H           3.62808282404029      3.97887639816125     -3.08520993640471
  H          -5.52639148977067     -4.26511369702895      0.71314193486202
  H           1.29807079491047      3.03611386283885     -4.34732457184229
  H           2.49488394733023      1.15006832747721     -2.84612275057669
  H           2.05459038296429      1.77154660044164     -0.07066117343496
  H          -2.90076164240418     -4.08484057770459     -0.84290584203750
  H          -2.97225435843835     -2.91990068244248      1.68234510812840
  H           0.30113994620875     -0.81577354752501      3.78811173425984
  H          -0.25946318633004     -2.48184819455376      3.43742673098249
  H           4.12407194716785      1.73528208531357     -4.50600347937142
  H           4.81689715882485      2.29563760529579     -1.24947675613047
  H           2.88333040950005      3.31370095136505      1.68144285644084
  H           3.89662977395599      1.86648499887996      1.54648276356347
  H          -4.17990279544142     -6.53336410412572      0.47082361747051
  H          -4.43128915543729     -5.79549842127832     -1.96565692174170
  H          -4.02917077770005     -3.45314734270909      3.91685303842241
  H          -4.80012182988081     -2.17887027180379      2.96564224749239
  H           4.50519167352976      4.42652184947553      0.52926953727712
  H          -2.08491370762032     -6.52767933629059      1.79918695933898
  H          -1.86009311158767     -6.41121010115320     -1.15762280644654
  H          -5.72315525274148     -4.81801594562989      3.34931778824996
  H           5.68616171858712      0.70475579906753      0.08988544411396
  H           2.54403976251934     -0.84895528298162      0.21800368800623
  H           6.29445052830124     -1.67770290278588      0.10482077479323
  H          -0.17259265956090     -6.58859566815078      0.82363507661985
  H           4.35119576294695     -2.98530911349777      1.43545606869757
  H           5.61549223477017     -0.65992900836253     -2.42883653248759
  H           3.68766378525970     -2.13398473634001     -1.43376412482665
  H           0.46147884608040     -4.03268539131521     -0.70624493860529
  H           0.73468509162378     -3.95333970167760      2.03671202498742
  H           5.71481606081750     -3.51075661710693     -1.67148110471372
  H           2.17655899778683     -6.55998851200167     -0.51736681885342
  H           0.46741225838189     -6.02522589832345     -2.29781007283342
  H          -0.61139650972587     -5.39875860422422      3.50098994638349
  H           1.07948447936073     -5.36727778954777      4.06249739786435
  H           3.81042015814319     -5.05516442298222      0.59146137352916
  H           3.49043151760454     -4.76572244083675     -1.75333776725995
  H           1.31019385221871     -7.41382970012140      3.06132730336241
  H          -0.93017518741524     -2.80433840127187      0.98940244253411
  H           1.50786048066128     -1.94437980307255     -3.01124183666788
  H          -2.72036092710512     -1.91623532684318     -2.25534146726811
  H           1.27601661980567     -4.09880909456408     -4.19970332473989
  H          -2.95101790304311     -4.05061112152508     -3.47055538576390
  H          -0.96035753481735     -5.12490436035798     -4.45118836267149
  H          -1.42129502505391     -0.04556968795480     -1.60276577456930
  H           0.52051816222545      1.10842863047299     -1.72861027731296
