147
Coordinates from ORCA-job job E -274.683761062200
  C          -3.24964632502062      2.67175647678641     -1.60610036593350
  O          -3.06178962316854      1.38220585777429     -1.06375500600277
  C          -2.79821575879940      2.65272342209087     -3.07896735134974
  O          -2.57695411831047      3.67392324673210     -0.90025974999333
  C          -4.12030448117055      0.89155392488594     -0.25519220810013
  O          -3.41014635807999      1.61945904100428     -3.80311878553551
  C          -1.28456313292263      2.43508791673276     -3.13988550060552
  C          -1.16193523120803      3.50413144648630     -0.82839449319291
  C          -5.13596564589613      0.16510172113419     -1.15487049959893
  C          -3.59028465904768     -0.11699612672624      0.77016811599446
  O          -0.76987651960063      2.59894122559338     -4.43701480542024
  C          -0.52823296021298      3.40575121750685     -2.22632160433528
  C          -0.62492065049531      4.71432724324390     -0.05282338966772
  C          -6.21056135411733     -0.52876089682172     -0.30748079773287
  O          -5.71694240744977      1.06971367563571     -2.06717509899257
  O          -4.65347442762777     -0.64359970372377      1.53513408177078
  C          -2.55860160076160      0.49160627467952      1.76942703933199
  O           0.78219492745755      2.86717883314338     -2.15811728760464
  O          -0.86352595017279      5.92413274592418     -0.72267482813338
  C          -5.52928294124220     -1.42473788120786      0.74297151757347
  O          -7.09670669332712     -1.24007414573303     -1.12275132159736
  O          -1.40372744326813      0.85533679007655      0.89533528391560
  O          -2.93095099283972      1.40850837752035      2.53940820514598
  C           1.89053971867077      3.72489580107800     -2.13404066598079
  O          -4.85370576757027     -2.43694130308423      0.06111417720532
  C          -0.24518938644618      0.40787151796233      1.54257739321279
  C           2.88432025019002      3.19219650168502     -3.18248606985071
  O           2.49496756553349      3.77182061949755     -0.86889871649751
  C          -4.64423337320439     -3.69419968143120      0.70380018311268
  C          -0.71253043662904     -0.96608669262520      2.04816845335791
  O           2.33727110810688      3.19038273670460     -4.47111218834613
  C           3.29174680058202      1.77507556946679     -2.75490259274369
  C           2.89310264847426      2.50388563909787     -0.35103376351516
  C          -3.90777847203487     -4.51549244700422     -0.36767920008393
  C          -3.83330073165732     -3.60504637511147      2.01441776696337
  C           0.19433446058815     -1.55188586852898      3.14540662055882
  O          -0.73152063712917     -1.81361505293900      0.92613082869147
  O          -2.00215329239003     -0.70869396976641      2.50244219624075
  O           4.27564741301265      1.23090382522579     -3.59504580380781
  C           3.83539655362758      1.76291623702992     -1.32012438769019
  C           3.56721136890923      2.80948833522009      0.99659361575575
  C          -3.41753727485867     -5.84558967792140      0.21095513985927
  O          -4.75710647211280     -4.71210048592292     -1.46706028436591
  O          -3.25950937656215     -4.86049140372547      2.38927600779352
  C          -4.68404190308648     -3.19941933965642      3.23431265682844
  O           1.40716303663714     -1.91175366638618      2.48202171691506
  O           3.95428745187720      0.37851394582933     -1.01796062808205
  O           4.77916442258350      3.49673630722378      0.83244113120502
  C          -2.51014919118983     -5.51648603018160      1.41227986161144
  O          -2.80893840868146     -6.63290777565735     -0.76780021418376
  O          -5.93047468435507     -3.84148580631283      3.27893009134414
  C           2.34776838417482     -0.97975155997618      2.35463846895592
  C           4.88263689640152     -0.05420288932066     -0.06959772503992
  O          -1.41636436673903     -4.70681737881082      1.02577049871061
  C           3.18894894284899     -1.16369892531123      1.10026507099359
  O           2.45441483279483     -0.02083660506253      3.07730817021827
  C           5.47802988456953     -1.37571662793357     -0.59082316406276
  O           4.28592384685976     -0.28384157986338      1.19296794869798
  C          -0.17452041656621     -5.36128422948543      0.77166629884396
  C           3.62905395195127     -2.57781138450797      0.67597972628794
  O           6.10102553476085     -1.22363352692451     -1.83311063208055
  C           4.35402201015417     -2.42379058556253     -0.68002667125630
  C           0.35574173273925     -4.83449840472743     -0.56843518642081
  C           0.79625579909360     -5.04832975499210      1.92635030055330
  O           2.46205392962448     -3.35413424357952      0.50822435760124
  O           4.86198326344354     -3.66701610236965     -1.10613851535112
  C           1.81295288320417     -5.26230973433939     -0.76529562930720
  O          -0.46961050857282     -5.30997468661810     -1.60689091449441
  O           2.14327344085934     -5.38445561869341      1.60921321643610
  C           0.41945055590425     -5.82631629019661      3.19495034603513
  C           2.61149561764971     -4.75411914755552      0.44728066368563
  O           2.26668555753664     -4.73405601574688     -1.98126552229358
  O           0.31247182790346     -7.20694061236662      2.96807772042746
  C          -1.30079795839178     -1.35915988356218     -1.95596081600197
  O          -0.70397661957982     -0.38003692363886     -1.41455430599373
  C          -0.69018513428833     -2.15633487375211     -2.94726301901027
  C           0.65894570609950     -1.94927117799323     -3.32001739368738
  C          -1.43537456522965     -3.18290129354604     -3.56912284045843
  C           1.23465891828642     -2.74706628520120     -4.27956802607812
  C          -0.84352969024613     -3.96732027845218     -4.53412683309767
  C           0.48674155985176     -3.75405780297164     -4.88633015406600
  H          -4.30723108039897      2.95641248170147     -1.54641943018967
  H          -3.04323010821844      3.63374877327822     -3.51607602320706
  H          -4.59415954239169      1.71048880280510      0.29936496518976
  H          -4.32451207850828      1.50388310851379     -3.49113691607544
  H          -1.08056901715681      1.41892949433575     -2.77961338011378
  H          -0.93826160281389      2.59207370396166     -0.26535622127299
  H          -4.58845267056567     -0.60671801003011     -1.71848804994787
  H          -3.08562402357398     -0.94242650249987      0.25150091289320
  H          -1.32171994472023      2.09187560518817     -5.05372003890525
  H          -0.51019547324325      4.40163567221060     -2.68853872939122
  H           0.45773724334546      4.62402569395527      0.05508595346673
  H          -1.08657292403379      4.71136234226072      0.94184568832117
  H          -6.79770463820190      0.22932043980921      0.22138076843036
  H          -6.56938854859851      0.69477250239214     -2.35152454632500
  H          -1.82094704822774      6.06053599721530     -0.77253428962603
  H          -6.27348462431883     -1.83232318426190      1.43799447873591
  H          -6.66818384543151     -2.06239290765591     -1.41503599822311
  H           1.60319093190665      4.76028988576594     -2.35557569712337
  H           0.56497085410636      0.35583791734038      0.81794148855123
  H           0.01674027237425      1.05803960846995      2.38397545370282
  H           3.76689500735210      3.83899562528591     -3.21413110763942
  H          -5.62017915159530     -4.15218020057416      0.91864564903449
  H           1.40862181169076      2.89490018950020     -4.43751171708733
  H           2.38850515591000      1.14550774715649     -2.77199902838844
  H           1.99999941598333      1.88701937914130     -0.17966928384874
  H          -3.02429676255464     -3.93601753002178     -0.68309550406807
  H          -3.04508234023049     -2.85181027818452      1.90067390739907
  H           0.36813471399092     -0.81767686526776      3.93328950641950
  H          -0.24400261755735     -2.46093336051452      3.55719268358309
  H           4.07142817628926      1.48984685224118     -4.50866246391474
  H           4.82447708308370      2.23827771344985     -1.29512470399162
  H           2.86185117856993      3.38924012455624      1.60321045780392
  H           3.79349827792783      1.88161320956603      1.52436159397755
  H          -4.26881695404042     -6.42510200754964      0.58500764595679
  H          -4.55106066185011     -5.58046503236852     -1.85454305520989
  H          -4.09022932230095     -3.42422874901222      4.12644012601431
  H          -4.86199603548592     -2.12381540051843      3.21076301766106
  H           4.58878186889323      4.38082621504576      0.48514846269167
  H          -2.15691147369407     -6.43998815900597      1.88895873824429
  H          -2.00888350439808     -6.18194348533566     -1.11335798500501
  H          -5.79799935437584     -4.76646305760319      3.53527631110768
  H           5.66363032906503      0.69327621807348      0.11103898970430
  H           2.50957377683024     -0.81132627045954      0.30201119431128
  H           6.24495050976138     -1.71935585888981      0.11151456990764
  H          -0.32493093145320     -6.44500492435590      0.70305399358805
  H           4.29802858585851     -3.01786435457589      1.42584851954670
  H           5.56198137413007     -0.64428276144328     -2.39940933323940
  H           3.60840130454616     -2.06892459857664     -1.40848203641568
  H           0.32404159429357     -3.73579474195018     -0.54442740207855
  H           0.74632006057422     -3.97547357673513      2.12738887230108
  H           5.60877092364528     -3.48906574629858     -1.70481903713819
  H           1.87695985954597     -6.36255239742566     -0.77487041903495
  H           0.08019789217413     -5.42599093828118     -2.39715386713778
  H          -0.56073698784844     -5.48993051165170      3.54077530319827
  H           1.16461386319807     -5.60938806518967      3.96801368604361
  H           3.66609459353751     -5.04016812530140      0.37025243335917
  H           3.22965211226225     -4.60631470736672     -1.93104858654350
  H           1.19376159526412     -7.55666425174364      2.77036578580523
  H          -0.99754037402779     -2.71903675319247      1.17777593165974
  H           1.21497490621676     -1.16396430110136     -2.83210022925212
  H          -2.46462651728561     -3.33472199849121     -3.28535867111065
  H           2.26192368917400     -2.59601066424608     -4.56615718753808
  H          -1.40951579519590     -4.74711147694658     -5.01715999644196
  H           0.94599345664824     -4.37583254049768     -5.63885772140706
  H          -2.32436750534893     -1.60355044264478     -1.66950117327638
  H          -1.18976581920406      0.09264571510608     -0.68173217263226
