147
Coordinates from ORCA-job job E -274.677843068700
  C          -3.12456927678978      2.45367269421255     -1.90923275850104
  O          -2.96732778679884      1.20397593226470     -1.28218440983361
  C          -2.56819326332425      2.33222302309715     -3.33915718641080
  O          -2.48962684239027      3.50279538979966     -1.23317658346964
  C          -4.05812576954650      0.74445530461927     -0.50237805860520
  O          -3.17121849400044      1.28839861045177     -4.05755180149442
  C          -1.06830127978119      2.05071449085473     -3.24127474013638
  C          -1.08504207744367      3.32265549726855     -1.04741393962520
  C          -5.00810587931512     -0.05035069628142     -1.41754485928695
  C          -3.54965809098983     -0.20923108023924      0.58313958016772
  O          -0.44430868774672      2.02554046266712     -4.50031578500576
  C          -0.36293315282208      3.11140238477548     -2.38895868314838
  C          -0.58474042307516      4.58083828309120     -0.32754919066110
  C          -6.09480317117951     -0.75468519373019     -0.59404552655201
  O          -5.57405483743896      0.79880898531998     -2.39070143657845
  O          -4.62176698378011     -0.75690210824895      1.31732269404481
  C          -2.56166315332386      0.44399414291728      1.59749284953455
  O           0.94931530878275      2.60666426374281     -2.19936837835658
  O          -0.76338186429523      5.73944513381099     -1.09947267866904
  C          -5.43253706790526     -1.59374224494737      0.51411873668151
  O          -6.92671668113258     -1.51678642390221     -1.42098472734648
  O          -1.40171014926799      0.79430286008501      0.78606889425139
  O          -2.97849874327478      1.33713252145385      2.37254340420815
  C           2.03548696231442      3.49506854504990     -2.18605383356871
  O          -4.69088703177384     -2.61058414528463     -0.09225294816009
  C          -0.24647023740166      0.39367287096622      1.46181063423012
  C           3.09445911431017      2.92589649060147     -3.14759036876748
  O           2.57709431019300      3.65197611680297     -0.90246046653417
  C          -4.47800451827047     -3.83172129923544      0.62057796168609
  C          -0.68578580230987     -0.95818246270440      2.05349777250371
  O           2.60229498890810      2.80335425441371     -4.45219567241890
  C           3.54822961844686      1.56531461772894     -2.59804677229545
  C           2.99743521836535      2.44187927121305     -0.27541944592449
  C          -3.65644955542105     -4.68049487904603     -0.36387386253474
  C          -3.75033678229174     -3.65163284447108      1.96997678944734
  C           0.16703220923257     -1.40640893728515      3.25701548268716
  O          -0.53083002212217     -1.92647960857661      1.00831488685678
  O          -2.01011450047254     -0.78095444473653      2.36559250649479
  O           4.60457417898726      1.02399811578627     -3.34797998699713
  C           4.01889638792475      1.67816670437127     -1.14170960739671
  C           3.58445136984277      2.87589793329633      1.07792654610677
  C          -3.14675929269117     -5.96169279887963      0.30180077668461
  O          -4.43390309302035     -4.94931787719683     -1.49900197010529
  O          -3.13995825276130     -4.85960717687469      2.43428682431731
  C          -4.69139602530971     -3.23924213078095      3.12029084489787
  O           1.44003815938350     -1.76452185684440      2.71962906675048
  O           4.18403057939341      0.32433386002735     -0.73851767381690
  O           4.77731045976929      3.59788975345366      0.92418818014558
  C          -2.32203736542064     -5.53943892752217      1.53354978686273
  O          -2.44281522399432     -6.75639455922522     -0.60660358571610
  O          -5.91763972115776     -3.92089672205254      3.10662445027869
  C           2.35766447464425     -0.81015783879413      2.59269350391443
  C           5.05048193619424      0.00333972022570      0.30723896624389
  O          -1.22691292730211     -4.72194737103912      1.15578733097582
  C           3.30374510770494     -1.06707162622516      1.43035971913277
  O           2.37294014068552      0.20688949637239      3.23874352761540
  C           5.72362012399323     -1.33490745080756     -0.05364273509438
  O           4.36787873093414     -0.14951999646750      1.53740488182022
  C           0.05461399111725     -5.34746776162650      1.08008954015801
  C           3.80931157866544     -2.49812275361521      1.16284893472880
  O           6.43590440847481     -1.26471990200518     -1.25475344038748
  C           4.64724503876969     -2.43255594769382     -0.13384861788783
  C           0.71405240783606     -4.88867910007273     -0.22576015733340
  C           0.89410307127710     -4.94403995808359      2.30768932891904
  O           2.67518909037466     -3.31387271642153      0.96000083987424
  O           5.23665547587277     -3.68692144597537     -0.39381201573545
  C           2.18562144404828     -5.31742963272171     -0.24560229810826
  O          -0.01245560368441     -5.41784432993918     -1.30907728700593
  O           2.27218524606593     -5.27348989082976      2.15153141815342
  C           0.39949706247379     -5.65168212675709      3.57765279429818
  C           2.85046850749940     -4.71247682675927      1.00429399271664
  O           2.75212482280362     -4.86404099104640     -1.44425539389314
  O           0.32821082205623     -7.04549045932901      3.42513139888450
  C          -1.48851763890513     -1.87320672747731     -2.01434764682348
  O          -0.44704508984512     -1.50807306727883     -1.40666945662271
  C          -1.66686336024310     -1.77529921993819     -3.41478229520000
  C          -0.67203635747353     -1.22572466847602     -4.24989593659101
  C          -2.87660549589386     -2.23250530018394     -3.97826950583369
  C          -0.90073611943025     -1.11420259768127     -5.60223435443160
  C          -3.08899812140719     -2.11267756218763     -5.33278212566612
  C          -2.10880679907659     -1.54622861524840     -6.14191455830571
  H          -4.18287969433070      2.74293056239158     -1.93436026285041
  H          -2.72992209291797      3.29568835066029     -3.84876882008300
  H          -4.57375430119657      1.58168906101267     -0.01655143700804
  H          -4.09455318001572      1.19657996751241     -3.76546482881959
  H          -0.94481396623777      1.08412330780628     -2.73271665984345
  H          -0.92017524289300      2.44636255595329     -0.41213045083875
  H          -4.40216824912422     -0.81572611945080     -1.92674826862017
  H          -2.99362697478002     -1.01419421917384      0.08949391964741
  H          -1.06575397404075      1.63934025349448     -5.13675848676469
  H          -0.32832927826425      4.06166738547489     -2.93877930243751
  H           0.48686955305553      4.49025284988805     -0.14047635371104
  H          -1.11119147097529      4.65639153427704      0.63131443224994
  H          -6.72525314968908      0.00044580575231     -0.11237691720224
  H          -6.40265262916457      0.38680324111987     -2.69416681195576
  H          -1.71383410479710      5.87251715821083     -1.22965283862536
  H          -6.19615906635949     -2.00237855075776      1.18707124270731
  H          -6.48091723970867     -2.35146967266011     -1.64091922901378
  H           1.73063261247420      4.50324273037877     -2.49395164891722
  H           0.56132804690013      0.31369351790441      0.73498969396420
  H           0.01671275628041      1.09447273493301      2.26383162493180
  H           3.95018530316091      3.60709466058466     -3.19423486571834
  H          -5.44963684632133     -4.31295114010766      0.80017066556361
  H           1.68683955784835      2.46855941913699     -4.42933262852588
  H           2.68285401092907      0.88437351694598     -2.61335610641778
  H           2.12166971002451      1.80057669046287     -0.10457928214745
  H          -2.76868180144095     -4.09759208180961     -0.65636901260801
  H          -2.99686337528679     -2.86150877293215      1.87365579458895
  H           0.24872988936212     -0.59860913177496      3.98559288807218
  H          -0.26411980388529     -2.29457603525852      3.71879407618321
  H           4.40866999407537      1.15665101881739     -4.29003530411789
  H           4.98440070905770      2.19931952783636     -1.10493498298509
  H           2.82486378195389      3.47147438093854      1.59764778470404
  H           3.81441207320644      2.00185398821665      1.68867283746280
  H          -3.98984725654913     -6.56774665908811      0.64983573346312
  H          -4.13782697978465     -5.79664248496329     -1.87356414367212
  H          -4.14921619852777     -3.41738948045235      4.05454719166297
  H          -4.90066815951154     -2.17128503956218      3.05006003986213
  H           4.57397314631216      4.44048758569076      0.49164754215631
  H          -1.96913016914140     -6.42544856749376      2.07548881721705
  H          -1.63046721535448     -6.29702425171358     -0.90545135858358
  H          -5.77673309723075     -4.82799323715948      3.41613227174913
  H           5.79294334100288      0.79059083969505      0.48180295184313
  H           2.68735658734106     -0.80074594610231      0.55157839521821
  H           6.44595284906400     -1.58699069984956      0.73004776271335
  H          -0.06089647558014     -6.43711910824254      1.05820863162528
  H           4.41906705405318     -2.86055508010813      1.99954329498273
  H           5.90962885475501     -0.78263892183504     -1.91570981612992
  H           3.95663598294527     -2.17804613031763     -0.95294898724134
  H           0.69852538648187     -3.79080997987623     -0.26668145038902
  H           0.81439252047513     -3.86232437126032      2.43742578585149
  H           6.02801552714316     -3.53232826611376     -0.93854589402866
  H           2.25904958548737     -6.41432050661727     -0.17447151612533
  H           0.57600455243505     -5.44928809948501     -2.08008683959317
  H          -0.61355353682861     -5.31168705656699      3.80500608408353
  H           1.06218623573903     -5.37870370151289      4.40573240560632
  H           3.91112064976087     -4.98065113739889      1.05240511122168
  H           3.70907755562042     -4.74269179368317     -1.32659606336343
  H           1.22787592664882     -7.39500224801916      3.34713671079794
  H          -0.88464325306081     -2.80915697426630      1.26461733367458
  H           0.25695626494516     -0.89946728809763     -3.80983184610822
  H          -3.61941744541574     -2.68511806759831     -3.33855338407229
  H          -0.14417726690203     -0.69265202740864     -6.24403452960467
  H          -4.01336624901664     -2.45646294192349     -5.76766621421266
  H          -2.28397575478855     -1.44838958742785     -7.20189851742117
  H          -2.32339101652373     -2.30635444105381     -1.45800168723309
  H          -0.46057923693689     -1.65557225396656     -0.34697936025030
