12
Coordinates from ORCA-job job.QMRegion
  O           3.45766047187299     14.32603299204835     19.61368243640897
  O           4.55873343201358     15.63418933796135     18.13498657111184
  C           4.32099152952761     14.47830246139351     18.74416702952593
  O           3.48792437836711     16.82241199128880     18.76184973781735
  H           3.04183436048716     16.18911058418671     19.37993812149302
  H           2.61988625971278     17.95632087664047     19.16548461471847
  C           1.97401994889054     18.88805647126976     19.45742666241096
  O           0.61443071186187     18.60740639335276     19.33433298513754
  H           2.33338565619837     19.63364891074808     18.73041835383346
  H           0.37660266541971     18.58823443501806     18.39697497691660
  H           4.97145456730045     13.67564451534056     18.39082472118376
  H           2.26595115041826     19.15382784000141     20.48223429087525
