32
 xtb: 6.7.1 (edcfbbe)
C            5.02947735538683       12.13707275188163       18.83555306624980
O            3.42018712863557       14.27412277715878       19.66416125880800
C            5.84669125961763       11.11034066715066       18.39997077991794
C            6.93035520516623       12.61733312749346       16.87318217955132
C            5.16018388271226       13.41923786527110       18.28666401507887
H            5.74626088061981       10.11735572129830       18.82395617926886
H            6.20824523298788       14.63721232311538       16.88970473065611
H            4.28514612560401       11.96584388964918       19.59916075638183
C            6.79799386001639       11.34882968140924       17.41853847700306
C            6.11773952119448       13.65327471980404       17.30085048993420
O            4.39007276803524       15.68189979629205       18.25491603183834
H            7.67137114716644       12.79996433579862       16.10980788804559
C            4.25077770069416       14.46960494808259       18.80234005133082
O            3.49264434169044       16.66233129271591       18.78077829259176
H            7.43758399282668       10.54415261223961       17.07783910698471
H            2.94810457060378       16.17008585092201       19.46499157902571
H            2.65799025849374       17.96401195926299       19.16817072361919
C            2.06647275650465       18.89110083934337       19.40596657296568
O            0.67907694929910       18.61291366630424       19.26639473770431
H            2.41562039709371       19.64988074581913       18.71520362507062
H            4.35849465573224       19.95271565439259       20.25837870492645
C            2.41542944085304       19.25865025082854       20.83032829072410
C            1.53945973765342       19.03365942992306       21.87587578505745
C            1.90482498614251       19.37197818541503       23.16883986388263
C            3.14832712164970       19.92382099105415       23.41641666039648
C            4.03305542614619       20.13323978858721       22.37084049863105
C            3.66799045652858       19.79995561843144       21.08069672904350
H            0.56975922883618       18.59989663825485       21.67130659710256
H            1.21369266684324       19.20466691277968       23.98051622198674
H            3.43224080450266       20.18863955358275       24.42041107925002
H            5.00517964462380       20.56112121148358       22.55840874558832
H            0.47554977513553       18.57578734280212       18.32357874861681
