  136
        -21.25744938
 C         -0.3535396430        4.5054514307       -1.2643346848
 C         -4.7048626226        2.3224396964        0.5986016680
 C         -4.0454818468       -2.7981885096        0.4107697065
 C          0.5643671674       -4.5500925119       -1.4598865303
 C          4.8020303018       -2.3518882180        0.6438946213
 C          4.3347854813        2.7360111667        0.2907501807
 O         -1.0107270707        3.3015628648       -0.9102756138
 O         -4.6097118863        1.2017822543       -0.2647386971
 O         -2.7870438258       -2.5153065611       -0.2017464619
 O          1.2303854118       -3.3209586107       -1.2551175718
 O          4.9556968119       -1.3167532104       -0.3083293660
 O          3.0456887544        2.4337575655       -0.2435570315
 C          0.6023319906        4.2474867859       -2.4600187064
 C         -4.7163411437        3.6006639147       -0.2823792338
 C         -5.1894031411       -2.4891424177       -0.5812670117
 C         -0.5053901237       -4.3760691253       -2.5686140708
 C          4.8263229464       -3.7119607232       -0.1110509532
 C          5.4179662436        2.3917861784       -0.7576569666
 O         -0.0921468907        3.8849001573       -3.6318380216
 O         -5.7721705377        3.5181076769       -1.2149763832
 O         -5.1557207996       -3.3222210018       -1.7181654201
 O          0.0723403164       -4.0104864795       -3.8029130550
 O          6.0085818396       -3.8007968187       -0.8763190848
 O          5.2896483605        3.1725605383       -1.9253764951
 C          1.6320037743        3.1759514786       -2.0542172403
 C         -3.3661804846        3.7574177078       -1.0195076255
 C         -5.1058901188       -1.0037704583       -0.9716901332
 C         -1.5306898892       -3.3227384936       -2.1098802903
 C          3.5885110619       -3.8500719526       -1.0313861382
 C          5.3370259518        0.8878882454       -1.0842634761
 O          2.6045370341        2.9850290468       -3.0641930658
 O         -3.2845583189        5.0223844394       -1.6474257143
 O         -6.1965944999       -0.6357274314       -1.7930856362
 O         -2.5867756893       -3.2008195924       -3.0433954805
 O          3.4932908431       -5.1619792353       -1.5508604985
 O          6.4180222118        0.5029466900       -1.9117168044
 C          2.3115975188        3.5629368021       -0.7209274949
 C         -2.1476338015        3.5368393251       -0.0860931056
 C         -5.0312508847       -0.0628924027        0.2636127256
 C         -2.0829967761       -3.6595409755       -0.7055032321
 C          2.2810185097       -3.4514403084       -0.3052335408
 C          5.2893020096       -0.0106204984        0.1875491684
 C          1.2658910655        4.0000781592        0.3348084262
 C         -2.3792950333        2.3378590833        0.8666358042
 C         -4.1115118273       -0.6201456689        1.3966633637
 C         -0.9446063453       -4.0439892176        0.2743842739
 C          2.4958655925       -2.1285777054        0.4622592812
 C          4.3358513705        0.5969482789        1.2747476854
 O          0.3987989257        5.0166672671       -0.1670088442
 O         -3.6352195787        2.4087888579        1.5298802796
 O         -4.2580519303       -2.0339626592        1.5959810614
 O         -0.0624080503       -5.0249212898       -0.2702500982
 O          3.5877946474       -2.2323550308        1.3694187568
 O          4.5966585752        1.9875271829        1.4742468343
 C          1.9177206107        4.4594822104        1.6296730649
 C         -1.2883960561        2.1710059697        1.9044324912
 C         -4.4236624596        0.0397501649        2.7468639631
 C         -1.5078954523       -4.5564731230        1.5936900629
 C          1.2616280978       -1.6131618574        1.1680393264
 C          4.4097388756       -0.0519695954        2.6646623435
 O          2.7157818076        5.5917288962        1.4245513159
 O         -1.1564746993        0.9017676705        2.3625934547
 O         -5.8128467719        0.0539621250        2.9743847764
 O         -2.2296600764       -5.7410413764        1.4005984844
 O          0.8013904632       -2.3624497507        2.2032246122
 O          3.8326283441        0.7727880637        3.6377915910
 H         -1.1251119052        5.2444797012       -1.5332276930
 H         -5.6461321521        2.2390408824        1.1618050747
 H         -4.0662330974       -3.8572146054        0.7088163391
 H          1.3235359383       -5.2890696049       -1.7618935340
 H          5.6418654072       -2.2936575618        1.3506015676
 H          4.3737992035        3.8012713941        0.5653880625
 H          1.1454226027        5.1734063848       -2.7012442422
 H         -4.8924451465        4.4950168035        0.3322388656
 H         -6.1594380240       -2.6675465669       -0.0944169176
 H         -1.0296585320       -5.3278269639       -2.7383228991
 H          4.8363349393       -4.5507164545        0.5994686909
 H          6.4151937762        2.6071745850       -0.3468989963
 H         -0.7229832455        3.1536779723       -3.4476625335
 H         -5.8386597095        2.5987582561       -1.5389500023
 H         -4.2815917757       -3.2606707584       -2.1667849273
 H          0.7067500470       -3.2848932601       -3.6725918290
 H          6.1826558085       -2.9340974516       -1.2904894846
 H          4.3858721658        3.0808387337       -2.3059638663
 H          1.1160885823        2.2158037468       -1.9069094750
 H         -3.3053407727        2.9992403621       -1.8144137457
 H         -4.1909531757       -0.8421821397       -1.5591759249
 H         -1.0271844705       -2.3476565147       -2.0565734228
 H          3.7110516846       -3.1711794648       -1.8869589970
 H          4.4130152955        0.6994046988       -1.6510995708
 H          2.1794468128        2.8847886147       -3.9305403372
 H         -4.0723755883        5.1907936270       -2.1895911553
 H         -6.3366129952       -1.2884396141       -2.4997855997
 H         -2.2374944469       -3.2000364004       -3.9487819294
 H          4.3411058025       -5.4453268325       -1.9305628359
 H          6.5154720279        1.1101188000       -2.6647092614
 H          3.0122681395        4.3861415058       -0.9093801778
 H         -1.9505195057        4.4366041200        0.5132521582
 H         -6.0465580168        0.0685724547        0.6605110133
 H         -2.7874764423       -4.4956640967       -0.7967741981
 H          1.9929196900       -4.2366981949        0.4073921847
 H          6.3046553600       -0.0816305385        0.5966308979
 H          0.6200217099        3.1321022430        0.5404306327
 H         -2.4171387333        1.4271531414        0.2531510058
 H         -3.0602970569       -0.4612467316        1.1234350394
 H         -0.3318151746       -3.1475952886        0.4411071578
 H          2.7902402572       -1.3632095170       -0.2705680458
 H          3.2989989884        0.5546560676        0.9088642767
 H          2.5597571023        3.6721201219        2.0400495520
 H          1.1513366566        4.6898553277        2.3805317682
 H         -3.9316600634       -0.5320232259        3.5434746700
 H         -4.0518560450        1.0672042168        2.7928292811
 H         -2.1930791308       -3.8264566521        2.0389848540
 H         -0.7034346368       -4.7443503880        2.3152456462
 H          3.8573636720       -0.9952021270        2.7081801967
 H          5.4495511988       -0.2486816498        2.9495223626
 H          2.1882034260        6.3193733053        1.0539973168
 H         -6.0429403340        0.3246303717        3.8786877572
 H         -1.6644976604       -6.4215436942        0.9972326848
 H          4.2023749434        1.6751303925        3.5632892647
 C         -0.2754462919       -1.7267592864        2.8580735014
 H         -0.7750277244       -2.4779976403        3.4779709066
 H         -0.9821906021       -1.3794152007        2.0961726695
 O          0.7781164066       -0.5824076260        0.7611577146
 C         -0.0291349440        0.8086313239        3.2042529195
 H         -0.1583182673        1.5168200627        4.0298223048
 H          0.8459213174        1.1130198206        2.6192451784
 O         -0.6384163290        3.1176160096        2.2821226984
 C          0.1652707467       -0.5858485900        3.7265426128
 O          0.6797874418       -0.7834145334        4.7916603484
 O         -1.9172987765        1.7034774162       -3.2112712055
 H         -2.3306043914        1.1781478905       -3.8968372529
 H         -1.7516070055        1.1019546628       -2.4628505755
 O         -1.4321300864       -0.0920434695       -0.9630468168
 H         -0.6407397085       -0.1842879313       -0.4016511489
 H         -1.9533477328       -0.8864898298       -0.7410180207
