19
Coordinates from ORCA-job job.QMRegion
  C          -0.58082740758204      1.88651156523311      1.59800324300981
  C           0.62334979533820     -2.91509408475893      2.02170263256070
  O          -1.12655420310373      1.50732231746547      2.73834624819303
  O           0.85992609407300     -1.99818814748005      2.92974927465194
  C          -0.15737648458502     -1.87475828703907      3.95747882442508
  H           0.39871244865903     -1.55956628876645      4.85059255901770
  H          -0.69233788312354     -2.80964327509413      4.08995544499888
  O          -0.28666200578276     -3.70005164757608      2.08151432071525
  C          -0.41395861490742      0.51368784273461      3.49390369419469
  H          -0.40517298004086      0.87626020334884      4.53511403285360
  H           0.59699061643549      0.41374536357410      3.11307477771114
  O           0.54397252589371      1.58534697714750      1.22573463823079
  C          -1.10578056247297     -0.79210812174158      3.53032361510073
  O          -2.28422023054475     -0.96489011529939      3.40725512571575
  O          -1.35383525604611     -0.83331108605704      0.60953929227551
  O          -0.60377763458819     -0.82591833153888     -0.64845004228931
  H          -0.50494374887064     -1.79409371999419     -0.78674933022293
  H          -1.30242899724564      2.40498949344900      0.99103459742648
  H           1.30795706246241     -2.85251115588314      1.18968041363539
