133
Coordinates from ORCA-job job
  C           0.84825919240397      5.10991764560839     -0.35307422246278
  C          -3.89399461895884      3.06687698327673      0.66774849629309
  C          -5.23428728657130     -1.87024898015566      0.03022635805748
  C          -0.94816890233005     -4.75348992786135     -0.83705536752900
  C           3.84185734592574     -2.82580874535107      0.24446365307579
  C           5.16943685397580      2.21324101406616     -0.50335503284995
  O           0.05355121367253      3.93761097513973     -0.46441330436777
  O          -4.14117229664891      2.05885596498539     -0.27019252750486
  O          -3.96417699701934     -2.12343190827407     -0.53699427393601
  O          -0.11930100088565     -3.61615540549288     -0.64403057950526
  O           3.70271862998926     -1.59038962286867     -0.39072014981557
  O           3.90601173839806      2.55544451600521     -1.00700752739420
  C           1.53929322974140      5.30872566487961     -1.70307713130387
  C          -3.66286671987579      4.38978897974244     -0.09770072027346
  C          -6.01502273627429     -1.05463521488793     -1.01117703197072
  C          -1.71588777624700     -4.56962566870717     -2.15241424590520
  C           3.63380857962453     -3.90916811316902     -0.83397824259558
  C           5.78087283899290      1.26290571147247     -1.54936945725925
  O           0.61982609321996      5.45950999635277     -2.75265540857088
  O          -4.69142376174080      4.63890977539633     -1.00679592987996
  O          -6.15287787009690     -1.74496652112050     -2.21928256858502
  O          -0.85830742742616     -4.27796776876979     -3.22383636877796
  O           4.55903012983933     -3.77651217927943     -1.87023837464759
  O           5.87430111383106      1.87429741901827     -2.80325631326331
  C           2.41971602399458      4.07583567876415     -1.93918650363975
  C          -2.29663975741460      4.36693985580388     -0.81018959287279
  C          -5.25336992498957      0.26001299136063     -1.22152130043561
  C          -2.70039729907358     -3.40670889628004     -1.99091061323915
  C           2.18921430023836     -3.80212856232895     -1.36547145574561
  C           4.88328534240349      0.01849272639237     -1.60680605654527
  O           3.17369318200475      4.18834891473427     -3.11637457968403
  O          -1.98998133312427      5.61262578601796     -1.37505684225694
  O          -5.93318590178133      1.09657564190815     -2.11273368768463
  O          -3.61394948992448     -3.33592154311652     -3.04939603445015
  O           1.89151934838618     -4.83055327275128     -2.27018302458165
  O           5.40383988740750     -0.97049262639081     -2.45681716792812
  C           3.40050235581632      3.86092076955727     -0.77962282339028
  C          -1.19258992953246      3.98722602568042      0.18899697405787
  C          -5.04177354675262      1.01630557221068      0.09350220955452
  C          -3.53022609194500     -3.46794714781632     -0.69965034436115
  C           1.20750005648819     -3.88211902770454     -0.19412620169331
  C           4.71769603251932     -0.60748136866716     -0.21968091434660
  C           2.73028299621699      3.97488857751789      0.60319962884240
  C          -1.59448413362828      2.61483401736013      0.74537506298939
  C          -4.49968939152230      0.09781036068606      1.21004774239164
  C          -2.71608780582886     -3.91597511807955      0.52171189422178
  C           1.58545834616054     -2.82714355618825      0.85242539911149
  C           4.31313015804563      0.43146572383477      0.83945582175190
  O           1.78061303541941      5.03641507168864      0.67679977251584
  O          -2.77842365056546      2.74882924196398      1.47959414925756
  O          -5.14726572871361     -1.17224083333395      1.23581995886557
  O          -1.83555831492281     -4.98038789775926      0.21326599187583
  O           2.90433768586781     -2.96674850508024      1.29738420843535
  O           5.11592100433617      1.59975811917293      0.75644920365313
  C           3.75267627340562      4.30711201940336      1.70529453057734
  C          -0.58082740758204      1.88651156523311      1.59800324300981
  C          -4.75251839740522      0.66868002647887      2.62285230786531
  C          -3.60035667405569     -4.41990235778492      1.67235902724840
  C           0.62334979533820     -2.91509408475893      2.02170263256070
  C           4.52842697816538     -0.11396436853062      2.26161530873647
  O           4.46695907257996      5.47208678150490      1.40435023511311
  O          -1.12655420310373      1.50732231746547      2.73834624819303
  O          -6.05371240710039      1.15207549675073      2.76888223716432
  O          -4.46802166190623     -5.43178694434288      1.26325725707011
  O           0.85992609407300     -1.99818814748005      2.92974927465194
  O           5.85116563052456     -0.52395280648597      2.45468371492213
  H           0.21910839811653      5.97480040604680     -0.10882713017193
  H          -4.73299877574037      3.16866023644351      1.36672148588014
  H          -5.74544937785244     -2.80913105277487      0.27447603601615
  H          -0.32619654321763     -5.65641554532169     -0.88209329617146
  H           4.82108868695624     -2.93035636068037      0.72678855703305
  H           5.79508082243210      3.10483463327356     -0.36234676181148
  H           2.17850832819602      6.20242751085511     -1.65346095031015
  H          -3.66788597434648      5.21637833726526      0.62163495875026
  H          -7.02481381521891     -0.84508824984906     -0.64506344224826
  H          -2.28418006596117     -5.49205892479814     -2.35080518144888
  H           3.78171777185718     -4.90153596280927     -0.39468912888226
  H           6.79565893353821      0.97721754229666     -1.25660361847968
  H          -0.28257174516296      5.47833864135225     -2.38967321949844
  H          -4.89257247653043      3.82067881485190     -1.48589119384473
  H          -5.29975125545413     -2.13844225032229     -2.46939420990028
  H           0.01242912378397     -4.68751996907661     -3.06400502497879
  H           4.68663238696469     -2.83294331786958     -2.08376105696323
  H           5.04577081044142      2.34812106754480     -2.97759588460924
  H           1.76054766856361      3.19060202656253     -1.98419006981769
  H          -2.31577134919706      3.58788749924357     -1.59142410029215
  H          -4.24526197757746      0.01363122032060     -1.60921166029155
  H          -2.10903092983065     -2.47410568918401     -1.93261421434596
  H           2.05875556534901     -2.81746845679880     -1.84623263767126
  H           3.88120211272478      0.32862237430873     -1.95047319608945
  H           2.59027188277253      4.54727701997351     -3.80245681505363
  H          -2.78843325362120      5.94223312165871     -1.82157264773954
  H          -6.34583685189370      0.52765669630893     -2.78525753171813
  H          -3.12898099921576     -3.44936413964665     -3.88245535804729
  H           2.65950580783896     -4.93108217903327     -2.85996072012193
  H           5.74668458051602     -0.52867445326246     -3.25041087990085
  H           4.21450103923741      4.59629211933251     -0.85813303502749
  H          -1.16079181450343      4.69619502917413      1.02556334923686
  H          -5.99054746283308      1.46262361019967      0.42513364624108
  H          -4.39103801541431     -4.13360661823226     -0.84804560985127
  H           1.24672471062953     -4.87243074603214      0.27519758852171
  H           5.66056639166198     -1.08416365688137      0.07901312823877
  H           2.23052960750147      3.01831492122337      0.81435985217514
  H          -1.73624818310309      1.91279925885917     -0.10121892864842
  H          -3.41353483795583     -0.04972796423786      1.04819913193192
  H          -2.15689169026961     -3.03056279374401      0.86735611972820
  H           1.43215990284966     -1.82290461463367      0.41365898664889
  H           3.24872802869325      0.68099314246367      0.68933612698393
  H           4.47539940123376      3.49658966881413      1.79724003664171
  H           3.20205954314810      4.41270768664632      2.64773489771790
  H          -4.53292431196087     -0.13599383346680      3.33200044331506
  H          -4.06215492258276      1.48962761919961      2.81393966432661
  H          -4.20179063388603     -3.58847180363991      2.04567492587634
  H          -2.92796494391900     -4.75912917927027      2.46926237634281
  H           4.24730589897237      0.67114609052021      2.97349401424469
  H           3.88826526118515     -0.98478604998435      2.41847328741335
  H           3.82776057046100      6.19594262176761      1.33229088093129
  H          -6.66293712187443      0.39917951869762      2.74650708697570
  H          -3.93241630622031     -6.19328439021006      0.99184805220897
  H           6.41932629563333      0.25219068624091      2.33208237701661
  C          -0.15737648458502     -1.87475828703907      3.95747882442508
  H           0.39871244865903     -1.55956628876645      4.85059255901770
  H          -0.69233788312354     -2.80964327509413      4.08995544499888
  O          -0.28666200578276     -3.70005164757608      2.08151432071525
  C          -0.41395861490742      0.51368784273461      3.49390369419469
  H          -0.40517298004086      0.87626020334884      4.53511403285360
  H           0.59699061643549      0.41374536357410      3.11307477771114
  O           0.54397252589371      1.58534697714750      1.22573463823079
  C          -1.10578056247297     -0.79210812174158      3.53032361510073
  O          -2.28422023054475     -0.96489011529939      3.40725512571575
  O          -1.35383525604611     -0.83331108605704      0.60953929227551
  O          -0.60377763458819     -0.82591833153888     -0.64845004228931
  H          -0.50494374887064     -1.79409371999419     -0.78674933022293
