139
Coordinates from ORCA-job job
  C           0.60357026469717      4.87654212660651     -0.35421378712308
  C          -4.33950577224783      3.23077990134880      0.39886999009490
  C          -5.04252009036378     -1.78908327999213     -0.53403620155677
  C          -0.75541532618337     -4.81584440840833     -0.66681536940914
  C           4.18605749524346     -3.21968948301433      0.13036960955915
  C           4.92499048898865      1.87422835334073     -0.62579949714236
  O          -0.28591867294437      3.78882031155357     -0.27535372160737
  O          -4.35872695118298      2.23229952297766     -0.57204952762008
  O          -3.65867985992490     -1.91718597353491     -0.78528678570708
  O           0.15707200867763     -3.77122887757514     -0.46389128118166
  O           4.09687164689256     -2.12200091672849     -0.72642252835912
  O           3.54504145446936      2.06738210970912     -0.84898271368659
  C           1.26136318946024      4.87159897119210     -1.74454550535393
  C          -3.97346540218560      4.54618277404752     -0.31605659451123
  C          -5.69097712546107     -1.02858529991666     -1.70199149783618
  C          -1.41508937316196     -4.61277552087335     -2.04216871401287
  C           3.83494322938401     -4.46193204283824     -0.70796126620155
  C           5.50802755218022      1.12125364448925     -1.83218456113092
  O           0.32823912326217      4.96179154342387     -2.78890195204063
  O          -4.87218692988962      4.85036273704629     -1.34457650012824
  O          -5.52791751734499     -1.68835320981116     -2.92737294305734
  O          -0.49156241418021     -4.61246607600976     -3.09830503184076
  O           4.69914799730431     -4.62265044882408     -1.79757807351214
  O           5.32434325266277      1.82053750468056     -3.03295575724179
  C           2.03158042426361      3.55391383376953     -1.88860621687710
  C          -2.53952602822448      4.44406199197066     -0.86083401375533
  C          -5.10275986768359      0.38707197064476     -1.74756347142038
  C          -2.13487355979205     -3.25931357863507     -2.00573883173880
  C           2.38244995756229     -4.32012322584501     -1.17922350175949
  C           4.87209360963906     -0.27541060979339     -1.89823756369636
  O           2.77496450819573      3.48574564310766     -3.08054442697403
  O          -2.12910615830456      5.66728766065834     -1.43352028785520
  O          -5.77309383445777      1.18789490391053     -2.68860329458028
  O          -2.86413650345546     -3.00603773373915     -3.18174208902598
  O           1.96588464902879     -5.45812791947748     -1.90518673788043
  O           5.48340836309431     -1.06764611908971     -2.88636405918676
  C           3.01229723765431      3.38063285924216     -0.72293940564671
  C          -1.56754980312194      4.05307342348486      0.26264389712688
  C          -5.19578427524033      1.09608231147806     -0.38835971923179
  C          -3.11653891662948     -3.22909110728112     -0.83095861491788
  C           1.44283652646350     -4.11456904258591      0.01748960039694
  C           4.99193752393437     -1.02617712156916     -0.56385790539051
  C           2.31263065263623      3.58239019401942      0.63445563531536
  C          -2.08916962840550      2.76761015966492      0.91271666778241
  C          -4.75491361139197      0.19223655894298      0.78176941593326
  C          -2.42016730212083     -3.61075133967667      0.48802695465841
  C           1.94986155735291     -2.95589834587271      0.88211686961504
  C           4.61052881227886     -0.14018672792574      0.63645489371766
  O           1.58241731905747      4.80745908738208      0.64239277947966
  O          -3.40274568035959      2.96182658099260      1.42012662420001
  O          -5.28462846429238     -1.13217558236301      0.66939646648153
  O          -1.73570286278816     -4.85136032544697      0.33328767678249
  O           3.31653432644516     -3.12067098339945      1.23596544895875
  O           5.16805403186596      1.17469674452680      0.55479199776192
  C           3.31897952187683      3.66529081530213      1.78983857094557
  C          -1.25234283765475      2.31415699509580      2.10605342512104
  C          -5.27815095947192      0.67513456486251      2.14769630169580
  C          -3.42589088031868     -3.80469338998658      1.62850091034958
  C           1.18384482487099     -2.87229763159519      2.21765369274991
  C           5.12509900093579     -0.69640029653974      1.97765763487831
  O           4.22012706573876      4.73204760046890      1.62922750714091
  O          -1.49576251324618      1.03609629468761      2.34867869085267
  O          -6.65404448070055      0.95197504509060      2.13070027082667
  O          -4.37387948903533     -4.79933718189450      1.33752082506660
  O           1.90239456229467     -2.10256764946176      3.10150888704826
  O           6.48564618706680     -1.04432776610990      1.92944175391303
  H           0.08188467566477      5.82574251523378     -0.18651964200689
  H          -5.30804053929673      3.32282574013653      0.90709873805141
  H          -5.50684848486669     -2.77652651521470     -0.42038079245993
  H          -0.25946087853326     -5.79309324368191     -0.62041384719424
  H           5.18998410092603     -3.31379713219702      0.56423803954274
  H           5.43296939590061      2.83799303717190     -0.49809479628503
  H           1.96534220459883      5.71691470579474     -1.79535538344262
  H          -4.02922032916491      5.36872607868162      0.40482764761756
  H          -6.77059164530833     -0.96497456773377     -1.52814696885280
  H          -2.15277962466946     -5.41561089183654     -2.19626549988372
  H           3.93572773903816     -5.35779703214057     -0.08712976194835
  H           6.58984795982537      1.01426428735048     -1.69764535155541
  H          -0.50282472540892      5.34778945830459     -2.45694034180842
  H          -5.04522972606486      4.04449286823181     -1.85868012741847
  H          -4.61210947338180     -2.01270701928674     -3.02129814235807
  H           0.35629488943306     -4.99202565193720     -2.79837156699433
  H           4.82583502384345     -3.76038493114999     -2.22876713802277
  H           4.43694257339721      2.22480741214095     -3.05789168907048
  H           1.28754466823540      2.74409190860926     -1.86304547980416
  H          -2.50889580381916      3.65037836285484     -1.62247925320406
  H          -4.03550525772372      0.31403910419775     -2.00828501917280
  H          -1.37047774891086     -2.48315615536888     -1.85917160911085
  H           2.30824485792880     -3.42790710787754     -1.81893701054888
  H           3.79943493791555     -0.16606128817688     -2.11825568718695
  H           2.20839296012720      3.77851092081956     -3.81076451945244
  H          -2.89557846758077      6.04894928219196     -1.89406536303287
  H          -5.88041376208601      0.67423535869108     -3.50500283226917
  H          -2.29469916099290     -3.21413425653880     -3.93935102824139
  H           2.72033978294167     -5.75683517085090     -2.44170675258553
  H           5.57356262145308     -0.53352888955301     -3.69135445570130
  H           3.81355426287186      4.12246153377582     -0.82620094374670
  H          -1.51095328680333      4.84847585499091      1.01598457875518
  H          -6.23114658227010      1.42566703548874     -0.22174493479119
  H          -3.91531180982329     -3.95582390191514     -1.02790034403962
  H           1.39364787642806     -5.02623177480782      0.62640149797830
  H           6.01849077463863     -1.39817250400615     -0.44620623441651
  H           1.61535051450286      2.75661551062381      0.81549438195889
  H          -2.08057408667550      1.95369039477608      0.17309853638156
  H          -3.65927769659352      0.15198114790842      0.80818735235767
  H          -1.69636722126017     -2.83745017272394      0.77212860864650
  H           1.80944613517576     -2.02067187629849      0.32499883359681
  H           3.51845367733689     -0.07764806758205      0.65531466422396
  H           3.92235073547174      2.75636275451742      1.81286426112033
  H           2.75569779408532      3.76071630394258      2.72436348921054
  H          -5.04756346700197     -0.10957690744746      2.87686730937808
  H          -4.77209497066058      1.59282757575240      2.44322908707376
  H          -3.98354085741711     -2.87892915687380      1.78223805062028
  H          -2.86117556104364     -4.04828660509316      2.53511379819690
  H           4.95706347790358      0.07131678977778      2.74169105814887
  H           4.57642976890145     -1.60128193396481      2.24301901891195
  H           3.71825105508509      5.55865526161505      1.66417034263590
  H          -7.13404635549816      0.12189216622235      1.99905423326118
  H          -3.90952767595598     -5.64564206005738      1.26103072856432
  H           7.00689702096628     -0.23466882518151      1.82880041797719
  C           1.04815711071635     -1.36848269130677      3.94447277505483
  H           1.64593545659421     -0.75646233671942      4.61711172838477
  H           0.37182273515611     -2.02481608939544      4.50551678948512
  O           0.39401918250546     -3.71979863132095      2.60093317292181
  C          -0.82670622962742      0.39459388758122      3.42512282812955
  H          -1.58073358699849     -0.17266052328019      3.98020706316392
  H          -0.34828278317166      1.14228982010684      4.06897957442979
  O          -0.50920950354933      3.01280843166240      2.74451143038069
  C           0.23228095458588     -0.57700782138858      2.88821367804801
  O          -0.03198882337412     -1.33328607552800      1.87375932925610
  H          -1.07062820472800     -0.60940511704237      0.49795797279471
  O          -1.38102891695978     -0.14003086226144     -0.30363556328445
  H           0.55840872400433      0.33945525772707     -0.59735990888363
  O           1.44177502361333      0.33042987056679     -0.18269047739389
  H           1.40699092475472      0.50660991887196      1.38095945267844
  O           1.41911436542046      0.55108555849505      2.40356032062242
  H           2.26934238151818      0.14663737040423      2.65353213194117
  H           1.99910455624612      0.97320220637178     -0.65317010222862
  H          -2.08109641100420     -0.70399872615437     -0.66501195155963
