139
 xtb: 6.7.1 (edcfbbe)
C            0.68934019867357        4.88010849627152       -0.35537582748123
C           -4.26606421143983        3.20992573966014        0.36080292480290
C           -5.08332858125037       -1.83131984649481       -0.46444492388773
C           -0.79430126607506       -4.87967492116984       -0.66494002819943
C            4.11056762974129       -3.11577377312459        0.10957075926092
C            5.09375672117363        1.96598488996507       -0.62056335190971
O           -0.19487262512286        3.78802392907957       -0.27495503951050
O           -4.27878386474914        2.17231466436873       -0.56958855744539
O           -3.70947807268392       -1.99778677070648       -0.73751852006277
O            0.11106667065575       -3.82502592397013       -0.49337167689423
O            3.94620552365235       -1.94081145386278       -0.63294705537638
O            3.72419389591362        2.16975226581411       -0.82901548063903
C            1.35870875476103        4.88419700945938       -1.74118784661238
C           -3.89649923886392        4.50257307575646       -0.39426216500300
C           -5.72697614924563       -1.06610066098060       -1.63295546977539
C           -1.48260642563118       -4.69233419062116       -2.02868077527930
C            3.81749298521614       -4.30663625846228       -0.82202383036843
C            5.62355508207606        1.15921228482584       -1.82068919765731
O            0.42859271788567        4.92176161794732       -2.79230728694898
O           -4.77791313615249        4.76061665230104       -1.45076097751292
O           -5.60884733868121       -1.74924739455235       -2.85056861180644
O           -0.57665151281638       -4.67089331678499       -3.10061582615710
O            4.66160215179925       -4.32069206981616       -1.93816341576173
O            5.48249553212178        1.85877566735539       -3.02644506936746
C            2.19398879814116        3.60698539944064       -1.87632307588020
C           -2.44863620907598        4.41173376846496       -0.90745745804918
C           -5.08765190662491        0.32662251083268       -1.71109982063952
C           -2.23384549617713       -3.35588726441122       -1.98833801579399
C            2.34547961164574       -4.24275908379187       -1.25027728588589
C            4.86009211260931       -0.17433484013187       -1.86425086477534
O            2.94492369852724        3.58118679277044       -3.06783706850155
O           -2.04868722913408        5.63351540346868       -1.49125074778199
O           -5.73580092124077        1.13321337896578       -2.66290689631968
O           -2.99985281759541       -3.13925278973657       -3.14855477580181
O            1.98050172272803       -5.37587793707648       -2.00898125890764
O            5.37710707884572       -1.04707384446649       -2.83839859315850
C            3.17402803032806        3.47126467139646       -0.70617017025018
C           -1.48683483298500        4.05243883616694        0.23793495232546
C           -5.14594998929056        1.06173459185312       -0.36418948723743
C           -3.18213072248879       -3.31580114567659       -0.78594061146550
C            1.41314537934445       -4.13961059322267       -0.03067775441547
C            4.91784264765701       -0.90420113229449       -0.51521663034297
C            2.44148936367777        3.63729821686533        0.63730825476729
C           -2.02016236634996        2.77638157466725        0.89702130785670
C           -4.71912268778436        0.16269740721348        0.81546379976639
C           -2.44896475303528       -3.68597461013024        0.51679013689755
C            1.88258254250311       -2.99621229837687        0.87397620508359
C            4.60439664979233        0.03817634349209        0.66292890186469
O            1.66050339327312        4.83212797106847        0.64966455801660
O           -3.33480450771562        2.98182749570828        1.39627789417049
O           -5.28763078382802       -1.14885498405466        0.73282788296656
O           -1.75546751786947       -4.92131231931835        0.35271557504072
O            3.24674426446203       -3.14390719307379        1.22787928353700
O            5.32940835122432        1.26372443470984        0.57022725465677
C            3.41818209113042        3.74720600191949        1.81456887561429
C           -1.19111203823920        2.29116017071159        2.08280849297655
C           -5.20825770406974        0.68793064045255        2.17761022587380
C           -3.42640224389058       -3.88001949678656        1.68091217585661
C            1.08182158207060       -2.91569313593987        2.19820710876904
C            4.98495742427108       -0.57492089699642        2.02155939927598
O            4.25767627059662        4.87023290297449        1.70243949357185
O           -1.54069511432160        1.04158971325183        2.35212667894100
O           -6.57800362218202        0.99632470610038        2.17788747399332
O           -4.37179813513760       -4.88619035214013        1.42129254716934
O            1.82159130875871       -2.17181625924383        3.10893397979645
O            6.31959800017466       -1.01522393547340        2.04766872499679
H            0.15682931737059        5.82522384182409       -0.19575287943046
H           -5.23747511752355        3.31888526447642        0.85932398414526
H           -5.57323587180902       -2.80418566805691       -0.32981932956706
H           -0.28760189244694       -5.85273664118141       -0.62288772375690
H            5.13492239781665       -3.19539683099323        0.50982277624741
H            5.63826165359872        2.91245857490831       -0.51638226629971
H            2.02372175385463        5.76156564334696       -1.79427695742590
H           -3.97850036102506        5.34753324672134        0.29795831994749
H           -6.80055280622702       -0.96065022783710       -1.44185882860586
H           -2.20105525636797       -5.51113458502725       -2.16855559706752
H            4.00405995771985       -5.24079076413847       -0.28358529304065
H            6.69403620280441        0.96601930595831       -1.69194359299000
H           -0.40517794538100        5.31814164365553       -2.47908862946205
H           -4.93949566373853        3.93419876019816       -1.93494267702274
H           -4.70520020361330       -2.10535618873632       -2.95273271494502
H            0.29412085263334       -5.00889373976950       -2.81356414569652
H            4.74300633299476       -3.42163616139310       -2.30757870711191
H            4.61899655726370        2.31244089912822       -3.04801323566973
H            1.50495507087032        2.75270797070233       -1.84089047784470
H           -2.39088101035751        3.60777491449970       -1.65689058725952
H           -4.02641036789367        0.21018677938414       -1.97862901422766
H           -1.48474455201565       -2.55823022548207       -1.87667378977556
H            2.20101940988380       -3.33554994724296       -1.85597874394128
H            3.80617589664455        0.05128178031841       -2.08640946370232
H            2.35346926030007        3.81991400182795       -3.79928701965967
H           -2.80881157783666        5.98794470462941       -1.98269751884375
H           -5.86974147984373        0.60574354456820       -3.46686407005380
H           -2.44204250714822       -3.33721987669261       -3.91815466025333
H            2.72912084035662       -5.59393003896809       -2.60058869778111
H            5.54257580536393       -0.53458353643647       -3.64662160479092
H            3.95999835934558        4.23289250739408       -0.79744949868475
H           -1.44973407347362        4.86157162071898        0.97643998905238
H           -6.17100383178442        1.42175982597308       -0.19361782793395
H           -3.99169551548923       -4.03908285117017       -0.95388731926153
H            1.41580411539881       -5.09710835108317        0.52151705997195
H            5.91757567264783       -1.33707577406175       -0.38624725789617
H            1.77959175512802        2.77606330755090        0.77639159335154
H           -2.02489473546650        1.96478074347080        0.15421787203108
H           -3.62588906549361        0.09324069125150        0.83172981916992
H           -1.72937663976032       -2.90249293164991        0.78182517421354
H            1.73787879495095       -2.07462969432654        0.35123811811905
H            3.53182120493974        0.26855797192780        0.63514287772159
H            4.07517010262196        2.87508547150309        1.82690159093710
H            2.83301374990508        3.78389747344082        2.74000015935865
H           -4.98286131781295       -0.08399036178157        2.92170329453294
H           -4.67627605634308        1.60041634352317        2.44134533208204
H           -3.98863881142275       -2.95747178652280        1.83861773902934
H           -2.83918055357694       -4.10943795398317        2.57643386484721
H            4.81555640204801        0.18333079128696        2.79342631587589
H            4.36761615321272       -1.45383908639052        2.22463910633635
H            3.69960576112685        5.66063466483337        1.71342957797888
H           -7.08026006745842        0.17487685655193        2.07948833321367
H           -3.90077788595347       -5.72795585739089        1.33866907803524
H            6.89763449054080       -0.24055957828217        1.97831725505903
C            0.96296106482681       -1.38536869357948        3.90717022991210
H            1.54770708685937       -0.80970233705208        4.58597363540041
H            0.23774166437102       -2.04308690003563        4.44588508969886
O            0.31459016790606       -3.79457262996275        2.56880033597784
C           -0.86497170466281        0.33649539013895        3.38965343174729
H           -1.62724961715838       -0.23506485468586        3.93222005925795
H           -0.38807795967768        1.06880402204340        4.08388873588840
O           -0.36255970782698        2.92806000233085        2.67789687274407
C            0.25841589931308       -0.55048352510863        2.79265750397383
O           -0.06894652319785       -1.41446990097386        1.82769091542563
H           -1.09445170953843       -0.69751486224880        0.51748905257212
O           -1.40900373640100       -0.25151759922050       -0.25768341176523
H            0.15984962001174        0.46092292026242       -0.41393899719706
O            1.07147150862239        0.68684982460835       -0.14350859128737
H            1.19270779444275        0.53458576971685        1.22802629593203
O            1.25217706458872        0.36297860756154        2.29055975280217
H            2.16731538230873       -0.03298845949868        2.44214923028665
H            1.64656446027126        0.06546451504683       -0.67028403186856
H           -2.13146661689603       -0.80518002263779       -0.62702614572803
