13
Coordinates from ORCA-job job.QMRegion
  C           0.23228095458588     -0.57700782138858      2.88821367804801
  O          -0.03198882337412     -1.33328607552800      1.87375932925610
  H          -1.07062820472800     -0.60940511704237      0.49795797279471
  O          -1.38102891695978     -0.14003086226144     -0.30363556328445
  H           0.55840872400433      0.33945525772707     -0.59735990888363
  O           1.44177502361333      0.33042987056679     -0.18269047739389
  H           1.40699092475472      0.50660991887196      1.38095945267844
  O           1.41911436542046      0.55108555849505      2.40356032062242
  H           2.26934238151818      0.14663737040423      2.65353213194117
  H           1.99910455624612      0.97320220637178     -0.65317010222862
  H          -2.08109641100420     -0.70399872615437     -0.66501195155963
  H           0.81037394622325     -1.13781116380620      3.63663116364887
  H          -0.52649642638826      0.11915678860127      3.27291570730114
