  184
        -26.78978447
 C         -1.3130575161        5.0833676166        0.6449710195
 C         -4.3039361793        1.0211528496        2.1183055230
 C         -3.0341591438       -3.7267600962        0.6100854822
 C          1.9236739253       -4.1288502719       -1.1119853923
 C          5.4268606715       -0.1769848732       -1.0199632195
 C          3.6394828074        4.7803542139       -1.0375310364
 O         -1.4896879899        3.6850277840        0.5494772643
 O         -4.2438900801        0.1580791929        1.0167159934
 O         -1.9104734831       -3.1592957381       -0.0242028091
 O          2.2442625787       -2.7641236776       -0.9766112112
 O          4.4926939970        0.7970841271       -1.3974597114
 O          2.2913877997        4.3896125855       -1.0852857908
 C         -1.1798701124        5.6331313508       -0.7797104484
 C         -4.8603075712        2.3706263721        1.6101097328
 C         -4.2739681902       -3.3385849131       -0.2097352657
 C          0.8748257191       -4.2616672174       -2.2268845916
 C          5.4523211061       -1.2084794765       -2.1679970347
 C          4.2377214055        4.3619156348       -2.3940490545
 O         -2.3030219856        5.3177961582       -1.5667768642
 O         -6.0724695055        2.1974826977        0.9318837690
 O         -4.1928570691       -3.8082748910       -1.5281202752
 O          1.3259680631       -3.7418265269       -3.4537776691
 O          5.8011341158       -0.5977969917       -3.3799967747
 O          3.5372917503        4.9584524860       -3.4542200623
 C          0.0686040801        5.0005271979       -1.3998750702
 C         -3.8245895154        3.0621020866        0.7012452269
 C         -4.3958524011       -1.8104307050       -0.1842220590
 C         -0.3867255852       -3.5118022520       -1.7805785239
 C          4.0585999435       -1.8566038855       -2.2671913318
 C          4.1664984248        2.8311486516       -2.4822995840
 O          0.3488988736        5.5157477517       -2.6789827121
 O         -4.2316411721        4.3662379236        0.3655830924
 O         -5.5865647626       -1.3891291164       -0.7994660691
 O         -1.4488201829       -3.6820549236       -2.6864649724
 O          4.0336401453       -2.9059699698       -3.2056610009
 O          4.8098070361        2.3333640051       -3.6313357094
 C          1.3048776711        5.2421189175       -0.5253839072
 C         -2.4622628808        3.1286440851        1.4076716375
 C         -4.3693585468       -1.2427759443        1.2435770589
 C         -0.8558398142       -4.0210634914       -0.4145225191
 C          3.6186700056       -2.4129320416       -0.9082043063
 C          4.8209731024        2.1723122173       -1.2625871777
 C          1.0502194157        4.9067267645        0.9550607022
 C         -2.0907718804        1.6798900563        1.7690628265
 C         -3.2245676018       -1.8540791335        2.0815005200
 C          0.2921962285       -3.9994154152        0.6067715945
 C          3.7592549581       -1.3164178017        0.1524678747
 C          4.2803602749        2.7628027306        0.0509225409
 O         -0.1969550600        5.4165021995        1.4239684154
 O         -3.0285991948        1.1951204905        2.7035784120
 O         -3.1603893572       -3.2717108800        1.9291109725
 O          1.4393388585       -4.6651767334        0.0918672496
 O          5.0682472001       -0.7903161562        0.2019545099
 O          4.3344542526        4.1864172173        0.0299112699
 C          2.1012816380        5.5517696900        1.8667562047
 C         -0.6928716914        1.4915531263        2.3095055630
 C         -3.4077234277       -1.6704170588        3.5964126441
 C         -0.0814428387       -4.7296210834        1.8985846661
 C          3.3927207329       -1.8232755175        1.5358939784
 C          5.1232722302        2.3357831246        1.2559140506
 O          2.1492498382        6.9415796307        1.6944204490
 O         -0.6991741311        1.0850611979        3.5872226887
 O         -4.6951220327       -2.0192002458        4.0196758741
 O         -0.4875518530       -6.0463296175        1.6567238179
 O          3.1034994362       -0.7727372457        2.3264709017
 O          6.4726917254        2.6773436069        1.0915248690
 H         -2.1657778382        5.5510722255        1.1522206046
 H         -4.9451029400        0.6182161894        2.9103843076
 H         -2.9409331126       -4.8170208641        0.6849234049
 H          2.8146909139       -4.7205600897       -1.3529217587
 H          6.4214834063        0.2498293453       -0.8523496569
 H          3.7367543872        5.8628109469       -0.8856697180
 H         -1.0514286106        6.7237043452       -0.7352297596
 H         -5.0679520445        3.0185547143        2.4659315158
 H         -5.1683395964       -3.7875824878        0.2325304367
 H          0.6284884334       -5.3245079758       -2.3566261778
 H          6.2020499620       -1.9783737062       -1.9656256361
 H          5.2772432531        4.6913008249       -2.4718436718
 H         -3.0428647271        5.0670991923       -0.9778850686
 H         -5.9821741849        1.4428418568        0.3250052532
 H         -3.2971531694       -3.6335031260       -1.8781708465
 H          2.2601123227       -3.4602335739       -3.3708949042
 H          5.3436502709        0.2635709702       -3.4465209751
 H          2.5842718763        4.9128434062       -3.2577798767
 H         -0.0985642859        3.9116096165       -1.4604306732
 H         -3.7038052404        2.4653911988       -0.2186709150
 H         -3.5275123193       -1.3915446522       -0.7222710376
 H         -0.1397409478       -2.4410703730       -1.6866608111
 H          3.3364312179       -1.0772582800       -2.5617220541
 H          3.1033024208        2.5373425011       -2.4932870824
 H         -0.4767696802        5.5246369834       -3.1829744301
 H         -5.1635588697        4.3253034968        0.0893760034
 H         -5.7011245543       -1.9180817755       -1.6075301662
 H         -1.0979546196       -3.5694535673       -3.5855122782
 H          4.4560411278       -2.5901377157       -4.0176214283
 H          4.5487243017        2.8835809853       -4.3831301674
 H          1.6090716949        6.2923859398       -0.6244205475
 H         -2.5459043850        3.7159316485        2.3314242334
 H         -5.3298918885       -1.4485769742        1.7348823111
 H         -1.2234568674       -5.0487584423       -0.5275825078
 H          4.2308797123       -3.2795831851       -0.6328409151
 H          5.9071225138        2.3143296758       -1.3129905916
 H          1.0666726863        3.8128900326        1.0604712376
 H         -2.1327912671        1.0820554338        0.8435371046
 H         -2.2689983309       -1.4126798559        1.7630735447
 H          0.5362439130       -2.9516667930        0.8355096222
 H          3.0495093760       -0.5079495752       -0.0975358414
 H          3.2394499911        2.4311612564        0.1817269995
 H          3.0927747659        5.1662611993        1.6287639590
 H          1.8503127602        5.3007794264        2.9061757783
 H         -2.6518038318       -2.3015224289        4.0840449013
 H         -3.2374733178       -0.6347957665        3.8867361139
 H         -0.9169179438       -4.2164747594        2.3778216357
 H          0.7909103874       -4.7028759518        2.5648607408
 H          4.7084093875        2.8169373740        2.1515150705
 H          5.0792352811        1.2521758041        1.3779166390
 H          1.2686289050        7.2940744479        1.8919318867
 H         -4.8349116001       -2.9579405501        3.8052590518
 H          0.2534237517       -6.5086571499        1.2283102576
 H          6.5196755115        3.6365512829        0.9642332058
 C          2.4751704435       -1.0326159534        3.5930299881
 H          3.0055385538       -0.4048648935        4.3090400864
 H          2.5526102461       -2.0841864345        3.8639937518
 O          3.3630489603       -2.9846828295        1.8754365361
 C          0.5698457120        0.6443691667        4.0590237355
 H          0.4216316337        0.4797397303        5.1270871485
 H          1.3325796930        1.4120391651        3.9146348845
 O          0.3177640455        1.6456521539        1.6495496929
 C          1.0193810876       -0.6288713223        3.3981542502
 O          0.2913628706       -1.2846771784        2.6844683723
 O         -2.7893266345        3.3223082788        6.4450303991
 H         -2.0190180683        3.7147344374        6.8529965637
 H         -3.0393988557        2.5714667089        6.9804620460
 O         -5.2048933150        2.7990434686       -5.5956940908
 H         -4.4009608661        2.2856771669       -5.4155698252
 H         -5.4321859274        2.6291080270       -6.5086589184
 O         -2.7695678211        1.2571164630       -5.0922199434
 H         -2.2898583875        1.2762829663       -4.2652472590
 H         -2.3183192813        0.5997173492       -5.6455347319
 O         -4.0723649973        4.2264656435        3.9692515151
 H         -3.6463602330        3.8986628376        4.7805238846
 H         -4.4990676325        5.0485935669        4.2147229541
 O         -0.4499084008       -3.3743657402       -5.6322454826
 H          0.2894027189       -3.4847836422       -5.0100560368
 H         -0.4334634753       -4.1384402428       -6.2065388171
 O         -5.2425123184       -4.7969000818        3.3816486210
 H         -4.5800587637       -5.3951086595        2.9950969108
 H         -6.0081653362       -5.3355678796        3.5774046028
 O         -6.8731816544        4.4664313073       -0.8087872869
 H         -6.7619066423        4.5082763336       -1.7740695129
 H         -7.7916078064        4.6638417103       -0.6318699151
 O         -6.3943513750        4.6753051181       -3.6939711552
 H         -6.0274936259        4.0018986259       -4.2885889780
 H         -6.1809775044        5.5173753885       -4.0941346640
 O         -5.8545377849       -2.5437561910       -6.0954830310
 H         -5.2889353454       -3.1099834579       -6.6172201037
 H         -6.1137945210       -1.8135669171       -6.6540376713
 O         -6.3685266463       -2.8461899416       -3.2249940862
 H         -6.1690875574       -2.6995452959       -4.1638649879
 H         -7.0381812985       -3.5308637055       -3.2067260559
 O         -1.3206186501       -0.7386739528       -6.6587581392
 H         -0.9852602768       -0.6969813497       -7.5527221891
 H         -1.0401353697       -1.5967674023       -6.3005833357
 O          1.6472546759       -7.7063584515        0.5899773092
 H          2.5822808503       -7.4955730549        0.5726510942
 H          1.5797270181       -8.6584931867        0.5282984231
 O          8.5278780034       -0.0187573393       -0.8484359085
 H          9.1865458816        0.3043400194       -1.4634167207
 H          8.9988974250       -0.3668489099       -0.0914262381
 O          8.0350938120       -3.2777748586        3.9008913976
 H          7.9063245141       -2.3318515593        3.8309561280
 H          7.1724587608       -3.6906109087        3.7324247864
 O          5.3866695258       -4.4413860765        3.3965742825
 H          4.9731222966       -5.2535094990        3.6843988431
 H          4.7178137223       -3.9624725262        2.8754419933
 O          2.2154322095        0.0160373554        6.5143052268
 H          2.6933573720        0.7058980390        6.9745135000
 H          2.0392057790       -0.6686633295        7.1596289373
 O         -3.3240493841       -6.6704139252        2.1436941000
 H         -2.3713099280       -6.4974253170        2.0420227010
 H         -3.4551227806       -7.5878814222        1.9091711131
 O          0.4052687837       -7.2945685325       -3.2375833316
 H          1.0986733585       -7.7465432329       -3.7180346303
 H         -0.3883729857       -7.8220125606       -3.3245908924
