184
host(130) + 18 waters: 2 cavity, 16 mouth, from ../solv_apo50_a
 C        0.7113077662       5.0048241473      -0.1956156813
 C       -4.1378448685       3.1773990433       0.6895858695
 C       -5.1744486362      -1.7739384175      -0.2166573236
 C       -0.8738429737      -4.7791778570      -0.6371998328
 C        4.0533962622      -3.0309459063       0.1187153302
 C        5.0488468110       2.0936224456      -0.5840477428
 O       -0.1258276645       3.8692761754      -0.2599781890
 O       -4.3129426888       2.2213174893      -0.3112693422
 O       -3.8227993548      -1.9307013653      -0.5799487248
 O        0.0595737791      -3.7364200308      -0.4916757071
 O        3.8309872295      -1.8099098740      -0.5182145463
 O        3.7272344849       2.3957312246      -0.9408157208
 C        1.3667333430       5.1773874635      -1.5702340111
 C       -3.8308219720       4.5214293013      -0.0086144010
 C       -5.8669679506      -0.9844770298      -1.3388452798
 C       -1.6101205429      -4.5780531704      -1.9703305086
 C        3.7732616059      -4.1235253795      -0.9339791501
 C        5.5979001861       1.2227108715      -1.7301726894
 O        0.4124929489       5.3121545581      -2.5906068385
 O       -4.8093023740       4.8400233637      -0.9537222208
 O       -5.7858256831      -1.6472867773      -2.5702378009
 O       -0.7377361492      -4.5508200561      -3.0683756959
 O        4.6049410875      -3.9662287898      -2.0475129436
 O        5.5108903407       1.8953924994      -2.9559072918
 C        2.2187756165       3.9309174516      -1.8315069988
 C       -2.4370334171       4.4710581818      -0.6652369375
 C       -5.2047595722       0.3973159749      -1.4200697394
 C       -2.3812767678      -3.2530206584      -1.8885028177
 C        2.2908381892      -4.0326579416      -1.3419682712
 C        4.7837435536      -0.0792155683      -1.7565283780
 O        2.9597890770       4.0299910552      -3.0208272730
 O       -2.0580274886       5.7361270905      -1.1519062009
 O       -5.8805805461       1.2274788126      -2.3292388782
 O       -3.1912725510      -3.0445755430      -3.0176949358
 O        1.9177598691      -5.0849279101      -2.1987242270
 O        5.2953257513      -1.0082922853      -2.6798095668
 C        3.2166937132       3.6938721006      -0.6918608252
 C       -1.3879555103       3.9968586385       0.3542094932
 C       -5.1677817853       1.1107233623      -0.0614980773
 C       -3.2926555567      -3.2403360224      -0.6577649455
 C        1.3814953971      -4.0771592234      -0.1076444161
 C        4.7725662608      -0.7567589226      -0.3821759277
 C        2.5525639605       3.7738300039       0.6947273020
 C       -1.8765818428       2.6295978574       0.8695904268
 C       -4.6699516215       0.1758609583       1.0630563335
 C       -2.5072146122      -3.6011091117       0.6129749795
 C        1.8535237754      -3.0205134131       0.8971040642
 C        4.3657719693       0.2302243413       0.7251706089
 O        1.6690716796       4.8869236809       0.8112416452
 O       -3.0844136273       2.8166590423       1.5615081766
 O       -5.3010262631      -1.1021160887       0.9984727291
 O       -1.7784815905      -4.8086657407       0.4294178547
 O        3.2100245421      -3.1858001596       1.2423770662
 O        5.1325653356       1.4278208008       0.6439937413
 C        3.5906668894       3.9804480799       1.8095092666
 C       -0.8964550060       1.8900061521       1.7468047007
 C       -5.0195275118       0.6727846540       2.4792286488
 C       -3.4355290390      -3.8387685371       1.8109449266
 C        1.0278037369      -3.0525563149       2.1725595012
 C        4.6333441353      -0.3398279944       2.1258277529
 O        4.3658755168       5.1262321861       1.5816425268
 O       -1.3463517893       1.7550914871       2.9955639505
 O       -6.3613788161       1.0595038652       2.5835882930
 O       -4.3957916913      -4.8201555200       1.5389222294
 O        1.1596102188      -1.8814020825       2.8099816628
 O        5.9738411729      -0.7205621565       2.2810419083
 H        0.1322470460       5.9002800691       0.0617984511
 H       -5.0290654667       3.2694451292       1.3219597347
 H       -5.6600536557      -2.7459756243      -0.0661795333
 H       -0.3759633359      -5.7562975271      -0.6190532315
 H        5.0735165154      -3.1130265816       0.5112794581
 H        5.6486762584       3.0054174532      -0.4642530523
 H        2.0185443672       6.0643671198      -1.5465682769
 H       -3.8411519612       5.3223249310       0.7383332871
 H       -6.9312389036      -0.8703277760      -1.1090803333
 H       -2.3307947685      -5.3990192673      -2.1011672853
 H        3.9784607801      -5.1127845657      -0.5132032970
 H        6.6554438517       0.9963981880      -1.5635934479
 H       -0.4475812156       5.5473843011      -2.1951478419
 H       -4.9986271711       4.0465567411      -1.4787733568
 H       -4.8786221439      -1.9815191390      -2.6944352168
 H        0.1749300992      -4.7395965167      -2.7748302495
 H        4.6641079814      -3.0187408423      -2.2686562467
 H        4.6483608951       2.3414060059      -3.0004108485
 H        1.5409860765       3.0628375873      -1.8742711517
 H       -2.4608549943       3.7458525822      -1.4941182512
 H       -4.1601933891       0.2520540639      -1.7448823544
 H       -1.6515059134      -2.4334151470      -1.7874329751
 H        2.1307248181      -3.0647874167      -1.8426987517
 H        3.7424669599       0.1750570761      -2.0136676904
 H        2.3627671513       4.3481517294      -3.7137729478
 H       -2.8115736769       6.1001448988      -1.6442133547
 H       -6.0908408177       0.6902965611      -3.1088648738
 H       -2.6690905273      -3.2659204417      -3.8033470579
 H        2.5869838662      -5.1474943680      -2.8990901968
 H        5.4940856801      -0.5331148434      -3.5005027601
 H        4.0214426063       4.4387397707      -0.7615800433
 H       -1.3387962219       4.6957109799       1.1989080599
 H       -6.1741356111       1.4741055934       0.1900730535
 H       -4.0986818929      -3.9709202471      -0.8048158048
 H        1.4093472425      -5.0707109569       0.3545757746
 H        5.7695509928      -1.1613953324      -0.1667277554
 H        1.9967760915       2.8397643808       0.8574494800
 H       -2.0343258041       1.9791233365      -0.0093399115
 H       -3.5818105781       0.0473010768       0.9728681862
 H       -1.8187505999      -2.7760140900       0.8452360630
 H        1.7076708746      -2.0263299824       0.4416762739
 H        3.2968462778       0.4624299251       0.6142801045
 H        4.2768428393       3.1337730472       1.8409694703
 H        3.0549957662       4.0561885272       2.7632508120
 H       -4.7922745225      -0.1517388755       3.1661773808
 H       -4.4089851171       1.5331588340       2.7482484933
 H       -3.9717042203      -2.9160856069       2.0399277383
 H       -2.8122675814      -4.1205830013       2.6681781830
 H        4.3557491853       0.4228194659       2.8628604039
 H        4.0268483869      -1.2331193725       2.2840791648
 H        3.7632085163       5.8824605644       1.5408540074
 H       -6.9073671716       0.2834544057       2.3938179643
 H       -3.9238898879      -5.6405188497       1.3342442726
 H        6.5190878854       0.0639943451       2.1234747829
 C        0.2612749701      -1.5891245034       3.9028576626
 H        0.8895159812      -1.1836369630       4.6892240471
 H       -0.2557057059      -2.4870504482       4.2316008226
 O        0.3492484090      -3.9833481841       2.5535877722
 C       -0.5861752286       0.8454117660       3.7951996284
 H       -0.9993990462       0.9526065728       4.7978422357
 H        0.4688764278       1.1166346542       3.8050250944
 O        0.1623777209       1.4257236271       1.3518621785
 C       -0.7242006423      -0.5756197483       3.3316274756
 O       -1.5364626389      -0.9150832237       2.4847668515
 O       -2.0773933617       4.3335201441       3.9788313208
 H       -2.3578784536       3.7990444658       3.2271492560
 H       -2.0371129823       3.6988834090       4.7033834369
 O        1.2086124343       0.8471636101      -2.4501550138
 H        1.4756344138      -0.0783748656      -2.4881004547
 H        0.3831758070       0.8635975747      -2.9478962744
 O       -1.0549354940      -0.2017511218      -1.9057848544
 H       -1.2368543731      -0.4209281320      -0.9847913562
 H       -1.9097762147       0.0933558116      -2.2397329096
 O        0.4078963812       4.8538289443       3.7254384886
 H        0.0136887918       4.4947732299       2.9222937729
 H        0.0307168347       4.3076744685       4.4245900756
 O        1.2134879798      -3.4782776577      -4.9231901110
 H        1.2556163650      -2.5998524554      -4.5282769217
 H        0.2672100997      -3.6515112029      -4.9857231101
 O       -3.3774498342      -0.8024444385       5.0280131616
 H       -3.9834256921      -0.6650146856       5.7650805850
 H       -2.9994327018      -1.6710823906       5.2067118448
 O       -3.4329557266       2.8128783377      -3.7363732843
 H       -3.8643806217       3.4082176640      -4.3599161541
 H       -4.1594860030       2.4986561353      -3.1861185901
 O        1.3502431066       2.9717739690      -4.8451210470
 H        1.7548481978       2.3326982034      -4.2474263507
 H        0.4053803415       2.8528478663      -4.6952777934
 O        0.8901919233      -0.8106095751      -5.2843593175
 H        1.3373902367      -0.0217618021      -4.9571057102
 H        0.3977964994      -0.4892815978      -6.0483338858
 O       -2.3920476877       0.1571798233      -4.4663233854
 H       -1.5304504920       0.0077247447      -4.8721256967
 H       -3.0134993118      -0.0938781990      -5.1592373857
 O        3.1433262099      -1.6210911158      -4.3788969517
 H        3.9561335675      -1.9966924275      -4.7361502486
 H        3.4193984005      -1.2519753908      -3.5321976010
 O       -2.6756250740      -2.7242985471      -5.7187729551
 H       -2.0420142983      -2.0268978270      -5.5149797155
 H       -3.4877539695      -2.2413470053      -5.9099967214
 O       -5.1617946395       1.2288082870       5.3979658093
 H       -4.3062357808       1.4613461139       5.0194063525
 H       -5.7890955099       1.7174833974       4.8529407476
 O        3.2830870033       0.2536036451       4.8324379926
 H        3.2329304607      -0.7036473832       4.7298862785
 H        4.0673506224       0.3804198425       5.3785243330
 O        1.1181644468      -4.3256554615       5.3538635448
 H        1.9541456163      -4.7754968252       5.5216142398
 H        1.0914859917      -4.2517381459       4.3930375700
 O        2.9721482682      -2.5403981867       4.8836174635
 H        3.4104471766      -3.1850219918       5.4508178521
 H        2.6641787778      -3.0690879492       4.1386315633
 O       -3.0697844587      -3.4380672209       5.4773714170
 H       -3.6789843991      -3.8331883966       4.8432446527
 H       -3.0154580363      -4.0979044702       6.1781035396
 O       -4.9533396268      -1.1899521835      -5.3605005463
 H       -5.7052634720      -1.7567411488      -5.5671956448
 H       -5.1176548108      -0.9219190680      -4.4491713891
