14
Coordinates from ORCA-job benzaldehyde_opt E -345.605781111452
  O       2.888580      1.234849     -0.492769
  C       2.313228      0.158987     -0.386316
  C       0.859967      0.062450     -0.143645
  C       0.266196     -1.198163     -0.032282
  C      -1.107419     -1.294808      0.197133
  C      -1.880154     -0.138056      0.314089
  C      -1.284010      1.118879      0.202368
  C       0.088267      1.221904     -0.026902
  H       2.862237     -0.794025     -0.468097
  H       0.856823     -2.105909     -0.121433
  H      -1.577985     -2.271217      0.285139
  H      -2.950178     -0.215673      0.492821
  H      -1.887735      2.018541      0.293773
  H       0.552181      2.202242     -0.113879
14
Coordinates from ORCA-job benzaldehyde_opt E -345.606711035655
  O       2.905087      1.212287     -0.496200
  C       2.307170      0.160845     -0.385805
  C       0.853929      0.069514     -0.142826
  C       0.262721     -1.186762     -0.031799
  C      -1.102789     -1.289720      0.196299
  C      -1.873779     -0.139792      0.313194
  C      -1.283435      1.115683      0.202661
  C       0.079603      1.222491     -0.025224
  H       2.842614     -0.800004     -0.464114
  H       0.860867     -2.086813     -0.121770
  H      -1.567474     -2.264281      0.282783
  H      -2.939581     -0.220734      0.490820
  H      -1.887652      2.010008      0.293733
  H       0.542717      2.197277     -0.111751
14
Coordinates from ORCA-job benzaldehyde_opt E -345.606853334504
  O       2.919986      1.198000     -0.500420
  C       2.305258      0.162077     -0.384100
  C       0.851741      0.074795     -0.141486
  C       0.262055     -1.180215     -0.031085
  C      -1.100890     -1.288401      0.195947
  C      -1.872335     -0.141295      0.312526
  C      -1.285331      1.115272      0.202982
  C       0.074152      1.224931     -0.023585
  H       2.828407     -0.807900     -0.463732
  H       0.868990     -2.074605     -0.122015
  H      -1.562219     -2.264330      0.281578
  H      -2.937952     -0.224762      0.489504
  H      -1.892025      2.007729      0.294095
  H       0.540161      2.198705     -0.110209
14
Coordinates from ORCA-job benzaldehyde_opt E -345.606832299601
  O       2.927822      1.193331     -0.492935
  C       2.303406      0.162075     -0.392320
  C       0.850741      0.076922     -0.145619
  C       0.262001     -1.178321     -0.033759
  C      -1.100487     -1.288614      0.196069
  C      -1.872234     -0.141858      0.314172
  C      -1.286742      1.115832      0.203436
  C       0.071823      1.226660     -0.025830
  H       2.823038     -0.812092     -0.454346
  H       0.873480     -2.069673     -0.126721
  H      -1.560342     -2.265287      0.282615
  H      -2.937598     -0.226192      0.493386
  H      -1.894773      2.007432      0.295895
  H       0.539863      2.199785     -0.114041
14
Coordinates from ORCA-job benzaldehyde_opt E -345.606874285942
  O       2.929394      1.191958     -0.499953
  C       2.304527      0.161960     -0.385001
  C       0.851490      0.077836     -0.141800
  C       0.262839     -1.177887     -0.031353
  C      -1.100530     -1.289031      0.196086
  C      -1.872860     -0.142082      0.312771
  C      -1.287673      1.116380      0.203252
  C       0.071578      1.227740     -0.023459
  H       2.818512     -0.814446     -0.462367
  H       0.877013     -2.067591     -0.123670
  H      -1.560068     -2.266065      0.281710
  H      -2.938692     -0.226700      0.489935
  H      -1.896776      2.007505      0.294742
  H       0.541244      2.200425     -0.110892
14
Coordinates from ORCA-job benzaldehyde_opt E -345.606876192766
  O       2.926805      1.193716     -0.498973
  C       2.304414      0.161681     -0.385229
  C       0.851537      0.077190     -0.141958
  C       0.262809     -1.178702     -0.031428
  C      -1.100620     -1.289084      0.196160
  C      -1.872627     -0.141867      0.312818
  C      -1.287204      1.116375      0.203144
  C       0.072222      1.227418     -0.023693
  H       2.819843     -0.813444     -0.462517
  H       0.876199     -2.068826     -0.123736
  H      -1.560631     -2.265834      0.281926
  H      -2.938416     -0.226076      0.490063
  H      -1.896185      2.007505      0.294613
  H       0.541853      2.199947     -0.111190
14
Coordinates from ORCA-job benzaldehyde_opt E -345.606876525187
  O       2.926697      1.193703     -0.498411
  C       2.304271      0.161572     -0.385336
  C       0.851436      0.077264     -0.142035
  C       0.262804     -1.178744     -0.031466
  C      -1.100606     -1.289133      0.196213
  C      -1.872500     -0.141867      0.312844
  C      -1.287221      1.116455      0.203107
  C       0.072161      1.227564     -0.023773
  H       2.819317     -0.813717     -0.462634
  H       0.876777     -2.068446     -0.123909
  H      -1.560645     -2.265863      0.282061
  H      -2.938292     -0.226001      0.490140
  H      -1.896503      2.007376      0.294600
  H       0.542301      2.199837     -0.111399
