14
Coordinates from ORCA-job benzaldehyde_opt E -345.606876525187
  O           2.92669664458489      1.19370272507564     -0.49841122703136
  C           2.30427085560988      0.16157184165290     -0.38533596759357
  C           0.85143607362194      0.07726415811127     -0.14203465963899
  C           0.26280382611541     -1.17874403230112     -0.03146607763196
  C          -1.10060588462472     -1.28913265955019      0.19621270681103
  C          -1.87249966869328     -0.14186704820900      0.31284438268726
  C          -1.28722135319400      1.11645472927365      0.20310652131738
  C           0.07216083349871      1.22756385025439     -0.02377338292115
  H           2.81931734037530     -0.81371657117781     -0.46263411620531
  H           0.87677712087393     -2.06844613871563     -0.12390891634197
  H          -1.56064462465702     -2.26586283124064      0.28206060867205
  H          -2.93829157044039     -0.22600067079630      0.49013954523412
  H          -1.89650252024900      2.00737622649447      0.29459976896146
  H           0.54230092717835      2.19983742112837     -0.11139918631900
