14
benzaldehyde
O      2.888580     1.234849    -0.492769
C      2.313228     0.158987    -0.386316
C      0.859967     0.062450    -0.143645
C      0.266196    -1.198163    -0.032282
C     -1.107419    -1.294808     0.197133
C     -1.880154    -0.138056     0.314089
C     -1.284010     1.118879     0.202368
C      0.088267     1.221904    -0.026902
H      2.862237    -0.794025    -0.468097
H      0.856823    -2.105909    -0.121433
H     -1.577985    -2.271217     0.285139
H     -2.950178    -0.215673     0.492821
H     -1.887735     2.018541     0.293773
H      0.552181     2.202242    -0.113879
