16
Coordinates from ORCA-job job E -23.111747119100
  C          -2.28494416243743     -0.42226257175872     -0.03842622573565
  H          -0.93914556097924     -1.83221544505409      0.08740813868438
  H          -1.57160587735219      0.36231720676194     -0.33340801400388
  C          -4.13399628779344      1.23157732237303      0.28285020521050
  O          -1.61877416080477     -1.45225954490186      0.65897915695964
  H          -2.74977231917688     -0.81905844526583     -0.95364847828476
  H          -6.12736865429597      1.86034140533821      2.93532317432089
  H          -2.99063404832999     -1.01527988143090      2.51872844992121
  H          -4.75895529110524      0.03819694753276      3.88430300755835
  H          -5.72031353777523      2.62052618480995      0.62325063275742
  H          -3.95579861521048      1.56464873924171     -0.72954658807468
  C          -3.36024061659890      0.20475164683480      0.81289134704992
  C          -3.59347157845840     -0.21821186324888      2.11225044570537
  C          -4.58635026115327      0.37595704383909      2.87334714138243
  C          -5.35345975205727      1.39722249551410      2.34196799207704
  C          -5.12453127647130      1.82400075941469      1.04328961447184
