11
Coordinates from ORCA-job job.QMRegion
  C          -2.52536197879403     -1.43876338129320      0.18401213608980
  H          -3.38298597878752     -1.22128729119627     -1.57364644542411
  H          -2.94151366506021     -2.43316689473755      0.41214126834397
  O          -2.47669676347474     -1.22998796559797     -1.24008058673186
  H          -1.47910659132465     -1.42365868843291      0.51389816148418
  C           0.44199218496775     -0.04522656615244     -1.82283337948884
  O           0.86497828475963     -0.64619432751970     -0.62540004860602
  H          -0.45403579381475     -0.47875411807270     -2.27185115853175
  H           1.24460787140712      0.32089108623259     -2.46767339094088
  O           0.22335135751678      0.70546840726585     -0.65737463401159
  H          -3.08522026309878     -0.66686149965653      0.70957759013433
