136
Coordinates from ORCA-job job E -257.740178494640
  C          -0.93455377141814      3.55728008488162      5.64178598470113
  C           1.11723586080255      1.12498721790816      9.81716529005459
  C          -0.58915911536552     -3.76354826059163      9.68278262121446
  C          -2.35133452146497     -4.64131540326383      4.79093404652739
  C          -0.08994757312182     -2.51707426817948      0.59440116330651
  C          -0.84355345672125      2.24347801204664      0.50947329864902
  O          -0.71311386670159      2.37969651681258      6.38544791155974
  O           0.08570972230843      0.19147962704950      9.85905578136482
  O          -1.35962009816733     -3.30621977587878      8.60635413372760
  O          -2.10340121244394     -3.41497015733201      4.13038956305288
  O          -1.13761102536939     -1.75423419004174      0.08746361771245
  O          -0.94370995924781      1.81352948244045      1.85069509769056
  C          -2.29685193382543      3.39564854940544      4.94168969846408
  C           0.45105654208404      2.50407576881903      9.96515879370318
  C          -1.17496649232626     -3.10916655669583     10.94557425134323
  C          -3.49874224968427     -4.39763865799872      5.78444630912834
  C          -0.62486914584394     -3.95094704746427      0.70539965724728
  C          -2.08999120854191      1.81698558911513     -0.27708625925871
  O          -3.30913193608189      3.03107758355850      5.83728349962386
  O          -0.22378431221246      2.62763988565846     11.18344072618434
  O          -2.50312001169749     -3.49497347734697     11.16716642637066
  O          -4.60206719644387     -3.78498435108258      5.17712576691681
  O          -1.12611176895692     -4.41908894127513     -0.51247808053481
  O          -3.24811387985215      2.48109425950647      0.14695622141720
  C          -2.17256440179899      2.37243011788527      3.80475670577346
  C          -0.50908659407746      2.70920007973391      8.77883006678806
  C          -1.07144621914402     -1.58922508369127     10.76651990042660
  C          -2.98461268071067     -3.56248650160641      6.96314154345600
  C          -1.69649236852512     -3.99950610032059      1.80104408826132
  C          -2.22552970790499      0.29726304874304     -0.13197339466894
  O          -3.36725113962141      2.30219364407069      3.06102965337160
  O          -1.04917296404594      4.00615425977463      8.78187874215198
  O          -1.40897745755905     -0.90306563370379     11.94495228747931
  O          -3.96294920326729     -3.44550969684628      7.96564542643835
  O          -2.16548067380761     -5.31829884833310      1.94226601676957
  O          -3.24036806561203     -0.20323314683462     -0.96419329350550
  C          -1.03673945232437      2.78778095580783      2.86630372205638
  C           0.22437468215361      2.50261039553491      7.44865648537851
  C           0.33110179936822     -1.12089663797850     10.35013240511050
  C          -1.73966150641054     -4.20428583967578      7.58298591117222
  C          -1.10392457831765     -3.49150684165990      3.12664250377492
  C          -0.92942755748532     -0.45366264044030     -0.49348119490486
  C           0.26195862119950      2.86941065910765      3.68752102003844
  C           1.06472390717325      1.22006991087919      7.45578679500584
  C           0.98739477921858     -2.03072826380591      9.29215868131833
  C          -0.67981496654336     -4.38963695291803      6.48738496993302
  C          -0.49573852275949     -2.09804468948857      2.92663655523364
  C           0.36572914046821      0.24453662435533     -0.03890775984290
  O           0.09063216781783      3.82523990592158      4.73322332219570
  O           1.86163321480720      1.08280464048460      8.61730451182916
  O           0.76332556853066     -3.41171466841119      9.56449620371495
  O          -1.22943366303391     -5.17351020413235      5.42382415157443
  O           0.40706076560137     -2.07733173139893      1.84254659506044
  O           0.29449533369980      1.67900356704413     -0.06132451771036
  C           1.48802426657809      3.36302073840334      2.90223586071114
  C           2.04222487435988      1.25241731196639      6.28465908976632
  C           2.51755646562924     -1.88687942352144      9.26204121084998
  C           0.55192243036719     -5.17376482759429      6.95137179996905
  C           0.29263351278387     -1.63146709080453      4.21877089374738
  C           1.55260961728895     -0.07628497296888     -0.96830010686863
  O           2.06107018695601      2.41858691470539      2.03010893823386
  O           2.48565118018593      0.05474172990097      5.97518193429454
  O           3.09682449782660     -2.13414436343318     10.51317246039207
  O           0.21812746820161     -6.44208451144416      7.44858898763745
  O           1.32473031415677     -2.61260361411667      4.46638593375706
  O           2.79522010973282      0.16049112974012     -0.36785964341428
  H          -0.95657804567930      4.42397712494742      6.31580337308070
  H           1.85707367122718      0.94997379983107     10.61013460154941
  H          -0.60398365134009     -4.85897260311323      9.75448867394439
  H          -2.63593560399564     -5.40555369046665      4.05413680414336
  H           0.79088954111344     -2.50169071053383     -0.05853979678336
  H          -0.71537731708275      3.33183936935354      0.44406151072049
  H          -2.59692522642022      4.36127952981656      4.51964891374512
  H           1.22043561993853      3.28246719271867      9.94840344122262
  H          -0.60585548171938     -3.42636532343216     11.82413248362261
  H          -3.85138457722721     -5.36483826216260      6.15920408415803
  H           0.19452225716834     -4.62036059699696      0.98759709597871
  H          -1.95733665650565      2.07965477893755     -1.33182297725996
  H          -2.97386518710917      2.32277014134649      6.40632150863698
  H          -0.72298796375952      1.81267826805574     11.35653171194245
  H          -3.00177105618358     -3.41016101690742     10.33720932981842
  H          -4.28247029994239     -3.04153486989984      4.64492254613443
  H          -1.72760158905738     -3.75066306921615     -0.88047572237174
  H          -3.35625382061905      2.37933803879958      1.11098101272348
  H          -1.92655799755303      1.38264471920999      4.22726591337339
  H          -1.30907912674503      1.95581231249716      8.84701112006278
  H          -1.75258487026314     -1.30521614363388      9.94782610705420
  H          -2.68007479011324     -2.56881592763931      6.59297598912205
  H          -2.52916134169779     -3.33251578119698      1.52387321266680
  H          -2.45247619325825      0.07709758221627      0.92514207830003
  H          -4.11330755999470      2.32306978400258      3.68197358068901
  H          -1.34691597931668      4.21414021832282      9.68376556676585
  H          -2.21140793865287     -1.30611044917650     12.31490723509792
  H          -4.81807495676343     -3.27100138599937      7.53861489835476
  H          -2.24965853960996     -5.70169492674983      1.05006140843645
  H          -4.02231070538992      0.36412614245069     -0.87098997332262
  H          -1.27382703476125      3.77109592500241      2.43765276052774
  H           0.88265944181227      3.36022686416794      7.26021342819216
  H           0.97701417174721     -1.07230024469291     11.23825008562333
  H          -1.99378523412703     -5.18099095949342      8.01975537569444
  H          -0.31030157149356     -4.17455968604248      3.46127247592644
  H          -0.92668971822372     -0.58172044929825     -1.58533338426747
  H           0.45229777026389      1.86701793853912      4.09969729570130
  H           0.40161287467237      0.35206982941470      7.32149620828099
  H           0.57177822816405     -1.78211435295190      8.30406898620612
  H          -0.38065681773217     -3.39793070511442      6.11751186358243
  H          -1.30599134730433     -1.36859923365088      2.77694486444583
  H           0.57012567310088     -0.07722571954176      0.99015341566131
  H           2.24268320433990      3.60987549983272      3.65189546591152
  H           1.20789606285360      4.27248541877881      2.36002155479521
  H           2.89861280365724     -2.58101119422745      8.50338899139877
  H           2.78921852294683     -0.87048441003441      8.97799189110427
  H           1.04990177259559     -4.63625241385408      7.75770867760064
  H           1.23577874065089     -5.24892370473429      6.09751410176541
  H           1.48337995926782     -1.10885074824268     -1.32317764364747
  H           1.49146471713904      0.59333947247476     -1.82911941537630
  H           1.41733608733892      2.17102418238683      1.33325598014187
  H           2.92451884124078     -3.05631126344655     10.75615099457675
  H          -0.20085025493490     -6.94775260187534      6.73550865207018
  H           2.87380268849611     -0.33202979911121      0.46916431745401
  C           2.48639539294659     -2.26259216603716      3.74815929683272
  H           2.46707794891408     -2.69336779114840      2.74111347647992
  H           3.34200160975263     -2.62662615250751      4.31480644574805
  O          -0.44226201720567     -1.40468437833814      5.23766620056482
  C           3.26485934808227     -0.04272583504450      4.78058745274191
  H           4.14442449702975     -0.64140749807223      5.01297218133061
  H           3.54824415212429      0.96801332573860      4.46979811905615
  O           2.39092444247783      2.27113158842485      5.73810502241763
  C           2.41852569695685     -0.72341334697323      3.65396415617034
  O           1.04897514248046     -0.43550200203233      3.81614590605430
  H           3.39520311971608      2.64857370768653      0.94722856319606
  H           2.62684848786115      0.70105333012054      2.36586099832067
  H           3.54385577044328      1.57522356536453     -0.21330513990792
  O           3.95158155877071      2.42201615620006      0.15612608693876
  H           4.87343824411285      2.24812211833465      0.42518662394097
  O           2.85303383951578     -0.26296835036432      2.42633695221610
