136
 xtb: 6.7.1 (edcfbbe)
C           -0.46531886750252        4.13234609102025        5.46003707429541
C            0.91982040760556        1.29284168177914        9.65347590368729
C           -0.63809200296220       -3.68403993754310        9.63948211220856
C           -1.62656001338952       -5.39225567122086        4.77120219676589
C           -0.93408679174330       -2.82408281949547        0.23913709866912
C           -1.09872304451793        2.36883800410607        0.54868346737103
O           -0.27255222330542        2.85339317995748        6.02151318073315
O           -0.09413148449039        0.34578434035331        9.51524208450025
O           -1.20279598985945       -3.48140598140526        8.37238671034454
O           -1.37377377927427       -4.16681087054432        4.12952381448647
O           -1.62963154374667       -1.66655260451378        0.58014403896791
O           -1.29273723869095        2.24402362356464        1.93385876110563
C           -1.92436950340603        4.24015837933035        4.98975001850654
C            0.22708043830682        2.66611125710813        9.74426254081063
C           -1.49627250434525       -2.89224823968606       10.64133631226806
C           -2.91187174911868       -5.25637217842003        5.60442069229711
C           -1.90568965576639       -4.00675336666016        0.41083333497058
C           -2.37903168408986        1.88248595555238       -0.15055316533001
O           -2.84531507997638        3.99377431510998        6.01975675721851
O           -0.65439237486989        2.73944365984881       10.82776305364685
O           -2.82587106402526       -3.33307285165177       10.64826130014148
O           -4.00819861733206       -4.83668142795208        4.83657359325276
O           -3.05165668771070       -3.86242740692993       -0.37818592493384
O           -3.49160413384929        2.65545087200524        0.20895266531040
C           -2.13732769660890        3.20688848719021        3.88046470200430
C           -0.51120144280374        2.92388074813735        8.42134312558670
C           -1.40931998939148       -1.40826718980478       10.26200376681404
C           -2.66268750033411       -4.22870932018804        6.71199180424816
C           -2.27231098436042       -4.13483902130947        1.89697830142802
C           -2.58238988420679        0.40763515324770        0.21549953748324
O           -3.40628799236974        3.31961576273221        3.28349309948514
O           -1.11317024294622        4.19876813767273        8.41360880572519
O           -2.03598484130166       -0.58923655626399       11.21601914787887
O           -3.74065497224326       -4.14650988478408        7.60949943122607
O           -3.08458309620369       -5.26655720198921        2.11959490082886
O           -3.65247277528778       -0.16097924916659       -0.49624237792364
C           -1.09768747687828        3.37448912989837        2.76466990862039
C            0.45648655522211        2.80468379241741        7.23293704679610
C            0.04245635822821       -0.92988833529249       10.12660139677437
C           -1.41512581012766       -4.59512142469034        7.52319470312529
C           -1.00462418243188       -4.23765769634493        2.76482987788159
C           -1.33286278845051       -0.43847800459457       -0.07972501835919
C            0.33428977576295        3.43611765272007        3.32942668676871
C            1.17081032681715        1.44742137234565        7.32042716153115
C            0.90125549593168       -1.90210134219142        9.29534982367583
C           -0.21406792912147       -4.86410758142885        6.60226419591904
C           -0.08665794298297       -3.05371783682962        2.42505891609498
C           -0.03873098937164        0.22897911966286        0.43161161454992
O            0.40680193672806        4.38013087660932        4.39809768449311
O            1.81971612215761        1.28394033529263        8.56493229903556
O            0.69420427528098       -3.25435517158093        9.69854171845671
O           -0.56140211667161       -5.79742829504195        5.58136240910173
O            0.21021995251585       -3.02333785651569        1.04320608776816
O            0.00589766813402        1.62646952410769        0.12797373471961
C            1.40947267738812        3.89167128254538        2.31513952549420
C            2.20651393622466        1.24915218490502        6.21795402812664
C            2.40844818474839       -1.66197537975447        9.47827646273671
C            0.96982399187416       -5.48944964539019        7.34990002913545
C            1.23304738909113       -3.04199017659139        3.20258548911957
C            1.23766539824947       -0.34104650607148       -0.20971302058787
O            2.16366142167303        2.85596839154008        1.75311391066177
O            2.97449778754222        0.20667282234366        6.44361738117043
O            2.78567370859829       -1.66469193717398       10.82838738659489
O            0.62453733959961       -6.69257718651132        7.98424232552811
O            2.13941066123329       -2.32094717291042        2.58613273871814
O            2.39838966946948        0.23276847871461        0.33655829456230
H           -0.24942559052231        4.91426757997333        6.19842935813224
H            1.53790918099803        1.10027610164957       10.54035409394581
H           -0.61468781013922       -4.74912502712816        9.90139740070608
H           -1.74289433333626       -6.19582100603974        4.03394486532620
H           -0.55763250626025       -2.78270802731103       -0.79116279328394
H           -0.88892388377898        3.40772592725308        0.26300878041958
H           -2.07773897772651        5.25101503805426        4.58027030463934
H            0.98367337799084        3.44234243041257        9.89988988123235
H           -1.11311604742526       -3.03853779928818       11.65533730064751
H           -3.12552423352510       -6.23265452488149        6.06597997735472
H           -1.40702865900683       -4.92524448623629        0.08303293017563
H           -2.26721499779593        1.98369510760761       -1.23521265503484
H           -2.44675691918961        4.22728857867499        6.87637170408972
H           -1.16852368614358        1.91624964045532       10.88222909484669
H           -3.13164429352173       -3.45995867391100        9.73189819142159
H           -3.88009182651691       -5.10967796709105        3.90864902756333
H           -3.37924410523039       -2.95174121423420       -0.30171919472017
H           -3.51666341928214        2.76787586404601        1.17642216769231
H           -2.00658345018768        2.20626042195020        4.32021122714561
H           -1.28293582886540        2.14925715522823        8.29561449829464
H           -1.88676987513463       -1.27971713589463        9.27675637491067
H           -2.48105020429270       -3.25138122018338        6.23686061912265
H           -2.80800687297289       -3.22525371697679        2.21035590638819
H           -2.76909234746451        0.34606003787110        1.29915388432526
H           -4.07087324981493        3.35081134086137        3.98944864260841
H           -1.42988707468586        4.37878786921657        9.31533347898939
H           -2.88502890070943       -0.99558278302612       11.45558241732122
H           -4.55741565745566       -4.05895584251256        7.09193706302944
H           -3.68924522734674       -5.34565173645640        1.36466360542431
H           -4.40062577356988        0.45696402984648       -0.46874497592922
H           -1.32999062646405        4.29799809168687        2.21398534491273
H            1.20033166841019        3.61170249488713        7.26271967869446
H            0.48447356214440       -0.81758060699342       11.12611002583835
H           -1.62439722930526       -5.49045839080005        8.12350705208176
H           -0.47356794937078       -5.17558922176863        2.56231639332520
H           -1.26885891393556       -0.61016734179389       -1.16385279514164
H            0.58209047467231        2.44025177193273        3.71815963506637
H            0.42392834463894        0.65333536448175        7.17219050947791
H            0.63974974155212       -1.78914744086270        8.23379916494740
H            0.10459476300239       -3.91872723512052        6.14348136364581
H           -0.60083220541979       -2.12652431786972        2.73045936416670
H           -0.00061990281014        0.09416955833620        1.52343190836111
H            2.10030544364918        4.52094728454126        2.88161412942599
H            0.93943487879331        4.51163020545975        1.53783918705542
H            2.93632085501275       -2.44203655436343        8.91890974979262
H            2.68165468745184       -0.69054635422285        9.06740162807018
H            1.30966668371896       -4.80638654673116        8.13006542442523
H            1.77632484779993       -5.63833503382218        6.62465589412274
H            1.25319862696307       -1.42753432335531       -0.07753118151680
H            1.23962923963345       -0.08281593680430       -1.27521298430056
H            1.62759956990342        2.34253217277342        1.13090132320423
H            2.64179841673789       -2.55420493027818       11.18633121330079
H            0.37217123672800       -7.33262884885994        7.30286871319314
H            2.39743560303536        0.07098274941718        1.31604324682429
C            3.25122006789012       -1.89825283750497        3.37262146555720
H            4.07567376814754       -1.70212499663969        2.65405367676583
H            3.50033673755277       -2.67744680295707        4.10580222553440
O            1.41629294865162       -3.66916812765321        4.22321987624570
C            3.75216997684993       -0.23466194383093        5.32201109036868
H            4.24216233489815       -1.15106103204226        5.66871431547897
H            4.47591556706201        0.55755442703859        5.04695676688033
O            2.32747079158945        2.00790616485400        5.27935415342813
C            2.74146341727975       -0.54171980052611        4.09058680104057
O            1.49582253648612       -0.68304885759159        4.53607644166696
H            4.26887835080550        2.27754317112226        1.53649771852337
H            2.48010721667670        1.22060325311990        3.52772618327915
H            4.43969188595933        0.95322045463900        0.70356217034115
O            4.67608314302086        1.40576350501776        1.56361887297073
H            4.24323060441914        0.98922765469983        2.18723527608603
O            2.83852594438783        0.34987712276323        3.18578291150241
