11
Coordinates from ORCA-job job.QMRegion
  C           0.13909819272290      0.45036995098699     -2.79575162676535
  O           0.40308120962783     -0.54639014449116     -1.84852987438389
  O          -0.61468091432824      1.16397453140403     -2.04553967758375
  O           0.97266761454646     -0.07049052681086     -0.59117196761345
  H          -1.51120433216743      0.31654580233123     -0.83534940355001
  O          -1.35997698567650     -0.14551642639714      0.02725336269825
  C          -0.11363679963472      0.31507134165771      0.39807596636946
  H          -0.07584803591358      1.41987948011778      0.40146323416537
  H          -0.35337392818907     -0.16274454039900     -3.60858457376944
  H           1.05645961614420      0.94567281336363     -3.20950110921815
  H           0.17863635900438     -0.11250873071093      1.37163183785020
