147
Coordinates from ORCA-job job
  C          -0.71305817365847      4.77662504652409      0.72356840103799
  C           4.35677763980060      3.25819959678108      0.59620768980460
  C           4.97196572691577     -1.93416667782313      0.47372311105124
  C           0.63464939311376     -4.82873870504771     -0.36730160408473
  C          -4.29160743969937     -3.13909132892437     -1.36373038606975
  C          -5.05102313890295      1.90909312537819     -0.25830902506268
  O           0.24952291892752      3.75336303704814      0.61248597566286
  O           4.17299877736489      2.02112596870875      1.20619123386486
  O           3.59610442147221     -2.13264422556944      0.66387796673072
  O          -0.34385099718113     -3.82255316204920     -0.32516620445892
  O          -4.31166898507649     -2.12089977332054     -0.41567905346727
  O          -3.72705537128207      2.02287558541032      0.19738350203140
  C          -1.59006501737443      4.50673531812583      1.95766828056617
  C           3.85133947127410      4.34292526843262      1.56949441045283
  C           5.54936947371845     -1.38315658696155      1.78764249583046
  C           1.23545475750365     -4.98484218649648      1.03938737735261
  C          -4.04068816319125     -4.45705880416917     -0.60020794128696
  C          -5.82876347374030      1.04947384497519      0.75411831574185
  O          -0.84496874566106      4.35622462370175      3.13523357168119
  O           4.51109842454344      4.30153999130343      2.79937776353886
  O           5.35898881176748     -2.26007807339818      2.86143631743449
  O           0.26774568014045     -5.24072959064708      2.02189262827114
  O          -5.01919116955344     -4.69446450969961      0.36853721785341
  O          -5.86109403513912      1.61966408128406      2.03182369485958
  C          -2.39978618795797      3.22648669985715      1.72155036231722
  C           2.32852823101350      4.20267319046217      1.76390598855049
  C           4.88078323478360     -0.02907244541242      2.05940194607033
  C           1.99902200284136     -3.70044381845074      1.38925529494460
  C          -2.64174826158021     -4.40522012261279      0.04019766426829
  C          -5.17968724151673     -0.34095188847192      0.78195200402078
  O          -3.33205243744460      3.01220280177745      2.74980541147074
  O           1.81929772038695      5.27487218553784      2.52052377323235
  O           5.42259105101853      0.58621712006751      3.20003063360483
  O           2.67458097138855     -3.81863919840681      2.61594836840499
  O          -2.30516974655505     -5.62772282559540      0.64953679012278
  O          -5.89419400737477     -1.21807145345160      1.61335855905544
  C          -3.17110220582438      3.30823412004919      0.39944203274793
  C           1.59553607932562      4.15376372690135      0.41269778501888
  C           5.03715976894605      0.93490319731448      0.87422678908594
  C           3.03262104531731     -3.38128132185445      0.30536160976966
  C          -1.56503590921367     -4.06854711254251     -1.00343786945837
  C          -5.11554074265967     -0.96361940380244     -0.61888518315019
  C          -2.24270004930531      3.71620132908485     -0.75728054907983
  C           2.27821489733345      3.10300848449921     -0.46279046980358
  C           4.68013107210795      0.25485690929265     -0.46477450921331
  C           2.35394891988007     -3.34886555365824     -1.07380324844406
  C          -2.00343480748148     -2.80231603605223     -1.74593593184532
  C          -4.53550317904514      0.02847581859790     -1.64756587163881
  O          -1.50551362951874      4.89054658201182     -0.42333767058597
  O           3.65115039316398      3.38488285135435     -0.62917930625416
  O           5.25267595782251     -1.04811908058219     -0.57377045372991
  O           1.64495015064432     -4.56310827210312     -1.29977446779976
  O          -3.27693527301522     -2.96661588545938     -2.33891950204260
  O          -5.12636110745365      1.32458477447740     -1.52822038328222
  C          -3.03753885296481      4.05027352261014     -2.02430569229554
  C           1.66720409072033      2.96720835167450     -1.85527582083295
  C           5.26449043259161      0.99935363963684     -1.67805022830410
  C           3.36499770212319     -3.23562703638757     -2.21968229831840
  C          -1.03124002173120     -2.36126676389279     -2.82915800435179
  C          -4.82201457285661     -0.38059472450787     -3.10109591954311
  O          -3.92991476712297      5.11304451272264     -1.83143097704059
  O           2.09272544456292      1.82861618416804     -2.37637090385682
  O           6.65140268866955      1.16385189574673     -1.57328002001752
  O           4.25803018972085     -4.31479390872407     -2.24631334928838
  O          -1.41941010147556     -1.19686100542666     -3.33792810181640
  O          -6.18680502005901     -0.59884094153151     -3.33329123799420
  H          -0.21827872275767      5.75201354304673      0.81930429149194
  H           5.40909899439545      3.42447805129150      0.32985862367075
  H           5.46955163017303     -2.87059868021896      0.18741431107506
  H           0.19479708451137     -5.77923177401445     -0.69867621849264
  H          -5.22820196979668     -3.18238105132375     -1.93496063444187
  H          -5.51477704335253      2.89797709668585     -0.37224740604732
  H          -2.29140071896184      5.35078194883966      2.06166965149727
  H           4.06146100526058      5.32375505942455      1.12882281198705
  H           6.63103039013600     -1.24834550091336      1.68142645800591
  H           1.94987784770957     -5.82276191964472      1.01315635843312
  H          -4.08486905541083     -5.29029130013978     -1.30913196031570
  H          -6.87057595814089      0.96003032933576      0.42828417119109
  H           0.01667796451205      4.80703151343928      3.04938173710130
  H           4.59790585374092      3.37879016516061      3.09118808692933
  H           4.46047461742765     -2.63625790122530      2.82826657840145
  H          -0.60369819301540     -5.38249053204660      1.60848002741399
  H          -5.19075175619376     -3.87099181011892      0.85599120148410
  H          -4.97763698326422      1.96055789972439      2.26881792036426
  H          -1.70323218244866      2.37725722851771      1.65382298210294
  H           2.12403980979689      3.25272845414380      2.28122648758683
  H           3.80421845516781     -0.21151379855750      2.19544836530177
  H           1.28319719560287     -2.86714634102262      1.42490182688326
  H          -2.63528835386790     -3.59792958396552      0.78861380032509
  H          -4.14032290896126     -0.23135844629730      1.13278330864019
  H          -2.86512437900332      3.07346951610915      3.59949248553603
  H           2.45828178857132      5.46864179420568      3.23029686896019
  H           5.63143534205164     -0.11220264949907      3.84343990770789
  H           2.08139973998750     -4.27263295804962      3.23624138597789
  H          -3.09464033548967     -5.96044312933409      1.11244620436975
  H          -6.12483615350153     -0.73655592960491      2.42549026642825
  H          -3.97134833971354      4.05565100652028      0.49578735492042
  H           1.63535109688827      5.12833730965533     -0.08905387136660
  H           6.07356998484486      1.29890227158053      0.82749429863913
  H           3.81263880743603     -4.15577136515033      0.30203256521064
  H          -1.44744552121943     -4.89165960055230     -1.71846524726632
  H          -6.12192665795122     -1.27083956187500     -0.93756257729320
  H          -1.55875472078335      2.89083217622805     -0.98916345837739
  H           2.15922506564316      2.11594128688871      0.00780120982804
  H           3.58567148381560      0.19009744604440     -0.55377834373926
  H           1.66636362456842     -2.49445626831356     -1.11516510065941
  H          -2.02859486144252     -1.97108397344126     -1.02368222736398
  H          -3.45237264125748      0.10274872342344     -1.49467853327099
  H          -3.62660837076625      3.17644156487053     -2.30844242245382
  H          -2.31808560571494      4.26658373909918     -2.82232289738419
  H           5.00147888297868      0.42359964092807     -2.57367500176495
  H           4.82491465436849      1.99180244577933     -1.76149488622495
  H           3.95845478137184     -2.32938882463545     -2.08758301991686
  H           2.79710669656769     -3.16330784107386     -3.15504813708928
  H          -4.43239142882198      0.41665641985663     -3.74534490125375
  H          -4.29746670808499     -1.30535495663105     -3.33847943953159
  H          -3.41313017023211      5.90453811093827     -1.61573342387221
  H           7.06379143645962      0.28608943245984     -1.57412697484431
  H           3.74331918146056     -5.12477469725828     -2.38605106201805
  H          -6.65582204380061      0.23882786182373     -3.19862062416556
  C          -0.44123324487345     -0.42260684603048     -4.00195169074756
  H          -0.95359637831503      0.17820023970599     -4.75472294708208
  H           0.32981590188116     -1.06552419585044     -4.43484939250834
  O          -0.05864162601372     -2.97640479226440     -3.19076958237723
  C           1.41439236974217      1.27647948043067     -3.48188712351017
  H           2.11179764584516      0.59313598873797     -3.96781451231906
  H           1.05856098556148      2.06174328844911     -4.15710060565110
  O           0.96986253905961      3.78243413367767     -2.40557739819565
  C           0.17914536257079      0.51896625492656     -2.91138902014727
  O           0.59793016962961     -0.49838294594939     -1.95297004874057
  O          -0.66207760574696      1.27746905170893     -2.26718352923706
  O           1.03666503518790      0.05619983200280     -0.68127573068828
  H           0.83017135634108     -1.82203812990980      5.04909548298069
  H          -1.38416977234980      0.44192810505443     -1.13941847663933
  H          -1.01323518034783     -2.69121887945435      3.64891506412023
  H           2.23474693064915      0.02830517528177      4.21733661574139
  O          -1.34029108209777     -0.06369957694525     -0.26547014754735
  C          -0.14253175643054      0.35662040889474      0.25139676495421
  C           0.15013738890503     -0.28919465117567      1.58206449903457
  H          -0.09000939656522      1.46031167464690      0.31994784899562
  C           1.18606084334686      0.19669737809043      2.36778330493771
  C          -0.64141760068853     -1.32851431879694      2.05072824440641
  C           1.43091606927380     -0.35839187598117      3.61140937407267
  H           1.79152704573419      1.00681627874181      1.98754312753703
  C          -0.39605232451957     -1.87997142862586      3.29751090421194
  H          -1.44537380617936     -1.68558440546851      1.42549479110198
  C           0.64028170721879     -1.39617169019542      4.07734547855259
