11
Coordinates from ORCA-job job.QMRegion
  C           0.17293747439856      0.54405180341424     -2.94450136262996
  O           0.65917782254453     -0.49481965584669     -1.97358508595905
  O          -0.69586648928019      1.32640929322868     -2.34369343032644
  O           1.05551465990144      0.08236511481209     -0.70173561805665
  H          -1.36860978767991      0.48854566391441     -1.20968441362410
  O          -1.33217022203043     -0.03909918892726     -0.34416494706054
  C          -0.14749784156060      0.36692615028139      0.20812083945186
  H          -0.08996453345861      1.46942302789095      0.29333757382639
  H          -0.25884154574384     -0.15469255970034     -3.71229951637265
  H           1.06066576368956      1.09445684668155     -3.35164913705421
  H           0.04271370423590     -0.11613601811505      1.17959937047513
