11
Coordinates from ORCA-job job.QMRegion
  C          -0.02477445382403      0.38833293099827     -2.71729464929866
  O          -0.03341547259344     -0.57819341938971     -1.73704543695369
  O          -0.73083584288468      1.07179903953529     -1.91348129912430
  O           0.73401895571136     -0.28433365156042     -0.51888115226940
  H          -1.81100022717895      0.36325192603761     -0.45784681373486
  O          -1.51062800681292     -0.10086618724470      0.34121737400170
  C          -0.19402261788928      0.30389794834731      0.51052948333906
  H          -0.09479039710100      1.40310194931429      0.42369139498373
  H          -0.52298218901517     -0.14449798399294     -3.58340701265429
  H           0.96468348927842      0.77625965320661     -3.05918192603632
  H           0.16774846796377     -0.08126900590028      1.47642414842833
