147
Coordinates from ORCA-job job
  C          -0.70496215198520      4.76810953988802      0.74121476602953
  C           4.36418738262256      3.26136051506758      0.57682598404980
  C           4.98327081334705     -1.93395215112713      0.49255403105305
  C           0.64112546277458     -4.81998393387293     -0.32304933401087
  C          -4.26997870773755     -3.13919711805830     -1.36418205963587
  C          -5.04633045291759      1.89886626215194     -0.22293416260727
  O           0.25830621997423      3.74918746343108      0.59272443584676
  O           4.17475577698413      2.02201130146532      1.18060651226714
  O           3.60830369481014     -2.12860626427782      0.69401079393932
  O          -0.32800671079838     -3.80403927353755     -0.31321171318769
  O          -4.29089559190527     -2.12645352717590     -0.40988969531091
  O          -3.71994179336682      2.01350730092365      0.22663387597546
  C          -1.56215690391491      4.47856783914332      1.98539821922549
  C           3.85881995032906      4.33990178636800      1.55606877664266
  C           5.56808483691319     -1.36865640507048      1.79726020033111
  C           1.22441759550449     -4.95617539781442      1.09281627582422
  C          -4.01954212777505     -4.46114694744783     -0.60748325460413
  C          -5.81567336406107      1.03028736774576      0.78844745328222
  O          -0.80083885552643      4.30927164838349      3.14952948069956
  O           4.51847876647463      4.29234693068930      2.78582247946474
  O           5.37774546201616     -2.23319210626654      2.88133562706751
  O           0.24210931026677     -5.18032889930222      2.06828491502709
  O          -5.00191847528351     -4.70740655716382      0.35515959610065
  O          -5.84009021678826      1.59157979865514      2.07041504944191
  C          -2.37552683694713      3.20176889980515      1.74489649909903
  C           2.33673758354975      4.19420961777334      1.75013070152595
  C           4.90590501160241     -0.00923627166440      2.05731040219049
  C           1.99622708110633     -3.67388774798576      1.42970613532527
  C          -2.62409344247331     -4.40884005504818      0.04010596495786
  C          -5.16352558685812     -0.35888229209715      0.80318991207113
  O          -3.29289659239349      2.97367369071471      2.78333829313434
  O           1.82934472841161      5.25849667134183      2.51927973553511
  O           5.46588606261812      0.62503551060920      3.17854892746453
  O           2.66347771377597     -3.78021705161328      2.66164544466220
  O          -2.28739414253593     -5.63477555575186      0.64365134746942
  O          -5.87144043568966     -1.24407636123397      1.63137898080259
  C          -3.16660477591240      3.29891990070194      0.43573239757422
  C           1.60327416734996      4.15792435156782      0.39891156400793
  C           5.04409132879155      0.93789852060772      0.85653050264125
  C           3.04098122736117     -3.37909438550193      0.34917473898831
  C          -1.54424176199194     -4.06120527343290     -0.99636018185721
  C          -5.10157410898940     -0.97168881843082     -0.60218346750003
  C          -2.25735805372815      3.72707959863016     -0.72877287066502
  C           2.28820823134939      3.11871319745786     -0.48992287816403
  C           4.67866413978251      0.23999693205497     -0.47036389971730
  C           2.37778956066406     -3.36656826185056     -1.03765181670977
  C          -1.98250301278330     -2.79715596035938     -1.74191170948445
  C          -4.52787166467888      0.03007810085563     -1.62459080467007
  O          -1.51834473662487      4.89841842404492     -0.38927413429541
  O           3.66224582959085      3.39826286530895     -0.64937255491603
  O           5.25775935789863     -1.06069313137788     -0.56724721740945
  O           1.66364605971688     -4.58005753679961     -1.24910744773454
  O          -3.25439874148156     -2.96216126356885     -2.33783126668435
  O          -5.12624364477690      1.32204665975027     -1.49573744762135
  C          -3.07143817734856      4.07467353972857     -1.97978446719081
  C           1.67570707719429      3.00632012659565     -1.88501356351386
  C           5.24543546654748      0.97610058877776     -1.69650313749371
  C           3.40058023902268     -3.27996337563224     -2.17544539761772
  C          -1.00316006953306     -2.35912098239576     -2.82114027879478
  C          -4.81001940302806     -0.37138555355906     -3.08074339374176
  O          -3.96694366593476      5.12915591522694     -1.75862670068760
  O           2.08395258931663      1.86853869082023     -2.42019486096057
  O           6.63325207967775      1.14476396065250     -1.61110471692407
  O           4.28900719469202     -4.36328751224106     -2.17222126615177
  O          -1.38962180284137     -1.19806994553102     -3.33408523533058
  O          -6.17333254137034     -0.59662550044969     -3.31615600285281
  H          -0.21013987496973      5.74257512055076      0.84375153992009
  H           5.41761462054354      3.42564407904075      0.31397496059776
  H           5.47822268354950     -2.87436458355351      0.21506267513973
  H           0.19645139657172     -5.77256748107890     -0.64151858458849
  H          -5.20619900681277     -3.17934084673465     -1.93609049272459
  H          -5.51356108185592      2.88706904112440     -0.32740835804504
  H          -2.26168389183240      5.32133426619101      2.11104746835783
  H           4.06674794127577      5.32378695632658      1.12133785965414
  H           6.64970458814428     -1.23922510104131      1.68537355877411
  H           1.93116765716491     -5.80150949691994      1.08812443321918
  H          -4.05793761154171     -5.28997126847556     -1.32186384120293
  H          -6.85941327438750      0.94119415099341      0.46895363220101
  H           0.04968886238899      4.78197293076529      3.06748520337597
  H           4.60761711283246      3.36806730242497      3.07233606987128
  H           4.47627851076949     -2.60261168151827      2.85638814395405
  H          -0.61335924315158     -5.37900413630589      1.64470275666587
  H          -5.17720732806575     -3.88800969582142      0.84810927552852
  H          -4.95513500617970      1.93041164244882      2.30422685892438
  H          -1.67952306191441      2.35370854598495      1.65710724128909
  H           2.13388541225819      3.23802734871112      2.25682407182848
  H           3.83151541618840     -0.18808195875305      2.21318202017016
  H           1.28658498628702     -2.83457721057493      1.44872872783645
  H          -2.62277884355542     -3.60740306031747      0.79440744488803
  H          -4.12348913455881     -0.24774801239937      1.15166707680514
  H          -2.81534275467961      3.02745143688217      3.62757316023334
  H           2.47421377127062      5.44901925595899      3.22480905217638
  H           5.66937197722544     -0.05927832020888      3.83836741507941
  H           2.06169637687132     -4.21551464892762      3.28704140414978
  H          -3.08060575897860     -5.97373681610825      1.09585708074897
  H          -6.10263090639471     -0.76854274895535      2.44688037399170
  H          -3.96824513344226      4.04155283534466      0.55429130819785
  H           1.63869004442082      5.13836756266725     -0.09170092248997
  H           6.07759221010892      1.30766488189507      0.79548303209029
  H           3.81617614120500     -4.15832784521940      0.36703701727339
  H          -1.41544133870928     -4.88233938009632     -1.71193513806142
  H          -6.10738787937680     -1.28142942310202     -0.91978638201736
  H          -1.57348394292572      2.90823624509740     -0.98159840086934
  H           2.16552186171168      2.12549477495808     -0.03351131133332
  H           3.58396450952102      0.16810435044378     -0.54894125565943
  H           1.69575923807894     -2.50909746636255     -1.10187045166826
  H          -2.01001789341598     -1.96279667325900     -1.02417959335248
  H          -3.44583831256934      0.10895353832990     -1.47003382106958
  H          -3.65907717103181      3.20143554244123     -2.26862448256897
  H          -2.36448907264574      4.30604566698766     -2.78456229900828
  H           4.97158032682422      0.39409998226076     -2.58473772727026
  H           4.80234844512170      1.96712750681524     -1.78031839784574
  H           3.99655735605964     -2.37376167199814     -2.05578971091070
  H           2.84169447265617     -3.22258304687563     -3.11708626745532
  H          -4.42397511687697      0.43204662995506     -3.71936969004531
  H          -4.27937043328769     -1.29142971313125     -3.32298897720555
  H          -3.45165121154887      5.92167600634607     -1.54334245752748
  H           7.04834065113189      0.26828480852976     -1.61381002264187
  H           3.77384472705166     -5.17354616210243     -2.30865721703407
  H          -6.64711219113978      0.23791528399678     -3.17908379792389
  C          -0.42154803809146     -0.43101049450058     -4.02270830567962
  H          -0.93908210806857      0.12139144902244     -4.80924530344177
  H           0.36740324886160     -1.07629735168747     -4.41872013757519
  O          -0.02845001063921     -2.97641972099108     -3.17359594223191
  C           1.40063679524256      1.33149831825223     -3.53257980661914
  H           2.09672706607005      0.65262537184816     -4.02661857403787
  H           1.04991465626363      2.12755128279387     -4.19866688048825
  O           0.98317259364517      3.83514169146057     -2.41980053985133
  C           0.16192647795309      0.57310321964897     -2.97925693568892
  O           0.71328194300147     -0.49758466651508     -1.98394860555169
  O          -0.72565180440692      1.37422281453144     -2.41500116627685
  O           1.07234062488395      0.09743952946439     -0.71377784674523
  H           0.63172268434095     -1.87574877229614      4.96890904387480
  H          -1.36385738268825      0.52625875129491     -1.26170966173360
  H          -1.25641945889519     -2.61466257768022      3.55630051249925
  H           2.16402960310290     -0.12297169703357      4.15275158828696
  O          -1.32400484189470     -0.01924929591764     -0.40798438265253
  C          -0.14944922026391      0.37548693342468      0.17190956936025
  C           0.08091988182335     -0.29462270367402      1.50242770030639
  H          -0.08815880585464      1.47684919476122      0.26826617519409
  C           1.14244357035719      0.11942544358702      2.29591183376524
  C          -0.78394733541954     -1.27694326047480      1.96294763172893
  C           1.34098372823307     -0.45342604597441      3.53935592034276
  H           1.80196016059220      0.88863371966288      1.91952332935383
  C          -0.58313444691782     -1.84750332783150      3.20907829666417
  H          -1.61042348116534     -1.57251045232370      1.33477955059021
  C           0.47848754309407     -1.43659253848189      3.99666584811220
