11
Coordinates from ORCA-job job.QMRegion
  C           0.01575059257790      0.39587630212395     -2.71788865483995
  O           0.11226425484809     -0.60048138355708     -1.76331602945164
  O          -0.69199115054591      1.11210622786180     -1.93714634407159
  O           0.80125224303568     -0.22971614976436     -0.52897137408658
  H          -1.74138431445963      0.33433631447009     -0.54901824441092
  O          -1.47029408488700     -0.13017201203326      0.26736845259541
  C          -0.16962698668373      0.29916378224566      0.48704618146593
  H          -0.09401496590283      1.39843581902046      0.42065748330412
  H          -0.48960923998641     -0.15403779420025     -3.57040356048357
  H           0.98856996060021      0.80887369733044     -3.08974347869623
  H           0.17786244482530     -0.09335918481688      1.45764876321464
