11
Coordinates from ORCA-job job.QMRegion
  C           0.16192647795309      0.57310321964897     -2.97925693568892
  O           0.71328194300147     -0.49758466651508     -1.98394860555169
  O          -0.72565180440692      1.37422281453144     -2.41500116627685
  O           1.07234062488395      0.09743952946439     -0.71377784674523
  H          -1.36385738268825      0.52625875129491     -1.26170966173360
  O          -1.32400484189470     -0.01924929591764     -0.40798438265253
  C          -0.14944922026391      0.37548693342468      0.17190956936025
  H          -0.08815880585464      1.47684919476122      0.26826617519409
  H          -0.25720349585507     -0.14818647362665     -3.72880423098312
  H           1.05427051628620      1.11943704402570     -3.37786051414976
  H           0.01887723247408     -0.11414981532488      1.14409462046533
