147
Coordinates from ORCA-job job
  C          -0.68564716973257      4.80657289824784      0.67581346195107
  C           4.36633363261552      3.23886161450790      0.62511977937362
  C           4.91451385257002     -1.95260452786494      0.55838607213816
  C           0.68164437141301     -4.88856730297789     -0.70550435726779
  C          -4.34737145367661     -3.16595279091764     -1.24293027831978
  C          -4.99476597950114      1.95017816443349     -0.45309819603034
  O           0.26749576920671      3.77179659950341      0.65447701708343
  O           4.16869413526976      2.04850373316769      1.31771916978893
  O           3.53479635181882     -2.19552115784377      0.60485784362225
  O          -0.34266949002553     -3.98032040880313     -0.38797080643725
  O          -4.33229814644993     -2.08429004081210     -0.36875046632019
  O          -3.66803971908835      2.05605258827644      0.00193689034869
  C          -1.62956547648511      4.56237295072682      1.86341662736733
  C           3.88669186857431      4.40188636556518      1.51988539244992
  C           5.34936765541989     -1.42196214486876      1.93247575254119
  C           1.40757110204480     -5.26051928682209      0.60013808082214
  C          -4.07304364532285     -4.43148087184271     -0.40349990039782
  C          -5.81591498809665      1.16748966444296      0.58725089554671
  O          -0.93682812708850      4.42525141160308      3.07450095482177
  O           4.55908056525599      4.43926332509496      2.74296342170139
  O           5.06065310554866     -2.31429709929395      2.97035617256520
  O           0.55429188659752     -5.81591839392234      1.56092340117669
  O          -4.99133705999979     -4.57101703040884      0.64033272478234
  O          -5.89010598512960      1.81400234927788      1.82475640948526
  C          -2.43053528387787      3.28031949841967      1.60610569231693
  C           2.36355173825198      4.30472411134346      1.74076958079395
  C           4.66092561163186     -0.06750597855256      2.15955033102827
  C           2.10406363484252     -4.00193520725819      1.14023793739806
  C          -2.63219808351870     -4.38254676450820      0.14029878173490
  C          -5.18843766986472     -0.22647721047005      0.71680340242688
  O          -3.42007721865430      3.09507226433056      2.58596232791088
  O           1.86841841344629      5.43763046432738      2.41117780133475
  O           5.06707358487358      0.50276141267745      3.37567910621255
  O           2.86224504174651     -4.28478976643027      2.29065638984243
  O          -2.29221245290738     -5.57359540472787      0.80096348521515
  O          -5.93101648135651     -1.03924225700002      1.58902854742018
  C          -3.12520956007389      3.34279616798723      0.24006238302525
  C           1.61249374002506      4.14672694376741      0.40738799228644
  C           4.98636833053055      0.91665017993054      1.02578372396099
  C           3.03968661088858     -3.41665683756671      0.07804579641303
  C          -1.61511685336388     -4.14705307351432     -0.99079714254623
  C          -5.12528177169743     -0.93502764164072     -0.64226119361909
  C          -2.13619877253189      3.73291969632525     -0.87174518191250
  C           2.27356395065026      3.01900149099222     -0.38029197872286
  C           4.71672667265067      0.26992973952878     -0.35043822462670
  C           2.27003143047066     -3.19937747446351     -1.23553453863742
  C          -2.07105881985997     -2.88186697528151     -1.72844211733658
  C          -4.54444271286940     -0.02424442862625     -1.74491173984133
  O          -1.40658809759858      4.90618245733454     -0.51878204972094
  O           3.64303948903919      3.28435763050620     -0.59716834034529
  O           5.28043028860645     -1.03936564862480     -0.43810506398104
  O           1.60213353266012     -4.39197977098378     -1.63481682291884
  O          -3.36967472598526     -3.05896671166283     -2.26249037655723
  O          -5.07193161569242      1.30230854070288     -1.69151183558498
  C          -2.86983635364611      4.05436567400521     -2.17806667288901
  C           1.65145754101976      2.76425480765611     -1.74822657627858
  C           5.40049373009822      1.01093944731815     -1.51524612966616
  C           3.20324318276786     -2.83950527994760     -2.39617381545628
  C          -1.18072541858109     -2.40471982784043     -2.86382282384243
  C          -4.90934941997328     -0.50952988746531     -3.15852683090404
  O          -3.77249028776992      5.11719944179230     -2.04199963918928
  O           2.01879072459204      1.55399982716797     -2.13592077426177
  O           6.76678760622400      1.21023023665899     -1.28275021971020
  O           4.09620588740049     -3.87431518749406     -2.69762881506015
  O          -1.63562622926061     -1.23130631210844     -3.30951027418052
  O          -6.29041716884889     -0.67323889228416     -3.32427967204178
  H          -0.18673041609003      5.77905498609184      0.78309602668055
  H           5.41759085939300      3.37192396941259      0.33718364263130
  H           5.46367174897724     -2.86949651694529      0.30294644467499
  H           0.26438149587740     -5.78629082332367     -1.18157662688817
  H          -5.30422911199337     -3.24317875230937     -1.77626994800152
  H          -5.42920875061318      2.94362510857146     -0.62736845470670
  H          -2.33247861744027      5.40925395051177      1.92097834627862
  H           4.11110477365088      5.34216699826463      1.00440572036875
  H           6.43619035502074     -1.27820641053095      1.93225500183643
  H           2.17180540763463     -6.01406748893739      0.36861497177728
  H          -4.18361951697345     -5.31250029864866     -1.04448807009512
  H          -6.84663219638907      1.07079621561976      0.22871035009074
  H          -0.11077242971371      4.93780993703797      3.04507217660428
  H           4.61164868943841      3.54061169808945      3.10840443238896
  H           4.23093949861722     -2.79016063172104      2.78347541390749
  H          -0.36679619818076     -5.54618539500545      1.39124179691879
  H          -5.12660384642354     -3.70606207831465      1.06334870387772
  H          -5.00819869076557      2.14504254351206      2.08662849459893
  H          -1.73746767269831      2.42717685565088      1.59488257819924
  H           2.16292354096315      3.40440489301283      2.34104891150919
  H           3.57073725294990     -0.22885418960387      2.15659618789841
  H           1.34503952848885     -3.24012268963604      1.36496510444879
  H          -2.55402558793794     -3.52766659832081      0.83117775327463
  H          -4.15200277359415     -0.11582052657769      1.07544524127938
  H          -2.99534171312661      3.12774832128591      3.45892040334508
  H           2.51843724367868      5.68990233869342      3.09135858842150
  H           5.18864368098760     -0.22049576500047      4.01450508010575
  H           2.37128031620436     -4.93560053169271      2.81991308667449
  H          -3.04674542885345     -5.84312174028468      1.35321071265643
  H          -6.16512126818318     -0.50479844792651      2.36637108833612
  H          -3.92949886402539      4.09046574261149      0.28289153895197
  H           1.65220781303630      5.07344935425607     -0.17759104627446
  H           6.04315455427224      1.21578935502423      1.08046616684911
  H           3.87159587089809     -4.11109276376172     -0.10412031794387
  H          -1.60195645539271     -4.99667954106579     -1.68364766986903
  H          -6.13604306092986     -1.25322746634277     -0.93744835247213
  H          -1.45319038221714      2.89425783174369     -1.06428979367854
  H           2.16636276512931      2.08002940408090      0.18206643725444
  H           3.63031987231893      0.22184239274059     -0.51779303476237
  H           1.54505077592313     -2.38983112539289     -1.09091901749048
  H          -2.07244503568686     -2.05168768454890     -1.00310029812426
  H          -3.45130109135113      0.00949099129924     -1.64673321273816
  H          -3.44229640788291      3.17509586382598     -2.47938670487005
  H          -2.11355516043879      4.26342578067721     -2.94333850467923
  H           5.23778439262658      0.41078466917095     -2.41887270185335
  H           4.94896992339473      1.99003877804872     -1.66304220828688
  H           3.80099215736992     -1.96896674081474     -2.12057178778911
  H           2.57575303561953     -2.59179193238229     -3.26206394720977
  H          -4.50906094307463      0.22452509784985     -3.86775229625160
  H          -4.43949859922250     -1.47285293575559     -3.35315935873797
  H          -3.26809915114674      5.91253142219795     -1.81094104336559
  H           7.20170117065314      0.34417369753278     -1.24833152038339
  H           3.57347430066080     -4.65731338807212     -2.93177671266366
  H          -6.71469203827091      0.19317959038690     -3.22842357726825
  C          -0.68776526684564     -0.36966393901782     -3.90468213914192
  H          -1.23682585034411      0.33790693658331     -4.52713061483225
  H           0.04932336942799     -0.94082623776024     -4.47530730989896
  O          -0.23043700365633     -2.98615988674082     -3.32313854886162
  C           1.36617300396002      0.96917999720056     -3.23408015392260
  H           2.01424899176287      0.16850447815908     -3.59413887006075
  H           1.15384228592558      1.71563466697751     -4.00679711991627
  O           1.01883845722484      3.55504578474079     -2.40445218857042
  C           0.01575059257790      0.39587630212395     -2.71788865483995
  O           0.11226425484809     -0.60048138355708     -1.76331602945164
  O          -0.69199115054591      1.11210622786180     -1.93714634407159
  O           0.80125224303568     -0.22971614976436     -0.52897137408658
  H           1.37542546636105     -1.57767482093201      5.26426661932511
  H          -1.74138431445963      0.33433631447009     -0.54901824441092
  H          -0.03445935492756     -2.96080719350529      3.78105961613561
  H           2.08819637318296      0.67345354262213      4.53185310063417
  O          -1.47029408488700     -0.13017201203326      0.26736845259541
  C          -0.16962698668373      0.29916378224566      0.48704618146593
  C           0.30594192728938     -0.23803736469220      1.81539856817651
  H          -0.09401496590283      1.39843581902046      0.42065748330412
  C           1.08513282590141      0.54312784750133      2.65395369145718
  C          -0.09419806761161     -1.50324859901798      2.22519821287453
  C           1.47545577145157      0.05951501981033      3.89165913093928
  H           1.37011520163286      1.53075284491270      2.32590511514147
  C           0.28753038872419     -1.98027529884041      3.46801681444799
  H          -0.70995829691612     -2.08912496992711      1.55827632243177
  C           1.07692969068251     -1.20278497821642      4.29869085101838
