25
Coordinates from ORCA-job job.QMRegion
  C          -1.94782741564398      2.03210740796549      2.58930058834191
  C           1.33047079074408     -2.88553407437951      2.45236483217872
  O          -0.62033324017068      2.07781201635352      2.78134402422355
  O           1.77594061858628     -1.82082361390600      3.15525814724656
  C           0.87667982804226     -1.18665748750664      4.09203788357230
  H           1.50685680056872     -0.69607426355230      4.82399758781308
  H           0.23622061322259     -1.92184744933825      4.57708408961530
  O           0.42577708878297     -3.60675176452630      2.81326998331100
  C          -0.11589367007470      1.20412567721737      3.80821470399898
  H          -0.75569565427682      1.21735754942307      4.69190463889443
  H           0.86757381438451      1.58684643817688      4.05451446597917
  O          -2.71648996826244      1.44590298431307      3.32514654618849
  C           0.01948160022564     -0.20604969136187      3.29622470002401
  O          -0.51929975629154     -0.59784241460977      2.27509307181607
  H          -1.28928772020337     -0.13396998853449      0.64121307192005
  O          -1.45902046924573      0.13609014633822     -0.27954973897267
  H           0.50622544550961      0.03951217677066     -0.50782460972664
  O           1.43529249789238     -0.10754650986776     -0.24755044134767
  H           1.96007307814489      0.44848668069017      1.50762680084133
  O           2.43292832446584      0.75856185462471      2.30519245771085
  H           2.78587176855763     -0.06584916099360      2.66666044067424
  H           1.95337754996968      0.57729308744466     -0.70203027036019
  H          -2.09431882163543     -0.52131695927423     -0.61071404322221
  H          -2.30071381492466      2.53362371522943      1.68385264826938
  H           1.89180965664044     -2.98888118346927      1.51832164734835
