139
Coordinates from ORCA-job job
  C           0.45316959800059      4.65417161606181      0.02102256140261
  C          -4.55558973749370      3.28310573822514      0.44687410459417
  C          -4.89727664970106     -1.66037069784859     -0.98027030786685
  C          -0.64498715394123     -4.74110244641686     -0.48929137254901
  C           4.29632196251980     -3.27450601924517      0.28621300432355
  C           4.74093064628574      1.72070774130862     -1.05996262297486
  O          -0.44505378057797      3.61548928865292      0.36410247601973
  O          -4.37179822892132      2.38109360862124     -0.59714234733101
  O          -3.48806148475276     -1.77428648337675     -0.95907715186150
  O           0.29680925000383     -3.76181533971449     -0.13174665547524
  O           4.07676222952518     -2.27969685615456     -0.66550536358949
  O           3.33900533544969      1.84634725081079     -0.96445736735781
  C           0.85545201408247      4.56836752482541     -1.46873863592528
  C          -4.06517009249915      4.65663373999946     -0.02939141689844
  C          -5.31958131866749     -0.82072635488826     -2.19533318513130
  C          -1.11977058913544     -4.48718148719684     -1.93362480700713
  C           3.94128802201213     -4.61151863298482     -0.39204611649580
  C           5.07112449655756      0.88559539600605     -2.30939585857172
  O          -0.22030758718020      4.64644797261005     -2.36052369095906
  O          -4.76156203257501      5.13566019658098     -1.14307672497274
  O          -4.90441012741469     -1.37832216124056     -3.41113652555721
  O          -0.07238584259899     -4.48618749238858     -2.86390142066014
  O           4.77899046877181     -4.89407072109462     -1.47661341220454
  O           4.56473383155192      1.46099831321504     -3.48391457606038
  C           1.55591256085186      3.22708815183594     -1.69117151628447
  C          -2.56409828655685      4.56726331870419     -0.34549787374049
  C          -4.78259589311349      0.60645239413509     -2.02282798382160
  C          -1.79368143190275     -3.11078930702633     -1.96999790593303
  C           2.47836789997092     -4.53277993958257     -0.84859274760351
  C           4.54179889712424     -0.54550686058725     -2.12326342625332
  O           1.99646347297830      3.06417631318878     -3.01645245472394
  O          -2.09413700278013      5.85079184310553     -0.70748069980392
  O          -5.28089147509151      1.45335812984517     -3.02751778403827
  O          -2.33638857467559     -2.81502374764696     -3.23240382558452
  O           2.06719738578901     -5.74433224571979     -1.44731766516023
  O           5.01184227490485     -1.39444926405180     -3.14227933227465
  C           2.77760885683523      3.14040762345878     -0.77300498186171
  C          -1.72709436858411      4.00341844649639      0.82734387551727
  C          -5.17826706875918      1.20993912339755     -0.66629323935815
  C          -2.93254044709534     -3.08263947819938     -0.94646841269858
  C           1.55814771799359     -4.20942901843214      0.33605746832199
  C           4.95608937950972     -1.16448575363945     -0.77937097275094
  C           2.36710504873051      3.39905331975631      0.68848180338799
  C          -2.43768120980041      2.72827950880398      1.33241704236293
  C          -4.94818054231518      0.22850687047422      0.50205667138756
  C          -2.41413978832625     -3.47280192002470      0.44892185420221
  C           2.11183122547244     -3.02938896665986      1.15221543349293
  C           4.79289291347856     -0.17152702974587      0.38237509012886
  O           1.60930887124044      4.60539928159426      0.80458050607321
  O          -3.80731048338131      2.94425430718803      1.59340424203549
  O          -5.39048201834954     -1.09508982667612      0.19324050301231
  O          -1.73969776802204     -4.72615455542868      0.38547570455439
  O           3.49245580416701     -3.10995730534748      1.44267426481119
  O           5.30594548417667      1.12555581398828      0.06701426424067
  C           3.60013232673620      3.57953531211651      1.58257570847253
  C          -1.94782741564398      2.03210740796549      2.58930058834191
  C          -5.74543473190346      0.59462502786644      1.76900484246105
  C          -3.56575330490823     -3.65186883351785      1.44717267156087
  C           1.33047079074408     -2.88553407437951      2.45236483217872
  C           5.53412072562702     -0.60472840641714      1.65720256453952
  O           4.40176813651128      4.65596776775610      1.16313601685091
  O          -0.62033324017068      2.07781201635352      2.78134402422355
  O          -7.09092220978661      0.88058926322557      1.49325987030856
  O          -4.46422193309457     -4.64880463870535      1.03693869867847
  O           1.77594061858628     -1.82082361390600      3.15525814724656
  O           6.86403979211259     -0.98819445482347      1.41347724954511
  H           0.00628404599962      5.63165642933855      0.23399650979576
  H          -5.60174095808892      3.32245851651559      0.77534474448800
  H          -5.35811794906628     -2.65481578763041     -1.02852891159099
  H          -0.21815873742609     -5.74702654956816     -0.39930142429304
  H           5.33124370369167     -3.28185728539194      0.64816432436211
  H           5.21113442953824      2.70976414118531     -1.12984707284441
  H           1.57004031753404      5.38572716979254     -1.66022709755914
  H          -4.22806827578088      5.37870575229078      0.77772205106785
  H          -6.41441494655598     -0.78487112322385     -2.23022409143407
  H          -1.86048562181553     -5.26224667773319     -2.19000544886430
  H           4.06946834206835     -5.42837477732530      0.32519662515685
  H           6.16011684431991      0.84732378280632     -2.42532782872744
  H          -0.81454952910734      5.36123672246681     -2.06813364823127
  H          -4.83421599274714      4.42665449061242     -1.80183307996343
  H          -3.99499825827737     -1.72564822310155     -3.33885366251080
  H           0.59302810193765     -5.15059367371966     -2.60755551478306
  H           4.84102897129177     -4.10730200267055     -2.04358574457122
  H           3.68026248389537      1.83693557896143     -3.32100709328333
  H           0.83890749675183      2.43503820318460     -1.42893981808931
  H          -2.43325483380861      3.87400255623146     -1.19065239696293
  H          -3.68271970002735      0.58178610380211     -2.06469791546665
  H          -1.03770488278769     -2.36079897292653     -1.69505842440449
  H           2.38656534100672     -3.71123558448852     -1.57493939105365
  H           3.44206653032043     -0.51927221013017     -2.13744056109786
  H           1.27575810774632      3.33402722807733     -3.60689684251420
  H          -2.84306909446773      6.33260279217980     -1.10064164821323
  H          -5.20611465826813      0.99109995011805     -3.87804386410848
  H          -1.66626423062387     -3.01663417062363     -3.90509674366639
  H           2.84053911807167     -6.12310394488199     -1.90018469491880
  H           4.88374319496380     -0.94779652046148     -3.99378679388876
  H           3.50386136053851      3.90388058629256     -1.08079299980274
  H          -1.64110670437957      4.75441796200980      1.62368459450985
  H          -6.23910508818559      1.49697408707206     -0.69128707435230
  H          -3.69414292913469     -3.81126597602462     -1.25203483903717
  H           1.43798956386830     -5.09621735883155      0.97261630952557
  H           5.99623287786366     -1.51132033511075     -0.83877600533418
  H           1.76265404970628      2.56592748515308      1.05505031298873
  H          -2.31172521789919      1.98324513694834      0.51857652098884
  H          -3.88013725498055      0.20954748514972      0.74987019057036
  H          -1.72365611229324     -2.70238222346139      0.81615440066809
  H           1.90740055955673     -2.11612415476473      0.55872339022247
  H           3.72646663529874     -0.08790655431384      0.59847178997494
  H           4.21647358329725      2.68218809439265      1.52654064373215
  H           3.26326848089784      3.71882767391051      2.61400402699110
  H          -5.65506833891710     -0.24984987919390      2.46092527811197
  H          -5.31395124827158      1.47456165717646      2.24425769247467
  H          -4.13726602446545     -2.72384259632901      1.51351419302559
  H          -3.13715994742825     -3.88651796465476      2.42767842087989
  H           5.49230757338953      0.23484806155184      2.35922504216059
  H           5.03470867390368     -1.46782220531029      2.09868713169729
  H           3.88680787544238      5.46869475317751      1.26797910036767
  H          -7.53445160446672      0.06014203192936      1.23372980013062
  H          -3.99551171432400     -5.49684975328284      1.03474622564270
  H           7.36565002233652     -0.20340152771182      1.15194027036742
  C           0.87667982804226     -1.18665748750664      4.09203788357230
  H           1.50685680056872     -0.69607426355230      4.82399758781308
  H           0.23622061322259     -1.92184744933825      4.57708408961530
  O           0.42577708878297     -3.60675176452630      2.81326998331100
  C          -0.11589367007470      1.20412567721737      3.80821470399898
  H          -0.75569565427682      1.21735754942307      4.69190463889443
  H           0.86757381438451      1.58684643817688      4.05451446597917
  O          -2.71648996826244      1.44590298431307      3.32514654618849
  C           0.01948160022564     -0.20604969136187      3.29622470002401
  O          -0.51929975629154     -0.59784241460977      2.27509307181607
  H          -1.28928772020337     -0.13396998853449      0.64121307192005
  O          -1.45902046924573      0.13609014633822     -0.27954973897267
  H           0.50622544550961      0.03951217677066     -0.50782460972664
  O           1.43529249789238     -0.10754650986776     -0.24755044134767
  H           1.96007307814489      0.44848668069017      1.50762680084133
  O           2.43292832446584      0.75856185462471      2.30519245771085
  H           2.78587176855763     -0.06584916099360      2.66666044067424
  H           1.95337754996968      0.57729308744466     -0.70203027036019
  H          -2.09431882163543     -0.52131695927423     -0.61071404322221
