22
Coordinates from ORCA-job job.QMRegion
  O          -1.40280610573063      1.04241577351691      2.25046114871615
  O           1.89430681992561     -2.28126146247260      3.08813611370805
  C           0.95304233331733     -1.50576203718931      3.82216348636902
  H           1.52908747381351     -0.85025697970551      4.47912687183068
  H           0.26614854371236     -2.14583744346392      4.39760063293680
  C          -0.79888117786846      0.33738632860221      3.34139225061747
  H          -1.59105289406752     -0.17625501198797      3.89798051561389
  H          -0.27369415350370      1.05230955334014      3.99013041123377
  C           0.12529118081023     -0.73546820792743      2.77992747849273
  O          -0.20047620030826     -1.39266882458108      1.74938266622110
  H          -1.08794343164892     -0.61977939959603      0.35808144705199
  O          -1.36882239798459     -0.18081471995031     -0.47391373089965
  H           0.35771646562510      0.59706519673635     -0.58544776587511
  O           0.93139904950180      1.19825603478833     -0.06014818977478
  H           1.19400336436096      0.69119500263423      1.11515356870441
  O           1.47843043556069      0.29700544154293      2.13425086479395
  O           1.79089730986430      1.50227007230987      2.89295084405166
  H           2.68888586491358      1.26332841980017      3.19782529163285
  H          -1.91138422046529     -0.84231544879763     -0.92393783914634
  H           1.78200912722934      1.32207606674486     -0.52872677124082
  H          -1.33478707041292      1.98624998821166      2.23920256947491
  H           1.48730439030259     -2.96735413752666      2.56309707332950
