140
Coordinates from ORCA-job job
  C           0.66456999071325      5.12127737926853     -0.12733274023463
  C          -4.26187863886234      3.24871893729670      0.33745912094439
  C          -4.90498985184673     -1.80580410653394     -0.67917952451423
  C          -0.79940854847156     -5.09995425311084     -0.37244394381873
  C           4.17713222981690     -3.30934419518158      0.06702421617187
  C           4.77869846202496      1.87911478495770     -0.66597859031014
  O          -0.19001848299977      4.00530555658882     -0.00877513643546
  O          -4.16045850235519      2.25364588188949     -0.63157523254130
  O          -3.52697000960017     -2.05099045094544     -0.85001893715350
  O           0.18688104981092     -4.10446388617633     -0.28409489174745
  O           3.83736842445707     -2.13485984529088     -0.60096117988081
  O           3.40992055662964      2.20455030609745     -0.76846237811082
  C           1.26777267784657      5.14857907490106     -1.54471172473130
  C          -3.90853438489556      4.58774774184555     -0.33845094564523
  C          -5.40265517759104     -1.00567486700765     -1.89362662210091
  C          -1.46289041687953     -5.01257230497171     -1.75964714087162
  C           3.87577878421424     -4.46924995825935     -0.90215179305873
  C           5.16209593441278      1.07009054196715     -1.92019809947321
  O           0.31283381941078      5.31337319470653     -2.55869875622981
  O          -4.71398111963309      4.83563086214456     -1.45452741791639
  O          -5.13393623657000     -1.66540284830458     -3.10039194097655
  O          -0.58510522702423     -5.24886038872942     -2.82469791876289
  O           4.59069064148466     -4.32432881339807     -2.09775809349797
  O           4.86886817883385      1.76914235023539     -3.09891286333562
  C           1.98133109049068      3.80740586693582     -1.75188972730327
  C          -2.42423099057824      4.59150879202772     -0.74316426314813
  C          -4.75782788564423      0.38750774402817     -1.87131791768176
  C          -2.06734240492084     -3.60571400015666     -1.88027671909579
  C           2.36466199004287     -4.49031875036607     -1.18768370269443
  C           4.43029822907268     -0.28003728758000     -1.87992256189528
  O           2.66980601567153      3.74063617466055     -2.97958988092736
  O          -2.05902781727117      5.86574325522938     -1.22687018226693
  O          -5.29713892599007      1.19978262900589     -2.88476479077895
  O          -2.74522754236634     -3.42163043590559     -3.09830247577742
  O           2.00664599646140     -5.63676441220717     -1.92612063230171
  O           4.84416731659393     -1.12337623095763     -2.92920740405845
  C           3.01207792556053      3.56548540016739     -0.64432317449578
  C          -1.51334058836735      4.21445488175927      0.43810775997547
  C          -4.97634757812851      1.09353011095763     -0.52636151011259
  C          -3.06812284180495     -3.38833172157897     -0.74365399024721
  C           1.50972129326182     -4.45764449136929      0.09047130313805
  C           4.70561010931576     -1.01000124323428     -0.56030900151255
  C           2.44761757717832      3.84419105957485      0.76273515721987
  C          -2.03632243287324      2.88370388865353      0.99634246886351
  C          -4.60255801506908      0.17179771511558      0.65382651411805
  C          -2.41309939511585     -3.66634563294987      0.62172952295000
  C           2.04242652058303     -3.35341314343554      1.01150231856755
  C           4.42606047323296     -0.09756707473401      0.64673647399550
  O           1.70163509662946      5.06127375961882      0.80966595638256
  O          -3.38312092832484      3.02496171844232      1.42088163330241
  O          -5.17593026118801     -1.13088354159389      0.50692676773305
  O          -1.77177294180227     -4.94126226700320      0.62440330383072
  O           3.42891300543811     -3.47546334873758      1.25389627416026
  O           5.06191968210343      1.17644749844533      0.50388647622789
  C           3.58194386729682      3.99148939104734      1.78529066231576
  C          -1.30778289435104      2.36096076127402      2.23473281105188
  C          -5.16909350927220      0.64924962420330      2.00321342654420
  C          -3.45583825837202     -3.71709349823242      1.74547215935562
  C           1.32626577103160     -3.23882037222452      2.35535491757814
  C           4.97863837081757     -0.68548469939434      1.95482345283182
  O           4.45395079083131      5.04071935031495      1.44735080711375
  O          -1.40280610573063      1.04241577351691      2.25046114871615
  O          -6.53754597965218      0.94643857800374      1.92265560805407
  O          -4.43581275539159     -4.68977090833221      1.50221283343852
  O           1.89430681992561     -2.28126146247260      3.08813611370805
  O           6.33016376356480     -1.05431309350109      1.83997008914789
  H           0.12906374561972      6.05469039269435      0.08132781053006
  H          -5.26675212395833      3.28824509207172      0.77708806058844
  H          -5.45542299239992     -2.75209372714539     -0.59889498618636
  H          -0.37410423939862     -6.09725580034528     -0.20677702987026
  H           5.22805345478079     -3.31896792095513      0.37913083722702
  H           5.38730910771331      2.79001993754366     -0.60916756729913
  H           1.99959883065329      5.97034707768963     -1.58854878377846
  H          -4.08987842937746      5.40204878844360      0.37082202576446
  H          -6.49088019269701     -0.89351595193069     -1.83016667332228
  H          -2.27258553890560     -5.75515745989390     -1.80485440287503
  H           4.18178629319620     -5.41857364583607     -0.45285768303472
  H           6.24265672803424      0.88888142883397     -1.91981825825916
  H          -0.52909632744029      5.61088719782957     -2.16232302686530
  H          -4.72506450096590      4.03420417396739     -2.00183542982357
  H          -4.24783843032449     -2.06906456221919     -3.05974128200588
  H           0.33029814169497     -5.35426764521989     -2.49356665040073
  H           4.51093360482467     -3.39896194877054     -2.39002888215137
  H           4.02061955191231      2.24040466325472     -2.99529272641173
  H           1.20566032298096      3.03046077052588     -1.71178215158586
  H          -2.27719768654625      3.83591994606132     -1.53091542934509
  H          -3.67177816701679      0.28089902430876     -2.01795779781083
  H          -1.24847023948608     -2.87602490594511     -1.78955157486605
  H           2.11938979859076     -3.58279395761726     -1.76172506801811
  H           3.34713544595829     -0.10198019006308     -1.95652230814234
  H           2.06777106277689      4.04339520876368     -3.67360165341182
  H          -2.77451606362050      6.17024068810110     -1.80910608264348
  H          -5.36125749075579      0.65574621420378     -3.68463232516107
  H          -2.19987895375411     -3.81217326104455     -3.79794649440945
  H           2.63755216005221     -5.72229395466884     -2.65893975789719
  H           4.88790465390298     -0.58489755861695     -3.73312251034036
  H           3.86903140589695      4.22707576614138     -0.82460252601525
  H          -1.54819266723142      4.98790705333668      1.21601141435347
  H          -6.02998733970914      1.39426289364263     -0.43598530774666
  H          -3.90707613810499     -4.08322902140060     -0.88041955687370
  H           1.53083731566804     -5.42938582252169      0.59620010394656
  H           5.75126577067496     -1.34397085619761     -0.54168573408709
  H           1.78796256747854      3.02562193420362      1.06229471321843
  H          -1.96318450095724      2.11157345753943      0.21732058884114
  H          -3.50928459776153      0.09871304022770      0.71536287446121
  H          -1.67262029016603     -2.88823388523510      0.84440781696106
  H           1.84325464933953     -2.39281244335052      0.50999550761698
  H           3.34332656232837      0.02486568559320      0.74675719853508
  H           4.18281805844009      3.08091964950706      1.79611799465640
  H           3.13470920080791      4.15329110005504      2.77257629148472
  H          -4.98812892366822     -0.15124373457747      2.73078141621525
  H          -4.66269567139733      1.55354660169371      2.33609040628723
  H          -3.97379252885226     -2.75853993671234      1.80769973451082
  H          -2.92855650853364     -3.91400617383257      2.68679244824298
  H           4.85602326571934      0.06451658027064      2.74384445337300
  H           4.42101516876043     -1.58508452482640      2.22274170001773
  H           3.92628540844244      5.84957107620780      1.40097215447713
  H          -6.99785651160069      0.13739953228858      1.65830602879718
  H          -3.98551006833673     -5.54228648343647      1.41650208801152
  H           6.82988003707403     -0.25524010931255      1.62042896336375
  C           0.95304233331733     -1.50576203718931      3.82216348636902
  H           1.52908747381351     -0.85025697970551      4.47912687183068
  H           0.26614854371236     -2.14583744346392      4.39760063293680
  O           0.41268604441511     -3.93140609336123      2.72712555768921
  C          -0.79888117786846      0.33738632860221      3.34139225061747
  H          -1.59105289406752     -0.17625501198797      3.89798051561389
  H          -0.27369415350370      1.05230955334014      3.99013041123377
  O          -0.77674075687672      3.03541258193291      3.07275164567180
  C           0.12529118081023     -0.73546820792743      2.77992747849273
  O          -0.20047620030826     -1.39266882458108      1.74938266622110
  H          -1.08794343164892     -0.61977939959603      0.35808144705199
  O          -1.36882239798459     -0.18081471995031     -0.47391373089965
  H           0.35771646562510      0.59706519673635     -0.58544776587511
  O           0.93139904950180      1.19825603478833     -0.06014818977478
  H           1.19400336436096      0.69119500263423      1.11515356870441
  O           1.47843043556069      0.29700544154293      2.13425086479395
  O           1.79089730986430      1.50227007230987      2.89295084405166
  H           2.68888586491358      1.26332841980017      3.19782529163285
  H          -1.91138422046529     -0.84231544879763     -0.92393783914634
  H           1.78200912722934      1.32207606674486     -0.52872677124082
