17
Coordinates from ORCA-job job
  H          -4.08189860606283     -0.17783158842888     -1.68087139492368
  C          -3.56530256203447      0.37360868068523     -0.90961209916146
  C          -3.84042636697970      0.12836353659865      0.42636603256995
  C          -3.17193237032368      0.83600048562497      1.41014260793612
  C          -2.22938609686103      1.78623489690406      1.05779133981564
  C          -1.95445455586901      2.03627122672253     -0.27671876223435
  C          -2.62716179551179      1.32683315309132     -1.26117850671663
  H          -4.57403684788967     -0.61504773308260      0.69845928090752
  H          -3.37836577513437      0.64948073690302      2.45324708693926
  H          -1.68885887055446      2.35975347263346      1.79837681771360
  C          -0.90764590991241      3.06884173397384     -0.65716608380122
  H          -2.39145765333380      1.52465026909230     -2.29807185510637
  O           0.18257953225668      2.27861679675132     -1.45466842732352
  H          -1.26527536466070      3.66104576559912     -1.54750583768993
  O          -0.35100543020761      3.76939871086282      0.30716772122988
  H           1.01299872764343      2.35730962266759      0.23687727062556
  O           1.00065877803541      1.62776452320124     -0.43358952238036
