139
Coordinates from ORCA-job job
  C           0.55740759332371      4.88895914230135     -0.43627499154764
  C          -4.37104616823200      3.27985539451863      0.46642013113055
  C          -4.95050865438810     -1.76430330616903     -0.58655533820241
  C          -0.67656284440812     -4.80818908076413     -0.73187454942159
  C           4.28377334457750     -3.32996336883642      0.14270551595537
  C           4.81750645361582      1.80739548778580     -0.61098998931123
  O          -0.35177157602580      3.83095234547061     -0.25152835610580
  O          -4.34386645987381      2.27776215887006     -0.50296843267930
  O          -3.57480791202124     -1.87474568299577     -0.87394999645415
  O           0.27855750605885     -3.81911508545517     -0.46631259507536
  O           4.12855556184443     -2.22357441473513     -0.69118978877743
  O           3.42709896241614      1.97987964574602     -0.81983507630946
  C           1.16142949441764      4.75869137047605     -1.84501503734601
  C          -4.03177108346857      4.59757249892773     -0.25763173120919
  C          -5.62286453660811     -0.97361676304184     -1.71996023652754
  C          -1.28741652841172     -4.53821216576723     -2.11786588008399
  C           3.94757648126064     -4.56677447059333     -0.71267952876855
  C           5.40955597235965      1.06292340753163     -1.81887636202428
  O           0.19122241300137      4.80775028856632     -2.85919972254194
  O          -4.93938350063479      4.88690572832132     -1.28277407817076
  O          -5.45240988126471     -1.58620007664842     -2.96966048992861
  O          -0.32295159383541     -4.49929327278770     -3.13561265069842
  O           4.81412302844657     -4.70105748933556     -1.80341507509915
  O           5.20467883955151      1.75230103332269     -3.02258644891130
  C           1.87885726429714      3.40484471384542     -1.91196619665474
  C          -2.60217023659776      4.49594681245312     -0.81064335497241
  C          -5.05531495893290      0.44984319310536     -1.71924516723776
  C          -2.00432445330025     -3.18445781623257     -2.06189834116030
  C           2.49303037380529     -4.42881365292447     -1.18666239818203
  C           4.80792882859911     -0.34797553980812     -1.87322445699170
  O           2.56194955342292      3.21441798328175     -3.12655013163638
  O          -2.20804492128624      5.70030463756728     -1.43161121840419
  O          -5.73755507172332      1.27066926944951     -2.63274566270432
  O          -2.69531872101538     -2.89756003486479     -3.25306516280662
  O           2.07888203786545     -5.55580182268993     -1.93006063698226
  O           5.41972782450007     -1.12693068768024     -2.87230090367493
  C           2.90725622070903      3.30190071644877     -0.78003223468873
  C          -1.61051299819407      4.14782601975170      0.30911887594682
  C          -5.14429587971644      1.11412670920841     -0.33771612712101
  C          -3.02198374554277     -3.18190986945779     -0.91783659546514
  C           1.54659531033885     -4.24563917662208      0.00793894826885
  C           4.97563187512219     -1.08994991600366     -0.53962389166168
  C           2.26353065150357      3.61627586292886      0.58278029288294
  C          -2.11814674390658      2.89446337729198      1.02854893745766
  C          -4.64857652859030      0.17906206561554      0.78264892662479
  C          -2.34670744916615     -3.58012071472468      0.40511398164950
  C           2.06561547679963     -3.13248599103616      0.92646818443454
  C           4.56654875905692     -0.21529890701822      0.65990511898972
  O           1.57090951607993      4.86305408299828      0.52540312694663
  O          -3.44358699632218      3.06254095780757      1.50426236385807
  O          -5.17696043203082     -1.14217402196157      0.63909881178943
  O          -1.67783673222673     -4.82849465024618      0.24585705281814
  O           3.43183532752446     -3.28251577326147      1.26879602872240
  O           5.07704060489429      1.11977304653179      0.56952971714294
  C           3.30990963552194      3.74668110272119      1.69749898845043
  C          -1.24301378278652      2.47999257271088      2.19691678984983
  C          -5.11725294816432      0.60807270326710      2.18346128542913
  C          -3.35750827580681     -3.77481206758628      1.54049383506453
  C           1.24553100516458     -3.05739941121044      2.21515637712938
  C           5.11650742515328     -0.74848688169716      1.99687467551140
  O           4.24466095721659      4.76218093602249      1.42921363952507
  O          -1.67008625888539      1.32913414792768      2.69616674349522
  O          -6.50130324248323      0.83554817947791      2.23778707991151
  O          -4.32396414213524     -4.74580451450099      1.23055323868241
  O           1.65926308938211     -2.04171434309841      2.97098383695800
  O           6.49160492969582     -1.03470488507193      1.93618218477814
  H           0.06319580476741      5.86062488130858     -0.32006451347924
  H          -5.35048257332798      3.33984896435808      0.95963728753110
  H          -5.40697284711894     -2.75813695157510     -0.49093410247108
  H          -0.22737492770496     -5.80899380109807     -0.70546285654317
  H           5.29925685104676     -3.39720319026593      0.55232642932241
  H           5.30782554753409      2.78109193052864     -0.49143147663931
  H           1.89249434573330      5.56996735159672     -1.98827904584980
  H          -4.09140877857154      5.42396837661254      0.45842042388927
  H          -6.70251267055658     -0.93361982739164     -1.54002122959062
  H          -2.02757173142172     -5.32632704479490     -2.33035443105091
  H           4.05876611128937     -5.47165969025673     -0.10730696846067
  H           6.49479310981858      0.98450371672526     -1.69175155600279
  H          -0.60233302088852      5.26694649919576     -2.53235555461384
  H          -5.10545741716099      4.07869363092035     -1.79458788025689
  H          -4.53302554370891     -1.89235478284511     -3.07391910837261
  H           0.47031574620992     -4.99752698923601     -2.85876430678128
  H           4.91681420111476     -3.83529632125622     -2.23306453820421
  H           4.29497721462772      2.10052659419709     -3.06268086925453
  H           1.11095472744185      2.62721763090623     -1.78279399991832
  H          -2.57125184053697      3.67355841540546     -1.54210189761551
  H          -3.98614970313017      0.39664452849623     -1.98219597816063
  H          -1.25302905901523     -2.40576950325225     -1.86319831268510
  H           2.41612672678326     -3.52660888830839     -1.81209506508165
  H           3.72822131007031     -0.26396232901423     -2.07251600512079
  H           1.96825792556104      3.45983854568254     -3.85199976889163
  H          -2.99065726334307      6.07590756956233     -1.87062277327763
  H          -5.87581718319224      0.76749528210266     -3.45181319252374
  H          -2.10938995023161     -3.10752206977019     -3.99843591563517
  H           2.83770709944146     -5.85358466075420     -2.46025523447526
  H           5.50173207086499     -0.58563098839110     -3.67287341188083
  H           3.70854161131406      4.02568462406674     -0.97380296213898
  H          -1.51776984572409      4.98290773017508      1.01534601070713
  H          -6.18448446349223      1.40866366875932     -0.13682957281660
  H          -3.81150300898499     -3.90972438565322     -1.14980597240887
  H           1.45196166301760     -5.18582846207531      0.56492794018754
  H           6.01901706379726     -1.41495563947734     -0.43243608350966
  H           1.54574685950382      2.82950171731949      0.84098579319342
  H          -2.05479856965172      2.03514628534316      0.32346435321242
  H          -3.55153770060742      0.14760844295216      0.75170041532961
  H          -1.62487285075117     -2.80470209094145      0.68826586195496
  H           1.90803150346642     -2.17800792187291      0.39679821252930
  H           3.47279745794399     -0.19088945882980      0.68696391461566
  H           3.87948100307285      2.81890050086508      1.77140326010687
  H           2.77834292151309      3.93519333295952      2.63572381813588
  H          -4.82459064838451     -0.18612890864738      2.87882741082489
  H          -4.62781300480500      1.53558508653665      2.47568007006486
  H          -3.89292802741285     -2.83954858629592      1.71083636793252
  H          -2.79889852942159     -4.04851933864317      2.44181961393011
  H           4.92075059217560      0.01081191581869      2.76121462975562
  H           4.61498192497346     -1.67975987748588      2.26201164973342
  H           3.77742845532282      5.60913476998248      1.42451276256016
  H          -6.95717206614964     -0.00851263320241      2.10706996707361
  H          -3.87519123613440     -5.60083656691056      1.15174709841788
  H           6.97360571219787     -0.20250745518530      1.83070978099478
  C           0.70993222568379     -1.43795641615424      3.85193702285480
  H           1.25098774043341     -0.99444902137098      4.68888427851984
  H          -0.02277435471867     -2.17193678974901      4.20016691442280
  O           0.35048744332180     -3.80303495380981      2.50951667648430
  C          -0.86778176501174      0.66425100045607      3.67056918541982
  H          -1.56154283154174      0.15762131485638      4.34553087986356
  H          -0.24394046017365      1.38828028365976      4.20720965299392
  O          -0.27186779019440      3.07392495828224      2.59101494310922
  C           0.02471671345634     -0.37447429616857      2.96073562313567
  O          -0.53832605985556     -1.03022829523817      1.92508987879069
  H          -0.98140478483301     -0.42556517371296      1.24210716732183
  O          -1.31153908810874      0.29991819232228     -0.17213227297096
  H           0.40775139813480      0.27677600558406     -0.31637090656602
  O           1.36287078382769      0.20666728156008     -0.02799167234440
  H           1.31979310842618      0.40107096791581      1.41795603672367
  O           1.23565087414879      0.47754890867806      2.46858215450028
  H           2.04648336933203      0.06017325906851      2.82147246325296
  H           1.89789770548303      0.88215940584176     -0.47996912600871
  H          -1.86807820549808     -0.32756014116033     -0.65039176989319
