13
Coordinates from ORCA-job job.QMRegion
  C           0.02471671345634     -0.37447429616857      2.96073562313567
  O          -0.53832605985556     -1.03022829523817      1.92508987879069
  H          -0.98140478483301     -0.42556517371296      1.24210716732183
  O          -1.31153908810874      0.29991819232228     -0.17213227297096
  H           0.40775139813480      0.27677600558406     -0.31637090656602
  O           1.36287078382769      0.20666728156008     -0.02799167234440
  H           1.31979310842618      0.40107096791581      1.41795603672367
  O           1.23565087414879      0.47754890867806      2.46858215450028
  H           2.04648336933203      0.06017325906851      2.82147246325296
  H           1.89789770548303      0.88215940584176     -0.47996912600871
  H          -1.86807820549808     -0.32756014116033     -0.65039176989319
  H           0.50612558853313     -1.12164029272095      3.58686310514637
  H          -0.60260160066372      0.35562375736636      3.45966262899706
