133
Coordinates from ORCA-job job E -252.584744462140
  C          -0.36309721789863      4.12147062646050      5.38599746115924
  C           0.96834860919856      1.18964477842363      9.52230642670069
  C          -0.78805155856970     -3.74540409633576      9.66550621886967
  C          -1.64527934411821     -5.41515476475044      4.78378913520128
  C          -0.83646902071641     -2.72105344514988      0.35795028510903
  C          -1.28066228288460      2.40477357017292      0.50928182517138
  O          -0.17516135375769      2.83712520533157      5.93042324463048
  O          -0.05533217282783      0.25794880000893      9.34165366909908
  O          -1.41669597135124     -3.59222357955142      8.42440753141556
  O          -1.39862695913174     -4.14380321173410      4.22709538886313
  O          -1.67462976079680     -1.63759439091361      0.62197676172864
  O          -1.42928288918491      2.26318073844588      1.89855708441718
  C          -1.83940099947319      4.28157319289889      4.98384376296326
  C           0.29768517247963      2.56857072843183      9.64776720519497
  C          -1.56435558637793     -2.86519230632534     10.66086511356024
  C          -2.96537522111248     -5.36234298618698      5.56656273684285
  C          -1.68890565243289     -3.99796431357151      0.47338194447140
  C          -2.56884769706818      1.87783365746707     -0.14303151501104
  O          -2.72239628196042      4.08146182276960      6.05557213665128
  O          -0.59603370724532      2.62781907726474     10.72306590673318
  O          -2.90818205733880     -3.24889951021225     10.75558444152386
  O          -4.04210838933639     -4.94290837193171      4.77142384212131
  O          -2.78074667939274     -3.98271926032488     -0.40017223364709
  O          -3.69223320368772      2.61598964320106      0.25454551598420
  C          -2.15123017759709      3.25049029780458      3.89432848847657
  C          -0.41832640512250      2.86979629885751      8.32433373223825
  C          -1.43704820120476     -1.40667448068329     10.19942840774745
  C          -2.79540212304060     -4.37203382258366      6.72124391609939
  C          -2.15927872207698     -4.15687093235651      1.92841136790415
  C          -2.71720673776858      0.39706915486021      0.23427858348058
  O          -3.44309485263153      3.40986038975484      3.36365003217860
  O          -0.99177477435506      4.15954535257732      8.34328987362841
  O          -1.99135372702647     -0.51299626499085     11.13217594994306
  O          -3.91108436757932     -4.35935175771536      7.57462766191459
  O          -2.88311020698440     -5.35605245566069      2.09005091019929
  O          -3.77391844067279     -0.21037815356753     -0.46504702420972
  C          -1.15813937829549      3.37302576310058      2.73469453098445
  C           0.55529728288542      2.76549797179973      7.14001644499432
  C           0.02810439892637     -1.00337203041075      9.99035750270254
  C          -1.56861623371609     -4.71926798337106      7.57491467414756
  C          -0.95217277999166     -4.13995344269732      2.88501887098857
  C          -1.44670086964905     -0.41137541793965     -0.06451374740813
  C           0.29301049240211      3.36580023369968      3.24645470247719
  C           1.28271115527996      1.41432346449161      7.19063863527889
  C           0.79468592401499     -2.04288963589803      9.15324845542139
  C          -0.32063508543850     -4.96956795257360      6.70949388130096
  C          -0.16216732545530     -2.84734608281243      2.61616539708902
  C          -0.16454442082735      0.30770396283113      0.40016528682198
  O           0.46288885036960      4.33374558302985      4.27877346997203
  O           1.88521055461801      1.19978364693908      8.45340419126484
  O           0.56187117622110     -3.36430168015040      9.63545441638127
  O          -0.60572610910072     -5.83919992701391      5.61436529446723
  O           0.24575209180322     -2.78233861691107      1.26479277740172
  O          -0.17373266138183      1.68953441637164      0.04087703242896
  C           1.29541718031930      3.74344336729587      2.14637999308966
  C           2.41925582449856      1.32269591725130      6.16159188054981
  C           2.31710619420556     -1.84673465566414      9.22451721715129
  C           0.80467535869791     -5.66921833129791      7.48545894569955
  C           1.08443659878049     -2.69002630563899      3.47946693311350
  C           1.11570780029741     -0.25580852726675     -0.24883113346791
  O           1.00019596862452      4.98786650266655      1.56609921774752
  O           3.38014497037816      0.47366987885511      6.60358911896561
  O           2.78614548735947     -1.83689530370356     10.54662157589558
  O           0.38319076239630     -6.87992825196644      8.05787024892119
  O           1.95947870124591     -1.88761930775532      2.89749799339342
  O           0.96931588918207     -0.50130686434544     -1.62257587998804
  H          -0.08381301102162      4.89712456113507      6.10923255739431
  H           1.57182502655274      0.96097941418370     10.40988636079105
  H          -0.78794613252282     -4.79491097642148      9.98795711868131
  H          -1.70669074684342     -6.17613167190643      3.99642946260044
  H          -0.37858133417978     -2.64732850740211     -0.63596285299292
  H          -1.10016203417273      3.44964707885164      0.22817199888625
  H          -1.97303778582607      5.29484689888794      4.57172153100155
  H           1.06562013866748      3.32741131220327      9.83061878584184
  H          -1.13522600429737     -2.97421052736192     11.66164663133674
  H          -3.16114524323439     -6.36499035923712      5.97909084622733
  H          -1.07661259106781     -4.86204936559155      0.19480702809228
  H          -2.50028798129274      1.97714020595482     -1.23081020006197
  H          -2.26251197392789      4.25774286847979      6.89725561792577
  H          -1.11406602056077      1.80507118400350     10.76092039343373
  H          -3.25518726604663     -3.42092267471597      9.86378195561349
  H          -3.91288601447420     -5.26076394001860      3.86016140597756
  H          -3.21040359235964     -3.11226194314789     -0.35947507347127
  H          -3.66197263466253      2.76543034810672      1.21627473650496
  H          -2.04038783422897      2.24882512567664      4.33692380937996
  H          -1.20654180958705      2.11655587964837      8.17324718094311
  H          -1.94800459241662     -1.30705987932401      9.22887066232072
  H          -2.63179091568480     -3.37358816385744      6.28795619243807
  H          -2.80267395986654     -3.30231445747115      2.18921529120103
  H          -2.89587374613172      0.33927821282995      1.31982076374478
  H          -4.06688027286903      3.47893428254100      4.10305991626161
  H          -1.32171130490458      4.31989862416255      9.24489346222705
  H          -2.84007977726701     -0.87543872442143     11.43354815171161
  H          -4.70753573922700     -4.26302703391010      7.02936992275396
  H          -3.39549932740209     -5.50017861582441      1.27501071828121
  H          -4.54787074355919      0.37271899910071     -0.41688504707216
  H          -1.35050824846574      4.31030800903666      2.19585864181540
  H           1.29630813937196      3.57394487974939      7.18621022197278
  H           0.51705699476107     -0.89062943093299     10.96723195475448
  H          -1.78735693599575     -5.61369632846081      8.17475932466535
  H          -0.30673801325338     -5.00761817749941      2.69629077872042
  H          -1.38850307110000     -0.60217259877880     -1.14470559908823
  H           0.51776298458499      2.36882610731187      3.64932601643472
  H           0.55705059854682      0.61939380124895      6.97200630413245
  H           0.46245021081274     -1.96662543291225      8.10847555681763
  H           0.03837650591784     -4.00743354131147      6.32449003732141
  H          -0.81894619057423     -1.99563327769312      2.85844284159457
  H          -0.09651877909184      0.21905397939240      1.49361729651943
  H           1.24728317210121      3.01187988193570      1.33777220082784
  H           2.29498730333397      3.75450873416567      2.59377048754506
  H           2.78431288420620     -2.65380774201338      8.64830666826390
  H           2.59093045863206     -0.88784377432309      8.78176685146234
  H           1.13951659582501     -5.03339323962706      8.30462810343826
  H           1.63528001847620     -5.83099272565252      6.78945521850821
  H           1.91388847231467      0.47260919661189     -0.07158106693707
  H           1.38018140407489     -1.20473715020301      0.21752856514243
  H           1.09439433228264      5.67098675755850      2.24544496642235
  H           2.63266381652863     -2.71167786803315     10.93395801829920
  H           0.14683451221963     -7.48870562682932      7.34281177879783
  H           0.90127299537697      0.34477388510461     -2.08776175549632
  C           3.15953120536154     -1.60578027263739      3.61869690080795
  H           3.94877208315507     -1.46989309874504      2.88045398420427
  H           3.37980851187856     -2.44320634960406      4.28760722070282
  O           1.26006859196835     -3.22181105755303      4.54751886164798
  C           4.09789294852856     -0.10506063636677      5.53029608435896
  H           4.52162245151855     -1.03327846008342      5.90752266374070
  H           4.87895079991750      0.55586745450440      5.14938145935484
  O           2.67062327991772      2.24769964806643      5.38083586457332
  C           2.98568111300402     -0.34822271841433      4.46649774706033
  O           1.83358862122007     -0.02567419129648      4.89131157551381
  O           3.45715283610916      0.88915956991681      3.33136630720592
  H           3.27729812429134      1.68881478769215      3.91706978538233
  H           2.83505628675302      0.91132582812075      2.58328584549856
