133
 xtb: 6.7.1 (edcfbbe)
C           -0.36307375708934        4.12073984568927        5.38674468663718
C            0.96222519417236        1.19171914097117        9.53527670032977
C           -0.78808100785040       -3.74562712128296        9.66567103676060
C           -1.64528579826149       -5.41528364195225        4.78377203740320
C           -0.83658684716970       -2.72106283514113        0.35809329844212
C           -1.28051317382512        2.40460011002722        0.50953663485540
O           -0.17089464080491        2.83867926799806        5.93632611816941
O           -0.05672257888729        0.25738374473193        9.34211115699894
O           -1.41654796999505       -3.59226101822784        8.42434039730021
O           -1.39868061011693       -4.14380811685995        4.22723249620195
O           -1.67490068309913       -1.63750053455205        0.62175730210689
O           -1.42976221148553        2.26341228479356        1.89843321817732
C           -1.83912976405544        4.28051163176502        4.98419973722311
C            0.29154876185672        2.57053679756625        9.65452960687925
C           -1.56470336247184       -2.86554345187341       10.66100773433245
C           -2.96537026441748       -5.36238818458895        5.56658280362052
C           -1.68914727157748       -3.99788298417363        0.47353755844862
C           -2.56878753542215        1.87781373280927       -0.14291724175559
O           -2.72226010591046        4.08049535603868        6.05566760831599
O           -0.60265750036103        2.63048957111927       10.72984307571866
O           -2.90855201037491       -3.24949959596461       10.75571953200713
O           -4.04219527865233       -4.94302340418162        4.77152084028732
O           -2.78108769848743       -3.98277759398497       -0.39993031992499
O           -3.69208515649599        2.61600190090291        0.25463241766944
C           -2.15098108733770        3.24982446215508        3.89441364923516
C           -0.42536712361498        2.87304014579875        8.33098182189199
C           -1.43793724057038       -1.40720010847505       10.19951286143752
C           -2.79539418459306       -4.37200681169910        6.72119253702551
C           -2.15932743374013       -4.15668423650637        1.92857609025618
C           -2.71711657204515        0.39711081619717        0.23438299051368
O           -3.44263720605628        3.40994386820986        3.36366165430423
O           -0.99826604080523        4.16305195404685        8.34963947506654
O           -1.99183596579817       -0.51308244300182       11.13226383757760
O           -3.91105023718851       -4.35922849571946        7.57462867541633
O           -2.88322007238447       -5.35588579742758        2.09021434660050
O           -3.77377482974070       -0.21032043375792       -0.46495115816944
C           -1.15760350513247        3.37272928688535        2.73489123072078
C            0.55122638721512        2.77775652062480        7.15173481979933
C            0.02678045066531       -1.00363953982983        9.99055401277962
C           -1.56861028982490       -4.71915126402973        7.57484994997285
C           -0.95228388447652       -4.13957840643671        2.88522803376995
C           -1.44649536357991       -0.41123137752842       -0.06417255098999
C            0.29361422317865        3.36530497485220        3.24623421581505
C            1.29747102695820        1.43913939750951        7.21180015190607
C            0.79405016042582       -2.04279025631632        9.15328600432245
C           -0.32063897861297       -4.96948192060376        6.70935058035267
C           -0.16195225333194       -2.84711926579915        2.61635026164062
C           -0.16408856151625        0.30776782099859        0.40014823828560
O            0.46403606696128        4.33152082818817        4.27976428639871
O            1.88520321325381        1.20595633753959        8.47960631723774
O            0.56163509957382       -3.36429292801470        9.63559526968138
O           -0.60585394930019       -5.83946267977270        5.61442839148699
O            0.24525283181577       -2.78315075473292        1.26461086641830
O           -0.17364616645748        1.68935343280504        0.04023954988550
C            1.29505786693231        3.74401784661174        2.14594016728826
C            2.46879978414833        1.40344292381685        6.23674854104456
C            2.31658604485323       -1.84638162169651        9.22485735836894
C            0.80466445897981       -5.66907655429361        7.48541818476792
C            1.08797699134755       -2.69192350671973        3.47626494250252
C            1.11560762254720       -0.25633245666653       -0.24876188747003
O            0.99971082235165        4.98830819162052        1.56607162214508
O            3.36413706392738        0.48215967112967        6.60626784751996
O            2.78590865640632       -1.83743573156960       10.54686557264636
O            0.38323645239807       -6.87982660498048        8.05777342903985
O            1.97002652539991       -1.90895008760651        2.88270477939901
O            0.96935139165278       -0.50081658029286       -1.62260724976445
H           -0.08420888208779        4.89767453274285        6.10882920402400
H            1.56773556936288        0.96168230411397       10.41525495356842
H           -0.78796104237503       -4.79496276731726        9.98797645044813
H           -1.70669365222225       -6.17612402213291        3.99640645241881
H           -0.37862905622957       -2.64730543211280       -0.63591971744296
H           -1.10002483271655        3.44959386952533        0.22821178897185
H           -1.97277518556938        5.29452591503550        4.57170469786340
H            1.06390484459528        3.32802485098435        9.83254487611154
H           -1.13532555137394       -2.97430595115280       11.66170780719436
H           -3.16115228953484       -6.36499950011738        5.97908956514542
H           -1.07663645194431       -4.86198148092650        0.19487423143517
H           -2.50017287134479        1.97713574879690       -1.23076052431689
H           -2.26297386907499        4.25886424803331        6.89731722052443
H           -1.11588161120602        1.80588431993431       10.76247944008984
H           -3.25525080447849       -3.42106126884422        9.86383112627020
H           -3.91277425837946       -5.26045951047360        3.86012481280855
H           -3.21030240485337       -3.11215492432013       -0.35960241467609
H           -3.66192265938757        2.76539114399974        1.21632450921619
H           -2.04037450426243        2.24849239979304        4.33659835604838
H           -1.20809605282859        2.11724266508009        8.17447761935874
H           -1.94836073403041       -1.30730017135764        9.22895430802151
H           -2.63182038600271       -3.37360653153908        6.28784409769345
H           -2.80267416776704       -3.30222535154675        2.18923224310556
H           -2.89580392738013        0.33926636078796        1.31985123024494
H           -4.06678655060998        3.47863972169671        4.10308279692603
H           -1.32446310128807        4.32094168148361        9.24600803154950
H           -2.84021924774178       -0.87525792723324       11.43358683118168
H           -4.70752040141830       -4.26299970837857        7.02938078655093
H           -3.39552611231117       -5.50009011846212        1.27504492270785
H           -4.54783252953419        0.37277972086595       -0.41682949394499
H           -1.35025189578892        4.31028902447921        2.19596811019757
H            1.29140565949714        3.58099475595661        7.19057385633482
H            0.51658352567327       -0.89082650083252       10.96734427115952
H           -1.78733923758986       -5.61367741538242        8.17470966106427
H           -0.30673063094978       -5.00746383606879        2.69629201232783
H           -1.38830774084017       -0.60207088710971       -1.14461367041612
H            0.51869656838880        2.36826684697204        3.64786542871489
H            0.56750720864731        0.62383081386651        6.96734991546911
H            0.46211385088540       -1.96685225198090        8.10849838505728
H            0.03837138362650       -4.00749427659123        6.32419937192143
H           -0.81850436004156       -1.99535514780465        2.85859385062992
H           -0.09562257987206        0.21913821734647        1.49354800420206
H            1.24738340521352        3.01171872822490        1.33795326014641
H            2.29515744184016        3.75433506360377        2.59305950376420
H            2.78419665675725       -2.65345016591787        8.64806295541725
H            2.59064782435263       -0.88738316588343        8.78270261569539
H            1.13946537428666       -5.03340052000239        8.30468443040465
H            1.63527876360687       -5.83091537938598        6.78944185938075
H            1.91423472744427        0.47188509606573       -0.07087850369178
H            1.37997655384232       -1.20484618821645        0.21768046858628
H            1.09444518250795        5.67112678011884        2.24542969415329
H            2.63263611846203       -2.71176832773547       10.93401264018229
H            0.14675429590520       -7.48863018893276        7.34280116756114
H            0.90166475147893        0.34502392473573       -2.08760740144724
C            3.17291003379938       -1.62891597260901        3.60041674164791
H            3.94898278695644       -1.46091594253110        2.87462089944565
H            3.39287040495383       -2.45669768072179        4.27152159093198
O            1.26100127019388       -3.21792946817649        4.54887885490770
C            4.07668407006364       -0.10627800576468        5.52884271610893
H            4.52557951146456       -1.02674106081093        5.91325934952818
H            4.86481025705921        0.55701553606433        5.13595789473944
O            2.67294345735652        2.26119013529363        5.40059292956752
C            2.94077804116560       -0.44273162202800        4.52340665058525
O            1.80708360775510       -0.10791928237226        4.82212527962043
O            3.50127775748008        0.94681027419736        3.21791181844041
H            3.29365874859223        1.69790200733780        3.87459899001409
H            2.84496747691841        0.92495952159028        2.55864135405124
