14
Coordinates from ORCA-job job.QMRegion
  C          -0.28762493092402     -0.52600322863608      2.96410393223416
  O          -0.82705313871650     -1.09356576889348      1.98732470519656
  H          -1.28898530747234     -0.32572654995640      0.47620028709687
  O          -1.31974677333267      0.07542572049109     -0.42223596617584
  H           0.49485972399729      0.06639162103312     -0.63163375691627
  O           1.39617508777771      0.00640033005963     -0.21138575826879
  H           1.22159908752052      0.30172740142674      0.85719137345401
  O           0.91372430728201      0.71545997255517      2.08841207626929
  O           2.12916306345405      1.06429158468126      2.80140986027348
  H           1.99815755059685      0.68002957880918     -0.60205790971682
  H          -1.91933260737353     -0.50715388038772     -0.91165797940482
  H           2.63966197770797      0.23214836654845      2.75077798092436
  H           0.47914101015501     -1.08395968620499      3.51515708660557
  H          -0.83208709180825      0.25468737959691      3.51082009205371
