154
Coordinates from ORCA-job job
  C          -0.85167700798926      5.04333952626501      0.60680875690919
  C           4.11273470140338      3.25703013683387      0.38254133595753
  C           4.81790565542140     -1.86330538781004      0.58719890121974
  C           0.65582057051930     -4.96336986566206     -0.31487813015147
  C          -4.11563131701898     -3.04364915257670     -1.53965872781289
  C          -5.03820898015630      1.98984142044964     -0.19147845426070
  O           0.00323355827083      3.92218671278811      0.63632920152987
  O           3.98268919558437      2.11456611506757      1.16822430709353
  O           3.42334892414934     -2.06918694102071      0.57970720016270
  O          -0.27429908915493     -3.91972555312150     -0.42399239006679
  O          -3.99362604449812     -1.97814068354293     -0.65124575051173
  O          -3.81788799335453      2.28532117946446      0.44630578565986
  C          -1.74727262236163      5.04178328041978      1.85527941401974
  C           3.68689044047440      4.47133060385851      1.23254638970036
  C           5.23750789054215     -1.28516109135134      1.94871987282540
  C           1.17102669055705     -4.99655055888817      1.13359598328150
  C          -3.99109837823733     -4.33019827803557     -0.69946314052167
  C          -5.80143835890741      0.97610930005785      0.68133629999561
  O          -1.00522283213951      4.97902013187068      3.04491751140677
  O           4.43904378003606      4.58177234498019      2.40539648435703
  O           4.92573268756075     -2.12779722186751      3.02421967821182
  O           0.15521188134684     -5.20290175593689      2.07877315342692
  O          -4.99307827084349     -4.41333837463749      0.27376573625857
  O          -5.97790952349152      1.44260576366917      1.98974183361616
  C          -2.67846308935266      3.82329576203179      1.81902478012534
  C           2.18409334561797      4.38402622349416      1.55703220883393
  C           4.55591488016974      0.07675654332291      2.11623164015261
  C           1.87902862827509     -3.66496195750529      1.41978963637893
  C          -2.59654133674271     -4.34060922134985     -0.05250380444950
  C          -5.07153404459255     -0.37541881728317      0.65708732393968
  O          -3.69660051354353      3.90944253026553      2.78288963180868
  O           1.73670532359121      5.55883857613110      2.19277762812240
  O           4.97116133876281      0.71257768773602      3.29935416361645
  O           2.51687773667128     -3.68118842702608      2.67470730922199
  O          -2.35448788300378     -5.53534716815466      0.65402208026562
  O          -5.82730255765796     -1.37910376699473      1.29471077842887
  C          -3.36650427823864      3.63864887188492      0.45811071731734
  C           1.35340870992143      4.16332462896240      0.27976715121314
  C           4.85262994769346      1.01086629627837      0.93468084105411
  C           2.95182663384155     -3.39121612474861      0.36183452321690
  C          -1.49051394384771     -4.17203287094606     -1.10640316206288
  C          -4.82786630799523     -0.83688495355812     -0.78491189060596
  C          -2.43901927415420      3.91219712605111     -0.73897692138990
  C           1.94437562095397      2.94768306627211     -0.44741165195425
  C           4.62135217164009      0.30298362184886     -0.41715781567086
  C           2.39549340726569     -3.55351680752520     -1.06248461230728
  C          -1.81851162378056     -2.95873490779420     -1.98606213245971
  C          -4.17208050767209      0.26926058013031     -1.62805409906034
  O          -1.63624450162299      5.07256049573510     -0.54717464229553
  O           3.29914958013289      3.18695089354369     -0.77408049792459
  O           5.20868649516477     -0.99889714495448     -0.43737990843931
  O           1.73150761286586     -4.80550133218661     -1.19783009008814
  O          -3.11594736635902     -3.03100162499811     -2.53892621123974
  O          -4.87185704293889      1.50726986187463     -1.49246801840676
  C          -3.23100057893449      4.17622399969220     -2.02786054926834
  C           1.23415298204956      2.54997031473694     -1.72859134800742
  C           5.28588677611835      1.02382660761501     -1.60616502101003
  C           3.51632067641823     -3.53802994888279     -2.10874203291198
  C          -0.81984595561129     -2.73235630094034     -3.11346719105377
  C          -4.21669256089460     -0.05397517079015     -3.12914387903372
  O          -4.14066822293610      5.23552646586528     -1.88171897065489
  O           1.89024634071984      1.58193497788715     -2.33727316678047
  O           6.61468626297164      1.38691755771382     -1.34218003018157
  O           4.45036813789371     -4.56427218551937     -1.90149496367832
  O          -1.20401808490598     -1.71368817836453     -3.88802387236559
  O          -5.52759654693222     -0.27323237598480     -3.58248663987861
  H          -0.26559382140665      5.97046138612814      0.57979246041999
  H           5.13775132336613      3.38429884461323      0.01383967203825
  H           5.35236379050861     -2.80038531539572      0.38718631541756
  H           0.20365830500880     -5.92716778854438     -0.58168728524572
  H          -5.06560445826984     -3.01603616094668     -2.08762189988182
  H          -5.63359215562703      2.90549726191754     -0.30672200439951
  H          -2.35519819813229      5.95979091697084      1.83036948790789
  H           3.87259552446779      5.38230667671624      0.65330898704989
  H           6.32586032972439     -1.15554525933418      1.95537946722354
  H           1.90445589118408     -5.81279539624256      1.21719891358783
  H          -4.10322794970632     -5.20297956525791     -1.35076087583706
  H          -6.80530676057096      0.84008634361128      0.26384079259194
  H          -0.12028141874867      5.36247416528668      2.90727689088859
  H           4.51263162510058      3.70757449205928      2.82270155833149
  H           4.06133813763248     -2.55766265213332      2.87199034811882
  H          -0.70505344661787     -5.31973703120202      1.63362187823246
  H          -5.13104404222115     -3.53559374493902      0.67414530569117
  H          -5.15984633651264      1.86593472370123      2.29853246548600
  H          -2.05364269726991      2.94458120389238      2.02140882814907
  H           2.01745843983309      3.51909185625295      2.21781097329052
  H           3.46795452260284     -0.09216277465921      2.14705253185174
  H           1.12887651526911     -2.86081954471976      1.38772479861585
  H          -2.52998491691979     -3.48089963321891      0.63188073781510
  H          -4.09365993011619     -0.27590574444154      1.14893038305366
  H          -3.29232365153258      4.09103345181198      3.64555766055530
  H           2.42465568435603      5.83810883114872      2.82100530989194
  H           5.22873693057046      0.02502214179234      3.93359848491905
  H           1.92790713930384     -4.12055723424144      3.30837919524842
  H          -3.17084020517329     -5.77699158625924      1.12420181219411
  H          -6.13748512341247     -1.02919123180270      2.14498601078048
  H          -4.22688414778317      4.31915238453733      0.41455856407794
  H           1.42400827425855      5.04098160845911     -0.37357204253360
  H           5.89526525953708      1.35360149135747      0.98665172858984
  H           3.76920894706701     -4.11074726457118      0.50166224498011
  H          -1.40966106768925     -5.07396765825769     -1.72442822156113
  H          -5.78414254502291     -1.12328951486239     -1.24282935372419
  H          -1.78889955619376      3.04047883192774     -0.88446218638079
  H           1.87238233029343      2.07341425497805      0.21991364923593
  H           3.54209709773868      0.22135530690857     -0.60270636464857
  H           1.69038026785084     -2.74247719317295     -1.27968939049603
  H          -1.73410885053789     -2.06020394998667     -1.35167318971113
  H          -3.12502070232791      0.38473627864121     -1.32067866779856
  H          -3.81525342286949      3.29274975636978     -2.28593085895349
  H          -2.50955810321459      4.38267078813172     -2.82553037770122
  H           5.22642976781960      0.34596423153987     -2.46469941043938
  H           4.74355863144783      1.93834421852652     -1.84146026692266
  H           4.06411550653479     -2.59641957988846     -2.03539778407523
  H           3.05159931631315     -3.61657204879164     -3.09747155368554
  H          -3.74335244292726      0.77360249751065     -3.66779442253760
  H          -3.65135774687156     -0.96446183361709     -3.32806401633747
  H          -3.64080614483264      6.05176050118457     -1.73546819262279
  H           7.15266124189630      0.58373250024810     -1.28890381839821
  H           3.99721519634966     -5.41240614590737     -2.01804823274779
  H          -6.02331272683562      0.55406276283069     -3.49047877075986
  C          -0.16560380251828     -0.90313013504636     -4.39953427201100
  H          -0.58323476560149     -0.32378001364300     -5.22413551903798
  H           0.69881663803581     -1.50129035221250     -4.70112557789957
  O           0.18130090494865     -3.37702217602632     -3.29841800262238
  C           1.33712613412488      1.02323591060924     -3.52732359542419
  H           2.16493212595172      0.48920402730005     -4.00000099878115
  H           0.95652998838829      1.81337107715344     -4.18489651131594
  O           0.20131350930959      3.03227840047085     -2.13591151147802
  C           0.19376156750073      0.03842591225867     -3.19711166966272
  O           0.55817925828992     -0.89914560765464     -2.22198792796812
  O          -1.00362153034556      0.72021352324006     -2.87105177969581
  O           0.47447656163358     -0.11084349158026     -0.67092749411656
  H          -0.78343987025571      1.66233218811367     -2.73806327036792
  H          -2.33826847640828      1.16504425542231      0.98816821342113
  H           1.26074707321809     -0.59047567830960     -0.34139431709070
  H           0.05173421523940      0.45667378274135      0.66935177763886
  O          -1.88567773975651      0.41182569805150      1.40240212351244
  C          -0.53624213327722      0.70676313802612      1.64422712018226
  C           0.04902862013411     -0.15095063785620      2.71663586761047
  H          -0.33874454873224      1.78085121781823      1.79496424231255
  C           1.19826508330913      0.24904353292209      3.38954782515685
  C          -0.52165290493791     -1.38513397954893      3.02935700488274
  C           1.78081335346915     -0.56047028489963      4.34540246234579
  H           1.64465351218879      1.20606000148094      3.16258498570483
  C           0.04264633130600     -2.19236701629040      3.98792438617210
  H          -1.41282955723743     -1.69392604474219      2.50649773381603
  C           1.21604443665791     -1.79964680568392      4.64412532022467
  H           2.67465490768974     -0.22219357384003      4.84163959974612
  H          -0.38842054002165     -3.15012799269134      4.23127461648671
  O           1.71879537437498     -2.68526199556936      5.53296558451420
  C           2.96316647494693     -2.40424238829126      6.15303435451563
  H           3.16275919587591     -3.26214685677297      6.79037981140618
  H           3.75483202654310     -2.30856489514208      5.40620895402110
  H           2.90430066402960     -1.50073659130800      6.76374112234271
