14
Coordinates from ORCA-job job.QMRegion
  C           0.19376156750073      0.03842591225867     -3.19711166966272
  O           0.55817925828992     -0.89914560765464     -2.22198792796812
  O          -1.00362153034556      0.72021352324006     -2.87105177969581
  O           0.47447656163358     -0.11084349158026     -0.67092749411656
  H          -0.78343987025571      1.66233218811367     -2.73806327036792
  H          -2.33826847640828      1.16504425542231      0.98816821342113
  H           1.26074707321809     -0.59047567830960     -0.34139431709070
  H           0.05173421523940      0.45667378274135      0.66935177763886
  O          -1.88567773975651      0.41182569805150      1.40240212351244
  C          -0.53624213327722      0.70676313802612      1.64422712018226
  H          -0.33874454873224      1.78085121781823      1.79496424231255
  H          -0.06094274163452     -0.62891268669498     -4.04934241800536
  H           1.01060936379978      0.74199842133256     -3.43302319932148
  H          -0.11345851791961      0.08717412047154      2.41890592437014
