154
* (null), Energy   -1000.0000000
C    -0.851677    5.043340    0.606809   -0.000198   -0.001868   -0.000322
C     4.112735    3.257030    0.382541    0.000152   -0.000194    0.001808
C     4.817906   -1.863305    0.587199   -0.002176   -0.000870   -0.003216
C     0.655821   -4.963370   -0.314878    0.001826    0.004520   -0.004226
C    -4.115631   -3.043649   -1.539659    0.010038    0.000410    0.000450
C    -5.038209    1.989841   -0.191478    0.004164   -0.001536    0.000410
O     0.003234    3.922187    0.636329   -0.001370   -0.009576    0.006388
O     3.982689    2.114566    1.168224    0.001652    0.000564    0.002886
O     3.423349   -2.069187    0.579707    0.004198   -0.003832    0.019886
O    -0.274299   -3.919726   -0.423992   -0.009790   -0.005638    0.018378
O    -3.993626   -1.978141   -0.651246   -0.000826   -0.002920    0.005580
O    -3.817888    2.285321    0.446306    0.009332   -0.008648    0.004224
C    -1.747273    5.041783    1.855279    0.000176    0.001894    0.001524
C     3.686890    4.471331    1.232546   -0.000760    0.000428    0.001954
C     5.237508   -1.285161    1.948720    0.001704   -0.000760    0.000164
C     1.171027   -4.996551    1.133596    0.000414   -0.001084   -0.002198
C    -3.991098   -4.330198   -0.699463    0.001840   -0.001348    0.000490
C    -5.801438    0.976109    0.681336   -0.002716    0.003166    0.000996
O    -1.005223    4.979020    3.044918   -0.001050   -0.003962   -0.001334
O     4.439044    4.581772    2.405396   -0.002786    0.000098    0.001068
O     4.925733   -2.127797    3.024220   -0.002168    0.004248   -0.000580
O     0.155212   -5.202902    2.078773    0.006892    0.004412    0.003388
O    -4.993078   -4.413338    0.273766    0.002390    0.000824    0.002026
O    -5.977910    1.442606    1.989742    0.000544   -0.003110   -0.000900
C    -2.678463    3.823296    1.819025    0.000738    0.001230    0.002300
C     2.184093    4.384026    1.557032   -0.001208    0.001906    0.002122
C     4.555915    0.076757    2.116232    0.003446    0.000508    0.001210
C     1.879029   -3.664962    1.419790    0.004686   -0.003112   -0.003746
C    -2.596541   -4.340609   -0.052504    0.002172   -0.003804   -0.005672
C    -5.071534   -0.375419    0.657087   -0.008324   -0.000926    0.000214
O    -3.696601    3.909443    2.782890    0.003056   -0.004500   -0.000206
O     1.736705    5.558839    2.192778   -0.002084   -0.000646    0.002336
O     4.971161    0.712578    3.299354   -0.007016   -0.001632    0.000686
O     2.516878   -3.681188    2.674707   -0.012188    0.007548    0.004388
O    -2.354488   -5.535347    0.654022    0.001872    0.003600    0.004108
O    -5.827303   -1.379104    1.294711    0.003530    0.000920    0.001278
C    -3.366504    3.638649    0.458111    0.004296   -0.002422    0.000076
C     1.353409    4.163325    0.279767    0.002340   -0.007374   -0.000564
C     4.852630    1.010866    0.934681   -0.001706   -0.000880   -0.001528
C     2.951827   -3.391216    0.361835    0.001442   -0.000942   -0.005150
C    -1.490514   -4.172033   -1.106403    0.007172    0.007854   -0.005726
C    -4.827866   -0.836885   -0.784912   -0.000264    0.000614   -0.001574
C    -2.439019    3.912197   -0.738977    0.000770    0.001968   -0.002770
C     1.944376    2.947683   -0.447412    0.004654   -0.008212   -0.002284
C     4.621352    0.302984   -0.417158   -0.004016   -0.001924   -0.002774
C     2.395493   -3.553517   -1.062485   -0.004152    0.009386   -0.005778
C    -1.818512   -2.958735   -1.986062    0.013846    0.021028    0.007124
C    -4.172081    0.269261   -1.628054   -0.000342    0.001024   -0.003918
O    -1.636245    5.072560   -0.547175   -0.002412    0.001450    0.002130
O     3.299150    3.186951   -0.774080    0.005826    0.004310   -0.002016
O     5.208686   -0.998897   -0.437380    0.007616    0.002852    0.000548
O     1.731508   -4.805501   -1.197830    0.006360    0.001160   -0.002204
O    -3.115947   -3.031002   -2.538926    0.011442    0.000440   -0.002510
O    -4.871857    1.507270   -1.492468    0.002084    0.000062    0.000094
C    -3.231001    4.176224   -2.027861   -0.001464    0.001448    0.000328
C     1.234153    2.549970   -1.728591    0.002836   -0.015836   -0.012828
C     5.285887    1.023827   -1.606165   -0.005846    0.001662    0.001204
C     3.516321   -3.538030   -2.108742   -0.001812    0.003244    0.002014
C    -0.819846   -2.732356   -3.113467    0.046398    0.051254    0.021332
C    -4.216693   -0.053975   -3.129144   -0.001910    0.000696   -0.001486
O    -4.140668    5.235526   -1.881719   -0.000880   -0.000054    0.001202
O     1.890246    1.581935   -2.337273   -0.009368   -0.013220   -0.007870
O     6.614686    1.386918   -1.342180   -0.005600   -0.001396   -0.000536
O     4.450368   -4.564272   -1.901495   -0.001088   -0.000112    0.000734
O    -1.204018   -1.713688   -3.888024   -0.007602    0.007320   -0.028180
O    -5.527597   -0.273232   -3.582487   -0.000578   -0.001620    0.002050
H    -0.265594    5.970461    0.579792    0.004656   -0.006330   -0.005096
H     5.137751    3.384299    0.013840    0.000010   -0.000034    0.001984
H     5.352364   -2.800385    0.387186   -0.000916    0.001866   -0.012882
H     0.203658   -5.927168   -0.581687    0.007630    0.002488   -0.021078
H    -5.065604   -3.016036   -2.087622    0.016198    0.004488   -0.010944
H    -5.633592    2.905497   -0.306722    0.010636    0.000242   -0.003898
H    -2.355198    5.959791    1.830369    0.006062    0.005886   -0.007898
H     3.872596    5.382307    0.653309    0.001064   -0.004844   -0.006308
H     6.325860   -1.155545    1.955379    0.001600   -0.005864   -0.012156
H     1.904456   -5.812795    1.217199   -0.001774   -0.007192   -0.018504
H    -4.103228   -5.202980   -1.350761    0.003358    0.005168   -0.007638
H    -6.805307    0.840086    0.263841    0.000862    0.007498   -0.008524
H    -0.120281    5.362474    2.907277   -0.007708    0.008694    0.012072
H     4.512632    3.707574    2.822702    0.004338   -0.002428   -0.002072
H     4.061338   -2.557663    2.871990    0.001662   -0.014728   -0.018676
H    -0.705053   -5.319737    1.633622    0.001858   -0.001706    0.019138
H    -5.131044   -3.535594    0.674145   -0.004922    0.004328   -0.000274
H    -5.159846    1.865935    2.298532   -0.007386    0.019772   -0.001114
H    -2.053643    2.944581    2.021409    0.010706    0.006572    0.006748
H     2.017458    3.519092    2.217811    0.008792    0.006944    0.008568
H     3.467955   -0.092163    2.147053    0.006064   -0.006048   -0.017330
H     1.128877   -2.860820    1.387725    0.012568   -0.008810   -0.044486
H    -2.529985   -3.480900    0.631881    0.006574   -0.001016   -0.012332
H    -4.093660   -0.275906    1.148930   -0.010508   -0.003798    0.000070
H    -3.292324    4.091033    3.645558    0.003808    0.004118   -0.000634
H     2.424656    5.838109    2.821005   -0.002280    0.001222    0.001488
H     5.228737    0.025022    3.933598    0.034712   -0.001010   -0.010532
H     1.927907   -4.120557    3.308379    0.016342   -0.114596   -0.019942
H    -3.170840   -5.776992    1.124202   -0.005262    0.004006   -0.001826
H    -6.137485   -1.029191    2.144986   -0.003620    0.005458   -0.000158
H    -4.226884    4.319152    0.414559    0.004048   -0.004736   -0.009078
H     1.424008    5.040982   -0.373572   -0.000986   -0.015694   -0.009658
H     5.895265    1.353601    0.986652   -0.000630   -0.000920   -0.018988
H     3.769209   -4.110747    0.501662    0.005480   -0.003580   -0.014972
H    -1.409661   -5.073968   -1.724428    0.014962    0.027134   -0.031472
H    -5.784143   -1.123290   -1.242829    0.005596    0.001778   -0.013584
H    -1.788900    3.040479   -0.884462    0.001598    0.011814   -0.046496
H     1.872382    2.073414    0.219914    0.035852   -0.028492   -0.032274
H     3.542097    0.221355   -0.602706   -0.002382   -0.019476   -0.031522
H     1.690380   -2.742477   -1.279689    0.015182    0.038012   -0.014106
H    -1.734109   -2.060204   -1.351673    0.013392    0.026412   -0.006430
H    -3.125021    0.384736   -1.320679    0.014400   -0.004790   -0.056236
H    -3.815253    3.292750   -2.285931    0.004484   -0.000204   -0.006038
H    -2.509558    4.382671   -2.825530   -0.002374   -0.008994   -0.004748
H     5.226430    0.345964   -2.464699   -0.020848    0.009944   -0.006164
H     4.743559    1.938344   -1.841460   -0.009612   -0.000386    0.000804
H     4.064116   -2.596420   -2.035398   -0.016066    0.011166   -0.005064
H     3.051599   -3.616572   -3.097472   -0.003586    0.019708   -0.002428
H    -3.743352    0.773602   -3.667794    0.007884   -0.006698   -0.004730
H    -3.651358   -0.964462   -3.328064    0.015124    0.010514   -0.003136
H    -3.640806    6.051761   -1.735468    0.001046   -0.000112   -0.002334
H     7.152661    0.583733   -1.288904   -0.002990   -0.000716    0.001754
H     3.997215   -5.412406   -2.018048    0.000242   -0.003886   -0.003978
H    -6.023313    0.554063   -3.490479    0.005832    0.006160   -0.006342
C    -0.165604   -0.903130   -4.399534   -0.070978    0.032444   -0.129200
H    -0.583235   -0.323780   -5.224136   -0.146220   -0.002076   -0.106466
H     0.698817   -1.501290   -4.701126   -0.068446    0.047144   -0.136456
O     0.181301   -3.377022   -3.298418   -0.009320   -0.032334   -0.024182
C     1.337126    1.023236   -3.527324   -0.006412   -0.009702   -0.017820
H     2.164932    0.489204   -4.000001    0.005382    0.025010   -0.027184
H     0.956530    1.813371   -4.184897   -0.034070    0.009288    0.028942
O     0.201314    3.032278   -2.135912    0.006434    0.018234   -0.003802
C     0.193762    0.038426   -3.197112    0.061040   -0.144720   -0.040536
O     0.558179   -0.899146   -2.221988   -0.000198   -0.147748   -0.418432
O    -1.003622    0.720214   -2.871052    0.007140   -0.011530    0.021462
O     0.474477   -0.110843   -0.670927   -0.167828    0.318048    0.853050
H    -0.783440    1.662332   -2.738063    0.134388   -0.034188   -0.072170
H    -2.338268    1.165044    0.988168    0.152192   -0.081110   -0.301542
H     1.260747   -0.590476   -0.341394   -0.177354    0.132208    0.518464
H     0.051734    0.456674    0.669352    0.156380   -0.800064   -0.896098
O    -1.885678    0.411826    1.402402    0.134076    0.049902    0.014702
C    -0.536242    0.706763    1.644227   -0.071190   -0.100294    0.013478
C     0.049029   -0.150951    2.716636    0.018538   -0.019768   -0.124260
H    -0.338745    1.780851    1.794964    0.453484   -0.182426   -0.732300
C     1.198265    0.249044    3.389548    0.029970   -0.001432   -0.036778
C    -0.521653   -1.385134    3.029357    0.001848   -0.034932   -0.019988
C     1.780813   -0.560470    4.345402   -0.017410    0.027730   -0.016104
H     1.644654    1.206060    3.162585    0.048134   -0.015238   -0.035248
C     0.042646   -2.192367    3.987924   -0.024182    0.006194   -0.013440
H    -1.412830   -1.693926    2.506498    0.014452   -0.056148   -0.017198
C     1.216044   -1.799647    4.644125    0.000982   -0.005536    0.014112
H     2.674655   -0.222194    4.841640   -0.037102    0.036630    0.014302
H    -0.388421   -3.150128    4.231275   -0.037388    0.019870   -0.000052
O     1.718795   -2.685262    5.532966   -0.013876    0.027164   -0.040102
C     2.963166   -2.404242    6.153034    0.001818    0.001666   -0.004352
H     3.162759   -3.262147    6.790380   -0.012890   -0.023084   -0.013266
H     3.754832   -2.308565    5.406209    0.006386    0.002282    0.005110
H     2.904301   -1.500737    6.763741    0.007002   -0.006794    0.018896
154
* Frequency(6) -559.8500
C    -0.851700    5.043128    0.606772   -0.000198   -0.001868   -0.000322
C     4.112752    3.257008    0.382746    0.000152   -0.000194    0.001808
C     4.817659   -1.863404    0.586834   -0.002176   -0.000870   -0.003216
C     0.656029   -4.962856   -0.315358    0.001826    0.004520   -0.004226
C    -4.114490   -3.043602   -1.539608    0.010038    0.000410    0.000450
C    -5.037736    1.989666   -0.191431    0.004164   -0.001536    0.000410
O     0.003078    3.921099    0.637055   -0.001370   -0.009576    0.006388
O     3.982877    2.114630    1.168552    0.001652    0.000564    0.002886
O     3.423826   -2.069622    0.581967    0.004198   -0.003832    0.019886
O    -0.275412   -3.920367   -0.421903   -0.009790   -0.005638    0.018378
O    -3.993720   -1.978473   -0.650612   -0.000826   -0.002920    0.005580
O    -3.816827    2.284338    0.446786    0.009332   -0.008648    0.004224
C    -1.747253    5.041998    1.855452    0.000176    0.001894    0.001524
C     3.686804    4.471380    1.232768   -0.000760    0.000428    0.001954
C     5.237702   -1.285247    1.948739    0.001704   -0.000760    0.000164
C     1.171074   -4.996674    1.133346    0.000414   -0.001084   -0.002198
C    -3.990889   -4.330351   -0.699407    0.001840   -0.001348    0.000490
C    -5.801747    0.976469    0.681449   -0.002716    0.003166    0.000996
O    -1.005342    4.978570    3.044766   -0.001050   -0.003962   -0.001334
O     4.438727    4.581783    2.405517   -0.002786    0.000098    0.001068
O     4.925487   -2.127314    3.024154   -0.002168    0.004248   -0.000580
O     0.155995   -5.202401    2.079158    0.006892    0.004412    0.003388
O    -4.992806   -4.413244    0.273996    0.002390    0.000824    0.002026
O    -5.977848    1.442253    1.989640    0.000544   -0.003110   -0.000900
C    -2.678379    3.823436    1.819286    0.000738    0.001230    0.002300
C     2.183956    4.384243    1.557273   -0.001208    0.001906    0.002122
C     4.556307    0.076815    2.116370    0.003446    0.000508    0.001210
C     1.879562   -3.665316    1.419364    0.004686   -0.003112   -0.003746
C    -2.596294   -4.341041   -0.053149    0.002172   -0.003804   -0.005672
C    -5.072480   -0.375524    0.657111   -0.008324   -0.000926    0.000214
O    -3.696254    3.908932    2.782867    0.003056   -0.004500   -0.000206
O     1.736468    5.558766    2.193043   -0.002084   -0.000646    0.002336
O     4.970364    0.712393    3.299432   -0.007016   -0.001632    0.000686
O     2.515493   -3.680330    2.675206   -0.012188    0.007548    0.004388
O    -2.354275   -5.534938    0.654489    0.001872    0.003600    0.004108
O    -5.826902   -1.378999    1.294856    0.003530    0.000920    0.001278
C    -3.366016    3.638374    0.458120    0.004296   -0.002422    0.000076
C     1.353675    4.162487    0.279703    0.002340   -0.007374   -0.000564
C     4.852436    1.010766    0.934507   -0.001706   -0.000880   -0.001528
C     2.951991   -3.391323    0.361250    0.001442   -0.000942   -0.005150
C    -1.489699   -4.171140   -1.107054    0.007172    0.007854   -0.005726
C    -4.827896   -0.836815   -0.785091   -0.000264    0.000614   -0.001574
C    -2.438931    3.912421   -0.739292    0.000770    0.001968   -0.002770
C     1.944905    2.946750   -0.447672    0.004654   -0.008212   -0.002284
C     4.620896    0.302765   -0.417473   -0.004016   -0.001924   -0.002774
C     2.395021   -3.552450   -1.063142   -0.004152    0.009386   -0.005778
C    -1.816938   -2.956345   -1.985252    0.013846    0.021028    0.007124
C    -4.172120    0.269377   -1.628499   -0.000342    0.001024   -0.003918
O    -1.636519    5.072725   -0.546933   -0.002412    0.001450    0.002130
O     3.299812    3.187441   -0.774309    0.005826    0.004310   -0.002016
O     5.209552   -0.998573   -0.437318    0.007616    0.002852    0.000548
O     1.732231   -4.805369   -1.198080    0.006360    0.001160   -0.002204
O    -3.114647   -3.030952   -2.539211    0.011442    0.000440   -0.002510
O    -4.871620    1.507277   -1.492457    0.002084    0.000062    0.000094
C    -3.231167    4.176389   -2.027824   -0.001464    0.001448    0.000328
C     1.234475    2.548170   -1.730049    0.002836   -0.015836   -0.012828
C     5.285223    1.024016   -1.606028   -0.005846    0.001662    0.001204
C     3.516115   -3.537661   -2.108513   -0.001812    0.003244    0.002014
C    -0.814573   -2.726531   -3.111043    0.046398    0.051254    0.021332
C    -4.216910   -0.053896   -3.129313   -0.001910    0.000696   -0.001486
O    -4.140768    5.235520   -1.881582   -0.000880   -0.000054    0.001202
O     1.889181    1.580433   -2.338167   -0.009368   -0.013220   -0.007870
O     6.614050    1.386759   -1.342241   -0.005600   -0.001396   -0.000536
O     4.450244   -4.564285   -1.901412   -0.001088   -0.000112    0.000734
O    -1.204882   -1.712856   -3.891227   -0.007602    0.007320   -0.028180
O    -5.527663   -0.273416   -3.582254   -0.000578   -0.001620    0.002050
H    -0.265065    5.969742    0.579213    0.004656   -0.006330   -0.005096
H     5.137752    3.384295    0.014065    0.000010   -0.000034    0.001984
H     5.352260   -2.800173    0.385722   -0.000916    0.001866   -0.012882
H     0.204525   -5.926885   -0.584082    0.007630    0.002488   -0.021078
H    -5.063763   -3.015526   -2.088866    0.016198    0.004488   -0.010944
H    -5.632383    2.905525   -0.307165    0.010636    0.000242   -0.003898
H    -2.354509    5.960460    1.829471    0.006062    0.005886   -0.007898
H     3.872717    5.381757    0.652592    0.001064   -0.004844   -0.006308
H     6.326042   -1.156211    1.953998    0.001600   -0.005864   -0.012156
H     1.904254   -5.813612    1.215096   -0.001774   -0.007192   -0.018504
H    -4.102846   -5.202393   -1.351629    0.003358    0.005168   -0.007638
H    -6.805209    0.840938    0.262872    0.000862    0.007498   -0.008524
H    -0.121157    5.363462    2.908649   -0.007708    0.008694    0.012072
H     4.513125    3.707298    2.822467    0.004338   -0.002428   -0.002072
H     4.061527   -2.559337    2.869868    0.001662   -0.014728   -0.018676
H    -0.704842   -5.319931    1.635797    0.001858   -0.001706    0.019138
H    -5.131603   -3.535102    0.674114   -0.004922    0.004328   -0.000274
H    -5.160685    1.868182    2.298405   -0.007386    0.019772   -0.001114
H    -2.052426    2.945328    2.022176    0.010706    0.006572    0.006748
H     2.018457    3.519881    2.218785    0.008792    0.006944    0.008568
H     3.468644   -0.092850    2.145084    0.006064   -0.006048   -0.017330
H     1.130305   -2.861821    1.382669    0.012568   -0.008810   -0.044486
H    -2.529238   -3.481015    0.630480    0.006574   -0.001016   -0.012332
H    -4.094854   -0.276338    1.148938   -0.010508   -0.003798    0.000070
H    -3.291891    4.091501    3.645486    0.003808    0.004118   -0.000634
H     2.424397    5.838248    2.821174   -0.002280    0.001222    0.001488
H     5.232682    0.024907    3.932401    0.034712   -0.001010   -0.010532
H     1.929764   -4.133580    3.306113    0.016342   -0.114596   -0.019942
H    -3.171438   -5.776537    1.123994   -0.005262    0.004006   -0.001826
H    -6.137896   -1.028571    2.144968   -0.003620    0.005458   -0.000158
H    -4.226424    4.318614    0.413527    0.004048   -0.004736   -0.009078
H     1.423896    5.039198   -0.374670   -0.000986   -0.015694   -0.009658
H     5.895193    1.353496    0.984494   -0.000630   -0.000920   -0.018988
H     3.769832   -4.111154    0.499961    0.005480   -0.003580   -0.014972
H    -1.407961   -5.070884   -1.728005    0.014962    0.027134   -0.031472
H    -5.783507   -1.123088   -1.244373    0.005596    0.001778   -0.013584
H    -1.788718    3.041822   -0.889746    0.001598    0.011814   -0.046496
H     1.876456    2.070176    0.216246    0.035852   -0.028492   -0.032274
H     3.541826    0.219142   -0.606288   -0.002382   -0.019476   -0.031522
H     1.692105   -2.738157   -1.281292    0.015182    0.038012   -0.014106
H    -1.732587   -2.057202   -1.352404    0.013392    0.026412   -0.006430
H    -3.123385    0.384192   -1.327070    0.014400   -0.004790   -0.056236
H    -3.814743    3.292727   -2.286617    0.004484   -0.000204   -0.006038
H    -2.509828    4.381649   -2.826070   -0.002374   -0.008994   -0.004748
H     5.224061    0.347094   -2.465400   -0.020848    0.009944   -0.006164
H     4.742467    1.938300   -1.841369   -0.009612   -0.000386    0.000804
H     4.062290   -2.595151   -2.035973   -0.016066    0.011166   -0.005064
H     3.051191   -3.614332   -3.097748   -0.003586    0.019708   -0.002428
H    -3.742456    0.772841   -3.668332    0.007884   -0.006698   -0.004730
H    -3.649639   -0.963267   -3.328420    0.015124    0.010514   -0.003136
H    -3.640687    6.051748   -1.735733    0.001046   -0.000112   -0.002334
H     7.152321    0.583652   -1.288705   -0.002990   -0.000716    0.001754
H     3.997243   -5.412848   -2.018500    0.000242   -0.003886   -0.003978
H    -6.022650    0.554763   -3.491200    0.005832    0.006160   -0.006342
C    -0.173670   -0.899443   -4.414217   -0.070978    0.032444   -0.129200
H    -0.599852   -0.324016   -5.236235   -0.146220   -0.002076   -0.106466
H     0.691038   -1.495932   -4.716634   -0.068446    0.047144   -0.136456
O     0.180242   -3.380697   -3.301166   -0.009320   -0.032334   -0.024182
C     1.336397    1.022133   -3.529349   -0.006412   -0.009702   -0.017820
H     2.165544    0.492046   -4.003090    0.005382    0.025010   -0.027184
H     0.952658    1.814427   -4.181608   -0.034070    0.009288    0.028942
O     0.202045    3.034350   -2.136344    0.006434    0.018234   -0.003802
C     0.200699    0.021979   -3.201719    0.061040   -0.144720   -0.040536
O     0.558156   -0.915937   -2.269541   -0.000198   -0.147748   -0.418432
O    -1.002811    0.718904   -2.868613    0.007140   -0.011530    0.021462
O     0.455404   -0.074698   -0.573982   -0.167828    0.318048    0.853050
H    -0.768168    1.658447   -2.746265    0.134388   -0.034188   -0.072170
H    -2.320972    1.155826    0.953899    0.152192   -0.081110   -0.301542
H     1.240592   -0.575451   -0.282473   -0.177354    0.132208    0.518464
H     0.069506    0.365751    0.567515    0.156380   -0.800064   -0.896098
O    -1.870441    0.417497    1.404073    0.134076    0.049902    0.014702
C    -0.544332    0.695365    1.645759   -0.071190   -0.100294    0.013478
C     0.051136   -0.153198    2.702514    0.018538   -0.019768   -0.124260
H    -0.287209    1.760119    1.711742    0.453484   -0.182426   -0.732300
C     1.201671    0.248881    3.385368    0.029970   -0.001432   -0.036778
C    -0.521443   -1.389104    3.027085    0.001848   -0.034932   -0.019988
C     1.778834   -0.557319    4.343572   -0.017410    0.027730   -0.016104
H     1.650124    1.204328    3.158579    0.048134   -0.015238   -0.035248
C     0.039898   -2.191663    3.986397   -0.024182    0.006194   -0.013440
H    -1.411188   -1.700307    2.504544    0.014452   -0.056148   -0.017198
C     1.216156   -1.800276    4.645729    0.000982   -0.005536    0.014112
H     2.670439   -0.218031    4.843265   -0.037102    0.036630    0.014302
H    -0.392670   -3.147870    4.231269   -0.037388    0.019870   -0.000052
O     1.717218   -2.682175    5.528409   -0.013876    0.027164   -0.040102
C     2.963373   -2.404053    6.152539    0.001818    0.001666   -0.004352
H     3.161294   -3.264770    6.788872   -0.012890   -0.023084   -0.013266
H     3.755558   -2.308306    5.406790    0.006386    0.002282    0.005110
H     2.905097   -1.501509    6.765888    0.007002   -0.006794    0.018896
154
* Frequency(6) -559.8500
C    -0.851720    5.042938    0.606740   -0.000198   -0.001868   -0.000322
C     4.112768    3.256988    0.382930    0.000152   -0.000194    0.001808
C     4.817438   -1.863492    0.586508   -0.002176   -0.000870   -0.003216
C     0.656214   -4.962398   -0.315786    0.001826    0.004520   -0.004226
C    -4.113473   -3.043561   -1.539562    0.010038    0.000410    0.000450
C    -5.037314    1.989511   -0.191390    0.004164   -0.001536    0.000410
O     0.002939    3.920128    0.637702   -0.001370   -0.009576    0.006388
O     3.983044    2.114687    1.168844    0.001652    0.000564    0.002886
O     3.424251   -2.070011    0.583982    0.004198   -0.003832    0.019886
O    -0.276404   -3.920938   -0.420041   -0.009790   -0.005638    0.018378
O    -3.993804   -1.978769   -0.650046   -0.000826   -0.002920    0.005580
O    -3.815882    2.283462    0.447214    0.009332   -0.008648    0.004224
C    -1.747235    5.042190    1.855607    0.000176    0.001894    0.001524
C     3.686727    4.471423    1.232966   -0.000760    0.000428    0.001954
C     5.237874   -1.285324    1.948755    0.001704   -0.000760    0.000164
C     1.171116   -4.996784    1.133123    0.000414   -0.001084   -0.002198
C    -3.990702   -4.330488   -0.699358    0.001840   -0.001348    0.000490
C    -5.802022    0.976790    0.681550   -0.002716    0.003166    0.000996
O    -1.005449    4.978168    3.044631   -0.001050   -0.003962   -0.001334
O     4.438445    4.581793    2.405626   -0.002786    0.000098    0.001068
O     4.925267   -2.126884    3.024095   -0.002168    0.004248   -0.000580
O     0.156694   -5.201954    2.079501    0.006892    0.004412    0.003388
O    -4.992564   -4.413161    0.274202    0.002390    0.000824    0.002026
O    -5.977793    1.441937    1.989549    0.000544   -0.003110   -0.000900
C    -2.678304    3.823560    1.819519    0.000738    0.001230    0.002300
C     2.183833    4.384436    1.557488   -0.001208    0.001906    0.002122
C     4.556656    0.076866    2.116492    0.003446    0.000508    0.001210
C     1.880036   -3.665631    1.418985    0.004686   -0.003112   -0.003746
C    -2.596074   -4.341427   -0.053723    0.002172   -0.003804   -0.005672
C    -5.073323   -0.375618    0.657133   -0.008324   -0.000926    0.000214
O    -3.695944    3.908476    2.782846    0.003056   -0.004500   -0.000206
O     1.736257    5.558700    2.193280   -0.002084   -0.000646    0.002336
O     4.969653    0.712227    3.299501   -0.007016   -0.001632    0.000686
O     2.514258   -3.679565    2.675650   -0.012188    0.007548    0.004388
O    -2.354086   -5.534573    0.654905    0.001872    0.003600    0.004108
O    -5.826544   -1.378906    1.294986    0.003530    0.000920    0.001278
C    -3.365580    3.638128    0.458127    0.004296   -0.002422    0.000076
C     1.353912    4.161740    0.279646    0.002340   -0.007374   -0.000564
C     4.852263    1.010677    0.934353   -0.001706   -0.000880   -0.001528
C     2.952137   -3.391419    0.360728    0.001442   -0.000942   -0.005150
C    -1.488972   -4.170345   -1.107634    0.007172    0.007854   -0.005726
C    -4.827923   -0.836753   -0.785250   -0.000264    0.000614   -0.001574
C    -2.438853    3.912620   -0.739572    0.000770    0.001968   -0.002770
C     1.945376    2.945918   -0.447903    0.004654   -0.008212   -0.002284
C     4.620489    0.302570   -0.417754   -0.004016   -0.001924   -0.002774
C     2.394600   -3.551499   -1.063727   -0.004152    0.009386   -0.005778
C    -1.815535   -2.954215   -1.984531    0.013846    0.021028    0.007124
C    -4.172155    0.269481   -1.628896   -0.000342    0.001024   -0.003918
O    -1.636764    5.072872   -0.546717   -0.002412    0.001450    0.002130
O     3.300402    3.187878   -0.774513    0.005826    0.004310   -0.002016
O     5.210323   -0.998284   -0.437262    0.007616    0.002852    0.000548
O     1.732875   -4.805252   -1.198304    0.006360    0.001160   -0.002204
O    -3.113487   -3.030907   -2.539466    0.011442    0.000440   -0.002510
O    -4.871409    1.507283   -1.492448    0.002084    0.000062    0.000094
C    -3.231316    4.176535   -2.027790   -0.001464    0.001448    0.000328
C     1.234763    2.546566   -1.731349    0.002836   -0.015836   -0.012828
C     5.284630    1.024184   -1.605906   -0.005846    0.001662    0.001204
C     3.515931   -3.537333   -2.108309   -0.001812    0.003244    0.002014
C    -0.809872   -2.721338   -3.108881    0.046398    0.051254    0.021332
C    -4.217104   -0.053825   -3.129463   -0.001910    0.000696   -0.001486
O    -4.140857    5.235514   -1.881461   -0.000880   -0.000054    0.001202
O     1.888232    1.579093   -2.338965   -0.009368   -0.013220   -0.007870
O     6.613482    1.386618   -1.342295   -0.005600   -0.001396   -0.000536
O     4.450134   -4.564296   -1.901337   -0.001088   -0.000112    0.000734
O    -1.205652   -1.712114   -3.894082   -0.007602    0.007320   -0.028180
O    -5.527721   -0.273580   -3.582046   -0.000578   -0.001620    0.002050
H    -0.264593    5.969100    0.578696    0.004656   -0.006330   -0.005096
H     5.137753    3.384292    0.014267    0.000010   -0.000034    0.001984
H     5.352167   -2.799984    0.384417   -0.000916    0.001866   -0.012882
H     0.205298   -5.926633   -0.586218    0.007630    0.002488   -0.021078
H    -5.062122   -3.015071   -2.089975    0.016198    0.004488   -0.010944
H    -5.631306    2.905549   -0.307560    0.010636    0.000242   -0.003898
H    -2.353895    5.961056    1.828671    0.006062    0.005886   -0.007898
H     3.872825    5.381266    0.651953    0.001064   -0.004844   -0.006308
H     6.326204   -1.156806    1.952766    0.001600   -0.005864   -0.012156
H     1.904075   -5.814341    1.213221   -0.001774   -0.007192   -0.018504
H    -4.102506   -5.201869   -1.352403    0.003358    0.005168   -0.007638
H    -6.805122    0.841698    0.262009    0.000862    0.007498   -0.008524
H    -0.121938    5.364343    2.909872   -0.007708    0.008694    0.012072
H     4.513565    3.707052    2.822257    0.004338   -0.002428   -0.002072
H     4.061695   -2.560829    2.867975    0.001662   -0.014728   -0.018676
H    -0.704654   -5.320104    1.637736    0.001858   -0.001706    0.019138
H    -5.132102   -3.534664    0.674086   -0.004922    0.004328   -0.000274
H    -5.161434    1.870185    2.298293   -0.007386    0.019772   -0.001114
H    -2.051341    2.945994    2.022860    0.010706    0.006572    0.006748
H     2.019348    3.520585    2.219653    0.008792    0.006944    0.008568
H     3.469259   -0.093463    2.143327    0.006064   -0.006048   -0.017330
H     1.131579   -2.862714    1.378162    0.012568   -0.008810   -0.044486
H    -2.528572   -3.481118    0.629230    0.006574   -0.001016   -0.012332
H    -4.095919   -0.276722    1.148945   -0.010508   -0.003798    0.000070
H    -3.291505    4.091918    3.645422    0.003808    0.004118   -0.000634
H     2.424166    5.838372    2.821325   -0.002280    0.001222    0.001488
H     5.236199    0.024805    3.931334    0.034712   -0.001010   -0.010532
H     1.931420   -4.145192    3.304092    0.016342   -0.114596   -0.019942
H    -3.171971   -5.776131    1.123809   -0.005262    0.004006   -0.001826
H    -6.138263   -1.028018    2.144952   -0.003620    0.005458   -0.000158
H    -4.226014    4.318134    0.412607    0.004048   -0.004736   -0.009078
H     1.423796    5.037608   -0.375648   -0.000986   -0.015694   -0.009658
H     5.895130    1.353403    0.982570   -0.000630   -0.000920   -0.018988
H     3.770387   -4.111517    0.498443    0.005480   -0.003580   -0.014972
H    -1.406445   -5.068135   -1.731194    0.014962    0.027134   -0.031472
H    -5.782940   -1.122908   -1.245749    0.005596    0.001778   -0.013584
H    -1.788556    3.043019   -0.894457    0.001598    0.011814   -0.046496
H     1.880089    2.067289    0.212976    0.035852   -0.028492   -0.032274
H     3.541585    0.217168   -0.609482   -0.002382   -0.019476   -0.031522
H     1.693644   -2.734305   -1.282721    0.015182    0.038012   -0.014106
H    -1.731230   -2.054526   -1.353055    0.013392    0.026412   -0.006430
H    -3.121925    0.383706   -1.332768    0.014400   -0.004790   -0.056236
H    -3.814289    3.292706   -2.287229    0.004484   -0.000204   -0.006038
H    -2.510068    4.380738   -2.826551   -0.002374   -0.008994   -0.004748
H     5.221948    0.348102   -2.466024   -0.020848    0.009944   -0.006164
H     4.741493    1.938261   -1.841287   -0.009612   -0.000386    0.000804
H     4.060662   -2.594020   -2.036487   -0.016066    0.011166   -0.005064
H     3.050828   -3.612335   -3.097994   -0.003586    0.019708   -0.002428
H    -3.741657    0.772162   -3.668811    0.007884   -0.006698   -0.004730
H    -3.648107   -0.962202   -3.328738    0.015124    0.010514   -0.003136
H    -3.640581    6.051737   -1.735970    0.001046   -0.000112   -0.002334
H     7.152018    0.583579   -1.288527   -0.002990   -0.000716    0.001754
H     3.997267   -5.413241   -2.018903    0.000242   -0.003886   -0.003978
H    -6.022059    0.555387   -3.491842    0.005832    0.006160   -0.006342
C    -0.180862   -0.896155   -4.427309   -0.070978    0.032444   -0.129200
H    -0.614669   -0.324226   -5.247023   -0.146220   -0.002076   -0.106466
H     0.684103   -1.491155   -4.730461   -0.068446    0.047144   -0.136456
O     0.179297   -3.383973   -3.303617   -0.009320   -0.032334   -0.024182
C     1.335748    1.021150   -3.531155   -0.006412   -0.009702   -0.017820
H     2.166089    0.494581   -4.005845    0.005382    0.025010   -0.027184
H     0.949206    1.815368   -4.178675   -0.034070    0.009288    0.028942
O     0.202697    3.036198   -2.136729    0.006434    0.018234   -0.003802
C     0.206884    0.007315   -3.205826    0.061040   -0.144720   -0.040536
O     0.558136   -0.930908   -2.311940   -0.000198   -0.147748   -0.418432
O    -1.002087    0.717735   -2.866438    0.007140   -0.011530    0.021462
O     0.438398   -0.042471   -0.487543   -0.167828    0.318048    0.853050
H    -0.754550    1.654982   -2.753578    0.134388   -0.034188   -0.072170
H    -2.305551    1.147607    0.923344    0.152192   -0.081110   -0.301542
H     1.222620   -0.562055   -0.229937   -0.177354    0.132208    0.518464
H     0.085352    0.284681    0.476714    0.156380   -0.800064   -0.896098
O    -1.856855    0.422554    1.405563    0.134076    0.049902    0.014702
C    -0.551546    0.685202    1.647124   -0.071190   -0.100294    0.013478
C     0.053014   -0.155201    2.689923    0.018538   -0.019768   -0.124260
H    -0.241258    1.741634    1.637538    0.453484   -0.182426   -0.732300
C     1.204708    0.248736    3.381642    0.029970   -0.001432   -0.036778
C    -0.521256   -1.392643    3.025060    0.001848   -0.034932   -0.019988
C     1.777070   -0.554509    4.341940   -0.017410    0.027730   -0.016104
H     1.655002    1.202784    3.155008    0.048134   -0.015238   -0.035248
C     0.037447   -2.191035    3.985035   -0.024182    0.006194   -0.013440
H    -1.409723   -1.705996    2.502801    0.014452   -0.056148   -0.017198
C     1.216255   -1.800837    4.647159    0.000982   -0.005536    0.014112
H     2.666679   -0.214319    4.844715   -0.037102    0.036630    0.014302
H    -0.396458   -3.145856    4.231264   -0.037388    0.019870   -0.000052
O     1.715812   -2.679422    5.524345   -0.013876    0.027164   -0.040102
C     2.963557   -2.403884    6.152098    0.001818    0.001666   -0.004352
H     3.159988   -3.267109    6.787528   -0.012890   -0.023084   -0.013266
H     3.756205   -2.308074    5.407308    0.006386    0.002282    0.005110
H     2.905806   -1.502198    6.767803    0.007002   -0.006794    0.018896
154
* Frequency(6) -559.8500
C    -0.851735    5.042793    0.606715   -0.000198   -0.001868   -0.000322
C     4.112780    3.256973    0.383071    0.000152   -0.000194    0.001808
C     4.817268   -1.863560    0.586257   -0.002176   -0.000870   -0.003216
C     0.656356   -4.962046   -0.316116    0.001826    0.004520   -0.004226
C    -4.112690   -3.043529   -1.539527    0.010038    0.000410    0.000450
C    -5.036989    1.989391   -0.191358    0.004164   -0.001536    0.000410
O     0.002833    3.919381    0.638201   -0.001370   -0.009576    0.006388
O     3.983173    2.114731    1.169070    0.001652    0.000564    0.002886
O     3.424579   -2.070310    0.585534    0.004198   -0.003832    0.019886
O    -0.277168   -3.921378   -0.418607   -0.009790   -0.005638    0.018378
O    -3.993868   -1.978997   -0.649611   -0.000826   -0.002920    0.005580
O    -3.815154    2.282787    0.447544    0.009332   -0.008648    0.004224
C    -1.747221    5.042338    1.855726    0.000176    0.001894    0.001524
C     3.686667    4.471456    1.233119   -0.000760    0.000428    0.001954
C     5.238007   -1.285384    1.948768    0.001704   -0.000760    0.000164
C     1.171148   -4.996869    1.132952    0.000414   -0.001084   -0.002198
C    -3.990559   -4.330593   -0.699319    0.001840   -0.001348    0.000490
C    -5.802234    0.977037    0.681628   -0.002716    0.003166    0.000996
O    -1.005531    4.977859    3.044527   -0.001050   -0.003962   -0.001334
O     4.438228    4.581801    2.405709   -0.002786    0.000098    0.001068
O     4.925098   -2.126552    3.024050   -0.002168    0.004248   -0.000580
O     0.157231   -5.201609    2.079766    0.006892    0.004412    0.003388
O    -4.992378   -4.413097    0.274360    0.002390    0.000824    0.002026
O    -5.977751    1.441695    1.989478    0.000544   -0.003110   -0.000900
C    -2.678247    3.823656    1.819699    0.000738    0.001230    0.002300
C     2.183739    4.384584    1.557654   -0.001208    0.001906    0.002122
C     4.556925    0.076906    2.116587    0.003446    0.000508    0.001210
C     1.880402   -3.665874    1.418692    0.004686   -0.003112   -0.003746
C    -2.595905   -4.341724   -0.054166    0.002172   -0.003804   -0.005672
C    -5.073973   -0.375690    0.657150   -0.008324   -0.000926    0.000214
O    -3.695706    3.908124    2.782830    0.003056   -0.004500   -0.000206
O     1.736094    5.558650    2.193462   -0.002084   -0.000646    0.002336
O     4.969105    0.712100    3.299555   -0.007016   -0.001632    0.000686
O     2.513307   -3.678976    2.675993   -0.012188    0.007548    0.004388
O    -2.353939   -5.534292    0.655226    0.001872    0.003600    0.004108
O    -5.826269   -1.378834    1.295085    0.003530    0.000920    0.001278
C    -3.365245    3.637939    0.458133    0.004296   -0.002422    0.000076
C     1.354095    4.161164    0.279602    0.002340   -0.007374   -0.000564
C     4.852130    1.010608    0.934233   -0.001706   -0.000880   -0.001528
C     2.952250   -3.391492    0.360326    0.001442   -0.000942   -0.005150
C    -1.488413   -4.169732   -1.108081    0.007172    0.007854   -0.005726
C    -4.827943   -0.836705   -0.785373   -0.000264    0.000614   -0.001574
C    -2.438793    3.912774   -0.739789    0.000770    0.001968   -0.002770
C     1.945740    2.945277   -0.448081    0.004654   -0.008212   -0.002284
C     4.620175    0.302420   -0.417971   -0.004016   -0.001924   -0.002774
C     2.394276   -3.550767   -1.064178   -0.004152    0.009386   -0.005778
C    -1.814455   -2.952574   -1.983975    0.013846    0.021028    0.007124
C    -4.172181    0.269561   -1.629202   -0.000342    0.001024   -0.003918
O    -1.636952    5.072985   -0.546551   -0.002412    0.001450    0.002130
O     3.300857    3.188214   -0.774671    0.005826    0.004310   -0.002016
O     5.210918   -0.998061   -0.437219    0.007616    0.002852    0.000548
O     1.733372   -4.805161   -1.198476    0.006360    0.001160   -0.002204
O    -3.112594   -3.030873   -2.539661    0.011442    0.000440   -0.002510
O    -4.871246    1.507288   -1.492440    0.002084    0.000062    0.000094
C    -3.231430    4.176648   -2.027765   -0.001464    0.001448    0.000328
C     1.234984    2.545330   -1.732350    0.002836   -0.015836   -0.012828
C     5.284174    1.024314   -1.605812   -0.005846    0.001662    0.001204
C     3.515790   -3.537079   -2.108152   -0.001812    0.003244    0.002014
C    -0.806251   -2.717338   -3.107217    0.046398    0.051254    0.021332
C    -4.217253   -0.053771   -3.129579   -0.001910    0.000696   -0.001486
O    -4.140926    5.235510   -1.881367   -0.000880   -0.000054    0.001202
O     1.887501    1.578061   -2.339579   -0.009368   -0.013220   -0.007870
O     6.613045    1.386509   -1.342337   -0.005600   -0.001396   -0.000536
O     4.450049   -4.564305   -1.901280   -0.001088   -0.000112    0.000734
O    -1.206245   -1.711543   -3.896281   -0.007602    0.007320   -0.028180
O    -5.527766   -0.273707   -3.581886   -0.000578   -0.001620    0.002050
H    -0.264230    5.968606    0.578299    0.004656   -0.006330   -0.005096
H     5.137754    3.384289    0.014421    0.000010   -0.000034    0.001984
H     5.352096   -2.799838    0.383411   -0.000916    0.001866   -0.012882
H     0.205894   -5.926439   -0.587863    0.007630    0.002488   -0.021078
H    -5.060858   -3.014721   -2.090829    0.016198    0.004488   -0.010944
H    -5.630476    2.905568   -0.307864    0.010636    0.000242   -0.003898
H    -2.353422    5.961516    1.828055    0.006062    0.005886   -0.007898
H     3.872908    5.380888    0.651461    0.001064   -0.004844   -0.006308
H     6.326329   -1.157263    1.951817    0.001600   -0.005864   -0.012156
H     1.903936   -5.814902    1.211777   -0.001774   -0.007192   -0.018504
H    -4.102244   -5.201466   -1.352999    0.003358    0.005168   -0.007638
H    -6.805054    0.842283    0.261343    0.000862    0.007498   -0.008524
H    -0.122540    5.365021    2.910814   -0.007708    0.008694    0.012072
H     4.513903    3.706863    2.822095    0.004338   -0.002428   -0.002072
H     4.061825   -2.561978    2.866518    0.001662   -0.014728   -0.018676
H    -0.704509   -5.320237    1.639230    0.001858   -0.001706    0.019138
H    -5.132486   -3.534326    0.674065   -0.004922    0.004328   -0.000274
H    -5.162010    1.871728    2.298206   -0.007386    0.019772   -0.001114
H    -2.050506    2.946507    2.023386    0.010706    0.006572    0.006748
H     2.020034    3.521127    2.220321    0.008792    0.006944    0.008568
H     3.469732   -0.093935    2.141975    0.006064   -0.006048   -0.017330
H     1.132560   -2.863401    1.374690    0.012568   -0.008810   -0.044486
H    -2.528059   -3.481198    0.628268    0.006574   -0.001016   -0.012332
H    -4.096739   -0.277019    1.148951   -0.010508   -0.003798    0.000070
H    -3.291208    4.092240    3.645372    0.003808    0.004118   -0.000634
H     2.423988    5.838467    2.821441   -0.002280    0.001222    0.001488
H     5.238908    0.024726    3.930512    0.034712   -0.001010   -0.010532
H     1.932695   -4.154135    3.302536    0.016342   -0.114596   -0.019942
H    -3.172382   -5.775818    1.123667   -0.005262    0.004006   -0.001826
H    -6.138546   -1.027592    2.144940   -0.003620    0.005458   -0.000158
H    -4.225698    4.317764    0.411899    0.004048   -0.004736   -0.009078
H     1.423719    5.036384   -0.376402   -0.000986   -0.015694   -0.009658
H     5.895080    1.353331    0.981088   -0.000630   -0.000920   -0.018988
H     3.770815   -4.111796    0.497275    0.005480   -0.003580   -0.014972
H    -1.405277   -5.066018   -1.733650    0.014962    0.027134   -0.031472
H    -5.782503   -1.122769   -1.246809    0.005596    0.001778   -0.013584
H    -1.788432    3.043941   -0.898086    0.001598    0.011814   -0.046496
H     1.882887    2.065066    0.210457    0.035852   -0.028492   -0.032274
H     3.541399    0.215648   -0.611942   -0.002382   -0.019476   -0.031522
H     1.694828   -2.731339   -1.283822    0.015182    0.038012   -0.014106
H    -1.730185   -2.052465   -1.353557    0.013392    0.026412   -0.006430
H    -3.120802    0.383332   -1.337157    0.014400   -0.004790   -0.056236
H    -3.813939    3.292690   -2.287700    0.004484   -0.000204   -0.006038
H    -2.510254    4.380036   -2.826921   -0.002374   -0.008994   -0.004748
H     5.220321    0.348878   -2.466505   -0.020848    0.009944   -0.006164
H     4.740743    1.938231   -1.841224   -0.009612   -0.000386    0.000804
H     4.059409   -2.593148   -2.036882   -0.016066    0.011166   -0.005064
H     3.050548   -3.610797   -3.098183   -0.003586    0.019708   -0.002428
H    -3.741042    0.771639   -3.669180    0.007884   -0.006698   -0.004730
H    -3.646927   -0.961381   -3.328983    0.015124    0.010514   -0.003136
H    -3.640500    6.051728   -1.736152    0.001046   -0.000112   -0.002334
H     7.151785    0.583523   -1.288390   -0.002990   -0.000716    0.001754
H     3.997286   -5.413545   -2.019214    0.000242   -0.003886   -0.003978
H    -6.021604    0.555868   -3.492337    0.005832    0.006160   -0.006342
C    -0.186401   -0.893624   -4.437391   -0.070978    0.032444   -0.129200
H    -0.626079   -0.324388   -5.255331   -0.146220   -0.002076   -0.106466
H     0.678762   -1.487476   -4.741109   -0.068446    0.047144   -0.136456
O     0.178570   -3.386496   -3.305504   -0.009320   -0.032334   -0.024182
C     1.335247    1.020393   -3.532545   -0.006412   -0.009702   -0.017820
H     2.166509    0.496532   -4.007966    0.005382    0.025010   -0.027184
H     0.946547    1.816092   -4.176417   -0.034070    0.009288    0.028942
O     0.203199    3.037621   -2.137026    0.006434    0.018234   -0.003802
C     0.211647   -0.003978   -3.208989    0.061040   -0.144720   -0.040536
O     0.558121   -0.942437   -2.344592   -0.000198   -0.147748   -0.418432
O    -1.001530    0.716836   -2.864763    0.007140   -0.011530    0.021462
O     0.425302   -0.017652   -0.420976   -0.167828    0.318048    0.853050
H    -0.744063    1.652315   -2.759209    0.134388   -0.034188   -0.072170
H    -2.293674    1.141278    0.899814    0.152192   -0.081110   -0.301542
H     1.208781   -0.551738   -0.189480   -0.177354    0.132208    0.518464
H     0.097555    0.222249    0.406788    0.156380   -0.800064   -0.896098
O    -1.846393    0.426448    1.406710    0.134076    0.049902    0.014702
C    -0.557101    0.677376    1.648176   -0.071190   -0.100294    0.013478
C     0.054461   -0.156743    2.680227    0.018538   -0.019768   -0.124260
H    -0.205870    1.727399    1.580394    0.453484   -0.182426   -0.732300
C     1.207046    0.248624    3.378772    0.029970   -0.001432   -0.036778
C    -0.521112   -1.395369    3.023500    0.001848   -0.034932   -0.019988
C     1.775712   -0.552345    4.340683   -0.017410    0.027730   -0.016104
H     1.658758    1.201595    3.152257    0.048134   -0.015238   -0.035248
C     0.035560   -2.190552    3.983986   -0.024182    0.006194   -0.013440
H    -1.408595   -1.710378    2.501459    0.014452   -0.056148   -0.017198
C     1.216332   -1.801269    4.648260    0.000982   -0.005536    0.014112
H     2.663784   -0.211461    4.845831   -0.037102    0.036630    0.014302
H    -0.399376   -3.144306    4.231260   -0.037388    0.019870   -0.000052
O     1.714729   -2.677303    5.521216   -0.013876    0.027164   -0.040102
C     2.963699   -2.403754    6.151759    0.001818    0.001666   -0.004352
H     3.158982   -3.268911    6.786493   -0.012890   -0.023084   -0.013266
H     3.756703   -2.307896    5.407706    0.006386    0.002282    0.005110
H     2.906353   -1.502728    6.769278    0.007002   -0.006794    0.018896
154
* Frequency(6) -559.8500
C    -0.851744    5.042706    0.606700   -0.000198   -0.001868   -0.000322
C     4.112787    3.256964    0.383154    0.000152   -0.000194    0.001808
C     4.817168   -1.863600    0.586108   -0.002176   -0.000870   -0.003216
C     0.656441   -4.961836   -0.316312    0.001826    0.004520   -0.004226
C    -4.112225   -3.043510   -1.539506    0.010038    0.000410    0.000450
C    -5.036796    1.989320   -0.191339    0.004164   -0.001536    0.000410
O     0.002769    3.918938    0.638496   -0.001370   -0.009576    0.006388
O     3.983250    2.114757    1.169203    0.001652    0.000564    0.002886
O     3.424773   -2.070487    0.586454    0.004198   -0.003832    0.019886
O    -0.277621   -3.921639   -0.417757   -0.009790   -0.005638    0.018378
O    -3.993906   -1.979132   -0.649353   -0.000826   -0.002920    0.005580
O    -3.814722    2.282387    0.447739    0.009332   -0.008648    0.004224
C    -1.747213    5.042426    1.855796    0.000176    0.001894    0.001524
C     3.686632    4.471476    1.233209   -0.000760    0.000428    0.001954
C     5.238086   -1.285419    1.948776    0.001704   -0.000760    0.000164
C     1.171167   -4.996919    1.132850    0.000414   -0.001084   -0.002198
C    -3.990474   -4.330655   -0.699297    0.001840   -0.001348    0.000490
C    -5.802360    0.977183    0.681674   -0.002716    0.003166    0.000996
O    -1.005579    4.977676    3.044465   -0.001050   -0.003962   -0.001334
O     4.438099    4.581805    2.405758   -0.002786    0.000098    0.001068
O     4.924997   -2.126356    3.024023   -0.002168    0.004248   -0.000580
O     0.157550   -5.201405    2.079923    0.006892    0.004412    0.003388
O    -4.992267   -4.413058    0.274453    0.002390    0.000824    0.002026
O    -5.977725    1.441551    1.989437    0.000544   -0.003110   -0.000900
C    -2.678213    3.823713    1.819805    0.000738    0.001230    0.002300
C     2.183683    4.384673    1.557752   -0.001208    0.001906    0.002122
C     4.557084    0.076929    2.116643    0.003446    0.000508    0.001210
C     1.880619   -3.666018    1.418519    0.004686   -0.003112   -0.003746
C    -2.595804   -4.341900   -0.054428    0.002172   -0.003804   -0.005672
C    -5.074358   -0.375733    0.657160   -0.008324   -0.000926    0.000214
O    -3.695564    3.907916    2.782820    0.003056   -0.004500   -0.000206
O     1.735998    5.558620    2.193571   -0.002084   -0.000646    0.002336
O     4.968781    0.712024    3.299587   -0.007016   -0.001632    0.000686
O     2.512743   -3.678627    2.676196   -0.012188    0.007548    0.004388
O    -2.353853   -5.534126    0.655416    0.001872    0.003600    0.004108
O    -5.826105   -1.378792    1.295145    0.003530    0.000920    0.001278
C    -3.365046    3.637827    0.458137    0.004296   -0.002422    0.000076
C     1.354203    4.160823    0.279576    0.002340   -0.007374   -0.000564
C     4.852051    1.010567    0.934163   -0.001706   -0.000880   -0.001528
C     2.952316   -3.391536    0.360088    0.001442   -0.000942   -0.005150
C    -1.488081   -4.169368   -1.108346    0.007172    0.007854   -0.005726
C    -4.827956   -0.836677   -0.785446   -0.000264    0.000614   -0.001574
C    -2.438758    3.912865   -0.739917    0.000770    0.001968   -0.002770
C     1.945955    2.944897   -0.448187    0.004654   -0.008212   -0.002284
C     4.619989    0.302331   -0.418099   -0.004016   -0.001924   -0.002774
C     2.394084   -3.550332   -1.064445   -0.004152    0.009386   -0.005778
C    -1.813814   -2.951600   -1.983645    0.013846    0.021028    0.007124
C    -4.172197    0.269608   -1.629383   -0.000342    0.001024   -0.003918
O    -1.637063    5.073052   -0.546452   -0.002412    0.001450    0.002130
O     3.301127    3.188413   -0.774764    0.005826    0.004310   -0.002016
O     5.211270   -0.997929   -0.437194    0.007616    0.002852    0.000548
O     1.733666   -4.805107   -1.198578    0.006360    0.001160   -0.002204
O    -3.112065   -3.030853   -2.539778    0.011442    0.000440   -0.002510
O    -4.871150    1.507291   -1.492436    0.002084    0.000062    0.000094
C    -3.231498    4.176715   -2.027750   -0.001464    0.001448    0.000328
C     1.235115    2.544597   -1.732943    0.002836   -0.015836   -0.012828
C     5.283904    1.024391   -1.605756   -0.005846    0.001662    0.001204
C     3.515706   -3.536929   -2.108059   -0.001812    0.003244    0.002014
C    -0.804104   -2.714966   -3.106229    0.046398    0.051254    0.021332
C    -4.217341   -0.053739   -3.129648   -0.001910    0.000696   -0.001486
O    -4.140967    5.235508   -1.881311   -0.000880   -0.000054    0.001202
O     1.887068    1.577450   -2.339943   -0.009368   -0.013220   -0.007870
O     6.612786    1.386444   -1.342362   -0.005600   -0.001396   -0.000536
O     4.449999   -4.564310   -1.901246   -0.001088   -0.000112    0.000734
O    -1.206597   -1.711204   -3.897585   -0.007602    0.007320   -0.028180
O    -5.527793   -0.273782   -3.581791   -0.000578   -0.001620    0.002050
H    -0.264014    5.968313    0.578063    0.004656   -0.006330   -0.005096
H     5.137754    3.384287    0.014513    0.000010   -0.000034    0.001984
H     5.352053   -2.799752    0.382815   -0.000916    0.001866   -0.012882
H     0.206247   -5.926324   -0.588839    0.007630    0.002488   -0.021078
H    -5.060108   -3.014513   -2.091335    0.016198    0.004488   -0.010944
H    -5.629983    2.905579   -0.308045    0.010636    0.000242   -0.003898
H    -2.353141    5.961788    1.827689    0.006062    0.005886   -0.007898
H     3.872957    5.380663    0.651169    0.001064   -0.004844   -0.006308
H     6.326403   -1.157535    1.951255    0.001600   -0.005864   -0.012156
H     1.903854   -5.815235    1.210921   -0.001774   -0.007192   -0.018504
H    -4.102089   -5.201227   -1.353352    0.003358    0.005168   -0.007638
H    -6.805015    0.842630    0.260949    0.000862    0.007498   -0.008524
H    -0.122896    5.365424    2.911373   -0.007708    0.008694    0.012072
H     4.514104    3.706750    2.821999    0.004338   -0.002428   -0.002072
H     4.061902   -2.562660    2.865653    0.001662   -0.014728   -0.018676
H    -0.704423   -5.320316    1.640115    0.001858   -0.001706    0.019138
H    -5.132714   -3.534126    0.674052   -0.004922    0.004328   -0.000274
H    -5.162352    1.872643    2.298154   -0.007386    0.019772   -0.001114
H    -2.050011    2.946811    2.023699    0.010706    0.006572    0.006748
H     2.020441    3.521448    2.220718    0.008792    0.006944    0.008568
H     3.470012   -0.094215    2.141173    0.006064   -0.006048   -0.017330
H     1.133141   -2.863809    1.372631    0.012568   -0.008810   -0.044486
H    -2.527755   -3.481245    0.627697    0.006574   -0.001016   -0.012332
H    -4.097225   -0.277195    1.148954   -0.010508   -0.003798    0.000070
H    -3.291032    4.092430    3.645343    0.003808    0.004118   -0.000634
H     2.423882    5.838524    2.821510   -0.002280    0.001222    0.001488
H     5.240514    0.024679    3.930025    0.034712   -0.001010   -0.010532
H     1.933452   -4.159438    3.301613    0.016342   -0.114596   -0.019942
H    -3.172625   -5.775633    1.123582   -0.005262    0.004006   -0.001826
H    -6.138713   -1.027339    2.144932   -0.003620    0.005458   -0.000158
H    -4.225511    4.317545    0.411479    0.004048   -0.004736   -0.009078
H     1.423673    5.035657   -0.376849   -0.000986   -0.015694   -0.009658
H     5.895051    1.353289    0.980210   -0.000630   -0.000920   -0.018988
H     3.771068   -4.111962    0.496582    0.005480   -0.003580   -0.014972
H    -1.404585   -5.064762   -1.735106    0.014962    0.027134   -0.031472
H    -5.782244   -1.122687   -1.247438    0.005596    0.001778   -0.013584
H    -1.788358    3.044487   -0.900238    0.001598    0.011814   -0.046496
H     1.884546    2.063747    0.208964    0.035852   -0.028492   -0.032274
H     3.541289    0.214747   -0.613401   -0.002382   -0.019476   -0.031522
H     1.695531   -2.729580   -1.284475    0.015182    0.038012   -0.014106
H    -1.729565   -2.051243   -1.353855    0.013392    0.026412   -0.006430
H    -3.120135    0.383111   -1.339759    0.014400   -0.004790   -0.056236
H    -3.813732    3.292681   -2.287980    0.004484   -0.000204   -0.006038
H    -2.510363    4.379619   -2.827141   -0.002374   -0.008994   -0.004748
H     5.219356    0.349338   -2.466790   -0.020848    0.009944   -0.006164
H     4.740298    1.938213   -1.841187   -0.009612   -0.000386    0.000804
H     4.058665   -2.592631   -2.037116   -0.016066    0.011166   -0.005064
H     3.050382   -3.609885   -3.098296   -0.003586    0.019708   -0.002428
H    -3.740677    0.771329   -3.669399    0.007884   -0.006698   -0.004730
H    -3.646227   -0.960895   -3.329128    0.015124    0.010514   -0.003136
H    -3.640451    6.051723   -1.736260    0.001046   -0.000112   -0.002334
H     7.151647    0.583490   -1.288309   -0.002990   -0.000716    0.001754
H     3.997297   -5.413724   -2.019398    0.000242   -0.003886   -0.003978
H    -6.021334    0.556153   -3.492631    0.005832    0.006160   -0.006342
C    -0.189686   -0.892122   -4.443370   -0.070978    0.032444   -0.129200
H    -0.632846   -0.324484   -5.260259   -0.146220   -0.002076   -0.106466
H     0.675594   -1.485295   -4.747424   -0.068446    0.047144   -0.136456
O     0.178139   -3.387993   -3.306623   -0.009320   -0.032334   -0.024182
C     1.334950    1.019944   -3.533370   -0.006412   -0.009702   -0.017820
H     2.166758    0.497690   -4.009224    0.005382    0.025010   -0.027184
H     0.944970    1.816522   -4.175077   -0.034070    0.009288    0.028942
O     0.203497    3.038465   -2.137202    0.006434    0.018234   -0.003802
C     0.214472   -0.010676   -3.210865    0.061040   -0.144720   -0.040536
O     0.558112   -0.949275   -2.363958   -0.000198   -0.147748   -0.418432
O    -1.001199    0.716302   -2.863770    0.007140   -0.011530    0.021462
O     0.417535   -0.002932   -0.381496   -0.167828    0.318048    0.853050
H    -0.737843    1.650732   -2.762550    0.134388   -0.034188   -0.072170
H    -2.286631    1.137524    0.885858    0.152192   -0.081110   -0.301542
H     1.200573   -0.545619   -0.165484   -0.177354    0.132208    0.518464
H     0.104792    0.185220    0.365315    0.156380   -0.800064   -0.896098
O    -1.840187    0.428757    1.407390    0.134076    0.049902    0.014702
C    -0.560396    0.672734    1.648800   -0.071190   -0.100294    0.013478
C     0.055319   -0.157658    2.674476    0.018538   -0.019768   -0.124260
H    -0.184882    1.718956    1.546502    0.453484   -0.182426   -0.732300
C     1.208434    0.248558    3.377070    0.029970   -0.001432   -0.036778
C    -0.521026   -1.396986    3.022575    0.001848   -0.034932   -0.019988
C     1.774906   -0.551061    4.339938   -0.017410    0.027730   -0.016104
H     1.660985    1.200890    3.150626    0.048134   -0.015238   -0.035248
C     0.034441   -2.190265    3.983364   -0.024182    0.006194   -0.013440
H    -1.407927   -1.712976    2.500663    0.014452   -0.056148   -0.017198
C     1.216377   -1.801525    4.648913    0.000982   -0.005536    0.014112
H     2.662067   -0.209766    4.846493   -0.037102    0.036630    0.014302
H    -0.401106   -3.143386    4.231257   -0.037388    0.019870   -0.000052
O     1.714087   -2.676046    5.519360   -0.013876    0.027164   -0.040102
C     2.963783   -2.403677    6.151557    0.001818    0.001666   -0.004352
H     3.158386   -3.269979    6.785879   -0.012890   -0.023084   -0.013266
H     3.756999   -2.307791    5.407943    0.006386    0.002282    0.005110
H     2.906677   -1.503042    6.770152    0.007002   -0.006794    0.018896
154
* Frequency(6) -559.8500
C    -0.851746    5.042688    0.606697   -0.000198   -0.001868   -0.000322
C     4.112788    3.256962    0.383172    0.000152   -0.000194    0.001808
C     4.817147   -1.863608    0.586077   -0.002176   -0.000870   -0.003216
C     0.656458   -4.961793   -0.316352    0.001826    0.004520   -0.004226
C    -4.112130   -3.043506   -1.539502    0.010038    0.000410    0.000450
C    -5.036757    1.989305   -0.191335    0.004164   -0.001536    0.000410
O     0.002756    3.918847    0.638557   -0.001370   -0.009576    0.006388
O     3.983265    2.114763    1.169231    0.001652    0.000564    0.002886
O     3.424813   -2.070524    0.586643    0.004198   -0.003832    0.019886
O    -0.277714   -3.921693   -0.417582   -0.009790   -0.005638    0.018378
O    -3.993914   -1.979160   -0.649300   -0.000826   -0.002920    0.005580
O    -3.814633    2.282305    0.447779    0.009332   -0.008648    0.004224
C    -1.747212    5.042444    1.855811    0.000176    0.001894    0.001524
C     3.686625    4.471480    1.233228   -0.000760    0.000428    0.001954
C     5.238102   -1.285426    1.948777    0.001704   -0.000760    0.000164
C     1.171171   -4.996929    1.132829    0.000414   -0.001084   -0.002198
C    -3.990456   -4.330668   -0.699292    0.001840   -0.001348    0.000490
C    -5.802385    0.977213    0.681683   -0.002716    0.003166    0.000996
O    -1.005589    4.977638    3.044453   -0.001050   -0.003962   -0.001334
O     4.438072    4.581806    2.405769   -0.002786    0.000098    0.001068
O     4.924977   -2.126315    3.024018   -0.002168    0.004248   -0.000580
O     0.157616   -5.201363    2.079955    0.006892    0.004412    0.003388
O    -4.992244   -4.413051    0.274473    0.002390    0.000824    0.002026
O    -5.977720    1.441521    1.989428    0.000544   -0.003110   -0.000900
C    -2.678206    3.823725    1.819827    0.000738    0.001230    0.002300
C     2.183672    4.384691    1.557772   -0.001208    0.001906    0.002122
C     4.557117    0.076934    2.116654    0.003446    0.000508    0.001210
C     1.880663   -3.666047    1.418483    0.004686   -0.003112   -0.003746
C    -2.595783   -4.341936   -0.054482    0.002172   -0.003804   -0.005672
C    -5.074437   -0.375742    0.657162   -0.008324   -0.000926    0.000214
O    -3.695535    3.907873    2.782818    0.003056   -0.004500   -0.000206
O     1.735978    5.558614    2.193593   -0.002084   -0.000646    0.002336
O     4.968714    0.712009    3.299593   -0.007016   -0.001632    0.000686
O     2.512627   -3.678555    2.676238   -0.012188    0.007548    0.004388
O    -2.353835   -5.534091    0.655455    0.001872    0.003600    0.004108
O    -5.826072   -1.378783    1.295157    0.003530    0.000920    0.001278
C    -3.365006    3.637804    0.458138    0.004296   -0.002422    0.000076
C     1.354225    4.160753    0.279570    0.002340   -0.007374   -0.000564
C     4.852035    1.010559    0.934148   -0.001706   -0.000880   -0.001528
C     2.952330   -3.391545    0.360039    0.001442   -0.000942   -0.005150
C    -1.488012   -4.169293   -1.108400    0.007172    0.007854   -0.005726
C    -4.827958   -0.836671   -0.785461   -0.000264    0.000614   -0.001574
C    -2.438750    3.912883   -0.739943    0.000770    0.001968   -0.002770
C     1.945999    2.944819   -0.448209    0.004654   -0.008212   -0.002284
C     4.619951    0.302313   -0.418126   -0.004016   -0.001924   -0.002774
C     2.394045   -3.550243   -1.064500   -0.004152    0.009386   -0.005778
C    -1.813682   -2.951400   -1.983577    0.013846    0.021028    0.007124
C    -4.172200    0.269618   -1.629421   -0.000342    0.001024   -0.003918
O    -1.637086    5.073066   -0.546432   -0.002412    0.001450    0.002130
O     3.301182    3.188454   -0.774783    0.005826    0.004310   -0.002016
O     5.211342   -0.997902   -0.437189    0.007616    0.002852    0.000548
O     1.733726   -4.805096   -1.198599    0.006360    0.001160   -0.002204
O    -3.111956   -3.030849   -2.539801    0.011442    0.000440   -0.002510
O    -4.871130    1.507292   -1.492435    0.002084    0.000062    0.000094
C    -3.231512    4.176729   -2.027747   -0.001464    0.001448    0.000328
C     1.235142    2.544446   -1.733065    0.002836   -0.015836   -0.012828
C     5.283848    1.024407   -1.605745   -0.005846    0.001662    0.001204
C     3.515689   -3.536898   -2.108040   -0.001812    0.003244    0.002014
C    -0.803662   -2.714478   -3.106026    0.046398    0.051254    0.021332
C    -4.217359   -0.053732   -3.129662   -0.001910    0.000696   -0.001486
O    -4.140975    5.235507   -1.881300   -0.000880   -0.000054    0.001202
O     1.886978    1.577324   -2.340018   -0.009368   -0.013220   -0.007870
O     6.612733    1.386431   -1.342367   -0.005600   -0.001396   -0.000536
O     4.449989   -4.564311   -1.901239   -0.001088   -0.000112    0.000734
O    -1.206670   -1.711135   -3.897853   -0.007602    0.007320   -0.028180
O    -5.527799   -0.273797   -3.581772   -0.000578   -0.001620    0.002050
H    -0.263970    5.968253    0.578014    0.004656   -0.006330   -0.005096
H     5.137754    3.384287    0.014532    0.000010   -0.000034    0.001984
H     5.352044   -2.799734    0.382693   -0.000916    0.001866   -0.012882
H     0.206319   -5.926300   -0.589039    0.007630    0.002488   -0.021078
H    -5.059954   -3.014471   -2.091439    0.016198    0.004488   -0.010944
H    -5.629882    2.905581   -0.308082    0.010636    0.000242   -0.003898
H    -2.353084    5.961844    1.827614    0.006062    0.005886   -0.007898
H     3.872967    5.380617    0.651109    0.001064   -0.004844   -0.006308
H     6.326418   -1.157590    1.951139    0.001600   -0.005864   -0.012156
H     1.903837   -5.815304    1.210745   -0.001774   -0.007192   -0.018504
H    -4.102057   -5.201177   -1.353425    0.003358    0.005168   -0.007638
H    -6.805006    0.842701    0.260868    0.000862    0.007498   -0.008524
H    -0.122970    5.365507    2.911488   -0.007708    0.008694    0.012072
H     4.514145    3.706727    2.821979    0.004338   -0.002428   -0.002072
H     4.061918   -2.562800    2.865476    0.001662   -0.014728   -0.018676
H    -0.704405   -5.320332    1.640297    0.001858   -0.001706    0.019138
H    -5.132761   -3.534084    0.674049   -0.004922    0.004328   -0.000274
H    -5.162422    1.872832    2.298143   -0.007386    0.019772   -0.001114
H    -2.049909    2.946873    2.023763    0.010706    0.006572    0.006748
H     2.020525    3.521514    2.220800    0.008792    0.006944    0.008568
H     3.470070   -0.094273    2.141008    0.006064   -0.006048   -0.017330
H     1.133261   -2.863893    1.372208    0.012568   -0.008810   -0.044486
H    -2.527692   -3.481254    0.627580    0.006574   -0.001016   -0.012332
H    -4.097325   -0.277231    1.148954   -0.010508   -0.003798    0.000070
H    -3.290996    4.092469    3.645337    0.003808    0.004118   -0.000634
H     2.423861    5.838535    2.821524   -0.002280    0.001222    0.001488
H     5.240845    0.024670    3.929924    0.034712   -0.001010   -0.010532
H     1.933607   -4.160529    3.301423    0.016342   -0.114596   -0.019942
H    -3.172675   -5.775595    1.123565   -0.005262    0.004006   -0.001826
H    -6.138748   -1.027287    2.144931   -0.003620    0.005458   -0.000158
H    -4.225472    4.317500    0.411393    0.004048   -0.004736   -0.009078
H     1.423664    5.035508   -0.376941   -0.000986   -0.015694   -0.009658
H     5.895045    1.353280    0.980029   -0.000630   -0.000920   -0.018988
H     3.771120   -4.111996    0.496440    0.005480   -0.003580   -0.014972
H    -1.404442   -5.064504   -1.735406    0.014962    0.027134   -0.031472
H    -5.782191   -1.122670   -1.247567    0.005596    0.001778   -0.013584
H    -1.788343    3.044600   -0.900680    0.001598    0.011814   -0.046496
H     1.884887    2.063476    0.208657    0.035852   -0.028492   -0.032274
H     3.541266    0.214562   -0.613701   -0.002382   -0.019476   -0.031522
H     1.695676   -2.729218   -1.284609    0.015182    0.038012   -0.014106
H    -1.729438   -2.050991   -1.353916    0.013392    0.026412   -0.006430
H    -3.119998    0.383065   -1.340294    0.014400   -0.004790   -0.056236
H    -3.813689    3.292679   -2.288037    0.004484   -0.000204   -0.006038
H    -2.510386    4.379534   -2.827186   -0.002374   -0.008994   -0.004748
H     5.219158    0.349433   -2.466849   -0.020848    0.009944   -0.006164
H     4.740206    1.938209   -1.841180   -0.009612   -0.000386    0.000804
H     4.058512   -2.592525   -2.037164   -0.016066    0.011166   -0.005064
H     3.050348   -3.609698   -3.098319   -0.003586    0.019708   -0.002428
H    -3.740602    0.771266   -3.669444    0.007884   -0.006698   -0.004730
H    -3.646083   -0.960795   -3.329158    0.015124    0.010514   -0.003136
H    -3.640441    6.051722   -1.736282    0.001046   -0.000112   -0.002334
H     7.151618    0.583483   -1.288292   -0.002990   -0.000716    0.001754
H     3.997299   -5.413761   -2.019436    0.000242   -0.003886   -0.003978
H    -6.021279    0.556212   -3.492691    0.005832    0.006160   -0.006342
C    -0.190361   -0.891813   -4.444600   -0.070978    0.032444   -0.129200
H    -0.634237   -0.324504   -5.261272   -0.146220   -0.002076   -0.106466
H     0.674943   -1.484846   -4.748722   -0.068446    0.047144   -0.136456
O     0.178050   -3.388300   -3.306853   -0.009320   -0.032334   -0.024182
C     1.334889    1.019852   -3.533540   -0.006412   -0.009702   -0.017820
H     2.166809    0.497928   -4.009483    0.005382    0.025010   -0.027184
H     0.944646    1.816611   -4.174802   -0.034070    0.009288    0.028942
O     0.203558    3.038638   -2.137238    0.006434    0.018234   -0.003802
C     0.215053   -0.012053   -3.211251    0.061040   -0.144720   -0.040536
O     0.558110   -0.950681   -2.367939   -0.000198   -0.147748   -0.418432
O    -1.001132    0.716192   -2.863566    0.007140   -0.011530    0.021462
O     0.415938    0.000094   -0.373379   -0.167828    0.318048    0.853050
H    -0.736565    1.650407   -2.763236    0.134388   -0.034188   -0.072170
H    -2.285183    1.136752    0.882989    0.152192   -0.081110   -0.301542
H     1.198885   -0.544361   -0.160551   -0.177354    0.132208    0.518464
H     0.106280    0.177608    0.356789    0.156380   -0.800064   -0.896098
O    -1.838912    0.429232    1.407530    0.134076    0.049902    0.014702
C    -0.561073    0.671780    1.648928   -0.071190   -0.100294    0.013478
C     0.055495   -0.157846    2.673294    0.018538   -0.019768   -0.124260
H    -0.180568    1.717220    1.539534    0.453484   -0.182426   -0.732300
C     1.208719    0.248545    3.376720    0.029970   -0.001432   -0.036778
C    -0.521008   -1.397318    3.022385    0.001848   -0.034932   -0.019988
C     1.774740   -0.550798    4.339785   -0.017410    0.027730   -0.016104
H     1.661443    1.200745    3.150290    0.048134   -0.015238   -0.035248
C     0.034211   -2.190207    3.983236   -0.024182    0.006194   -0.013440
H    -1.407789   -1.713511    2.500499    0.014452   -0.056148   -0.017198
C     1.216387   -1.801578    4.649047    0.000982   -0.005536    0.014112
H     2.661714   -0.209417    4.846629   -0.037102    0.036630    0.014302
H    -0.401462   -3.143197    4.231257   -0.037388    0.019870   -0.000052
O     1.713955   -2.675787    5.518978   -0.013876    0.027164   -0.040102
C     2.963800   -2.403661    6.151516    0.001818    0.001666   -0.004352
H     3.158263   -3.270199    6.785753   -0.012890   -0.023084   -0.013266
H     3.757059   -2.307769    5.407991    0.006386    0.002282    0.005110
H     2.906743   -1.503107    6.770332    0.007002   -0.006794    0.018896
154
* Frequency(6) -559.8500
C    -0.851740    5.042741    0.606706   -0.000198   -0.001868   -0.000322
C     4.112784    3.256968    0.383121    0.000152   -0.000194    0.001808
C     4.817209   -1.863584    0.586168   -0.002176   -0.000870   -0.003216
C     0.656406   -4.961921   -0.316233    0.001826    0.004520   -0.004226
C    -4.112414   -3.043518   -1.539515    0.010038    0.000410    0.000450
C    -5.036874    1.989349   -0.191347    0.004164   -0.001536    0.000410
O     0.002795    3.919118    0.638376   -0.001370   -0.009576    0.006388
O     3.983219    2.114747    1.169149    0.001652    0.000564    0.002886
O     3.424695   -2.070415    0.586081    0.004198   -0.003832    0.019886
O    -0.277437   -3.921533   -0.418101   -0.009790   -0.005638    0.018378
O    -3.993891   -1.979077   -0.649457   -0.000826   -0.002920    0.005580
O    -3.814897    2.282549    0.447660    0.009332   -0.008648    0.004224
C    -1.747217    5.042390    1.855767    0.000176    0.001894    0.001524
C     3.686646    4.471468    1.233172   -0.000760    0.000428    0.001954
C     5.238054   -1.285405    1.948773    0.001704   -0.000760    0.000164
C     1.171160   -4.996898    1.132891    0.000414   -0.001084   -0.002198
C    -3.990508   -4.330630   -0.699306    0.001840   -0.001348    0.000490
C    -5.802309    0.977124    0.681655   -0.002716    0.003166    0.000996
O    -1.005560    4.977750    3.044490   -0.001050   -0.003962   -0.001334
O     4.438151    4.581803    2.405738   -0.002786    0.000098    0.001068
O     4.925038   -2.126435    3.024034   -0.002168    0.004248   -0.000580
O     0.157421   -5.201488    2.079859    0.006892    0.004412    0.003388
O    -4.992312   -4.413074    0.274415    0.002390    0.000824    0.002026
O    -5.977736    1.441609    1.989454    0.000544   -0.003110   -0.000900
C    -2.678226    3.823690    1.819762    0.000738    0.001230    0.002300
C     2.183706    4.384637    1.557712   -0.001208    0.001906    0.002122
C     4.557020    0.076920    2.116620    0.003446    0.000508    0.001210
C     1.880531   -3.665959    1.418589    0.004686   -0.003112   -0.003746
C    -2.595845   -4.341828   -0.054322    0.002172   -0.003804   -0.005672
C    -5.074202   -0.375716    0.657156   -0.008324   -0.000926    0.000214
O    -3.695621    3.908001    2.782824    0.003056   -0.004500   -0.000206
O     1.736037    5.558632    2.193527   -0.002084   -0.000646    0.002336
O     4.968912    0.712055    3.299574   -0.007016   -0.001632    0.000686
O     2.512971   -3.678769    2.676113   -0.012188    0.007548    0.004388
O    -2.353888   -5.534193    0.655339    0.001872    0.003600    0.004108
O    -5.826172   -1.378809    1.295121    0.003530    0.000920    0.001278
C    -3.365127    3.637873    0.458135    0.004296   -0.002422    0.000076
C     1.354159    4.160961    0.279586    0.002340   -0.007374   -0.000564
C     4.852083    1.010584    0.934191   -0.001706   -0.000880   -0.001528
C     2.952289   -3.391518    0.360184    0.001442   -0.000942   -0.005150
C    -1.488215   -4.169516   -1.108238    0.007172    0.007854   -0.005726
C    -4.827951   -0.836688   -0.785416   -0.000264    0.000614   -0.001574
C    -2.438772    3.912828   -0.739865    0.000770    0.001968   -0.002770
C     1.945868    2.945051   -0.448144    0.004654   -0.008212   -0.002284
C     4.620065    0.302367   -0.418047   -0.004016   -0.001924   -0.002774
C     2.394162   -3.550509   -1.064337   -0.004152    0.009386   -0.005778
C    -1.814074   -2.951995   -1.983779    0.013846    0.021028    0.007124
C    -4.172191    0.269589   -1.629310   -0.000342    0.001024   -0.003918
O    -1.637018    5.073025   -0.546492   -0.002412    0.001450    0.002130
O     3.301017    3.188332   -0.774726    0.005826    0.004310   -0.002016
O     5.211127   -0.997983   -0.437204    0.007616    0.002852    0.000548
O     1.733547   -4.805129   -1.198536    0.006360    0.001160   -0.002204
O    -3.112280   -3.030861   -2.539731    0.011442    0.000440   -0.002510
O    -4.871189    1.507290   -1.492438    0.002084    0.000062    0.000094
C    -3.231470    4.176688   -2.027756   -0.001464    0.001448    0.000328
C     1.235062    2.544894   -1.732703    0.002836   -0.015836   -0.012828
C     5.284013    1.024360   -1.605779   -0.005846    0.001662    0.001204
C     3.515740   -3.536990   -2.108096   -0.001812    0.003244    0.002014
C    -0.804974   -2.715928   -3.106630    0.046398    0.051254    0.021332
C    -4.217305   -0.053752   -3.129620   -0.001910    0.000696   -0.001486
O    -4.140950    5.235509   -1.881334   -0.000880   -0.000054    0.001202
O     1.887243    1.577698   -2.339795   -0.009368   -0.013220   -0.007870
O     6.612891    1.386471   -1.342352   -0.005600   -0.001396   -0.000536
O     4.450019   -4.564308   -1.901260   -0.001088   -0.000112    0.000734
O    -1.206455   -1.711342   -3.897056   -0.007602    0.007320   -0.028180
O    -5.527782   -0.273751   -3.581830   -0.000578   -0.001620    0.002050
H    -0.264102    5.968432    0.578159    0.004656   -0.006330   -0.005096
H     5.137754    3.384288    0.014476    0.000010   -0.000034    0.001984
H     5.352070   -2.799787    0.383057   -0.000916    0.001866   -0.012882
H     0.206104   -5.926371   -0.588443    0.007630    0.002488   -0.021078
H    -5.060412   -3.014598   -2.091130    0.016198    0.004488   -0.010944
H    -5.630183    2.905575   -0.307971    0.010636    0.000242   -0.003898
H    -2.353255    5.961678    1.827838    0.006062    0.005886   -0.007898
H     3.872937    5.380754    0.651287    0.001064   -0.004844   -0.006308
H     6.326373   -1.157425    1.951483    0.001600   -0.005864   -0.012156
H     1.903887   -5.815100    1.211268   -0.001774   -0.007192   -0.018504
H    -4.102152   -5.201324   -1.353209    0.003358    0.005168   -0.007638
H    -6.805031    0.842489    0.261109    0.000862    0.007498   -0.008524
H    -0.122752    5.365261    2.911146   -0.007708    0.008694    0.012072
H     4.514022    3.706796    2.822038    0.004338   -0.002428   -0.002072
H     4.061871   -2.562384    2.866004    0.001662   -0.014728   -0.018676
H    -0.704457   -5.320284    1.639756    0.001858   -0.001706    0.019138
H    -5.132622   -3.534207    0.674057   -0.004922    0.004328   -0.000274
H    -5.162213    1.872272    2.298175   -0.007386    0.019772   -0.001114
H    -2.050212    2.946687    2.023572    0.010706    0.006572    0.006748
H     2.020276    3.521318    2.220557    0.008792    0.006944    0.008568
H     3.469899   -0.094102    2.141498    0.006064   -0.006048   -0.017330
H     1.132905   -2.863644    1.373466    0.012568   -0.008810   -0.044486
H    -2.527878   -3.481226    0.627928    0.006574   -0.001016   -0.012332
H    -4.097028   -0.277123    1.148952   -0.010508   -0.003798    0.000070
H    -3.291103    4.092353    3.645355    0.003808    0.004118   -0.000634
H     2.423925    5.838501    2.821482   -0.002280    0.001222    0.001488
H     5.239863    0.024698    3.930222    0.034712   -0.001010   -0.010532
H     1.933145   -4.157287    3.301987    0.016342   -0.114596   -0.019942
H    -3.172527   -5.775708    1.123617   -0.005262    0.004006   -0.001826
H    -6.138645   -1.027442    2.144935   -0.003620    0.005458   -0.000158
H    -4.225587    4.317634    0.411649    0.004048   -0.004736   -0.009078
H     1.423692    5.035952   -0.376668   -0.000986   -0.015694   -0.009658
H     5.895063    1.353306    0.980566   -0.000630   -0.000920   -0.018988
H     3.770965   -4.111894    0.496863    0.005480   -0.003580   -0.014972
H    -1.404865   -5.065271   -1.734515    0.014962    0.027134   -0.031472
H    -5.782349   -1.122720   -1.247183    0.005596    0.001778   -0.013584
H    -1.788388    3.044266   -0.899365    0.001598    0.011814   -0.046496
H     1.883873    2.064282    0.209570    0.035852   -0.028492   -0.032274
H     3.541334    0.215113   -0.612809   -0.002382   -0.019476   -0.031522
H     1.695246   -2.730293   -1.284210    0.015182    0.038012   -0.014106
H    -1.729817   -2.051738   -1.353734    0.013392    0.026412   -0.006430
H    -3.120406    0.383201   -1.338704    0.014400   -0.004790   -0.056236
H    -3.813816    3.292685   -2.287866    0.004484   -0.000204   -0.006038
H    -2.510319    4.379788   -2.827052   -0.002374   -0.008994   -0.004748
H     5.219748    0.349151   -2.466675   -0.020848    0.009944   -0.006164
H     4.740478    1.938220   -1.841202   -0.009612   -0.000386    0.000804
H     4.058967   -2.592841   -2.037021   -0.016066    0.011166   -0.005064
H     3.050450   -3.610255   -3.098250   -0.003586    0.019708   -0.002428
H    -3.740825    0.771455   -3.669310    0.007884   -0.006698   -0.004730
H    -3.646510   -0.961092   -3.329069    0.015124    0.010514   -0.003136
H    -3.640471    6.051725   -1.736216    0.001046   -0.000112   -0.002334
H     7.151703    0.583504   -1.288342   -0.002990   -0.000716    0.001754
H     3.997293   -5.413652   -2.019323    0.000242   -0.003886   -0.003978
H    -6.021444    0.556037   -3.492512    0.005832    0.006160   -0.006342
C    -0.188354   -0.892731   -4.440945   -0.070978    0.032444   -0.129200
H    -0.630102   -0.324445   -5.258261   -0.146220   -0.002076   -0.106466
H     0.676879   -1.486179   -4.744863   -0.068446    0.047144   -0.136456
O     0.178314   -3.387386   -3.306169   -0.009320   -0.032334   -0.024182
C     1.335071    1.020126   -3.533036   -0.006412   -0.009702   -0.017820
H     2.166657    0.497220   -4.008714    0.005382    0.025010   -0.027184
H     0.945610    1.816348   -4.175620   -0.034070    0.009288    0.028942
O     0.203376    3.038122   -2.137131    0.006434    0.018234   -0.003802
C     0.213327   -0.007960   -3.210105    0.061040   -0.144720   -0.040536
O     0.558116   -0.946502   -2.356104   -0.000198   -0.147748   -0.418432
O    -1.001333    0.716518   -2.864173    0.007140   -0.011530    0.021462
O     0.420685   -0.008902   -0.397507   -0.167828    0.318048    0.853050
H    -0.740366    1.651374   -2.761195    0.134388   -0.034188   -0.072170
H    -2.289487    1.139047    0.891518    0.152192   -0.081110   -0.301542
H     1.203901   -0.548101   -0.175216   -0.177354    0.132208    0.518464
H     0.101857    0.200237    0.382134    0.156380   -0.800064   -0.896098
O    -1.842704    0.427821    1.407114    0.134076    0.049902    0.014702
C    -0.559060    0.674617    1.648547   -0.071190   -0.100294    0.013478
C     0.054971   -0.157287    2.676808    0.018538   -0.019768   -0.124260
H    -0.193394    1.722380    1.560247    0.453484   -0.182426   -0.732300
C     1.207871    0.248585    3.377760    0.029970   -0.001432   -0.036778
C    -0.521061   -1.396330    3.022950    0.001848   -0.034932   -0.019988
C     1.775233   -0.551582    4.340240   -0.017410    0.027730   -0.016104
H     1.660082    1.201176    3.151287    0.048134   -0.015238   -0.035248
C     0.034895   -2.190382    3.983616   -0.024182    0.006194   -0.013440
H    -1.408198   -1.711923    2.500986    0.014452   -0.056148   -0.017198
C     1.216359   -1.801421    4.648648    0.000982   -0.005536    0.014112
H     2.662763   -0.210453    4.846224   -0.037102    0.036630    0.014302
H    -0.400405   -3.143759    4.231258   -0.037388    0.019870   -0.000052
O     1.714347   -2.676555    5.520112   -0.013876    0.027164   -0.040102
C     2.963749   -2.403708    6.151639    0.001818    0.001666   -0.004352
H     3.158627   -3.269546    6.786128   -0.012890   -0.023084   -0.013266
H     3.756879   -2.307834    5.407847    0.006386    0.002282    0.005110
H     2.906545   -1.502915    6.769798    0.007002   -0.006794    0.018896
154
* Frequency(6) -559.8500
C    -0.851728    5.042859    0.606726   -0.000198   -0.001868   -0.000322
C     4.112774    3.256980    0.383007    0.000152   -0.000194    0.001808
C     4.817346   -1.863529    0.586371   -0.002176   -0.000870   -0.003216
C     0.656291   -4.962206   -0.315966    0.001826    0.004520   -0.004226
C    -4.113046   -3.043543   -1.539543    0.010038    0.000410    0.000450
C    -5.037137    1.989445   -0.191372    0.004164   -0.001536    0.000410
O     0.002881    3.919721    0.637974   -0.001370   -0.009576    0.006388
O     3.983114    2.114711    1.168967    0.001652    0.000564    0.002886
O     3.424430   -2.070174    0.584828    0.004198   -0.003832    0.019886
O    -0.276820   -3.921178   -0.419260   -0.009790   -0.005638    0.018378
O    -3.993839   -1.978893   -0.649809   -0.000826   -0.002920    0.005580
O    -3.815485    2.283094    0.447394    0.009332   -0.008648    0.004224
C    -1.747228    5.042271    1.855671    0.000176    0.001894    0.001524
C     3.686694    4.471441    1.233049   -0.000760    0.000428    0.001954
C     5.237947   -1.285357    1.948762    0.001704   -0.000760    0.000164
C     1.171134   -4.996830    1.133030    0.000414   -0.001084   -0.002198
C    -3.990624   -4.330545   -0.699337    0.001840   -0.001348    0.000490
C    -5.802137    0.976924    0.681592   -0.002716    0.003166    0.000996
O    -1.005493    4.978000    3.044574   -0.001050   -0.003962   -0.001334
O     4.438327    4.581797    2.405671   -0.002786    0.000098    0.001068
O     4.925175   -2.126703    3.024071   -0.002168    0.004248   -0.000580
O     0.156987   -5.201766    2.079645    0.006892    0.004412    0.003388
O    -4.992463   -4.413126    0.274288    0.002390    0.000824    0.002026
O    -5.977770    1.441805    1.989510    0.000544   -0.003110   -0.000900
C    -2.678273    3.823613    1.819617    0.000738    0.001230    0.002300
C     2.183782    4.384517    1.557578   -0.001208    0.001906    0.002122
C     4.556802    0.076888    2.116544    0.003446    0.000508    0.001210
C     1.880236   -3.665763    1.418825    0.004686   -0.003112   -0.003746
C    -2.595982   -4.341589   -0.053965    0.002172   -0.003804   -0.005672
C    -5.073677   -0.375657    0.657142   -0.008324   -0.000926    0.000214
O    -3.695814    3.908284    2.782837    0.003056   -0.004500   -0.000206
O     1.736168    5.558673    2.193380   -0.002084   -0.000646    0.002336
O     4.969354    0.712158    3.299531   -0.007016   -0.001632    0.000686
O     2.513740   -3.679244    2.675837   -0.012188    0.007548    0.004388
O    -2.354006   -5.534420    0.655080    0.001872    0.003600    0.004108
O    -5.826394   -1.378867    1.295040    0.003530    0.000920    0.001278
C    -3.365398    3.638025    0.458131    0.004296   -0.002422    0.000076
C     1.354012    4.161426    0.279622    0.002340   -0.007374   -0.000564
C     4.852191    1.010639    0.934288   -0.001706   -0.000880   -0.001528
C     2.952198   -3.391459    0.360509    0.001442   -0.000942   -0.005150
C    -1.488667   -4.170011   -1.107877    0.007172    0.007854   -0.005726
C    -4.827934   -0.836727   -0.785317   -0.000264    0.000614   -0.001574
C    -2.438821    3.912704   -0.739690    0.000770    0.001968   -0.002770
C     1.945574    2.945568   -0.448000    0.004654   -0.008212   -0.002284
C     4.620318    0.302489   -0.417872   -0.004016   -0.001924   -0.002774
C     2.394424   -3.551100   -1.063973   -0.004152    0.009386   -0.005778
C    -1.814947   -2.953320   -1.984228    0.013846    0.021028    0.007124
C    -4.172169    0.269525   -1.629063   -0.000342    0.001024   -0.003918
O    -1.636866    5.072933   -0.546627   -0.002412    0.001450    0.002130
O     3.300650    3.188061   -0.774599    0.005826    0.004310   -0.002016
O     5.210647   -0.998163   -0.437239    0.007616    0.002852    0.000548
O     1.733146   -4.805202   -1.198398    0.006360    0.001160   -0.002204
O    -3.113001   -3.030889   -2.539572    0.011442    0.000440   -0.002510
O    -4.871320    1.507286   -1.492444    0.002084    0.000062    0.000094
C    -3.231378    4.176597   -2.027777   -0.001464    0.001448    0.000328
C     1.234883    2.545892   -1.731894    0.002836   -0.015836   -0.012828
C     5.284382    1.024255   -1.605855   -0.005846    0.001662    0.001204
C     3.515854   -3.537195   -2.108223   -0.001812    0.003244    0.002014
C    -0.807898   -2.719158   -3.107974    0.046398    0.051254    0.021332
C    -4.217185   -0.053796   -3.129527   -0.001910    0.000696   -0.001486
O    -4.140895    5.235512   -1.881409   -0.000880   -0.000054    0.001202
O     1.887834    1.578531   -2.339300   -0.009368   -0.013220   -0.007870
O     6.613244    1.386559   -1.342318   -0.005600   -0.001396   -0.000536
O     4.450088   -4.564301   -1.901306   -0.001088   -0.000112    0.000734
O    -1.205976   -1.711803   -3.895280   -0.007602    0.007320   -0.028180
O    -5.527746   -0.273649   -3.581959   -0.000578   -0.001620    0.002050
H    -0.264395    5.968831    0.578480    0.004656   -0.006330   -0.005096
H     5.137754    3.384290    0.014351    0.000010   -0.000034    0.001984
H     5.352128   -2.799904    0.383869   -0.000916    0.001866   -0.012882
H     0.205623   -5.926527   -0.587115    0.007630    0.002488   -0.021078
H    -5.061433   -3.014880   -2.090440    0.016198    0.004488   -0.010944
H    -5.630853    2.905559   -0.307726    0.010636    0.000242   -0.003898
H    -2.353637    5.961307    1.828335    0.006062    0.005886   -0.007898
H     3.872870    5.381060    0.651685    0.001064   -0.004844   -0.006308
H     6.326272   -1.157055    1.952249    0.001600   -0.005864   -0.012156
H     1.903999   -5.814647    1.212434   -0.001774   -0.007192   -0.018504
H    -4.102363   -5.201649   -1.352728    0.003358    0.005168   -0.007638
H    -6.805085    0.842017    0.261646    0.000862    0.007498   -0.008524
H    -0.122266    5.364713    2.910386   -0.007708    0.008694    0.012072
H     4.513749    3.706949    2.822168    0.004338   -0.002428   -0.002072
H     4.061766   -2.561456    2.867181    0.001662   -0.014728   -0.018676
H    -0.704575   -5.320176    1.638550    0.001858   -0.001706    0.019138
H    -5.132311   -3.534480    0.674074   -0.004922    0.004328   -0.000274
H    -5.161748    1.871026    2.298245   -0.007386    0.019772   -0.001114
H    -2.050886    2.946273    2.023147    0.010706    0.006572    0.006748
H     2.019722    3.520880    2.220017    0.008792    0.006944    0.008568
H     3.469517   -0.093720    2.142590    0.006064   -0.006048   -0.017330
H     1.132113   -2.863089    1.376270    0.012568   -0.008810   -0.044486
H    -2.528292   -3.481162    0.628705    0.006574   -0.001016   -0.012332
H    -4.096366   -0.276884    1.148948   -0.010508   -0.003798    0.000070
H    -3.291343    4.092093    3.645395    0.003808    0.004118   -0.000634
H     2.424069    5.838424    2.821388   -0.002280    0.001222    0.001488
H     5.237675    0.024762    3.930886    0.034712   -0.001010   -0.010532
H     1.932115   -4.150066    3.303244    0.016342   -0.114596   -0.019942
H    -3.172195   -5.775960    1.123732   -0.005262    0.004006   -0.001826
H    -6.138417   -1.027786    2.144945   -0.003620    0.005458   -0.000158
H    -4.225842    4.317932    0.412221    0.004048   -0.004736   -0.009078
H     1.423754    5.036941   -0.376059   -0.000986   -0.015694   -0.009658
H     5.895103    1.353364    0.981763   -0.000630   -0.000920   -0.018988
H     3.770620   -4.111669    0.497807    0.005480   -0.003580   -0.014972
H    -1.405808   -5.066981   -1.732532    0.014962    0.027134   -0.031472
H    -5.782702   -1.122832   -1.246327    0.005596    0.001778   -0.013584
H    -1.788489    3.043521   -0.896435    0.001598    0.011814   -0.046496
H     1.881614    2.066077    0.211603    0.035852   -0.028492   -0.032274
H     3.541484    0.216340   -0.610823   -0.002382   -0.019476   -0.031522
H     1.694289   -2.732689   -1.283321    0.015182    0.038012   -0.014106
H    -1.730661   -2.053403   -1.353329    0.013392    0.026412   -0.006430
H    -3.121313    0.383503   -1.335160    0.014400   -0.004790   -0.056236
H    -3.814098    3.292697   -2.287486    0.004484   -0.000204   -0.006038
H    -2.510169    4.380355   -2.826753   -0.002374   -0.008994   -0.004748
H     5.221062    0.348525   -2.466286   -0.020848    0.009944   -0.006164
H     4.741084    1.938245   -1.841253   -0.009612   -0.000386    0.000804
H     4.059979   -2.593545   -2.036702   -0.016066    0.011166   -0.005064
H     3.050676   -3.611497   -3.098097   -0.003586    0.019708   -0.002428
H    -3.741322    0.771877   -3.669012    0.007884   -0.006698   -0.004730
H    -3.647464   -0.961755   -3.328872    0.015124    0.010514   -0.003136
H    -3.640537    6.051732   -1.736069    0.001046   -0.000112   -0.002334
H     7.151891    0.583549   -1.288452   -0.002990   -0.000716    0.001754
H     3.997277   -5.413407   -2.019072    0.000242   -0.003886   -0.003978
H    -6.021811    0.555649   -3.492112    0.005832    0.006160   -0.006342
C    -0.183881   -0.894776   -4.432803   -0.070978    0.032444   -0.129200
H    -0.620887   -0.324315   -5.251551   -0.146220   -0.002076   -0.106466
H     0.681192   -1.489150   -4.736264   -0.068446    0.047144   -0.136456
O     0.178901   -3.385348   -3.304645   -0.009320   -0.032334   -0.024182
C     1.335475    1.020738   -3.531913   -0.006412   -0.009702   -0.017820
H     2.166318    0.495644   -4.007001    0.005382    0.025010   -0.027184
H     0.947757    1.815763   -4.177444   -0.034070    0.009288    0.028942
O     0.202971    3.036973   -2.136891    0.006434    0.018234   -0.003802
C     0.209480    0.001160   -3.207550    0.061040   -0.144720   -0.040536
O     0.558128   -0.937192   -2.329736   -0.000198   -0.147748   -0.418432
O    -1.001783    0.717245   -2.865525    0.007140   -0.011530    0.021462
O     0.431261   -0.028945   -0.451264   -0.167828    0.318048    0.853050
H    -0.748835    1.653528   -2.756647    0.134388   -0.034188   -0.072170
H    -2.299078    1.144158    0.910520    0.152192   -0.081110   -0.301542
H     1.215078   -0.556432   -0.207888   -0.177354    0.132208    0.518464
H     0.092002    0.250655    0.438604    0.156380   -0.800064   -0.896098
O    -1.851153    0.424676    1.406188    0.134076    0.049902    0.014702
C    -0.554574    0.680937    1.647698   -0.071190   -0.100294    0.013478
C     0.053803   -0.156041    2.684639    0.018538   -0.019768   -0.124260
H    -0.221971    1.733876    1.606394    0.453484   -0.182426   -0.732300
C     1.205982    0.248675    3.380078    0.029970   -0.001432   -0.036778
C    -0.521177   -1.394129    3.024210    0.001848   -0.034932   -0.019988
C     1.776330   -0.553329    4.341255   -0.017410    0.027730   -0.016104
H     1.657049    1.202136    3.153509    0.048134   -0.015238   -0.035248
C     0.036419   -2.190772    3.984463   -0.024182    0.006194   -0.013440
H    -1.409109   -1.708384    2.502069    0.014452   -0.056148   -0.017198
C     1.216297   -1.801073    4.647759    0.000982   -0.005536    0.014112
H     2.665101   -0.212762    4.845323   -0.037102    0.036630    0.014302
H    -0.398049   -3.145011    4.231262   -0.037388    0.019870   -0.000052
O     1.715222   -2.678267    5.522640   -0.013876    0.027164   -0.040102
C     2.963634   -2.403813    6.151913    0.001818    0.001666   -0.004352
H     3.159440   -3.268091    6.786964   -0.012890   -0.023084   -0.013266
H     3.756476   -2.307977    5.407525    0.006386    0.002282    0.005110
H     2.906104   -1.502486    6.768607    0.007002   -0.006794    0.018896
154
* Frequency(6) -559.8500
C    -0.851710    5.043029    0.606755   -0.000198   -0.001868   -0.000322
C     4.112760    3.256998    0.382842    0.000152   -0.000194    0.001808
C     4.817544   -1.863450    0.586663   -0.002176   -0.000870   -0.003216
C     0.656125   -4.962617   -0.315582    0.001826    0.004520   -0.004226
C    -4.113959   -3.043581   -1.539584    0.010038    0.000410    0.000450
C    -5.037515    1.989585   -0.191410    0.004164   -0.001536    0.000410
O     0.003006    3.920592    0.637393   -0.001370   -0.009576    0.006388
O     3.982964    2.114660    1.168705    0.001652    0.000564    0.002886
O     3.424048   -2.069825    0.583020    0.004198   -0.003832    0.019886
O    -0.275930   -3.920665   -0.420931   -0.009790   -0.005638    0.018378
O    -3.993764   -1.978627   -0.650316   -0.000826   -0.002920    0.005580
O    -3.816333    2.283880    0.447010    0.009332   -0.008648    0.004224
C    -1.747244    5.042099    1.855533    0.000176    0.001894    0.001524
C     3.686763    4.471402    1.232872   -0.000760    0.000428    0.001954
C     5.237792   -1.285288    1.948747    0.001704   -0.000760    0.000164
C     1.171096   -4.996732    1.133230    0.000414   -0.001084   -0.002198
C    -3.990791   -4.330423   -0.699381    0.001840   -0.001348    0.000490
C    -5.801890    0.976636    0.681502   -0.002716    0.003166    0.000996
O    -1.005398    4.978360    3.044696   -0.001050   -0.003962   -0.001334
O     4.438580    4.581788    2.405574   -0.002786    0.000098    0.001068
O     4.925372   -2.127089    3.024123   -0.002168    0.004248   -0.000580
O     0.156360   -5.202167    2.079337    0.006892    0.004412    0.003388
O    -4.992680   -4.413201    0.274103    0.002390    0.000824    0.002026
O    -5.977819    1.442088    1.989592    0.000544   -0.003110   -0.000900
C    -2.678340    3.823501    1.819408    0.000738    0.001230    0.002300
C     2.183892    4.384344    1.557385   -0.001208    0.001906    0.002122
C     4.556489    0.076842    2.116434    0.003446    0.000508    0.001210
C     1.879810   -3.665480    1.419166    0.004686   -0.003112   -0.003746
C    -2.596179   -4.341243   -0.053449    0.002172   -0.003804   -0.005672
C    -5.072921   -0.375573    0.657123   -0.008324   -0.000926    0.000214
O    -3.696092    3.908693    2.782856    0.003056   -0.004500   -0.000206
O     1.736358    5.558731    2.193167   -0.002084   -0.000646    0.002336
O     4.969992    0.712306    3.299468   -0.007016   -0.001632    0.000686
O     2.514848   -3.679931    2.675438   -0.012188    0.007548    0.004388
O    -2.354176   -5.534747    0.654706    0.001872    0.003600    0.004108
O    -5.826715   -1.378951    1.294924    0.003530    0.000920    0.001278
C    -3.365788    3.638246    0.458124    0.004296   -0.002422    0.000076
C     1.353799    4.162097    0.279673    0.002340   -0.007374   -0.000564
C     4.852346    1.010719    0.934426   -0.001706   -0.000880   -0.001528
C     2.952067   -3.391373    0.360977    0.001442   -0.000942   -0.005150
C    -1.489319   -4.170725   -1.107357    0.007172    0.007854   -0.005726
C    -4.827910   -0.836783   -0.785174   -0.000264    0.000614   -0.001574
C    -2.438891    3.912525   -0.739438    0.000770    0.001968   -0.002770
C     1.945151    2.946315   -0.447792    0.004654   -0.008212   -0.002284
C     4.620683    0.302663   -0.417620   -0.004016   -0.001924   -0.002774
C     2.394801   -3.551953   -1.063448   -0.004152    0.009386   -0.005778
C    -1.816206   -2.955232   -1.984875    0.013846    0.021028    0.007124
C    -4.172138    0.269432   -1.628707   -0.000342    0.001024   -0.003918
O    -1.636647    5.072802   -0.546820   -0.002412    0.001450    0.002130
O     3.300121    3.187669   -0.774416    0.005826    0.004310   -0.002016
O     5.209955   -0.998422   -0.437289    0.007616    0.002852    0.000548
O     1.732567   -4.805308   -1.198197    0.006360    0.001160   -0.002204
O    -3.114041   -3.030929   -2.539344    0.011442    0.000440   -0.002510
O    -4.871510    1.507280   -1.492452    0.002084    0.000062    0.000094
C    -3.231245    4.176465   -2.027806   -0.001464    0.001448    0.000328
C     1.234625    2.547332   -1.730728    0.002836   -0.015836   -0.012828
C     5.284913    1.024104   -1.605964   -0.005846    0.001662    0.001204
C     3.516019   -3.537490   -2.108407   -0.001812    0.003244    0.002014
C    -0.812117   -2.723818   -3.109913    0.046398    0.051254    0.021332
C    -4.217011   -0.053859   -3.129392   -0.001910    0.000696   -0.001486
O    -4.140815    5.235517   -1.881519   -0.000880   -0.000054    0.001202
O     1.888685    1.579733   -2.338584   -0.009368   -0.013220   -0.007870
O     6.613753    1.386685   -1.342269   -0.005600   -0.001396   -0.000536
O     4.450187   -4.564291   -1.901373   -0.001088   -0.000112    0.000734
O    -1.205284   -1.712469   -3.892718   -0.007602    0.007320   -0.028180
O    -5.527693   -0.273502   -3.582146   -0.000578   -0.001620    0.002050
H    -0.264818    5.969407    0.578943    0.004656   -0.006330   -0.005096
H     5.137753    3.384293    0.014170    0.000010   -0.000034    0.001984
H     5.352211   -2.800074    0.385040   -0.000916    0.001866   -0.012882
H     0.204929   -5.926754   -0.585198    0.007630    0.002488   -0.021078
H    -5.062906   -3.015288   -2.089445    0.016198    0.004488   -0.010944
H    -5.631820    2.905537   -0.307371    0.010636    0.000242   -0.003898
H    -2.354188    5.960771    1.829053    0.006062    0.005886   -0.007898
H     3.872773    5.381500    0.652258    0.001064   -0.004844   -0.006308
H     6.326127   -1.156522    1.953354    0.001600   -0.005864   -0.012156
H     1.904160   -5.813993    1.214117   -0.001774   -0.007192   -0.018504
H    -4.102669   -5.202119   -1.352033    0.003358    0.005168   -0.007638
H    -6.805163    0.841335    0.262421    0.000862    0.007498   -0.008524
H    -0.121565    5.363922    2.909288   -0.007708    0.008694    0.012072
H     4.513355    3.707170    2.822357    0.004338   -0.002428   -0.002072
H     4.061615   -2.560116    2.868879    0.001662   -0.014728   -0.018676
H    -0.704743   -5.320021    1.636810    0.001858   -0.001706    0.019138
H    -5.131864   -3.534873    0.674099   -0.004922    0.004328   -0.000274
H    -5.161076    1.869229    2.298346   -0.007386    0.019772   -0.001114
H    -2.051860    2.945676    2.022533    0.010706    0.006572    0.006748
H     2.018923    3.520249    2.219238    0.008792    0.006944    0.008568
H     3.468965   -0.093170    2.144166    0.006064   -0.006048   -0.017330
H     1.130971   -2.862288    1.380314    0.012568   -0.008810   -0.044486
H    -2.528890   -3.481069    0.629827    0.006574   -0.001016   -0.012332
H    -4.095410   -0.276539    1.148942   -0.010508   -0.003798    0.000070
H    -3.291690    4.091719    3.645452    0.003808    0.004118   -0.000634
H     2.424276    5.838313    2.821253   -0.002280    0.001222    0.001488
H     5.234519    0.024854    3.931844    0.034712   -0.001010   -0.010532
H     1.930629   -4.139647    3.305057    0.016342   -0.114596   -0.019942
H    -3.171717   -5.776325    1.123898   -0.005262    0.004006   -0.001826
H    -6.138088   -1.028282    2.144960   -0.003620    0.005458   -0.000158
H    -4.226210    4.318363    0.413047    0.004048   -0.004736   -0.009078
H     1.423844    5.038368   -0.375181   -0.000986   -0.015694   -0.009658
H     5.895160    1.353448    0.983489   -0.000630   -0.000920   -0.018988
H     3.770122   -4.111343    0.499168    0.005480   -0.003580   -0.014972
H    -1.407169   -5.069448   -1.729671    0.014962    0.027134   -0.031472
H    -5.783211   -1.122994   -1.245092    0.005596    0.001778   -0.013584
H    -1.788634    3.042447   -0.892207    0.001598    0.011814   -0.046496
H     1.878354    2.068668    0.214538    0.035852   -0.028492   -0.032274
H     3.541700    0.218111   -0.607957   -0.002382   -0.019476   -0.031522
H     1.692909   -2.736145   -1.282039    0.015182    0.038012   -0.014106
H    -1.731878   -2.055804   -1.352744    0.013392    0.026412   -0.006430
H    -3.122622    0.383938   -1.330047    0.014400   -0.004790   -0.056236
H    -3.814506    3.292716   -2.286937    0.004484   -0.000204   -0.006038
H    -2.509953    4.381173   -2.826321   -0.002374   -0.008994   -0.004748
H     5.222957    0.347620   -2.465726   -0.020848    0.009944   -0.006164
H     4.741958    1.938280   -1.841326   -0.009612   -0.000386    0.000804
H     4.061440   -2.594560   -2.036242   -0.016066    0.011166   -0.005064
H     3.051002   -3.613289   -3.097876   -0.003586    0.019708   -0.002428
H    -3.742039    0.772486   -3.668582    0.007884   -0.006698   -0.004730
H    -3.648839   -0.962711   -3.328586    0.015124    0.010514   -0.003136
H    -3.640632    6.051742   -1.735857    0.001046   -0.000112   -0.002334
H     7.152163    0.583614   -1.288612   -0.002990   -0.000716    0.001754
H     3.997255   -5.413053   -2.018711    0.000242   -0.003886   -0.003978
H    -6.022341    0.555089   -3.491535    0.005832    0.006160   -0.006342
C    -0.177428   -0.897725   -4.421056   -0.070978    0.032444   -0.129200
H    -0.607593   -0.324126   -5.241871   -0.146220   -0.002076   -0.106466
H     0.687415   -1.493437   -4.723857   -0.068446    0.047144   -0.136456
O     0.179748   -3.382408   -3.302446   -0.009320   -0.032334   -0.024182
C     1.336058    1.021620   -3.530292   -0.006412   -0.009702   -0.017820
H     2.165829    0.493370   -4.004529    0.005382    0.025010   -0.027184
H     0.950855    1.814918   -4.180076   -0.034070    0.009288    0.028942
O     0.202386    3.035315   -2.136545    0.006434    0.018234   -0.003802
C     0.203930    0.014318   -3.203865    0.061040   -0.144720   -0.040536
O     0.558146   -0.923758   -2.291691   -0.000198   -0.147748   -0.418432
O    -1.002433    0.718293   -2.867477    0.007140   -0.011530    0.021462
O     0.446520   -0.057862   -0.528825   -0.167828    0.318048    0.853050
H    -0.761053    1.656637   -2.750085    0.134388   -0.034188   -0.072170
H    -2.312916    1.151533    0.937937    0.152192   -0.081110   -0.301542
H     1.231203   -0.568453   -0.255027   -0.177354    0.132208    0.518464
H     0.077784    0.323398    0.520079    0.156380   -0.800064   -0.896098
O    -1.863343    0.420139    1.404851    0.134076    0.049902    0.014702
C    -0.548101    0.690056    1.646472   -0.071190   -0.100294    0.013478
C     0.052117   -0.154244    2.695937    0.018538   -0.019768   -0.124260
H    -0.263203    1.750462    1.672976    0.453484   -0.182426   -0.732300
C     1.203257    0.248805    3.383421    0.029970   -0.001432   -0.036778
C    -0.521345   -1.390953    3.026027    0.001848   -0.034932   -0.019988
C     1.777913   -0.555851    4.342719   -0.017410    0.027730   -0.016104
H     1.652672    1.203522    3.156713    0.048134   -0.015238   -0.035248
C     0.038618   -2.191335    3.985685   -0.024182    0.006194   -0.013440
H    -1.410423   -1.703279    2.503633    0.014452   -0.056148   -0.017198
C     1.216208   -1.800569    4.646476    0.000982   -0.005536    0.014112
H     2.668474   -0.216092    4.844022   -0.037102    0.036630    0.014302
H    -0.394649   -3.146818    4.231266   -0.037388    0.019870   -0.000052
O     1.716484   -2.680737    5.526286   -0.013876    0.027164   -0.040102
C     2.963469   -2.403964    6.152309    0.001818    0.001666   -0.004352
H     3.160612   -3.265992    6.788170   -0.012890   -0.023084   -0.013266
H     3.755896   -2.308185    5.407060    0.006386    0.002282    0.005110
H     2.905467   -1.501869    6.766889    0.007002   -0.006794    0.018896
154
* Frequency(6) -559.8500
C    -0.851688    5.043232    0.606790   -0.000198   -0.001868   -0.000322
C     4.112744    3.257019    0.382645    0.000152   -0.000194    0.001808
C     4.817781   -1.863355    0.587014   -0.002176   -0.000870   -0.003216
C     0.655926   -4.963110   -0.315121    0.001826    0.004520   -0.004226
C    -4.115053   -3.043625   -1.539633    0.010038    0.000410    0.000450
C    -5.037969    1.989753   -0.191454    0.004164   -0.001536    0.000410
O     0.003155    3.921635    0.636697   -0.001370   -0.009576    0.006388
O     3.982784    2.114598    1.168390    0.001652    0.000564    0.002886
O     3.423591   -2.069408    0.580853    0.004198   -0.003832    0.019886
O    -0.274863   -3.920051   -0.422933   -0.009790   -0.005638    0.018378
O    -3.993674   -1.978309   -0.650925   -0.000826   -0.002920    0.005580
O    -3.817350    2.284823    0.446549    0.009332   -0.008648    0.004224
C    -1.747263    5.041892    1.855367    0.000176    0.001894    0.001524
C     3.686846    4.471356    1.232659   -0.000760    0.000428    0.001954
C     5.237606   -1.285205    1.948729    0.001704   -0.000760    0.000164
C     1.171051   -4.996613    1.133469    0.000414   -0.001084   -0.002198
C    -3.990992   -4.330276   -0.699435    0.001840   -0.001348    0.000490
C    -5.801594    0.976291    0.681393   -0.002716    0.003166    0.000996
O    -1.005283    4.978792    3.044841   -0.001050   -0.003962   -0.001334
O     4.438884    4.581778    2.405458   -0.002786    0.000098    0.001068
O     4.925608   -2.127552    3.024187   -0.002168    0.004248   -0.000580
O     0.155609   -5.202648    2.078968    0.006892    0.004412    0.003388
O    -4.992940   -4.413291    0.273883    0.002390    0.000824    0.002026
O    -5.977879    1.442427    1.989690    0.000544   -0.003110   -0.000900
C    -2.678420    3.823367    1.819157    0.000738    0.001230    0.002300
C     2.184023    4.384136    1.557154   -0.001208    0.001906    0.002122
C     4.556114    0.076786    2.116302    0.003446    0.000508    0.001210
C     1.879299   -3.665141    1.419574    0.004686   -0.003112   -0.003746
C    -2.596416   -4.340828   -0.052831    0.002172   -0.003804   -0.005672
C    -5.072014   -0.375472    0.657099   -0.008324   -0.000926    0.000214
O    -3.696425    3.909184    2.782878    0.003056   -0.004500   -0.000206
O     1.736585    5.558802    2.192913   -0.002084   -0.000646    0.002336
O     4.970757    0.712484    3.299394   -0.007016   -0.001632    0.000686
O     2.516176   -3.680753    2.674960   -0.012188    0.007548    0.004388
O    -2.354380   -5.535140    0.654259    0.001872    0.003600    0.004108
O    -5.827100   -1.379051    1.294785    0.003530    0.000920    0.001278
C    -3.366257    3.638509    0.458115    0.004296   -0.002422    0.000076
C     1.353544    4.162900    0.279735    0.002340   -0.007374   -0.000564
C     4.852532    1.010815    0.934593   -0.001706   -0.000880   -0.001528
C     2.951910   -3.391270    0.361538    0.001442   -0.000942   -0.005150
C    -1.490101   -4.171581   -1.106733    0.007172    0.007854   -0.005726
C    -4.827881   -0.836850   -0.785003   -0.000264    0.000614   -0.001574
C    -2.438975    3.912310   -0.739137    0.000770    0.001968   -0.002770
C     1.944644    2.947210   -0.447544    0.004654   -0.008212   -0.002284
C     4.621121    0.302873   -0.417318   -0.004016   -0.001924   -0.002774
C     2.395254   -3.552976   -1.062818   -0.004152    0.009386   -0.005778
C    -1.817714   -2.957524   -1.985652    0.013846    0.021028    0.007124
C    -4.172101    0.269320   -1.628280   -0.000342    0.001024   -0.003918
O    -1.636384    5.072644   -0.547052   -0.002412    0.001450    0.002130
O     3.299486    3.187199   -0.774196    0.005826    0.004310   -0.002016
O     5.209125   -0.998733   -0.437348    0.007616    0.002852    0.000548
O     1.731874   -4.805434   -1.197957    0.006360    0.001160   -0.002204
O    -3.115288   -3.030977   -2.539071    0.011442    0.000440   -0.002510
O    -4.871737    1.507274   -1.492463    0.002084    0.000062    0.000094
C    -3.231085    4.176307   -2.027842   -0.001464    0.001448    0.000328
C     1.234316    2.549058   -1.729330    0.002836   -0.015836   -0.012828
C     5.285550    1.023923   -1.606096   -0.005846    0.001662    0.001204
C     3.516217   -3.537843   -2.108626   -0.001812    0.003244    0.002014
C    -0.817173   -2.729403   -3.112238    0.046398    0.051254    0.021332
C    -4.216803   -0.053935   -3.129230   -0.001910    0.000696   -0.001486
O    -4.140719    5.235523   -1.881650   -0.000880   -0.000054    0.001202
O     1.889706    1.581173   -2.337726   -0.009368   -0.013220   -0.007870
O     6.614363    1.386838   -1.342211   -0.005600   -0.001396   -0.000536
O     4.450305   -4.564278   -1.901453   -0.001088   -0.000112    0.000734
O    -1.204456   -1.713266   -3.889647   -0.007602    0.007320   -0.028180
O    -5.527630   -0.273325   -3.582369   -0.000578   -0.001620    0.002050
H    -0.265326    5.970096    0.579498    0.004656   -0.006330   -0.005096
H     5.137752    3.384297    0.013954    0.000010   -0.000034    0.001984
H     5.352311   -2.800278    0.386444   -0.000916    0.001866   -0.012882
H     0.204098   -5.927025   -0.582901    0.007630    0.002488   -0.021078
H    -5.064671   -3.015777   -2.088252    0.016198    0.004488   -0.010944
H    -5.632979    2.905511   -0.306947    0.010636    0.000242   -0.003898
H    -2.354849    5.960130    1.829914    0.006062    0.005886   -0.007898
H     3.872657    5.382028    0.652946    0.001064   -0.004844   -0.006308
H     6.325952   -1.155883    1.954679    0.001600   -0.005864   -0.012156
H     1.904354   -5.813209    1.216133   -0.001774   -0.007192   -0.018504
H    -4.103035   -5.202682   -1.351201    0.003358    0.005168   -0.007638
H    -6.805257    0.840518    0.263350    0.000862    0.007498   -0.008524
H    -0.120725    5.362975    2.907972   -0.007708    0.008694    0.012072
H     4.512882    3.707434    2.822583    0.004338   -0.002428   -0.002072
H     4.061434   -2.558511    2.870914    0.001662   -0.014728   -0.018676
H    -0.704946   -5.319835    1.634725    0.001858   -0.001706    0.019138
H    -5.131328   -3.535345    0.674129   -0.004922    0.004328   -0.000274
H    -5.160271    1.867074    2.298468   -0.007386    0.019772   -0.001114
H    -2.053026    2.944960    2.021798    0.010706    0.006572    0.006748
H     2.017964    3.519492    2.218305    0.008792    0.006944    0.008568
H     3.468304   -0.092511    2.146055    0.006064   -0.006048   -0.017330
H     1.129601   -2.861328    1.385162    0.012568   -0.008810   -0.044486
H    -2.529606   -3.480959    0.631171    0.006574   -0.001016   -0.012332
H    -4.094265   -0.276125    1.148934   -0.010508   -0.003798    0.000070
H    -3.292105    4.091270    3.645521    0.003808    0.004118   -0.000634
H     2.424525    5.838179    2.821091   -0.002280    0.001222    0.001488
H     5.230737    0.024964    3.932991    0.034712   -0.001010   -0.010532
H     1.928848   -4.127159    3.307230    0.016342   -0.114596   -0.019942
H    -3.171143   -5.776761    1.124097   -0.005262    0.004006   -0.001826
H    -6.137694   -1.028877    2.144977   -0.003620    0.005458   -0.000158
H    -4.226651    4.318879    0.414036    0.004048   -0.004736   -0.009078
H     1.423951    5.040078   -0.374128   -0.000986   -0.015694   -0.009658
H     5.895229    1.353548    0.985558   -0.000630   -0.000920   -0.018988
H     3.769525   -4.110953    0.500799    0.005480   -0.003580   -0.014972
H    -1.408799   -5.072405   -1.726241    0.014962    0.027134   -0.031472
H    -5.783821   -1.123188   -1.243612    0.005596    0.001778   -0.013584
H    -1.788808    3.041160   -0.887141    0.001598    0.011814   -0.046496
H     1.874447    2.071773    0.218055    0.035852   -0.028492   -0.032274
H     3.541960    0.220233   -0.604522   -0.002382   -0.019476   -0.031522
H     1.691255   -2.740287   -1.280502    0.015182    0.038012   -0.014106
H    -1.733338   -2.058682   -1.352043    0.013392    0.026412   -0.006430
H    -3.124191    0.384460   -1.323919    0.014400   -0.004790   -0.056236
H    -3.814995    3.292738   -2.286279    0.004484   -0.000204   -0.006038
H    -2.509695    4.382153   -2.825804   -0.002374   -0.008994   -0.004748
H     5.225229    0.346537   -2.465054   -0.020848    0.009944   -0.006164
H     4.743005    1.938322   -1.841414   -0.009612   -0.000386    0.000804
H     4.063190   -2.595777   -2.035690   -0.016066    0.011166   -0.005064
H     3.051392   -3.615437   -3.097612   -0.003586    0.019708   -0.002428
H    -3.742898    0.773216   -3.668066    0.007884   -0.006698   -0.004730
H    -3.650487   -0.963856   -3.328245    0.015124    0.010514   -0.003136
H    -3.640746    6.051755   -1.735602    0.001046   -0.000112   -0.002334
H     7.152489    0.583692   -1.288803   -0.002990   -0.000716    0.001754
H     3.997229   -5.412630   -2.018277    0.000242   -0.003886   -0.003978
H    -6.022977    0.554418   -3.490844    0.005832    0.006160   -0.006342
C    -0.169693   -0.901261   -4.406977   -0.070978    0.032444   -0.129200
H    -0.591658   -0.323900   -5.230269   -0.146220   -0.002076   -0.106466
H     0.694874   -1.498574   -4.708987   -0.068446    0.047144   -0.136456
O     0.180764   -3.378885   -3.299811   -0.009320   -0.032334   -0.024182
C     1.336757    1.022677   -3.528351   -0.006412   -0.009702   -0.017820
H     2.165242    0.490645   -4.001567    0.005382    0.025010   -0.027184
H     0.954567    1.813906   -4.183230   -0.034070    0.009288    0.028942
O     0.201685    3.033328   -2.136131    0.006434    0.018234   -0.003802
C     0.197278    0.030089   -3.199447    0.061040   -0.144720   -0.040536
O     0.558168   -0.907657   -2.246093   -0.000198   -0.147748   -0.418432
O    -1.003211    0.719550   -2.869816    0.007140   -0.011530    0.021462
O     0.464809   -0.092521   -0.621784   -0.167828    0.318048    0.853050
H    -0.775698    1.660362   -2.742221    0.134388   -0.034188   -0.072170
H    -2.329501    1.160371    0.970797    0.152192   -0.081110   -0.301542
H     1.250530   -0.582860   -0.311526   -0.177354    0.132208    0.518464
H     0.060743    0.410584    0.617729    0.156380   -0.800064   -0.896098
O    -1.877954    0.414701    1.403249    0.134076    0.049902    0.014702
C    -0.540343    0.700985    1.645003   -0.071190   -0.100294    0.013478
C     0.050097   -0.152090    2.709478    0.018538   -0.019768   -0.124260
H    -0.312621    1.770342    1.752778    0.453484   -0.182426   -0.732300
C     1.199992    0.248962    3.387429    0.029970   -0.001432   -0.036778
C    -0.521547   -1.387146    3.028206    0.001848   -0.034932   -0.019988
C     1.779810   -0.558873    4.344474   -0.017410    0.027730   -0.016104
H     1.647427    1.205182    3.160554    0.048134   -0.015238   -0.035248
C     0.041253   -2.192010    3.987150   -0.024182    0.006194   -0.013440
H    -1.411997   -1.697161    2.505507    0.014452   -0.056148   -0.017198
C     1.216101   -1.799966    4.644938    0.000982   -0.005536    0.014112
H     2.672518   -0.220084    4.842464   -0.037102    0.036630    0.014302
H    -0.390575   -3.148983    4.231272   -0.037388    0.019870   -0.000052
O     1.717996   -2.683697    5.530656   -0.013876    0.027164   -0.040102
C     2.963271   -2.404146    6.152783    0.001818    0.001666   -0.004352
H     3.162016   -3.263477    6.789616   -0.012890   -0.023084   -0.013266
H     3.755200   -2.308434    5.406503    0.006386    0.002282    0.005110
H     2.904704   -1.501128    6.764830    0.007002   -0.006794    0.018896
154
* Frequency(6) -559.8500
C    -0.851666    5.043448    0.606828   -0.000198   -0.001868   -0.000322
C     4.112726    3.257041    0.382437    0.000152   -0.000194    0.001808
C     4.818031   -1.863255    0.587384   -0.002176   -0.000870   -0.003216
C     0.655716   -4.963630   -0.314635    0.001826    0.004520   -0.004226
C    -4.116209   -3.043673   -1.539685    0.010038    0.000410    0.000450
C    -5.038449    1.989929   -0.191502    0.004164   -0.001536    0.000410
O     0.003313    3.922739    0.635961   -0.001370   -0.009576    0.006388
O     3.982594    2.114534    1.168058    0.001652    0.000564    0.002886
O     3.423107   -2.068966    0.578561    0.004198   -0.003832    0.019886
O    -0.273735   -3.919401   -0.425051   -0.009790   -0.005638    0.018378
O    -3.993578   -1.977973   -0.651567   -0.000826   -0.002920    0.005580
O    -3.818426    2.285819    0.446063    0.009332   -0.008648    0.004224
C    -1.747283    5.041674    1.855191    0.000176    0.001894    0.001524
C     3.686934    4.471306    1.232433   -0.000760    0.000428    0.001954
C     5.237410   -1.285117    1.948711    0.001704   -0.000760    0.000164
C     1.171003   -4.996489    1.133723    0.000414   -0.001084   -0.002198
C    -3.991204   -4.330120   -0.699491    0.001840   -0.001348    0.000490
C    -5.801282    0.975927    0.681279   -0.002716    0.003166    0.000996
O    -1.005163    4.979248    3.044995   -0.001050   -0.003962   -0.001334
O     4.439204    4.581766    2.405334   -0.002786    0.000098    0.001068
O     4.925858   -2.128042    3.024253   -0.002168    0.004248   -0.000580
O     0.154815   -5.203156    2.078578    0.006892    0.004412    0.003388
O    -4.993216   -4.413385    0.273649    0.002390    0.000824    0.002026
O    -5.977941    1.442785    1.989794    0.000544   -0.003110   -0.000900
C    -2.678506    3.823225    1.818893    0.000738    0.001230    0.002300
C     2.184163    4.383916    1.556910   -0.001208    0.001906    0.002122
C     4.555716    0.076728    2.116162    0.003446    0.000508    0.001210
C     1.878759   -3.664783    1.420006    0.004686   -0.003112   -0.003746
C    -2.596666   -4.340390   -0.052177    0.002172   -0.003804   -0.005672
C    -5.071054   -0.375366    0.657075   -0.008324   -0.000926    0.000214
O    -3.696777    3.909702    2.782902    0.003056   -0.004500   -0.000206
O     1.736825    5.558876    2.192643   -0.002084   -0.000646    0.002336
O     4.971565    0.712672    3.299314   -0.007016   -0.001632    0.000686
O     2.517580   -3.681623    2.674454   -0.012188    0.007548    0.004388
O    -2.354596   -5.535554    0.653785    0.001872    0.003600    0.004108
O    -5.827506   -1.379157    1.294637    0.003530    0.000920    0.001278
C    -3.366751    3.638789    0.458107    0.004296   -0.002422    0.000076
C     1.353274    4.163750    0.279799    0.002340   -0.007374   -0.000564
C     4.852728    1.010917    0.934769   -0.001706   -0.000880   -0.001528
C     2.951744   -3.391162    0.362132    0.001442   -0.000942   -0.005150
C    -1.490927   -4.172485   -1.106073    0.007172    0.007854   -0.005726
C    -4.827851   -0.836920   -0.784821   -0.000264    0.000614   -0.001574
C    -2.439063    3.912084   -0.738817    0.000770    0.001968   -0.002770
C     1.944108    2.948156   -0.447280    0.004654   -0.008212   -0.002284
C     4.621583    0.303095   -0.416998   -0.004016   -0.001924   -0.002774
C     2.395732   -3.554058   -1.062152   -0.004152    0.009386   -0.005778
C    -1.819310   -2.959946   -1.986472    0.013846    0.021028    0.007124
C    -4.172061    0.269202   -1.627828   -0.000342    0.001024   -0.003918
O    -1.636106    5.072476   -0.547298   -0.002412    0.001450    0.002130
O     3.298814    3.186703   -0.773964    0.005826    0.004310   -0.002016
O     5.208247   -0.999061   -0.437412    0.007616    0.002852    0.000548
O     1.731142   -4.805568   -1.197703    0.006360    0.001160   -0.002204
O    -3.116606   -3.031027   -2.538781    0.011442    0.000440   -0.002510
O    -4.871977    1.507266   -1.492473    0.002084    0.000062    0.000094
C    -3.230917    4.176141   -2.027880   -0.001464    0.001448    0.000328
C     1.233990    2.550882   -1.727852    0.002836   -0.015836   -0.012828
C     5.286224    1.023731   -1.606234   -0.005846    0.001662    0.001204
C     3.516425   -3.538217   -2.108858   -0.001812    0.003244    0.002014
C    -0.822519   -2.735309   -3.114696    0.046398    0.051254    0.021332
C    -4.216583   -0.054015   -3.129058   -0.001910    0.000696   -0.001486
O    -4.140617    5.235529   -1.881788   -0.000880   -0.000054    0.001202
O     1.890786    1.582697   -2.336820   -0.009368   -0.013220   -0.007870
O     6.615009    1.386998   -1.342149   -0.005600   -0.001396   -0.000536
O     4.450431   -4.564266   -1.901537   -0.001088   -0.000112    0.000734
O    -1.203580   -1.714110   -3.886401   -0.007602    0.007320   -0.028180
O    -5.527564   -0.273139   -3.582605   -0.000578   -0.001620    0.002050
H    -0.265862    5.970826    0.580086    0.004656   -0.006330   -0.005096
H     5.137750    3.384301    0.013726    0.000010   -0.000034    0.001984
H     5.352417   -2.800492    0.387928   -0.000916    0.001866   -0.012882
H     0.203218   -5.927311   -0.580473    0.007630    0.002488   -0.021078
H    -5.066537   -3.016295   -2.086992    0.016198    0.004488   -0.010944
H    -5.634205    2.905483   -0.306497    0.010636    0.000242   -0.003898
H    -2.355547    5.959452    1.830824    0.006062    0.005886   -0.007898
H     3.872535    5.382586    0.653672    0.001064   -0.004844   -0.006308
H     6.325768   -1.155207    1.956079    0.001600   -0.005864   -0.012156
H     1.904558   -5.812381    1.218265   -0.001774   -0.007192   -0.018504
H    -4.103421   -5.203278   -1.350321    0.003358    0.005168   -0.007638
H    -6.805357    0.839654    0.264332    0.000862    0.007498   -0.008524
H    -0.119837    5.361973    2.906582   -0.007708    0.008694    0.012072
H     4.512382    3.707714    2.822821    0.004338   -0.002428   -0.002072
H     4.061242   -2.556815    2.873066    0.001662   -0.014728   -0.018676
H    -0.705160   -5.319639    1.632519    0.001858   -0.001706    0.019138
H    -5.130760   -3.535843    0.674161   -0.004922    0.004328   -0.000274
H    -5.159421    1.864796    2.298596   -0.007386    0.019772   -0.001114
H    -2.054260    2.944202    2.021020    0.010706    0.006572    0.006748
H     2.016952    3.518692    2.217317    0.008792    0.006944    0.008568
H     3.467606   -0.091815    2.148051    0.006064   -0.006048   -0.017330
H     1.128153   -2.860312    1.390288    0.012568   -0.008810   -0.044486
H    -2.530364   -3.480841    0.632591    0.006574   -0.001016   -0.012332
H    -4.093055   -0.275687    1.148926   -0.010508   -0.003798    0.000070
H    -3.292543    4.090796    3.645595    0.003808    0.004118   -0.000634
H     2.424787    5.838039    2.820919   -0.002280    0.001222    0.001488
H     5.226737    0.025080    3.934205    0.034712   -0.001010   -0.010532
H     1.926966   -4.113955    3.309528    0.016342   -0.114596   -0.019942
H    -3.170537   -5.777223    1.124307   -0.005262    0.004006   -0.001826
H    -6.137276   -1.029505    2.144995   -0.003620    0.005458   -0.000158
H    -4.227117    4.319425    0.415082    0.004048   -0.004736   -0.009078
H     1.424065    5.041886   -0.373016   -0.000986   -0.015694   -0.009658
H     5.895301    1.353654    0.987746   -0.000630   -0.000920   -0.018988
H     3.768893   -4.110541    0.502525    0.005480   -0.003580   -0.014972
H    -1.410523   -5.075531   -1.722615    0.014962    0.027134   -0.031472
H    -5.784465   -1.123392   -1.242046    0.005596    0.001778   -0.013584
H    -1.788992    3.039798   -0.881783    0.001598    0.011814   -0.046496
H     1.870317    2.075055    0.221773    0.035852   -0.028492   -0.032274
H     3.542234    0.222477   -0.600890   -0.002382   -0.019476   -0.031522
H     1.689505   -2.744667   -1.278876    0.015182    0.038012   -0.014106
H    -1.734880   -2.061726   -1.351303    0.013392    0.026412   -0.006430
H    -3.125851    0.385012   -1.317439    0.014400   -0.004790   -0.056236
H    -3.815511    3.292762   -2.285583    0.004484   -0.000204   -0.006038
H    -2.509421    4.383189   -2.825256   -0.002374   -0.008994   -0.004748
H     5.227631    0.345391   -2.464344   -0.020848    0.009944   -0.006164
H     4.744113    1.938366   -1.841506   -0.009612   -0.000386    0.000804
H     4.065042   -2.597063   -2.035106   -0.016066    0.011166   -0.005064
H     3.051806   -3.617707   -3.097332   -0.003586    0.019708   -0.002428
H    -3.743806    0.773988   -3.667522    0.007884   -0.006698   -0.004730
H    -3.652229   -0.965068   -3.327883    0.015124    0.010514   -0.003136
H    -3.640866    6.051767   -1.735334    0.001046   -0.000112   -0.002334
H     7.152833    0.583774   -1.289005   -0.002990   -0.000716    0.001754
H     3.997201   -5.412182   -2.017819    0.000242   -0.003886   -0.003978
H    -6.023649    0.553708   -3.490114    0.005832    0.006160   -0.006342
C    -0.161515   -0.904999   -4.392091   -0.070978    0.032444   -0.129200
H    -0.574812   -0.323660   -5.218003   -0.146220   -0.002076   -0.106466
H     0.702760   -1.504006   -4.693265   -0.068446    0.047144   -0.136456
O     0.181838   -3.375159   -3.297025   -0.009320   -0.032334   -0.024182
C     1.337495    1.023795   -3.526297   -0.006412   -0.009702   -0.017820
H     2.164622    0.487763   -3.998435    0.005382    0.025010   -0.027184
H     0.958493    1.812836   -4.186564   -0.034070    0.009288    0.028942
O     0.200943    3.031228   -2.135693    0.006434    0.018234   -0.003802
C     0.190246    0.046763   -3.194777    0.061040   -0.144720   -0.040536
O     0.558190   -0.890635   -2.197883   -0.000198   -0.147748   -0.418432
O    -1.004033    0.720878   -2.872288    0.007140   -0.011530    0.021462
O     0.484145   -0.129165   -0.720070   -0.167828    0.318048    0.853050
H    -0.791182    1.664302   -2.733905    0.134388   -0.034188   -0.072170
H    -2.347035    1.169717    1.005539    0.152192   -0.081110   -0.301542
H     1.270964   -0.598092   -0.371262   -0.177354    0.132208    0.518464
H     0.042725    0.502764    0.720975    0.156380   -0.800064   -0.896098
O    -1.893402    0.408951    1.401555    0.134076    0.049902    0.014702
C    -0.532141    0.712541    1.643451   -0.071190   -0.100294    0.013478
C     0.047961   -0.149812    2.723794    0.018538   -0.019768   -0.124260
H    -0.364869    1.791360    1.837150    0.453484   -0.182426   -0.732300
C     1.196538    0.249126    3.391667    0.029970   -0.001432   -0.036778
C    -0.521759   -1.383122    3.030508    0.001848   -0.034932   -0.019988
C     1.781816   -0.562067    4.346330   -0.017410    0.027730   -0.016104
H     1.641881    1.206938    3.164616    0.048134   -0.015238   -0.035248
C     0.044039   -2.192724    3.988698   -0.024182    0.006194   -0.013440
H    -1.413663   -1.690691    2.507489    0.014452   -0.056148   -0.017198
C     1.215987   -1.799328    4.643312    0.000982   -0.005536    0.014112
H     2.676792   -0.224304    4.840816   -0.037102    0.036630    0.014302
H    -0.386267   -3.151273    4.231278   -0.037388    0.019870   -0.000052
O     1.719594   -2.686827    5.535276   -0.013876    0.027164   -0.040102
C     2.963061   -2.404338    6.153285    0.001818    0.001666   -0.004352
H     3.163502   -3.260817    6.791144   -0.012890   -0.023084   -0.013266
H     3.754464   -2.308696    5.405915    0.006386    0.002282    0.005110
H     2.903898   -1.500346    6.762652    0.007002   -0.006794    0.018896
154
* Frequency(6) -559.8500
C    -0.851644    5.043651    0.606863   -0.000198   -0.001868   -0.000322
C     4.112710    3.257062    0.382240    0.000152   -0.000194    0.001808
C     4.818268   -1.863160    0.587735   -0.002176   -0.000870   -0.003216
C     0.655517   -4.964123   -0.314174    0.001826    0.004520   -0.004226
C    -4.117303   -3.043717   -1.539734    0.010038    0.000410    0.000450
C    -5.038903    1.990097   -0.191546    0.004164   -0.001536    0.000410
O     0.003462    3.923782    0.635265   -0.001370   -0.009576    0.006388
O     3.982414    2.114472    1.167743    0.001652    0.000564    0.002886
O     3.422650   -2.068549    0.576394    0.004198   -0.003832    0.019886
O    -0.272668   -3.918787   -0.427053   -0.009790   -0.005638    0.018378
O    -3.993488   -1.977655   -0.652176   -0.000826   -0.002920    0.005580
O    -3.819443    2.286762    0.445602    0.009332   -0.008648    0.004224
C    -1.747302    5.041467    1.855025    0.000176    0.001894    0.001524
C     3.687017    4.471260    1.232220   -0.000760    0.000428    0.001954
C     5.237224   -1.285034    1.948693    0.001704   -0.000760    0.000164
C     1.170958   -4.996370    1.133962    0.000414   -0.001084   -0.002198
C    -3.991405   -4.329973   -0.699545    0.001840   -0.001348    0.000490
C    -5.800986    0.975582    0.681170   -0.002716    0.003166    0.000996
O    -1.005048    4.979680    3.045140   -0.001050   -0.003962   -0.001334
O     4.439508    4.581756    2.405218   -0.002786    0.000098    0.001068
O     4.926094   -2.128505    3.024317   -0.002168    0.004248   -0.000580
O     0.154064   -5.203637    2.078209    0.006892    0.004412    0.003388
O    -4.993476   -4.413475    0.273429    0.002390    0.000824    0.002026
O    -5.978001    1.443124    1.989892    0.000544   -0.003110   -0.000900
C    -2.678586    3.823091    1.818642    0.000738    0.001230    0.002300
C     2.184294    4.383708    1.556679   -0.001208    0.001906    0.002122
C     4.555341    0.076672    2.116030    0.003446    0.000508    0.001210
C     1.878248   -3.664444    1.420414    0.004686   -0.003112   -0.003746
C    -2.596903   -4.339975   -0.051559    0.002172   -0.003804   -0.005672
C    -5.070147   -0.375265    0.657051   -0.008324   -0.000926    0.000214
O    -3.697110    3.910193    2.782924    0.003056   -0.004500   -0.000206
O     1.737052    5.558947    2.192389   -0.002084   -0.000646    0.002336
O     4.972330    0.712850    3.299240   -0.007016   -0.001632    0.000686
O     2.518908   -3.682445    2.673976   -0.012188    0.007548    0.004388
O    -2.354800   -5.535947    0.653338    0.001872    0.003600    0.004108
O    -5.827891   -1.379257    1.294498    0.003530    0.000920    0.001278
C    -3.367220    3.639052    0.458098    0.004296   -0.002422    0.000076
C     1.353019    4.164553    0.279861    0.002340   -0.007374   -0.000564
C     4.852914    1.011013    0.934936   -0.001706   -0.000880   -0.001528
C     2.951587   -3.391059    0.362693    0.001442   -0.000942   -0.005150
C    -1.491709   -4.173341   -1.105449    0.007172    0.007854   -0.005726
C    -4.827822   -0.836987   -0.784650   -0.000264    0.000614   -0.001574
C    -2.439147    3.911869   -0.738516    0.000770    0.001968   -0.002770
C     1.943601    2.949051   -0.447032    0.004654   -0.008212   -0.002284
C     4.622021    0.303305   -0.416696   -0.004016   -0.001924   -0.002774
C     2.396185   -3.555081   -1.061522   -0.004152    0.009386   -0.005778
C    -1.820818   -2.962238   -1.987249    0.013846    0.021028    0.007124
C    -4.172024    0.269090   -1.627401   -0.000342    0.001024   -0.003918
O    -1.635843    5.072318   -0.547530   -0.002412    0.001450    0.002130
O     3.298179    3.186233   -0.773744    0.005826    0.004310   -0.002016
O     5.207417   -0.999372   -0.437471    0.007616    0.002852    0.000548
O     1.730449   -4.805694   -1.197463    0.006360    0.001160   -0.002204
O    -3.117853   -3.031075   -2.538508    0.011442    0.000440   -0.002510
O    -4.872204    1.507260   -1.492484    0.002084    0.000062    0.000094
C    -3.230757    4.175983   -2.027916   -0.001464    0.001448    0.000328
C     1.233681    2.552608   -1.726454    0.002836   -0.015836   -0.012828
C     5.286861    1.023550   -1.606366   -0.005846    0.001662    0.001204
C     3.516623   -3.538570   -2.109077   -0.001812    0.003244    0.002014
C    -0.827575   -2.740894   -3.117021    0.046398    0.051254    0.021332
C    -4.216375   -0.054091   -3.128896   -0.001910    0.000696   -0.001486
O    -4.140521    5.235535   -1.881919   -0.000880   -0.000054    0.001202
O     1.891807    1.584137   -2.335962   -0.009368   -0.013220   -0.007870
O     6.615619    1.387151   -1.342091   -0.005600   -0.001396   -0.000536
O     4.450549   -4.564253   -1.901617   -0.001088   -0.000112    0.000734
O    -1.202752   -1.714907   -3.883330   -0.007602    0.007320   -0.028180
O    -5.527501   -0.272962   -3.582828   -0.000578   -0.001620    0.002050
H    -0.266370    5.971515    0.580641    0.004656   -0.006330   -0.005096
H     5.137749    3.384305    0.013510    0.000010   -0.000034    0.001984
H     5.352517   -2.800696    0.389332   -0.000916    0.001866   -0.012882
H     0.202387   -5.927582   -0.578176    0.007630    0.002488   -0.021078
H    -5.068302   -3.016784   -2.085799    0.016198    0.004488   -0.010944
H    -5.635364    2.905457   -0.306073    0.010636    0.000242   -0.003898
H    -2.356208    5.958811    1.831685    0.006062    0.005886   -0.007898
H     3.872419    5.383114    0.654360    0.001064   -0.004844   -0.006308
H     6.325593   -1.154568    1.957404    0.001600   -0.005864   -0.012156
H     1.904752   -5.811597    1.220281   -0.001774   -0.007192   -0.018504
H    -4.103787   -5.203841   -1.349489    0.003358    0.005168   -0.007638
H    -6.805451    0.838837    0.265261    0.000862    0.007498   -0.008524
H    -0.118997    5.361026    2.905266   -0.007708    0.008694    0.012072
H     4.511909    3.707978    2.823047    0.004338   -0.002428   -0.002072
H     4.061061   -2.555210    2.875101    0.001662   -0.014728   -0.018676
H    -0.705363   -5.319453    1.630434    0.001858   -0.001706    0.019138
H    -5.130224   -3.536315    0.674191   -0.004922    0.004328   -0.000274
H    -5.158616    1.862641    2.298718   -0.007386    0.019772   -0.001114
H    -2.055426    2.943486    2.020285    0.010706    0.006572    0.006748
H     2.015993    3.517935    2.216384    0.008792    0.006944    0.008568
H     3.466945   -0.091156    2.149940    0.006064   -0.006048   -0.017330
H     1.126783   -2.859352    1.395136    0.012568   -0.008810   -0.044486
H    -2.531080   -3.480731    0.633935    0.006574   -0.001016   -0.012332
H    -4.091910   -0.275273    1.148918   -0.010508   -0.003798    0.000070
H    -3.292958    4.090347    3.645664    0.003808    0.004118   -0.000634
H     2.425036    5.837905    2.820757   -0.002280    0.001222    0.001488
H     5.222955    0.025190    3.935352    0.034712   -0.001010   -0.010532
H     1.925185   -4.101467    3.311701    0.016342   -0.114596   -0.019942
H    -3.169963   -5.777659    1.124506   -0.005262    0.004006   -0.001826
H    -6.136882   -1.030100    2.145012   -0.003620    0.005458   -0.000158
H    -4.227558    4.319941    0.416071    0.004048   -0.004736   -0.009078
H     1.424172    5.043596   -0.371963   -0.000986   -0.015694   -0.009658
H     5.895370    1.353754    0.989815   -0.000630   -0.000920   -0.018988
H     3.768296   -4.110151    0.504156    0.005480   -0.003580   -0.014972
H    -1.412153   -5.078488   -1.719185    0.014962    0.027134   -0.031472
H    -5.785075   -1.123586   -1.240566    0.005596    0.001778   -0.013584
H    -1.789166    3.038511   -0.876717    0.001598    0.011814   -0.046496
H     1.866410    2.078160    0.225290    0.035852   -0.028492   -0.032274
H     3.542494    0.224599   -0.597455   -0.002382   -0.019476   -0.031522
H     1.687851   -2.748809   -1.277339    0.015182    0.038012   -0.014106
H    -1.736340   -2.064604   -1.350602    0.013392    0.026412   -0.006430
H    -3.127420    0.385534   -1.311311    0.014400   -0.004790   -0.056236
H    -3.816000    3.292784   -2.284925    0.004484   -0.000204   -0.006038
H    -2.509163    4.384169   -2.824739   -0.002374   -0.008994   -0.004748
H     5.229903    0.344308   -2.463672   -0.020848    0.009944   -0.006164
H     4.745160    1.938408   -1.841594   -0.009612   -0.000386    0.000804
H     4.066792   -2.598280   -2.034554   -0.016066    0.011166   -0.005064
H     3.052196   -3.619855   -3.097068   -0.003586    0.019708   -0.002428
H    -3.744665    0.774718   -3.667006    0.007884   -0.006698   -0.004730
H    -3.653877   -0.966213   -3.327542    0.015124    0.010514   -0.003136
H    -3.640980    6.051780   -1.735079    0.001046   -0.000112   -0.002334
H     7.153159    0.583852   -1.289196   -0.002990   -0.000716    0.001754
H     3.997175   -5.411759   -2.017385    0.000242   -0.003886   -0.003978
H    -6.024285    0.553037   -3.489423    0.005832    0.006160   -0.006342
C    -0.153780   -0.908535   -4.378012   -0.070978    0.032444   -0.129200
H    -0.558877   -0.323434   -5.206401   -0.146220   -0.002076   -0.106466
H     0.710219   -1.509143   -4.678395   -0.068446    0.047144   -0.136456
O     0.182854   -3.371636   -3.294390   -0.009320   -0.032334   -0.024182
C     1.338194    1.024852   -3.524356   -0.006412   -0.009702   -0.017820
H     2.164035    0.485038   -3.995473    0.005382    0.025010   -0.027184
H     0.962205    1.811824   -4.189718   -0.034070    0.009288    0.028942
O     0.200242    3.029241   -2.135279    0.006434    0.018234   -0.003802
C     0.183594    0.062534   -3.190359    0.061040   -0.144720   -0.040536
O     0.558212   -0.874534   -2.152285   -0.000198   -0.147748   -0.418432
O    -1.004811    0.722135   -2.874627    0.007140   -0.011530    0.021462
O     0.502434   -0.163824   -0.813029   -0.167828    0.318048    0.853050
H    -0.805827    1.668027   -2.726041    0.134388   -0.034188   -0.072170
H    -2.363620    1.178555    1.038399    0.152192   -0.081110   -0.301542
H     1.290291   -0.612499   -0.427761   -0.177354    0.132208    0.518464
H     0.025684    0.589950    0.818625    0.156380   -0.800064   -0.896098
O    -1.908013    0.403513    1.399953    0.134076    0.049902    0.014702
C    -0.524383    0.723470    1.641982   -0.071190   -0.100294    0.013478
C     0.045941   -0.147658    2.737335    0.018538   -0.019768   -0.124260
H    -0.414287    1.811240    1.916952    0.453484   -0.182426   -0.732300
C     1.193273    0.249283    3.395675    0.029970   -0.001432   -0.036778
C    -0.521961   -1.379315    3.032687    0.001848   -0.034932   -0.019988
C     1.783713   -0.565089    4.348085   -0.017410    0.027730   -0.016104
H     1.636636    1.208598    3.168457    0.048134   -0.015238   -0.035248
C     0.046674   -2.193399    3.990163   -0.024182    0.006194   -0.013440
H    -1.415237   -1.684573    2.509363    0.014452   -0.056148   -0.017198
C     1.215880   -1.798725    4.641774    0.000982   -0.005536    0.014112
H     2.680836   -0.228296    4.839258   -0.037102    0.036630    0.014302
H    -0.382193   -3.153438    4.231284   -0.037388    0.019870   -0.000052
O     1.721106   -2.689787    5.539646   -0.013876    0.027164   -0.040102
C     2.962863   -2.404520    6.153759    0.001818    0.001666   -0.004352
H     3.164906   -3.258302    6.792590   -0.012890   -0.023084   -0.013266
H     3.753768   -2.308945    5.405358    0.006386    0.002282    0.005110
H     2.903135   -1.499605    6.760593    0.007002   -0.006794    0.018896
154
* Frequency(6) -559.8500
C    -0.851626    5.043821    0.606892   -0.000198   -0.001868   -0.000322
C     4.112696    3.257080    0.382075    0.000152   -0.000194    0.001808
C     4.818466   -1.863081    0.588027   -0.002176   -0.000870   -0.003216
C     0.655351   -4.964534   -0.313790    0.001826    0.004520   -0.004226
C    -4.118216   -3.043755   -1.539775    0.010038    0.000410    0.000450
C    -5.039281    1.990237   -0.191584    0.004164   -0.001536    0.000410
O     0.003587    3.924653    0.634684   -0.001370   -0.009576    0.006388
O     3.982264    2.114421    1.167481    0.001652    0.000564    0.002886
O     3.422268   -2.068200    0.574586    0.004198   -0.003832    0.019886
O    -0.271778   -3.918274   -0.428724   -0.009790   -0.005638    0.018378
O    -3.993413   -1.977389   -0.652683   -0.000826   -0.002920    0.005580
O    -3.820291    2.287548    0.445218    0.009332   -0.008648    0.004224
C    -1.747318    5.041295    1.854887    0.000176    0.001894    0.001524
C     3.687086    4.471221    1.232043   -0.000760    0.000428    0.001954
C     5.237069   -1.284965    1.948678    0.001704   -0.000760    0.000164
C     1.170920   -4.996272    1.134162    0.000414   -0.001084   -0.002198
C    -3.991572   -4.329851   -0.699589    0.001840   -0.001348    0.000490
C    -5.800739    0.975294    0.681080   -0.002716    0.003166    0.000996
O    -1.004953    4.980040    3.045262   -0.001050   -0.003962   -0.001334
O     4.439761    4.581747    2.405121   -0.002786    0.000098    0.001068
O     4.926291   -2.128891    3.024369   -0.002168    0.004248   -0.000580
O     0.153437   -5.204038    2.077901    0.006892    0.004412    0.003388
O    -4.993693   -4.413550    0.273244    0.002390    0.000824    0.002026
O    -5.978050    1.443407    1.989974    0.000544   -0.003110   -0.000900
C    -2.678653    3.822979    1.818433    0.000738    0.001230    0.002300
C     2.184404    4.383535    1.556486   -0.001208    0.001906    0.002122
C     4.555028    0.076626    2.115920    0.003446    0.000508    0.001210
C     1.877822   -3.664161    1.420755    0.004686   -0.003112   -0.003746
C    -2.597100   -4.339629   -0.051043    0.002172   -0.003804   -0.005672
C    -5.069391   -0.375181    0.657032   -0.008324   -0.000926    0.000214
O    -3.697388    3.910602    2.782943    0.003056   -0.004500   -0.000206
O     1.737242    5.559005    2.192176   -0.002084   -0.000646    0.002336
O     4.972968    0.712998    3.299177   -0.007016   -0.001632    0.000686
O     2.520016   -3.683132    2.673577   -0.012188    0.007548    0.004388
O    -2.354970   -5.536274    0.652964    0.001872    0.003600    0.004108
O    -5.828212   -1.379341    1.294382    0.003530    0.000920    0.001278
C    -3.367610    3.639273    0.458091    0.004296   -0.002422    0.000076
C     1.352806    4.165224    0.279912    0.002340   -0.007374   -0.000564
C     4.853069    1.011093    0.935074   -0.001706   -0.000880   -0.001528
C     2.951456   -3.390973    0.363161    0.001442   -0.000942   -0.005150
C    -1.492361   -4.174055   -1.104929    0.007172    0.007854   -0.005726
C    -4.827798   -0.837043   -0.784507   -0.000264    0.000614   -0.001574
C    -2.439217    3.911690   -0.738264    0.000770    0.001968   -0.002770
C     1.943178    2.949798   -0.446824    0.004654   -0.008212   -0.002284
C     4.622386    0.303479   -0.416444   -0.004016   -0.001924   -0.002774
C     2.396562   -3.555934   -1.060997   -0.004152    0.009386   -0.005778
C    -1.822077   -2.964150   -1.987896    0.013846    0.021028    0.007124
C    -4.171993    0.268997   -1.627045   -0.000342    0.001024   -0.003918
O    -1.635624    5.072187   -0.547723   -0.002412    0.001450    0.002130
O     3.297650    3.185841   -0.773561    0.005826    0.004310   -0.002016
O     5.206725   -0.999631   -0.437521    0.007616    0.002852    0.000548
O     1.729870   -4.805800   -1.197262    0.006360    0.001160   -0.002204
O    -3.118893   -3.031115   -2.538280    0.011442    0.000440   -0.002510
O    -4.872394    1.507254   -1.492492    0.002084    0.000062    0.000094
C    -3.230624    4.175851   -2.027945   -0.001464    0.001448    0.000328
C     1.233423    2.554048   -1.725288    0.002836   -0.015836   -0.012828
C     5.287392    1.023399   -1.606475   -0.005846    0.001662    0.001204
C     3.516788   -3.538865   -2.109261   -0.001812    0.003244    0.002014
C    -0.831794   -2.745554   -3.118960    0.046398    0.051254    0.021332
C    -4.216201   -0.054154   -3.128761   -0.001910    0.000696   -0.001486
O    -4.140441    5.235540   -1.882029   -0.000880   -0.000054    0.001202
O     1.892658    1.585339   -2.335246   -0.009368   -0.013220   -0.007870
O     6.616128    1.387277   -1.342042   -0.005600   -0.001396   -0.000536
O     4.450648   -4.564243   -1.901684   -0.001088   -0.000112    0.000734
O    -1.202060   -1.715573   -3.880768   -0.007602    0.007320   -0.028180
O    -5.527448   -0.272815   -3.583015   -0.000578   -0.001620    0.002050
H    -0.266793    5.972091    0.581104    0.004656   -0.006330   -0.005096
H     5.137748    3.384308    0.013329    0.000010   -0.000034    0.001984
H     5.352600   -2.800866    0.390503   -0.000916    0.001866   -0.012882
H     0.201693   -5.927809   -0.576259    0.007630    0.002488   -0.021078
H    -5.069775   -3.017192   -2.084804    0.016198    0.004488   -0.010944
H    -5.636331    2.905435   -0.305718    0.010636    0.000242   -0.003898
H    -2.356759    5.958275    1.832403    0.006062    0.005886   -0.007898
H     3.872322    5.383554    0.654933    0.001064   -0.004844   -0.006308
H     6.325448   -1.154035    1.958509    0.001600   -0.005864   -0.012156
H     1.904913   -5.810943    1.221964   -0.001774   -0.007192   -0.018504
H    -4.104093   -5.204311   -1.348794    0.003358    0.005168   -0.007638
H    -6.805529    0.838155    0.266036    0.000862    0.007498   -0.008524
H    -0.118296    5.360235    2.904168   -0.007708    0.008694    0.012072
H     4.511515    3.708199    2.823236    0.004338   -0.002428   -0.002072
H     4.060910   -2.553870    2.876799    0.001662   -0.014728   -0.018676
H    -0.705531   -5.319298    1.628694    0.001858   -0.001706    0.019138
H    -5.129777   -3.536708    0.674216   -0.004922    0.004328   -0.000274
H    -5.157944    1.860844    2.298819   -0.007386    0.019772   -0.001114
H    -2.056400    2.942889    2.019671    0.010706    0.006572    0.006748
H     2.015194    3.517304    2.215605    0.008792    0.006944    0.008568
H     3.466393   -0.090606    2.151516    0.006064   -0.006048   -0.017330
H     1.125641   -2.858551    1.399180    0.012568   -0.008810   -0.044486
H    -2.531678   -3.480638    0.635057    0.006574   -0.001016   -0.012332
H    -4.090954   -0.274928    1.148912   -0.010508   -0.003798    0.000070
H    -3.293305    4.089973    3.645721    0.003808    0.004118   -0.000634
H     2.425243    5.837794    2.820622   -0.002280    0.001222    0.001488
H     5.219799    0.025282    3.936310    0.034712   -0.001010   -0.010532
H     1.923699   -4.091048    3.313514    0.016342   -0.114596   -0.019942
H    -3.169485   -5.778024    1.124672   -0.005262    0.004006   -0.001826
H    -6.136553   -1.030596    2.145027   -0.003620    0.005458   -0.000158
H    -4.227926    4.320372    0.416897    0.004048   -0.004736   -0.009078
H     1.424262    5.045023   -0.371085   -0.000986   -0.015694   -0.009658
H     5.895427    1.353838    0.991541   -0.000630   -0.000920   -0.018988
H     3.767798   -4.109825    0.505517    0.005480   -0.003580   -0.014972
H    -1.413514   -5.080955   -1.716324    0.014962    0.027134   -0.031472
H    -5.785584   -1.123748   -1.239331    0.005596    0.001778   -0.013584
H    -1.789311    3.037437   -0.872489    0.001598    0.011814   -0.046496
H     1.863150    2.080751    0.228225    0.035852   -0.028492   -0.032274
H     3.542710    0.226370   -0.594589   -0.002382   -0.019476   -0.031522
H     1.686471   -2.752265   -1.276057    0.015182    0.038012   -0.014106
H    -1.737557   -2.067005   -1.350017    0.013392    0.026412   -0.006430
H    -3.128729    0.385969   -1.306198    0.014400   -0.004790   -0.056236
H    -3.816408    3.292803   -2.284376    0.004484   -0.000204   -0.006038
H    -2.508947    4.384987   -2.824307   -0.002374   -0.008994   -0.004748
H     5.231798    0.343403   -2.463112   -0.020848    0.009944   -0.006164
H     4.746034    1.938443   -1.841667   -0.009612   -0.000386    0.000804
H     4.068253   -2.599295   -2.034094   -0.016066    0.011166   -0.005064
H     3.052522   -3.621647   -3.096847   -0.003586    0.019708   -0.002428
H    -3.745382    0.775327   -3.666576    0.007884   -0.006698   -0.004730
H    -3.655252   -0.967169   -3.327256    0.015124    0.010514   -0.003136
H    -3.641075    6.051790   -1.734867    0.001046   -0.000112   -0.002334
H     7.153431    0.583917   -1.289356   -0.002990   -0.000716    0.001754
H     3.997153   -5.411405   -2.017024    0.000242   -0.003886   -0.003978
H    -6.024815    0.552477   -3.488846    0.005832    0.006160   -0.006342
C    -0.147327   -0.911484   -4.366265   -0.070978    0.032444   -0.129200
H    -0.545583   -0.323245   -5.196721   -0.146220   -0.002076   -0.106466
H     0.716442   -1.513430   -4.665988   -0.068446    0.047144   -0.136456
O     0.183701   -3.368696   -3.292191   -0.009320   -0.032334   -0.024182
C     1.338777    1.025734   -3.522735   -0.006412   -0.009702   -0.017820
H     2.163546    0.482764   -3.993001    0.005382    0.025010   -0.027184
H     0.965303    1.810979   -4.192350   -0.034070    0.009288    0.028942
O     0.199657    3.027583   -2.134933    0.006434    0.018234   -0.003802
C     0.178044    0.075692   -3.186674    0.061040   -0.144720   -0.040536
O     0.558230   -0.861100   -2.114240   -0.000198   -0.147748   -0.418432
O    -1.005461    0.723183   -2.876579    0.007140   -0.011530    0.021462
O     0.517693   -0.192741   -0.890590   -0.167828    0.318048    0.853050
H    -0.818045    1.671136   -2.719479    0.134388   -0.034188   -0.072170
H    -2.377458    1.185930    1.065816    0.152192   -0.081110   -0.301542
H     1.306416   -0.624520   -0.474900   -0.177354    0.132208    0.518464
H     0.011466    0.662693    0.900100    0.156380   -0.800064   -0.896098
O    -1.920203    0.398976    1.398616    0.134076    0.049902    0.014702
C    -0.517910    0.732589    1.640756   -0.071190   -0.100294    0.013478
C     0.044255   -0.145861    2.748633    0.018538   -0.019768   -0.124260
H    -0.455519    1.827826    1.983534    0.453484   -0.182426   -0.732300
C     1.190548    0.249413    3.399018    0.029970   -0.001432   -0.036778
C    -0.522129   -1.376139    3.034504    0.001848   -0.034932   -0.019988
C     1.785296   -0.567611    4.349549   -0.017410    0.027730   -0.016104
H     1.632259    1.209984    3.171661    0.048134   -0.015238   -0.035248
C     0.048873   -2.193962    3.991385   -0.024182    0.006194   -0.013440
H    -1.416551   -1.679468    2.510927    0.014452   -0.056148   -0.017198
C     1.215791   -1.798221    4.640491    0.000982   -0.005536    0.014112
H     2.684209   -0.231626    4.837957   -0.037102    0.036630    0.014302
H    -0.378793   -3.155245    4.231288   -0.037388    0.019870   -0.000052
O     1.722368   -2.692257    5.543292   -0.013876    0.027164   -0.040102
C     2.962698   -2.404671    6.154155    0.001818    0.001666   -0.004352
H     3.166078   -3.256203    6.793796   -0.012890   -0.023084   -0.013266
H     3.753188   -2.309153    5.404893    0.006386    0.002282    0.005110
H     2.902498   -1.498988    6.758875    0.007002   -0.006794    0.018896
154
* Frequency(6) -559.8500
C    -0.851614    5.043939    0.606912   -0.000198   -0.001868   -0.000322
C     4.112686    3.257092    0.381961    0.000152   -0.000194    0.001808
C     4.818603   -1.863026    0.588230   -0.002176   -0.000870   -0.003216
C     0.655236   -4.964819   -0.313523    0.001826    0.004520   -0.004226
C    -4.118848   -3.043780   -1.539803    0.010038    0.000410    0.000450
C    -5.039544    1.990333   -0.191609    0.004164   -0.001536    0.000410
O     0.003673    3.925256    0.634282   -0.001370   -0.009576    0.006388
O     3.982159    2.114385    1.167299    0.001652    0.000564    0.002886
O     3.422003   -2.067959    0.573333    0.004198   -0.003832    0.019886
O    -0.271161   -3.917919   -0.429883   -0.009790   -0.005638    0.018378
O    -3.993361   -1.977205   -0.653035   -0.000826   -0.002920    0.005580
O    -3.820879    2.288093    0.444952    0.009332   -0.008648    0.004224
C    -1.747329    5.041176    1.854791    0.000176    0.001894    0.001524
C     3.687134    4.471194    1.231920   -0.000760    0.000428    0.001954
C     5.236962   -1.284917    1.948667    0.001704   -0.000760    0.000164
C     1.170894   -4.996204    1.134301    0.000414   -0.001084   -0.002198
C    -3.991688   -4.329766   -0.699620    0.001840   -0.001348    0.000490
C    -5.800567    0.975094    0.681017   -0.002716    0.003166    0.000996
O    -1.004886    4.980290    3.045346   -0.001050   -0.003962   -0.001334
O     4.439937    4.581741    2.405054   -0.002786    0.000098    0.001068
O     4.926428   -2.129159    3.024406   -0.002168    0.004248   -0.000580
O     0.153003   -5.204316    2.077687    0.006892    0.004412    0.003388
O    -4.993844   -4.413602    0.273117    0.002390    0.000824    0.002026
O    -5.978084    1.443603    1.990030    0.000544   -0.003110   -0.000900
C    -2.678700    3.822902    1.818288    0.000738    0.001230    0.002300
C     2.184480    4.383415    1.556352   -0.001208    0.001906    0.002122
C     4.554810    0.076594    2.115844    0.003446    0.000508    0.001210
C     1.877527   -3.663965    1.420991    0.004686   -0.003112   -0.003746
C    -2.597237   -4.339390   -0.050686    0.002172   -0.003804   -0.005672
C    -5.068866   -0.375122    0.657018   -0.008324   -0.000926    0.000214
O    -3.697581    3.910885    2.782956    0.003056   -0.004500   -0.000206
O     1.737373    5.559046    2.192029   -0.002084   -0.000646    0.002336
O     4.973410    0.713101    3.299134   -0.007016   -0.001632    0.000686
O     2.520785   -3.683607    2.673301   -0.012188    0.007548    0.004388
O    -2.355088   -5.536501    0.652705    0.001872    0.003600    0.004108
O    -5.828434   -1.379399    1.294301    0.003530    0.000920    0.001278
C    -3.367881    3.639425    0.458087    0.004296   -0.002422    0.000076
C     1.352659    4.165689    0.279948    0.002340   -0.007374   -0.000564
C     4.853177    1.011148    0.935171   -0.001706   -0.000880   -0.001528
C     2.951365   -3.390914    0.363486    0.001442   -0.000942   -0.005150
C    -1.492813   -4.174550   -1.104568    0.007172    0.007854   -0.005726
C    -4.827781   -0.837082   -0.784408   -0.000264    0.000614   -0.001574
C    -2.439266    3.911566   -0.738089    0.000770    0.001968   -0.002770
C     1.942884    2.950315   -0.446680    0.004654   -0.008212   -0.002284
C     4.622639    0.303601   -0.416269   -0.004016   -0.001924   -0.002774
C     2.396824   -3.556525   -1.060633   -0.004152    0.009386   -0.005778
C    -1.822950   -2.965475   -1.988345    0.013846    0.021028    0.007124
C    -4.171971    0.268933   -1.626798   -0.000342    0.001024   -0.003918
O    -1.635472    5.072095   -0.547858   -0.002412    0.001450    0.002130
O     3.297283    3.185570   -0.773434    0.005826    0.004310   -0.002016
O     5.206245   -0.999811   -0.437556    0.007616    0.002852    0.000548
O     1.729469   -4.805873   -1.197124    0.006360    0.001160   -0.002204
O    -3.119614   -3.031143   -2.538121    0.011442    0.000440   -0.002510
O    -4.872525    1.507250   -1.492498    0.002084    0.000062    0.000094
C    -3.230532    4.175760   -2.027966   -0.001464    0.001448    0.000328
C     1.233244    2.555046   -1.724479    0.002836   -0.015836   -0.012828
C     5.287761    1.023294   -1.606551   -0.005846    0.001662    0.001204
C     3.516902   -3.539070   -2.109388   -0.001812    0.003244    0.002014
C    -0.834718   -2.748784   -3.120304    0.046398    0.051254    0.021332
C    -4.216081   -0.054198   -3.128668   -0.001910    0.000696   -0.001486
O    -4.140386    5.235543   -1.882104   -0.000880   -0.000054    0.001202
O     1.893249    1.586172   -2.334751   -0.009368   -0.013220   -0.007870
O     6.616481    1.387365   -1.342008   -0.005600   -0.001396   -0.000536
O     4.450717   -4.564236   -1.901730   -0.001088   -0.000112    0.000734
O    -1.201581   -1.716034   -3.878992   -0.007602    0.007320   -0.028180
O    -5.527412   -0.272713   -3.583144   -0.000578   -0.001620    0.002050
H    -0.267086    5.972490    0.581425    0.004656   -0.006330   -0.005096
H     5.137748    3.384310    0.013204    0.000010   -0.000034    0.001984
H     5.352658   -2.800983    0.391315   -0.000916    0.001866   -0.012882
H     0.201212   -5.927965   -0.574931    0.007630    0.002488   -0.021078
H    -5.070796   -3.017474   -2.084114    0.016198    0.004488   -0.010944
H    -5.637001    2.905419   -0.305473    0.010636    0.000242   -0.003898
H    -2.357141    5.957904    1.832900    0.006062    0.005886   -0.007898
H     3.872255    5.383860    0.655331    0.001064   -0.004844   -0.006308
H     6.325347   -1.153665    1.959275    0.001600   -0.005864   -0.012156
H     1.905025   -5.810490    1.223130   -0.001774   -0.007192   -0.018504
H    -4.104304   -5.204636   -1.348313    0.003358    0.005168   -0.007638
H    -6.805583    0.837683    0.266573    0.000862    0.007498   -0.008524
H    -0.117810    5.359687    2.903408   -0.007708    0.008694    0.012072
H     4.511242    3.708352    2.823366    0.004338   -0.002428   -0.002072
H     4.060805   -2.552942    2.877976    0.001662   -0.014728   -0.018676
H    -0.705649   -5.319190    1.627488    0.001858   -0.001706    0.019138
H    -5.129466   -3.536981    0.674233   -0.004922    0.004328   -0.000274
H    -5.157479    1.859598    2.298889   -0.007386    0.019772   -0.001114
H    -2.057074    2.942475    2.019246    0.010706    0.006572    0.006748
H     2.014640    3.516866    2.215065    0.008792    0.006944    0.008568
H     3.466011   -0.090224    2.152608    0.006064   -0.006048   -0.017330
H     1.124849   -2.857996    1.401984    0.012568   -0.008810   -0.044486
H    -2.532092   -3.480574    0.635834    0.006574   -0.001016   -0.012332
H    -4.090292   -0.274689    1.148908   -0.010508   -0.003798    0.000070
H    -3.293545    4.089713    3.645761    0.003808    0.004118   -0.000634
H     2.425387    5.837717    2.820528   -0.002280    0.001222    0.001488
H     5.217611    0.025346    3.936974    0.034712   -0.001010   -0.010532
H     1.922669   -4.083827    3.314771    0.016342   -0.114596   -0.019942
H    -3.169153   -5.778276    1.124787   -0.005262    0.004006   -0.001826
H    -6.136325   -1.030940    2.145037   -0.003620    0.005458   -0.000158
H    -4.228181    4.320670    0.417469    0.004048   -0.004736   -0.009078
H     1.424324    5.046012   -0.370476   -0.000986   -0.015694   -0.009658
H     5.895467    1.353896    0.992738   -0.000630   -0.000920   -0.018988
H     3.767453   -4.109600    0.506461    0.005480   -0.003580   -0.014972
H    -1.414457   -5.082665   -1.714341    0.014962    0.027134   -0.031472
H    -5.785937   -1.123860   -1.238475    0.005596    0.001778   -0.013584
H    -1.789412    3.036692   -0.869559    0.001598    0.011814   -0.046496
H     1.860891    2.082546    0.230258    0.035852   -0.028492   -0.032274
H     3.542860    0.227597   -0.592603   -0.002382   -0.019476   -0.031522
H     1.685514   -2.754661   -1.275168    0.015182    0.038012   -0.014106
H    -1.738401   -2.068670   -1.349612    0.013392    0.026412   -0.006430
H    -3.129636    0.386271   -1.302654    0.014400   -0.004790   -0.056236
H    -3.816690    3.292815   -2.283996    0.004484   -0.000204   -0.006038
H    -2.508797    4.385554   -2.824008   -0.002374   -0.008994   -0.004748
H     5.233112    0.342777   -2.462723   -0.020848    0.009944   -0.006164
H     4.746640    1.938468   -1.841718   -0.009612   -0.000386    0.000804
H     4.069265   -2.599999   -2.033775   -0.016066    0.011166   -0.005064
H     3.052748   -3.622889   -3.096694   -0.003586    0.019708   -0.002428
H    -3.745879    0.775749   -3.666278    0.007884   -0.006698   -0.004730
H    -3.656206   -0.967832   -3.327059    0.015124    0.010514   -0.003136
H    -3.641141    6.051797   -1.734720    0.001046   -0.000112   -0.002334
H     7.153619    0.583962   -1.289466   -0.002990   -0.000716    0.001754
H     3.997137   -5.411160   -2.016773    0.000242   -0.003886   -0.003978
H    -6.025182    0.552089   -3.488446    0.005832    0.006160   -0.006342
C    -0.142854   -0.913529   -4.358123   -0.070978    0.032444   -0.129200
H    -0.536368   -0.323115   -5.190011   -0.146220   -0.002076   -0.106466
H     0.720755   -1.516401   -4.657389   -0.068446    0.047144   -0.136456
O     0.184288   -3.366658   -3.290667   -0.009320   -0.032334   -0.024182
C     1.339181    1.026346   -3.521612   -0.006412   -0.009702   -0.017820
H     2.163207    0.481188   -3.991288    0.005382    0.025010   -0.027184
H     0.967450    1.810394   -4.194174   -0.034070    0.009288    0.028942
O     0.199252    3.026434   -2.134693    0.006434    0.018234   -0.003802
C     0.174197    0.084812   -3.184119    0.061040   -0.144720   -0.040536
O     0.558242   -0.851790   -2.087872   -0.000198   -0.147748   -0.418432
O    -1.005911    0.723910   -2.877931    0.007140   -0.011530    0.021462
O     0.528269   -0.212784   -0.944347   -0.167828    0.318048    0.853050
H    -0.826514    1.673290   -2.714931    0.134388   -0.034188   -0.072170
H    -2.387049    1.191041    1.084818    0.152192   -0.081110   -0.301542
H     1.317593   -0.632851   -0.507572   -0.177354    0.132208    0.518464
H     0.001611    0.713111    0.956570    0.156380   -0.800064   -0.896098
O    -1.928652    0.395831    1.397690    0.134076    0.049902    0.014702
C    -0.513424    0.738909    1.639907   -0.071190   -0.100294    0.013478
C     0.043087   -0.144615    2.756464    0.018538   -0.019768   -0.124260
H    -0.484096    1.839322    2.029681    0.453484   -0.182426   -0.732300
C     1.188659    0.249503    3.401336    0.029970   -0.001432   -0.036778
C    -0.522245   -1.373938    3.035764    0.001848   -0.034932   -0.019988
C     1.786393   -0.569358    4.350564   -0.017410    0.027730   -0.016104
H     1.629226    1.210944    3.173883    0.048134   -0.015238   -0.035248
C     0.050397   -2.194352    3.992232   -0.024182    0.006194   -0.013440
H    -1.417462   -1.675929    2.512010    0.014452   -0.056148   -0.017198
C     1.215729   -1.797873    4.639602    0.000982   -0.005536    0.014112
H     2.686547   -0.233935    4.837056   -0.037102    0.036630    0.014302
H    -0.376437   -3.156497    4.231292   -0.037388    0.019870   -0.000052
O     1.723243   -2.693969    5.545820   -0.013876    0.027164   -0.040102
C     2.962583   -2.404776    6.154429    0.001818    0.001666   -0.004352
H     3.166891   -3.254748    6.794632   -0.012890   -0.023084   -0.013266
H     3.752785   -2.309296    5.404571    0.006386    0.002282    0.005110
H     2.902057   -1.498559    6.757684    0.007002   -0.006794    0.018896
154
* Frequency(6) -559.8500
C    -0.851608    5.043992    0.606921   -0.000198   -0.001868   -0.000322
C     4.112682    3.257098    0.381910    0.000152   -0.000194    0.001808
C     4.818665   -1.863002    0.588321   -0.002176   -0.000870   -0.003216
C     0.655184   -4.964947   -0.313404    0.001826    0.004520   -0.004226
C    -4.119132   -3.043792   -1.539816    0.010038    0.000410    0.000450
C    -5.039661    1.990377   -0.191621    0.004164   -0.001536    0.000410
O     0.003712    3.925527    0.634101   -0.001370   -0.009576    0.006388
O     3.982113    2.114369    1.167217    0.001652    0.000564    0.002886
O     3.421885   -2.067850    0.572771    0.004198   -0.003832    0.019886
O    -0.270884   -3.917759   -0.430402   -0.009790   -0.005638    0.018378
O    -3.993338   -1.977122   -0.653192   -0.000826   -0.002920    0.005580
O    -3.821143    2.288337    0.444833    0.009332   -0.008648    0.004224
C    -1.747334    5.041122    1.854747    0.000176    0.001894    0.001524
C     3.687155    4.471182    1.231864   -0.000760    0.000428    0.001954
C     5.236914   -1.284896    1.948663    0.001704   -0.000760    0.000164
C     1.170883   -4.996173    1.134363    0.000414   -0.001084   -0.002198
C    -3.991740   -4.329728   -0.699634    0.001840   -0.001348    0.000490
C    -5.800491    0.975005    0.680989   -0.002716    0.003166    0.000996
O    -1.004857    4.980402    3.045383   -0.001050   -0.003962   -0.001334
O     4.440016    4.581738    2.405023   -0.002786    0.000098    0.001068
O     4.926489   -2.129279    3.024422   -0.002168    0.004248   -0.000580
O     0.152808   -5.204441    2.077591    0.006892    0.004412    0.003388
O    -4.993912   -4.413625    0.273059    0.002390    0.000824    0.002026
O    -5.978100    1.443691    1.990056    0.000544   -0.003110   -0.000900
C    -2.678720    3.822867    1.818223    0.000738    0.001230    0.002300
C     2.184514    4.383361    1.556292   -0.001208    0.001906    0.002122
C     4.554713    0.076580    2.115810    0.003446    0.000508    0.001210
C     1.877395   -3.663877    1.421097    0.004686   -0.003112   -0.003746
C    -2.597299   -4.339282   -0.050526    0.002172   -0.003804   -0.005672
C    -5.068631   -0.375096    0.657012   -0.008324   -0.000926    0.000214
O    -3.697667    3.911013    2.782962    0.003056   -0.004500   -0.000206
O     1.737432    5.559064    2.191963   -0.002084   -0.000646    0.002336
O     4.973608    0.713147    3.299115   -0.007016   -0.001632    0.000686
O     2.521129   -3.683821    2.673176   -0.012188    0.007548    0.004388
O    -2.355141   -5.536603    0.652589    0.001872    0.003600    0.004108
O    -5.828534   -1.379425    1.294265    0.003530    0.000920    0.001278
C    -3.368002    3.639494    0.458084    0.004296   -0.002422    0.000076
C     1.352593    4.165897    0.279964    0.002340   -0.007374   -0.000564
C     4.853225    1.011173    0.935214   -0.001706   -0.000880   -0.001528
C     2.951324   -3.390887    0.363631    0.001442   -0.000942   -0.005150
C    -1.493016   -4.174773   -1.104406    0.007172    0.007854   -0.005726
C    -4.827774   -0.837099   -0.784363   -0.000264    0.000614   -0.001574
C    -2.439288    3.911511   -0.738011    0.000770    0.001968   -0.002770
C     1.942753    2.950547   -0.446615    0.004654   -0.008212   -0.002284
C     4.622753    0.303655   -0.416190   -0.004016   -0.001924   -0.002774
C     2.396941   -3.556791   -1.060470   -0.004152    0.009386   -0.005778
C    -1.823342   -2.966070   -1.988547    0.013846    0.021028    0.007124
C    -4.171962    0.268904   -1.626687   -0.000342    0.001024   -0.003918
O    -1.635404    5.072054   -0.547918   -0.002412    0.001450    0.002130
O     3.297118    3.185448   -0.773377    0.005826    0.004310   -0.002016
O     5.206030   -0.999892   -0.437571    0.007616    0.002852    0.000548
O     1.729290   -4.805906   -1.197061    0.006360    0.001160   -0.002204
O    -3.119938   -3.031155   -2.538051    0.011442    0.000440   -0.002510
O    -4.872584    1.507248   -1.492501    0.002084    0.000062    0.000094
C    -3.230490    4.175719   -2.027975   -0.001464    0.001448    0.000328
C     1.233164    2.555494   -1.724117    0.002836   -0.015836   -0.012828
C     5.287926    1.023247   -1.606585   -0.005846    0.001662    0.001204
C     3.516953   -3.539162   -2.109444   -0.001812    0.003244    0.002014
C    -0.836030   -2.750234   -3.120908    0.046398    0.051254    0.021332
C    -4.216027   -0.054218   -3.128626   -0.001910    0.000696   -0.001486
O    -4.140361    5.235545   -1.882138   -0.000880   -0.000054    0.001202
O     1.893514    1.586546   -2.334528   -0.009368   -0.013220   -0.007870
O     6.616639    1.387405   -1.341993   -0.005600   -0.001396   -0.000536
O     4.450747   -4.564233   -1.901751   -0.001088   -0.000112    0.000734
O    -1.201366   -1.716241   -3.878195   -0.007602    0.007320   -0.028180
O    -5.527395   -0.272667   -3.583202   -0.000578   -0.001620    0.002050
H    -0.267218    5.972669    0.581570    0.004656   -0.006330   -0.005096
H     5.137748    3.384311    0.013148    0.000010   -0.000034    0.001984
H     5.352684   -2.801036    0.391679   -0.000916    0.001866   -0.012882
H     0.200997   -5.928036   -0.574335    0.007630    0.002488   -0.021078
H    -5.071254   -3.017601   -2.083805    0.016198    0.004488   -0.010944
H    -5.637302    2.905413   -0.305362    0.010636    0.000242   -0.003898
H    -2.357312    5.957738    1.833124    0.006062    0.005886   -0.007898
H     3.872225    5.383997    0.655509    0.001064   -0.004844   -0.006308
H     6.325302   -1.153500    1.959619    0.001600   -0.005864   -0.012156
H     1.905075   -5.810286    1.223653   -0.001774   -0.007192   -0.018504
H    -4.104399   -5.204783   -1.348097    0.003358    0.005168   -0.007638
H    -6.805608    0.837471    0.266814    0.000862    0.007498   -0.008524
H    -0.117592    5.359441    2.903066   -0.007708    0.008694    0.012072
H     4.511119    3.708421    2.823425    0.004338   -0.002428   -0.002072
H     4.060758   -2.552526    2.878504    0.001662   -0.014728   -0.018676
H    -0.705701   -5.319142    1.626947    0.001858   -0.001706    0.019138
H    -5.129327   -3.537104    0.674241   -0.004922    0.004328   -0.000274
H    -5.157270    1.859038    2.298921   -0.007386    0.019772   -0.001114
H    -2.057377    2.942289    2.019055    0.010706    0.006572    0.006748
H     2.014391    3.516670    2.214822    0.008792    0.006944    0.008568
H     3.465840   -0.090053    2.153098    0.006064   -0.006048   -0.017330
H     1.124493   -2.857747    1.403242    0.012568   -0.008810   -0.044486
H    -2.532278   -3.480546    0.636182    0.006574   -0.001016   -0.012332
H    -4.089995   -0.274581    1.148906   -0.010508   -0.003798    0.000070
H    -3.293652    4.089597    3.645779    0.003808    0.004118   -0.000634
H     2.425451    5.837683    2.820486   -0.002280    0.001222    0.001488
H     5.216629    0.025374    3.937272    0.034712   -0.001010   -0.010532
H     1.922207   -4.080585    3.315335    0.016342   -0.114596   -0.019942
H    -3.169005   -5.778389    1.124839   -0.005262    0.004006   -0.001826
H    -6.136222   -1.031095    2.145041   -0.003620    0.005458   -0.000158
H    -4.228296    4.320804    0.417725    0.004048   -0.004736   -0.009078
H     1.424352    5.046456   -0.370203   -0.000986   -0.015694   -0.009658
H     5.895485    1.353922    0.993275   -0.000630   -0.000920   -0.018988
H     3.767298   -4.109498    0.506884    0.005480   -0.003580   -0.014972
H    -1.414880   -5.083432   -1.713450    0.014962    0.027134   -0.031472
H    -5.786095   -1.123910   -1.238091    0.005596    0.001778   -0.013584
H    -1.789457    3.036358   -0.868244    0.001598    0.011814   -0.046496
H     1.859877    2.083352    0.231171    0.035852   -0.028492   -0.032274
H     3.542928    0.228148   -0.591711   -0.002382   -0.019476   -0.031522
H     1.685084   -2.755736   -1.274769    0.015182    0.038012   -0.014106
H    -1.738780   -2.069417   -1.349430    0.013392    0.026412   -0.006430
H    -3.130044    0.386407   -1.301064    0.014400   -0.004790   -0.056236
H    -3.816817    3.292821   -2.283825    0.004484   -0.000204   -0.006038
H    -2.508730    4.385808   -2.823874   -0.002374   -0.008994   -0.004748
H     5.233702    0.342495   -2.462549   -0.020848    0.009944   -0.006164
H     4.746912    1.938479   -1.841740   -0.009612   -0.000386    0.000804
H     4.069720   -2.600315   -2.033632   -0.016066    0.011166   -0.005064
H     3.052850   -3.623446   -3.096625   -0.003586    0.019708   -0.002428
H    -3.746102    0.775938   -3.666144    0.007884   -0.006698   -0.004730
H    -3.656633   -0.968129   -3.326970    0.015124    0.010514   -0.003136
H    -3.641171    6.051800   -1.734654    0.001046   -0.000112   -0.002334
H     7.153704    0.583983   -1.289516   -0.002990   -0.000716    0.001754
H     3.997131   -5.411051   -2.016660    0.000242   -0.003886   -0.003978
H    -6.025347    0.551914   -3.488267    0.005832    0.006160   -0.006342
C    -0.140847   -0.914447   -4.354468   -0.070978    0.032444   -0.129200
H    -0.532233   -0.323056   -5.187000   -0.146220   -0.002076   -0.106466
H     0.722691   -1.517734   -4.653530   -0.068446    0.047144   -0.136456
O     0.184552   -3.365744   -3.289983   -0.009320   -0.032334   -0.024182
C     1.339363    1.026620   -3.521108   -0.006412   -0.009702   -0.017820
H     2.163055    0.480480   -3.990519    0.005382    0.025010   -0.027184
H     0.968414    1.810131   -4.194992   -0.034070    0.009288    0.028942
O     0.199070    3.025918   -2.134586    0.006434    0.018234   -0.003802
C     0.172471    0.088905   -3.182973    0.061040   -0.144720   -0.040536
O     0.558248   -0.847611   -2.076037   -0.000198   -0.147748   -0.418432
O    -1.006112    0.724236   -2.878538    0.007140   -0.011530    0.021462
O     0.533016   -0.221780   -0.968475   -0.167828    0.318048    0.853050
H    -0.830315    1.674257   -2.712890    0.134388   -0.034188   -0.072170
H    -2.391353    1.193336    1.093347    0.152192   -0.081110   -0.301542
H     1.322609   -0.636591   -0.522237   -0.177354    0.132208    0.518464
H    -0.002812    0.735740    0.981915    0.156380   -0.800064   -0.896098
O    -1.932444    0.394420    1.397274    0.134076    0.049902    0.014702
C    -0.511411    0.741746    1.639526   -0.071190   -0.100294    0.013478
C     0.042563   -0.144056    2.759978    0.018538   -0.019768   -0.124260
H    -0.496922    1.844482    2.050394    0.453484   -0.182426   -0.732300
C     1.187811    0.249543    3.402376    0.029970   -0.001432   -0.036778
C    -0.522298   -1.372950    3.036329    0.001848   -0.034932   -0.019988
C     1.786886   -0.570142    4.351019   -0.017410    0.027730   -0.016104
H     1.627865    1.211375    3.174880    0.048134   -0.015238   -0.035248
C     0.051081   -2.194527    3.992612   -0.024182    0.006194   -0.013440
H    -1.417871   -1.674341    2.512497    0.014452   -0.056148   -0.017198
C     1.215701   -1.797716    4.639203    0.000982   -0.005536    0.014112
H     2.687596   -0.234971    4.836651   -0.037102    0.036630    0.014302
H    -0.375380   -3.157059    4.231293   -0.037388    0.019870   -0.000052
O     1.723635   -2.694737    5.546954   -0.013876    0.027164   -0.040102
C     2.962532   -2.404823    6.154552    0.001818    0.001666   -0.004352
H     3.167255   -3.254095    6.795007   -0.012890   -0.023084   -0.013266
H     3.752605   -2.309361    5.404427    0.006386    0.002282    0.005110
H     2.901859   -1.498367    6.757150    0.007002   -0.006794    0.018896
154
* Frequency(6) -559.8500
C    -0.851610    5.043974    0.606918   -0.000198   -0.001868   -0.000322
C     4.112683    3.257096    0.381928    0.000152   -0.000194    0.001808
C     4.818644   -1.863010    0.588290   -0.002176   -0.000870   -0.003216
C     0.655201   -4.964904   -0.313444    0.001826    0.004520   -0.004226
C    -4.119037   -3.043788   -1.539812    0.010038    0.000410    0.000450
C    -5.039622    1.990362   -0.191617    0.004164   -0.001536    0.000410
O     0.003699    3.925436    0.634162   -0.001370   -0.009576    0.006388
O     3.982128    2.114375    1.167245    0.001652    0.000564    0.002886
O     3.421925   -2.067887    0.572960    0.004198   -0.003832    0.019886
O    -0.270977   -3.917813   -0.430227   -0.009790   -0.005638    0.018378
O    -3.993346   -1.977150   -0.653139   -0.000826   -0.002920    0.005580
O    -3.821054    2.288255    0.444873    0.009332   -0.008648    0.004224
C    -1.747333    5.041140    1.854762    0.000176    0.001894    0.001524
C     3.687148    4.471186    1.231883   -0.000760    0.000428    0.001954
C     5.236930   -1.284903    1.948664    0.001704   -0.000760    0.000164
C     1.170887   -4.996183    1.134342    0.000414   -0.001084   -0.002198
C    -3.991722   -4.329741   -0.699629    0.001840   -0.001348    0.000490
C    -5.800516    0.975035    0.680998   -0.002716    0.003166    0.000996
O    -1.004867    4.980364    3.045371   -0.001050   -0.003962   -0.001334
O     4.439989    4.581739    2.405034   -0.002786    0.000098    0.001068
O     4.926469   -2.129238    3.024417   -0.002168    0.004248   -0.000580
O     0.152874   -5.204399    2.077623    0.006892    0.004412    0.003388
O    -4.993889   -4.413618    0.273079    0.002390    0.000824    0.002026
O    -5.978095    1.443661    1.990047    0.000544   -0.003110   -0.000900
C    -2.678713    3.822879    1.818245    0.000738    0.001230    0.002300
C     2.184503    4.383379    1.556312   -0.001208    0.001906    0.002122
C     4.554746    0.076585    2.115821    0.003446    0.000508    0.001210
C     1.877439   -3.663906    1.421061    0.004686   -0.003112   -0.003746
C    -2.597278   -4.339318   -0.050580    0.002172   -0.003804   -0.005672
C    -5.068710   -0.375105    0.657014   -0.008324   -0.000926    0.000214
O    -3.697638    3.910970    2.782960    0.003056   -0.004500   -0.000206
O     1.737412    5.559058    2.191985   -0.002084   -0.000646    0.002336
O     4.973541    0.713132    3.299121   -0.007016   -0.001632    0.000686
O     2.521013   -3.683749    2.673218   -0.012188    0.007548    0.004388
O    -2.355123   -5.536568    0.652628    0.001872    0.003600    0.004108
O    -5.828501   -1.379416    1.294277    0.003530    0.000920    0.001278
C    -3.367962    3.639471    0.458085    0.004296   -0.002422    0.000076
C     1.352615    4.165827    0.279958    0.002340   -0.007374   -0.000564
C     4.853209    1.011165    0.935199   -0.001706   -0.000880   -0.001528
C     2.951338   -3.390896    0.363582    0.001442   -0.000942   -0.005150
C    -1.492947   -4.174698   -1.104460    0.007172    0.007854   -0.005726
C    -4.827776   -0.837093   -0.784378   -0.000264    0.000614   -0.001574
C    -2.439280    3.911529   -0.738037    0.000770    0.001968   -0.002770
C     1.942797    2.950469   -0.446637    0.004654   -0.008212   -0.002284
C     4.622715    0.303637   -0.416217   -0.004016   -0.001924   -0.002774
C     2.396902   -3.556702   -1.060525   -0.004152    0.009386   -0.005778
C    -1.823210   -2.965870   -1.988479    0.013846    0.021028    0.007124
C    -4.171965    0.268914   -1.626725   -0.000342    0.001024   -0.003918
O    -1.635427    5.072068   -0.547898   -0.002412    0.001450    0.002130
O     3.297173    3.185489   -0.773396    0.005826    0.004310   -0.002016
O     5.206102   -0.999865   -0.437566    0.007616    0.002852    0.000548
O     1.729350   -4.805895   -1.197082    0.006360    0.001160   -0.002204
O    -3.119829   -3.031151   -2.538074    0.011442    0.000440   -0.002510
O    -4.872564    1.507249   -1.492500    0.002084    0.000062    0.000094
C    -3.230504    4.175733   -2.027972   -0.001464    0.001448    0.000328
C     1.233191    2.555343   -1.724239    0.002836   -0.015836   -0.012828
C     5.287870    1.023263   -1.606574   -0.005846    0.001662    0.001204
C     3.516936   -3.539131   -2.109425   -0.001812    0.003244    0.002014
C    -0.835588   -2.749746   -3.120705    0.046398    0.051254    0.021332
C    -4.216045   -0.054211   -3.128640   -0.001910    0.000696   -0.001486
O    -4.140369    5.235544   -1.882127   -0.000880   -0.000054    0.001202
O     1.893424    1.586420   -2.334603   -0.009368   -0.013220   -0.007870
O     6.616586    1.387392   -1.341998   -0.005600   -0.001396   -0.000536
O     4.450737   -4.564234   -1.901744   -0.001088   -0.000112    0.000734
O    -1.201439   -1.716172   -3.878463   -0.007602    0.007320   -0.028180
O    -5.527401   -0.272682   -3.583183   -0.000578   -0.001620    0.002050
H    -0.267174    5.972609    0.581521    0.004656   -0.006330   -0.005096
H     5.137748    3.384311    0.013167    0.000010   -0.000034    0.001984
H     5.352675   -2.801018    0.391557   -0.000916    0.001866   -0.012882
H     0.201069   -5.928012   -0.574535    0.007630    0.002488   -0.021078
H    -5.071100   -3.017559   -2.083909    0.016198    0.004488   -0.010944
H    -5.637201    2.905415   -0.305399    0.010636    0.000242   -0.003898
H    -2.357255    5.957794    1.833049    0.006062    0.005886   -0.007898
H     3.872235    5.383951    0.655449    0.001064   -0.004844   -0.006308
H     6.325317   -1.153555    1.959503    0.001600   -0.005864   -0.012156
H     1.905058   -5.810355    1.223477   -0.001774   -0.007192   -0.018504
H    -4.104367   -5.204733   -1.348170    0.003358    0.005168   -0.007638
H    -6.805599    0.837542    0.266733    0.000862    0.007498   -0.008524
H    -0.117666    5.359524    2.903181   -0.007708    0.008694    0.012072
H     4.511160    3.708398    2.823405    0.004338   -0.002428   -0.002072
H     4.060774   -2.552666    2.878327    0.001662   -0.014728   -0.018676
H    -0.705683   -5.319158    1.627129    0.001858   -0.001706    0.019138
H    -5.129374   -3.537062    0.674238   -0.004922    0.004328   -0.000274
H    -5.157340    1.859227    2.298910   -0.007386    0.019772   -0.001114
H    -2.057275    2.942351    2.019119    0.010706    0.006572    0.006748
H     2.014475    3.516736    2.214904    0.008792    0.006944    0.008568
H     3.465898   -0.090111    2.152933    0.006064   -0.006048   -0.017330
H     1.124613   -2.857831    1.402819    0.012568   -0.008810   -0.044486
H    -2.532215   -3.480555    0.636065    0.006574   -0.001016   -0.012332
H    -4.090095   -0.274617    1.148906   -0.010508   -0.003798    0.000070
H    -3.293616    4.089636    3.645773    0.003808    0.004118   -0.000634
H     2.425430    5.837694    2.820500   -0.002280    0.001222    0.001488
H     5.216960    0.025365    3.937171    0.034712   -0.001010   -0.010532
H     1.922362   -4.081676    3.315145    0.016342   -0.114596   -0.019942
H    -3.169055   -5.778351    1.124822   -0.005262    0.004006   -0.001826
H    -6.136257   -1.031043    2.145040   -0.003620    0.005458   -0.000158
H    -4.228257    4.320759    0.417639    0.004048   -0.004736   -0.009078
H     1.424343    5.046307   -0.370295   -0.000986   -0.015694   -0.009658
H     5.895479    1.353913    0.993094   -0.000630   -0.000920   -0.018988
H     3.767350   -4.109532    0.506742    0.005480   -0.003580   -0.014972
H    -1.414737   -5.083174   -1.713750    0.014962    0.027134   -0.031472
H    -5.786042   -1.123893   -1.238220    0.005596    0.001778   -0.013584
H    -1.789442    3.036471   -0.868686    0.001598    0.011814   -0.046496
H     1.860218    2.083081    0.230864    0.035852   -0.028492   -0.032274
H     3.542905    0.227963   -0.592011   -0.002382   -0.019476   -0.031522
H     1.685229   -2.755374   -1.274903    0.015182    0.038012   -0.014106
H    -1.738653   -2.069165   -1.349491    0.013392    0.026412   -0.006430
H    -3.129907    0.386361   -1.301599    0.014400   -0.004790   -0.056236
H    -3.816774    3.292819   -2.283882    0.004484   -0.000204   -0.006038
H    -2.508753    4.385723   -2.823919   -0.002374   -0.008994   -0.004748
H     5.233504    0.342590   -2.462608   -0.020848    0.009944   -0.006164
H     4.746820    1.938475   -1.841733   -0.009612   -0.000386    0.000804
H     4.069567   -2.600209   -2.033680   -0.016066    0.011166   -0.005064
H     3.052816   -3.623259   -3.096648   -0.003586    0.019708   -0.002428
H    -3.746027    0.775875   -3.666189    0.007884   -0.006698   -0.004730
H    -3.656489   -0.968029   -3.327000    0.015124    0.010514   -0.003136
H    -3.641161    6.051799   -1.734676    0.001046   -0.000112   -0.002334
H     7.153675    0.583976   -1.289499   -0.002990   -0.000716    0.001754
H     3.997133   -5.411088   -2.016698    0.000242   -0.003886   -0.003978
H    -6.025292    0.551973   -3.488327    0.005832    0.006160   -0.006342
C    -0.141522   -0.914138   -4.355698   -0.070978    0.032444   -0.129200
H    -0.533624   -0.323076   -5.188013   -0.146220   -0.002076   -0.106466
H     0.722040   -1.517285   -4.654828   -0.068446    0.047144   -0.136456
O     0.184463   -3.366051   -3.290213   -0.009320   -0.032334   -0.024182
C     1.339302    1.026528   -3.521278   -0.006412   -0.009702   -0.017820
H     2.163106    0.480718   -3.990778    0.005382    0.025010   -0.027184
H     0.968090    1.810220   -4.194717   -0.034070    0.009288    0.028942
O     0.199131    3.026091   -2.134622    0.006434    0.018234   -0.003802
C     0.173052    0.087528   -3.183359    0.061040   -0.144720   -0.040536
O     0.558246   -0.849017   -2.080018   -0.000198   -0.147748   -0.418432
O    -1.006045    0.724126   -2.878334    0.007140   -0.011530    0.021462
O     0.531419   -0.218754   -0.960358   -0.167828    0.318048    0.853050
H    -0.829037    1.673932   -2.713576    0.134388   -0.034188   -0.072170
H    -2.389905    1.192564    1.090478    0.152192   -0.081110   -0.301542
H     1.320921   -0.635333   -0.517304   -0.177354    0.132208    0.518464
H    -0.001324    0.728128    0.973389    0.156380   -0.800064   -0.896098
O    -1.931169    0.394895    1.397414    0.134076    0.049902    0.014702
C    -0.512088    0.740792    1.639654   -0.071190   -0.100294    0.013478
C     0.042739   -0.144244    2.758796    0.018538   -0.019768   -0.124260
H    -0.492608    1.842746    2.043426    0.453484   -0.182426   -0.732300
C     1.188096    0.249530    3.402026    0.029970   -0.001432   -0.036778
C    -0.522280   -1.373282    3.036139    0.001848   -0.034932   -0.019988
C     1.786720   -0.569879    4.350866   -0.017410    0.027730   -0.016104
H     1.628323    1.211230    3.174544    0.048134   -0.015238   -0.035248
C     0.050851   -2.194469    3.992484   -0.024182    0.006194   -0.013440
H    -1.417733   -1.674876    2.512333    0.014452   -0.056148   -0.017198
C     1.215711   -1.797769    4.639337    0.000982   -0.005536    0.014112
H     2.687243   -0.234622    4.836787   -0.037102    0.036630    0.014302
H    -0.375736   -3.156870    4.231293   -0.037388    0.019870   -0.000052
O     1.723503   -2.694478    5.546572   -0.013876    0.027164   -0.040102
C     2.962549   -2.404807    6.154511    0.001818    0.001666   -0.004352
H     3.167132   -3.254315    6.794881   -0.012890   -0.023084   -0.013266
H     3.752665   -2.309339    5.404475    0.006386    0.002282    0.005110
H     2.901925   -1.498432    6.757330    0.007002   -0.006794    0.018896
154
* Frequency(6) -559.8500
C    -0.851619    5.043887    0.606903   -0.000198   -0.001868   -0.000322
C     4.112690    3.257087    0.382011    0.000152   -0.000194    0.001808
C     4.818544   -1.863050    0.588141   -0.002176   -0.000870   -0.003216
C     0.655286   -4.964694   -0.313640    0.001826    0.004520   -0.004226
C    -4.118572   -3.043769   -1.539791    0.010038    0.000410    0.000450
C    -5.039429    1.990291   -0.191598    0.004164   -0.001536    0.000410
O     0.003635    3.924993    0.634457   -0.001370   -0.009576    0.006388
O     3.982205    2.114401    1.167378    0.001652    0.000564    0.002886
O     3.422119   -2.068064    0.573880    0.004198   -0.003832    0.019886
O    -0.271430   -3.918074   -0.429377   -0.009790   -0.005638    0.018378
O    -3.993384   -1.977285   -0.652881   -0.000826   -0.002920    0.005580
O    -3.820622    2.287855    0.445068    0.009332   -0.008648    0.004224
C    -1.747325    5.041228    1.854832    0.000176    0.001894    0.001524
C     3.687113    4.471206    1.231973   -0.000760    0.000428    0.001954
C     5.237009   -1.284938    1.948672    0.001704   -0.000760    0.000164
C     1.170906   -4.996233    1.134240    0.000414   -0.001084   -0.002198
C    -3.991637   -4.329803   -0.699607    0.001840   -0.001348    0.000490
C    -5.800642    0.975181    0.681044   -0.002716    0.003166    0.000996
O    -1.004915    4.980181    3.045309   -0.001050   -0.003962   -0.001334
O     4.439860    4.581743    2.405083   -0.002786    0.000098    0.001068
O     4.926368   -2.129042    3.024390   -0.002168    0.004248   -0.000580
O     0.153193   -5.204195    2.077780    0.006892    0.004412    0.003388
O    -4.993778   -4.413579    0.273172    0.002390    0.000824    0.002026
O    -5.978069    1.443517    1.990006    0.000544   -0.003110   -0.000900
C    -2.678679    3.822936    1.818351    0.000738    0.001230    0.002300
C     2.184447    4.383468    1.556410   -0.001208    0.001906    0.002122
C     4.554905    0.076608    2.115877    0.003446    0.000508    0.001210
C     1.877656   -3.664050    1.420888    0.004686   -0.003112   -0.003746
C    -2.597177   -4.339494   -0.050842    0.002172   -0.003804   -0.005672
C    -5.069095   -0.375148    0.657024   -0.008324   -0.000926    0.000214
O    -3.697496    3.910762    2.782950    0.003056   -0.004500   -0.000206
O     1.737316    5.559028    2.192094   -0.002084   -0.000646    0.002336
O     4.973217    0.713056    3.299153   -0.007016   -0.001632    0.000686
O     2.520449   -3.683400    2.673421   -0.012188    0.007548    0.004388
O    -2.355037   -5.536402    0.652818    0.001872    0.003600    0.004108
O    -5.828337   -1.379374    1.294337    0.003530    0.000920    0.001278
C    -3.367763    3.639359    0.458089    0.004296   -0.002422    0.000076
C     1.352723    4.165486    0.279932    0.002340   -0.007374   -0.000564
C     4.853130    1.011124    0.935129   -0.001706   -0.000880   -0.001528
C     2.951404   -3.390940    0.363344    0.001442   -0.000942   -0.005150
C    -1.492615   -4.174334   -1.104725    0.007172    0.007854   -0.005726
C    -4.827789   -0.837065   -0.784451   -0.000264    0.000614   -0.001574
C    -2.439245    3.911620   -0.738165    0.000770    0.001968   -0.002770
C     1.943012    2.950089   -0.446743    0.004654   -0.008212   -0.002284
C     4.622529    0.303548   -0.416345   -0.004016   -0.001924   -0.002774
C     2.396710   -3.556267   -1.060792   -0.004152    0.009386   -0.005778
C    -1.822569   -2.964896   -1.988149    0.013846    0.021028    0.007124
C    -4.171981    0.268961   -1.626906   -0.000342    0.001024   -0.003918
O    -1.635538    5.072135   -0.547799   -0.002412    0.001450    0.002130
O     3.297443    3.185688   -0.773489    0.005826    0.004310   -0.002016
O     5.206454   -0.999733   -0.437541    0.007616    0.002852    0.000548
O     1.729644   -4.805841   -1.197184    0.006360    0.001160   -0.002204
O    -3.119300   -3.031131   -2.538191    0.011442    0.000440   -0.002510
O    -4.872468    1.507252   -1.492496    0.002084    0.000062    0.000094
C    -3.230572    4.175800   -2.027957   -0.001464    0.001448    0.000328
C     1.233322    2.554610   -1.724832    0.002836   -0.015836   -0.012828
C     5.287600    1.023340   -1.606518   -0.005846    0.001662    0.001204
C     3.516852   -3.538981   -2.109332   -0.001812    0.003244    0.002014
C    -0.833441   -2.747374   -3.119717    0.046398    0.051254    0.021332
C    -4.216133   -0.054179   -3.128709   -0.001910    0.000696   -0.001486
O    -4.140410    5.235542   -1.882071   -0.000880   -0.000054    0.001202
O     1.892991    1.585809   -2.334967   -0.009368   -0.013220   -0.007870
O     6.616327    1.387327   -1.342023   -0.005600   -0.001396   -0.000536
O     4.450687   -4.564239   -1.901710   -0.001088   -0.000112    0.000734
O    -1.201791   -1.715833   -3.879767   -0.007602    0.007320   -0.028180
O    -5.527428   -0.272757   -3.583088   -0.000578   -0.001620    0.002050
H    -0.266958    5.972316    0.581285    0.004656   -0.006330   -0.005096
H     5.137748    3.384309    0.013259    0.000010   -0.000034    0.001984
H     5.352632   -2.800932    0.390961   -0.000916    0.001866   -0.012882
H     0.201422   -5.927897   -0.575511    0.007630    0.002488   -0.021078
H    -5.070350   -3.017351   -2.084415    0.016198    0.004488   -0.010944
H    -5.636708    2.905426   -0.305580    0.010636    0.000242   -0.003898
H    -2.356974    5.958066    1.832683    0.006062    0.005886   -0.007898
H     3.872284    5.383726    0.655157    0.001064   -0.004844   -0.006308
H     6.325391   -1.153827    1.958941    0.001600   -0.005864   -0.012156
H     1.904976   -5.810688    1.222621   -0.001774   -0.007192   -0.018504
H    -4.104212   -5.204494   -1.348523    0.003358    0.005168   -0.007638
H    -6.805560    0.837889    0.266339    0.000862    0.007498   -0.008524
H    -0.118022    5.359927    2.903740   -0.007708    0.008694    0.012072
H     4.511361    3.708285    2.823309    0.004338   -0.002428   -0.002072
H     4.060851   -2.553348    2.877462    0.001662   -0.014728   -0.018676
H    -0.705597   -5.319237    1.628014    0.001858   -0.001706    0.019138
H    -5.129602   -3.536862    0.674225   -0.004922    0.004328   -0.000274
H    -5.157682    1.860142    2.298858   -0.007386    0.019772   -0.001114
H    -2.056780    2.942655    2.019432    0.010706    0.006572    0.006748
H     2.014882    3.517057    2.215301    0.008792    0.006944    0.008568
H     3.466178   -0.090391    2.152131    0.006064   -0.006048   -0.017330
H     1.125194   -2.858239    1.400760    0.012568   -0.008810   -0.044486
H    -2.531911   -3.480602    0.635494    0.006574   -0.001016   -0.012332
H    -4.090581   -0.274793    1.148909   -0.010508   -0.003798    0.000070
H    -3.293440    4.089826    3.645744    0.003808    0.004118   -0.000634
H     2.425324    5.837751    2.820569   -0.002280    0.001222    0.001488
H     5.218566    0.025318    3.936684    0.034712   -0.001010   -0.010532
H     1.923119   -4.086979    3.314222    0.016342   -0.114596   -0.019942
H    -3.169298   -5.778166    1.124737   -0.005262    0.004006   -0.001826
H    -6.136424   -1.030790    2.145032   -0.003620    0.005458   -0.000158
H    -4.228070    4.320540    0.417219    0.004048   -0.004736   -0.009078
H     1.424297    5.045580   -0.370742   -0.000986   -0.015694   -0.009658
H     5.895450    1.353871    0.992216   -0.000630   -0.000920   -0.018988
H     3.767603   -4.109698    0.506049    0.005480   -0.003580   -0.014972
H    -1.414045   -5.081918   -1.715206    0.014962    0.027134   -0.031472
H    -5.785783   -1.123811   -1.238849    0.005596    0.001778   -0.013584
H    -1.789368    3.037017   -0.870838    0.001598    0.011814   -0.046496
H     1.861877    2.081762    0.229371    0.035852   -0.028492   -0.032274
H     3.542795    0.227062   -0.593470   -0.002382   -0.019476   -0.031522
H     1.685932   -2.753615   -1.275556    0.015182    0.038012   -0.014106
H    -1.738033   -2.067943   -1.349789    0.013392    0.026412   -0.006430
H    -3.129240    0.386140   -1.304201    0.014400   -0.004790   -0.056236
H    -3.816567    3.292810   -2.284162    0.004484   -0.000204   -0.006038
H    -2.508862    4.385306   -2.824139   -0.002374   -0.008994   -0.004748
H     5.232539    0.343050   -2.462893   -0.020848    0.009944   -0.006164
H     4.746375    1.938457   -1.841696   -0.009612   -0.000386    0.000804
H     4.068823   -2.599692   -2.033914   -0.016066    0.011166   -0.005064
H     3.052650   -3.622347   -3.096761   -0.003586    0.019708   -0.002428
H    -3.745662    0.775565   -3.666408    0.007884   -0.006698   -0.004730
H    -3.655789   -0.967543   -3.327145    0.015124    0.010514   -0.003136
H    -3.641112    6.051794   -1.734784    0.001046   -0.000112   -0.002334
H     7.153537    0.583943   -1.289418   -0.002990   -0.000716    0.001754
H     3.997144   -5.411267   -2.016882    0.000242   -0.003886   -0.003978
H    -6.025022    0.552258   -3.488621    0.005832    0.006160   -0.006342
C    -0.144807   -0.912636   -4.361677   -0.070978    0.032444   -0.129200
H    -0.540391   -0.323172   -5.192941   -0.146220   -0.002076   -0.106466
H     0.718872   -1.515104   -4.661143   -0.068446    0.047144   -0.136456
O     0.184032   -3.367548   -3.291332   -0.009320   -0.032334   -0.024182
C     1.339005    1.026079   -3.522103   -0.006412   -0.009702   -0.017820
H     2.163355    0.481876   -3.992036    0.005382    0.025010   -0.027184
H     0.966513    1.810650   -4.193377   -0.034070    0.009288    0.028942
O     0.199429    3.026935   -2.134798    0.006434    0.018234   -0.003802
C     0.175877    0.080830   -3.185235    0.061040   -0.144720   -0.040536
O     0.558237   -0.855855   -2.099384   -0.000198   -0.147748   -0.418432
O    -1.005714    0.723592   -2.877341    0.007140   -0.011530    0.021462
O     0.523652   -0.204034   -0.920878   -0.167828    0.318048    0.853050
H    -0.822817    1.672349   -2.716917    0.134388   -0.034188   -0.072170
H    -2.382862    1.188810    1.076522    0.152192   -0.081110   -0.301542
H     1.312713   -0.629214   -0.493308   -0.177354    0.132208    0.518464
H     0.005913    0.691099    0.931916    0.156380   -0.800064   -0.896098
O    -1.924963    0.397204    1.398094    0.134076    0.049902    0.014702
C    -0.515383    0.736150    1.640278   -0.071190   -0.100294    0.013478
C     0.043597   -0.145159    2.753045    0.018538   -0.019768   -0.124260
H    -0.471620    1.834303    2.009534    0.453484   -0.182426   -0.732300
C     1.189484    0.249464    3.400324    0.029970   -0.001432   -0.036778
C    -0.522194   -1.374899    3.035214    0.001848   -0.034932   -0.019988
C     1.785914   -0.568595    4.350121   -0.017410    0.027730   -0.016104
H     1.630550    1.210525    3.172913    0.048134   -0.015238   -0.035248
C     0.049732   -2.194182    3.991862   -0.024182    0.006194   -0.013440
H    -1.417065   -1.677474    2.511537    0.014452   -0.056148   -0.017198
C     1.215756   -1.798025    4.639990    0.000982   -0.005536    0.014112
H     2.685526   -0.232927    4.837449   -0.037102    0.036630    0.014302
H    -0.377466   -3.155950    4.231290   -0.037388    0.019870   -0.000052
O     1.722861   -2.693221    5.544716   -0.013876    0.027164   -0.040102
C     2.962633   -2.404730    6.154309    0.001818    0.001666   -0.004352
H     3.166536   -3.255383    6.794267   -0.012890   -0.023084   -0.013266
H     3.752961   -2.309234    5.404712    0.006386    0.002282    0.005110
H     2.902249   -1.498746    6.758204    0.007002   -0.006794    0.018896
154
* Frequency(6) -559.8500
C    -0.851634    5.043742    0.606878   -0.000198   -0.001868   -0.000322
C     4.112702    3.257072    0.382152    0.000152   -0.000194    0.001808
C     4.818374   -1.863118    0.587890   -0.002176   -0.000870   -0.003216
C     0.655428   -4.964342   -0.313970    0.001826    0.004520   -0.004226
C    -4.117789   -3.043737   -1.539756    0.010038    0.000410    0.000450
C    -5.039104    1.990171   -0.191566    0.004164   -0.001536    0.000410
O     0.003529    3.924246    0.634956   -0.001370   -0.009576    0.006388
O     3.982334    2.114445    1.167604    0.001652    0.000564    0.002886
O     3.422447   -2.068363    0.575432    0.004198   -0.003832    0.019886
O    -0.272194   -3.918514   -0.427943   -0.009790   -0.005638    0.018378
O    -3.993448   -1.977513   -0.652446   -0.000826   -0.002920    0.005580
O    -3.819894    2.287180    0.445398    0.009332   -0.008648    0.004224
C    -1.747311    5.041376    1.854951    0.000176    0.001894    0.001524
C     3.687053    4.471239    1.232126   -0.000760    0.000428    0.001954
C     5.237142   -1.284998    1.948685    0.001704   -0.000760    0.000164
C     1.170938   -4.996318    1.134069    0.000414   -0.001084   -0.002198
C    -3.991494   -4.329908   -0.699568    0.001840   -0.001348    0.000490
C    -5.800854    0.975428    0.681122   -0.002716    0.003166    0.000996
O    -1.004997    4.979872    3.045205   -0.001050   -0.003962   -0.001334
O     4.439643    4.581751    2.405166   -0.002786    0.000098    0.001068
O     4.926199   -2.128710    3.024345   -0.002168    0.004248   -0.000580
O     0.153730   -5.203850    2.078045    0.006892    0.004412    0.003388
O    -4.993592   -4.413515    0.273330    0.002390    0.000824    0.002026
O    -5.978027    1.443275    1.989935    0.000544   -0.003110   -0.000900
C    -2.678622    3.823032    1.818531    0.000738    0.001230    0.002300
C     2.184353    4.383616    1.556576   -0.001208    0.001906    0.002122
C     4.555174    0.076648    2.115972    0.003446    0.000508    0.001210
C     1.878022   -3.664293    1.420595    0.004686   -0.003112   -0.003746
C    -2.597008   -4.339791   -0.051285    0.002172   -0.003804   -0.005672
C    -5.069745   -0.375220    0.657041   -0.008324   -0.000926    0.000214
O    -3.697258    3.910410    2.782934    0.003056   -0.004500   -0.000206
O     1.737153    5.558978    2.192276   -0.002084   -0.000646    0.002336
O     4.972669    0.712929    3.299207   -0.007016   -0.001632    0.000686
O     2.519498   -3.682811    2.673764   -0.012188    0.007548    0.004388
O    -2.354890   -5.536121    0.653139    0.001872    0.003600    0.004108
O    -5.828062   -1.379302    1.294436    0.003530    0.000920    0.001278
C    -3.367428    3.639170    0.458095    0.004296   -0.002422    0.000076
C     1.352906    4.164910    0.279888    0.002340   -0.007374   -0.000564
C     4.852997    1.011055    0.935009   -0.001706   -0.000880   -0.001528
C     2.951517   -3.391013    0.362942    0.001442   -0.000942   -0.005150
C    -1.492056   -4.173721   -1.105172    0.007172    0.007854   -0.005726
C    -4.827809   -0.837017   -0.784574   -0.000264    0.000614   -0.001574
C    -2.439185    3.911774   -0.738382    0.000770    0.001968   -0.002770
C     1.943376    2.949448   -0.446921    0.004654   -0.008212   -0.002284
C     4.622215    0.303398   -0.416562   -0.004016   -0.001924   -0.002774
C     2.396386   -3.555535   -1.061243   -0.004152    0.009386   -0.005778
C    -1.821489   -2.963255   -1.987593    0.013846    0.021028    0.007124
C    -4.172007    0.269041   -1.627212   -0.000342    0.001024   -0.003918
O    -1.635726    5.072248   -0.547633   -0.002412    0.001450    0.002130
O     3.297898    3.186024   -0.773647    0.005826    0.004310   -0.002016
O     5.207049   -0.999510   -0.437498    0.007616    0.002852    0.000548
O     1.730141   -4.805750   -1.197356    0.006360    0.001160   -0.002204
O    -3.118407   -3.031097   -2.538386    0.011442    0.000440   -0.002510
O    -4.872305    1.507257   -1.492488    0.002084    0.000062    0.000094
C    -3.230686    4.175913   -2.027932   -0.001464    0.001448    0.000328
C     1.233543    2.553374   -1.725833    0.002836   -0.015836   -0.012828
C     5.287144    1.023470   -1.606424   -0.005846    0.001662    0.001204
C     3.516711   -3.538727   -2.109175   -0.001812    0.003244    0.002014
C    -0.829820   -2.743374   -3.118053    0.046398    0.051254    0.021332
C    -4.216282   -0.054125   -3.128825   -0.001910    0.000696   -0.001486
O    -4.140479    5.235538   -1.881977   -0.000880   -0.000054    0.001202
O     1.892260    1.584777   -2.335581   -0.009368   -0.013220   -0.007870
O     6.615890    1.387218   -1.342065   -0.005600   -0.001396   -0.000536
O     4.450602   -4.564248   -1.901653   -0.001088   -0.000112    0.000734
O    -1.202384   -1.715262   -3.881966   -0.007602    0.007320   -0.028180
O    -5.527473   -0.272884   -3.582928   -0.000578   -0.001620    0.002050
H    -0.266595    5.971822    0.580888    0.004656   -0.006330   -0.005096
H     5.137749    3.384306    0.013413    0.000010   -0.000034    0.001984
H     5.352561   -2.800786    0.389955   -0.000916    0.001866   -0.012882
H     0.202018   -5.927703   -0.577156    0.007630    0.002488   -0.021078
H    -5.069086   -3.017001   -2.085269    0.016198    0.004488   -0.010944
H    -5.635878    2.905445   -0.305884    0.010636    0.000242   -0.003898
H    -2.356501    5.958526    1.832067    0.006062    0.005886   -0.007898
H     3.872367    5.383348    0.654665    0.001064   -0.004844   -0.006308
H     6.325516   -1.154284    1.957992    0.001600   -0.005864   -0.012156
H     1.904837   -5.811249    1.221177   -0.001774   -0.007192   -0.018504
H    -4.103950   -5.204091   -1.349119    0.003358    0.005168   -0.007638
H    -6.805492    0.838474    0.265673    0.000862    0.007498   -0.008524
H    -0.118624    5.360605    2.904682   -0.007708    0.008694    0.012072
H     4.511699    3.708096    2.823147    0.004338   -0.002428   -0.002072
H     4.060981   -2.554497    2.876005    0.001662   -0.014728   -0.018676
H    -0.705452   -5.319370    1.629508    0.001858   -0.001706    0.019138
H    -5.129986   -3.536524    0.674204   -0.004922    0.004328   -0.000274
H    -5.158258    1.861685    2.298771   -0.007386    0.019772   -0.001114
H    -2.055945    2.943168    2.019958    0.010706    0.006572    0.006748
H     2.015568    3.517599    2.215969    0.008792    0.006944    0.008568
H     3.466651   -0.090863    2.150779    0.006064   -0.006048   -0.017330
H     1.126175   -2.858926    1.397288    0.012568   -0.008810   -0.044486
H    -2.531398   -3.480682    0.634532    0.006574   -0.001016   -0.012332
H    -4.091401   -0.275090    1.148915   -0.010508   -0.003798    0.000070
H    -3.293143    4.090148    3.645694    0.003808    0.004118   -0.000634
H     2.425146    5.837846    2.820685   -0.002280    0.001222    0.001488
H     5.221275    0.025239    3.935862    0.034712   -0.001010   -0.010532
H     1.924394   -4.095922    3.312666    0.016342   -0.114596   -0.019942
H    -3.169709   -5.777853    1.124595   -0.005262    0.004006   -0.001826
H    -6.136707   -1.030364    2.145020   -0.003620    0.005458   -0.000158
H    -4.227754    4.320170    0.416511    0.004048   -0.004736   -0.009078
H     1.424220    5.044356   -0.371496   -0.000986   -0.015694   -0.009658
H     5.895400    1.353799    0.990734   -0.000630   -0.000920   -0.018988
H     3.768031   -4.109977    0.504881    0.005480   -0.003580   -0.014972
H    -1.412877   -5.079801   -1.717662    0.014962    0.027134   -0.031472
H    -5.785346   -1.123672   -1.239909    0.005596    0.001778   -0.013584
H    -1.789244    3.037939   -0.874467    0.001598    0.011814   -0.046496
H     1.864675    2.079539    0.226852    0.035852   -0.028492   -0.032274
H     3.542609    0.225542   -0.595930   -0.002382   -0.019476   -0.031522
H     1.687116   -2.750649   -1.276657    0.015182    0.038012   -0.014106
H    -1.736988   -2.065882   -1.350291    0.013392    0.026412   -0.006430
H    -3.128117    0.385766   -1.308590    0.014400   -0.004790   -0.056236
H    -3.816217    3.292794   -2.284633    0.004484   -0.000204   -0.006038
H    -2.509048    4.384604   -2.824509   -0.002374   -0.008994   -0.004748
H     5.230912    0.343826   -2.463374   -0.020848    0.009944   -0.006164
H     4.745625    1.938427   -1.841633   -0.009612   -0.000386    0.000804
H     4.067570   -2.598820   -2.034309   -0.016066    0.011166   -0.005064
H     3.052370   -3.620809   -3.096950   -0.003586    0.019708   -0.002428
H    -3.745047    0.775042   -3.666777    0.007884   -0.006698   -0.004730
H    -3.654609   -0.966722   -3.327390    0.015124    0.010514   -0.003136
H    -3.641031    6.051785   -1.734966    0.001046   -0.000112   -0.002334
H     7.153304    0.583887   -1.289281   -0.002990   -0.000716    0.001754
H     3.997163   -5.411571   -2.017193    0.000242   -0.003886   -0.003978
H    -6.024567    0.552739   -3.489116    0.005832    0.006160   -0.006342
C    -0.150346   -0.910105   -4.371759   -0.070978    0.032444   -0.129200
H    -0.551801   -0.323334   -5.201249   -0.146220   -0.002076   -0.106466
H     0.713531   -1.511425   -4.671791   -0.068446    0.047144   -0.136456
O     0.183305   -3.370071   -3.293219   -0.009320   -0.032334   -0.024182
C     1.338504    1.025322   -3.523493   -0.006412   -0.009702   -0.017820
H     2.163775    0.483827   -3.994157    0.005382    0.025010   -0.027184
H     0.963854    1.811374   -4.191119   -0.034070    0.009288    0.028942
O     0.199931    3.028358   -2.135095    0.006434    0.018234   -0.003802
C     0.180640    0.069537   -3.188398    0.061040   -0.144720   -0.040536
O     0.558222   -0.867384   -2.132036   -0.000198   -0.147748   -0.418432
O    -1.005157    0.722693   -2.875666    0.007140   -0.011530    0.021462
O     0.510556   -0.179215   -0.854311   -0.167828    0.318048    0.853050
H    -0.812330    1.669682   -2.722548    0.134388   -0.034188   -0.072170
H    -2.370985    1.182481    1.052992    0.152192   -0.081110   -0.301542
H     1.298874   -0.618897   -0.452851   -0.177354    0.132208    0.518464
H     0.018116    0.628667    0.861990    0.156380   -0.800064   -0.896098
O    -1.914501    0.401098    1.399241    0.134076    0.049902    0.014702
C    -0.520938    0.728324    1.641330   -0.071190   -0.100294    0.013478
C     0.045044   -0.146701    2.743349    0.018538   -0.019768   -0.124260
H    -0.436232    1.820068    1.952390    0.453484   -0.182426   -0.732300
C     1.191822    0.249352    3.397454    0.029970   -0.001432   -0.036778
C    -0.522050   -1.377625    3.033654    0.001848   -0.034932   -0.019988
C     1.784556   -0.566431    4.348864   -0.017410    0.027730   -0.016104
H     1.634306    1.209336    3.170162    0.048134   -0.015238   -0.035248
C     0.047845   -2.193699    3.990813   -0.024182    0.006194   -0.013440
H    -1.415937   -1.681856    2.510195    0.014452   -0.056148   -0.017198
C     1.215833   -1.798457    4.641091    0.000982   -0.005536    0.014112
H     2.682631   -0.230069    4.838565   -0.037102    0.036630    0.014302
H    -0.380384   -3.154400    4.231286   -0.037388    0.019870   -0.000052
O     1.721778   -2.691102    5.541587   -0.013876    0.027164   -0.040102
C     2.962775   -2.404600    6.153970    0.001818    0.001666   -0.004352
H     3.165530   -3.257185    6.793232   -0.012890   -0.023084   -0.013266
H     3.753459   -2.309056    5.405110    0.006386    0.002282    0.005110
H     2.902796   -1.499276    6.759679    0.007002   -0.006794    0.018896
154
* Frequency(6) -559.8500
C    -0.851654    5.043552    0.606846   -0.000198   -0.001868   -0.000322
C     4.112718    3.257052    0.382336    0.000152   -0.000194    0.001808
C     4.818153   -1.863206    0.587564   -0.002176   -0.000870   -0.003216
C     0.655613   -4.963884   -0.314398    0.001826    0.004520   -0.004226
C    -4.116772   -3.043696   -1.539710    0.010038    0.000410    0.000450
C    -5.038682    1.990016   -0.191525    0.004164   -0.001536    0.000410
O     0.003390    3.923275    0.635603   -0.001370   -0.009576    0.006388
O     3.982501    2.114502    1.167896    0.001652    0.000564    0.002886
O     3.422872   -2.068752    0.577447    0.004198   -0.003832    0.019886
O    -0.273186   -3.919085   -0.426081   -0.009790   -0.005638    0.018378
O    -3.993532   -1.977809   -0.651880   -0.000826   -0.002920    0.005580
O    -3.818949    2.286304    0.445826    0.009332   -0.008648    0.004224
C    -1.747293    5.041568    1.855106    0.000176    0.001894    0.001524
C     3.686976    4.471282    1.232324   -0.000760    0.000428    0.001954
C     5.237314   -1.285075    1.948701    0.001704   -0.000760    0.000164
C     1.170980   -4.996428    1.133846    0.000414   -0.001084   -0.002198
C    -3.991307   -4.330045   -0.699519    0.001840   -0.001348    0.000490
C    -5.801129    0.975749    0.681223   -0.002716    0.003166    0.000996
O    -1.005104    4.979470    3.045070   -0.001050   -0.003962   -0.001334
O     4.439361    4.581761    2.405275   -0.002786    0.000098    0.001068
O     4.925979   -2.128280    3.024286   -0.002168    0.004248   -0.000580
O     0.154429   -5.203403    2.078388    0.006892    0.004412    0.003388
O    -4.993350   -4.413432    0.273536    0.002390    0.000824    0.002026
O    -5.977972    1.442959    1.989844    0.000544   -0.003110   -0.000900
C    -2.678547    3.823156    1.818764    0.000738    0.001230    0.002300
C     2.184230    4.383809    1.556791   -0.001208    0.001906    0.002122
C     4.555523    0.076699    2.116094    0.003446    0.000508    0.001210
C     1.878496   -3.664608    1.420216    0.004686   -0.003112   -0.003746
C    -2.596788   -4.340177   -0.051859    0.002172   -0.003804   -0.005672
C    -5.070588   -0.375314    0.657063   -0.008324   -0.000926    0.000214
O    -3.696948    3.909954    2.782913    0.003056   -0.004500   -0.000206
O     1.736942    5.558912    2.192513   -0.002084   -0.000646    0.002336
O     4.971958    0.712763    3.299276   -0.007016   -0.001632    0.000686
O     2.518263   -3.682046    2.674208   -0.012188    0.007548    0.004388
O    -2.354701   -5.535756    0.653555    0.001872    0.003600    0.004108
O    -5.827704   -1.379209    1.294566    0.003530    0.000920    0.001278
C    -3.366992    3.638924    0.458102    0.004296   -0.002422    0.000076
C     1.353143    4.164163    0.279831    0.002340   -0.007374   -0.000564
C     4.852824    1.010966    0.934855   -0.001706   -0.000880   -0.001528
C     2.951663   -3.391109    0.362420    0.001442   -0.000942   -0.005150
C    -1.491329   -4.172926   -1.105752    0.007172    0.007854   -0.005726
C    -4.827836   -0.836955   -0.784733   -0.000264    0.000614   -0.001574
C    -2.439107    3.911973   -0.738662    0.000770    0.001968   -0.002770
C     1.943847    2.948616   -0.447152    0.004654   -0.008212   -0.002284
C     4.621808    0.303203   -0.416843   -0.004016   -0.001924   -0.002774
C     2.395965   -3.554584   -1.061828   -0.004152    0.009386   -0.005778
C    -1.820086   -2.961125   -1.986872    0.013846    0.021028    0.007124
C    -4.172042    0.269145   -1.627609   -0.000342    0.001024   -0.003918
O    -1.635971    5.072395   -0.547417   -0.002412    0.001450    0.002130
O     3.298488    3.186461   -0.773851    0.005826    0.004310   -0.002016
O     5.207820   -0.999221   -0.437442    0.007616    0.002852    0.000548
O     1.730785   -4.805633   -1.197580    0.006360    0.001160   -0.002204
O    -3.117247   -3.031052   -2.538641    0.011442    0.000440   -0.002510
O    -4.872094    1.507263   -1.492479    0.002084    0.000062    0.000094
C    -3.230835    4.176059   -2.027898   -0.001464    0.001448    0.000328
C     1.233831    2.551770   -1.727133    0.002836   -0.015836   -0.012828
C     5.286551    1.023638   -1.606302   -0.005846    0.001662    0.001204
C     3.516527   -3.538399   -2.108971   -0.001812    0.003244    0.002014
C    -0.825119   -2.738181   -3.115891    0.046398    0.051254    0.021332
C    -4.216476   -0.054054   -3.128975   -0.001910    0.000696   -0.001486
O    -4.140568    5.235532   -1.881856   -0.000880   -0.000054    0.001202
O     1.891311    1.583437   -2.336379   -0.009368   -0.013220   -0.007870
O     6.615322    1.387077   -1.342119   -0.005600   -0.001396   -0.000536
O     4.450492   -4.564259   -1.901578   -0.001088   -0.000112    0.000734
O    -1.203154   -1.714520   -3.884821   -0.007602    0.007320   -0.028180
O    -5.527531   -0.273048   -3.582720   -0.000578   -0.001620    0.002050
H    -0.266123    5.971180    0.580371    0.004656   -0.006330   -0.005096
H     5.137750    3.384303    0.013615    0.000010   -0.000034    0.001984
H     5.352468   -2.800597    0.388650   -0.000916    0.001866   -0.012882
H     0.202791   -5.927451   -0.579292    0.007630    0.002488   -0.021078
H    -5.067445   -3.016546   -2.086378    0.016198    0.004488   -0.010944
H    -5.634801    2.905469   -0.306279    0.010636    0.000242   -0.003898
H    -2.355887    5.959122    1.831267    0.006062    0.005886   -0.007898
H     3.872475    5.382857    0.654026    0.001064   -0.004844   -0.006308
H     6.325678   -1.154879    1.956760    0.001600   -0.005864   -0.012156
H     1.904658   -5.811978    1.219302   -0.001774   -0.007192   -0.018504
H    -4.103610   -5.203567   -1.349893    0.003358    0.005168   -0.007638
H    -6.805405    0.839234    0.264810    0.000862    0.007498   -0.008524
H    -0.119405    5.361486    2.905905   -0.007708    0.008694    0.012072
H     4.512139    3.707850    2.822937    0.004338   -0.002428   -0.002072
H     4.061149   -2.555989    2.874112    0.001662   -0.014728   -0.018676
H    -0.705264   -5.319543    1.631447    0.001858   -0.001706    0.019138
H    -5.130485   -3.536086    0.674176   -0.004922    0.004328   -0.000274
H    -5.159007    1.863688    2.298659   -0.007386    0.019772   -0.001114
H    -2.054860    2.943834    2.020642    0.010706    0.006572    0.006748
H     2.016459    3.518303    2.216837    0.008792    0.006944    0.008568
H     3.467266   -0.091476    2.149022    0.006064   -0.006048   -0.017330
H     1.127449   -2.859819    1.392781    0.012568   -0.008810   -0.044486
H    -2.530732   -3.480785    0.633282    0.006574   -0.001016   -0.012332
H    -4.092466   -0.275474    1.148922   -0.010508   -0.003798    0.000070
H    -3.292757    4.090565    3.645630    0.003808    0.004118   -0.000634
H     2.424915    5.837970    2.820836   -0.002280    0.001222    0.001488
H     5.224792    0.025137    3.934795    0.034712   -0.001010   -0.010532
H     1.926050   -4.107534    3.310645    0.016342   -0.114596   -0.019942
H    -3.170242   -5.777447    1.124410   -0.005262    0.004006   -0.001826
H    -6.137074   -1.029811    2.145004   -0.003620    0.005458   -0.000158
H    -4.227344    4.319690    0.415591    0.004048   -0.004736   -0.009078
H     1.424120    5.042766   -0.372474   -0.000986   -0.015694   -0.009658
H     5.895337    1.353706    0.988810   -0.000630   -0.000920   -0.018988
H     3.768586   -4.110340    0.503363    0.005480   -0.003580   -0.014972
H    -1.411361   -5.077052   -1.720851    0.014962    0.027134   -0.031472
H    -5.784779   -1.123492   -1.241285    0.005596    0.001778   -0.013584
H    -1.789082    3.039136   -0.879178    0.001598    0.011814   -0.046496
H     1.868308    2.076652    0.223582    0.035852   -0.028492   -0.032274
H     3.542368    0.223568   -0.599124   -0.002382   -0.019476   -0.031522
H     1.688655   -2.746797   -1.278086    0.015182    0.038012   -0.014106
H    -1.735631   -2.063206   -1.350942    0.013392    0.026412   -0.006430
H    -3.126657    0.385280   -1.314288    0.014400   -0.004790   -0.056236
H    -3.815763    3.292773   -2.285245    0.004484   -0.000204   -0.006038
H    -2.509288    4.383693   -2.824990   -0.002374   -0.008994   -0.004748
H     5.228799    0.344834   -2.463998   -0.020848    0.009944   -0.006164
H     4.744651    1.938388   -1.841551   -0.009612   -0.000386    0.000804
H     4.065942   -2.597689   -2.034823   -0.016066    0.011166   -0.005064
H     3.052007   -3.618812   -3.097196   -0.003586    0.019708   -0.002428
H    -3.744248    0.774363   -3.667256    0.007884   -0.006698   -0.004730
H    -3.653077   -0.965657   -3.327708    0.015124    0.010514   -0.003136
H    -3.640925    6.051774   -1.735203    0.001046   -0.000112   -0.002334
H     7.153001    0.583814   -1.289103   -0.002990   -0.000716    0.001754
H     3.997187   -5.411964   -2.017596    0.000242   -0.003886   -0.003978
H    -6.023976    0.553363   -3.489758    0.005832    0.006160   -0.006342
C    -0.157538   -0.906817   -4.384851   -0.070978    0.032444   -0.129200
H    -0.566618   -0.323544   -5.212037   -0.146220   -0.002076   -0.106466
H     0.706596   -1.506648   -4.685618   -0.068446    0.047144   -0.136456
O     0.182360   -3.373347   -3.295670   -0.009320   -0.032334   -0.024182
C     1.337855    1.024339   -3.525299   -0.006412   -0.009702   -0.017820
H     2.164320    0.486362   -3.996912    0.005382    0.025010   -0.027184
H     0.960402    1.812315   -4.188186   -0.034070    0.009288    0.028942
O     0.200583    3.030206   -2.135480    0.006434    0.018234   -0.003802
C     0.186825    0.054873   -3.192505    0.061040   -0.144720   -0.040536
O     0.558202   -0.882355   -2.174435   -0.000198   -0.147748   -0.418432
O    -1.004433    0.721524   -2.873491    0.007140   -0.011530    0.021462
O     0.493550   -0.146988   -0.767872   -0.167828    0.318048    0.853050
H    -0.798712    1.666217   -2.729861    0.134388   -0.034188   -0.072170
H    -2.355564    1.174262    1.022437    0.152192   -0.081110   -0.301542
H     1.280902   -0.605501   -0.400315   -0.177354    0.132208    0.518464
H     0.033962    0.547597    0.771189    0.156380   -0.800064   -0.896098
O    -1.900915    0.406155    1.400731    0.134076    0.049902    0.014702
C    -0.528152    0.718161    1.642695   -0.071190   -0.100294    0.013478
C     0.046922   -0.148704    2.730758    0.018538   -0.019768   -0.124260
H    -0.390281    1.801583    1.878186    0.453484   -0.182426   -0.732300
C     1.194859    0.249207    3.393728    0.029970   -0.001432   -0.036778
C    -0.521863   -1.381164    3.031629    0.001848   -0.034932   -0.019988
C     1.782792   -0.563621    4.347232   -0.017410    0.027730   -0.016104
H     1.639184    1.207792    3.166591    0.048134   -0.015238   -0.035248
C     0.045394   -2.193071    3.989451   -0.024182    0.006194   -0.013440
H    -1.414472   -1.687545    2.508452    0.014452   -0.056148   -0.017198
C     1.215932   -1.799018    4.642521    0.000982   -0.005536    0.014112
H     2.678871   -0.226357    4.840015   -0.037102    0.036630    0.014302
H    -0.384172   -3.152386    4.231281   -0.037388    0.019870   -0.000052
O     1.720372   -2.688349    5.537523   -0.013876    0.027164   -0.040102
C     2.962959   -2.404431    6.153529    0.001818    0.001666   -0.004352
H     3.164224   -3.259524    6.791888   -0.012890   -0.023084   -0.013266
H     3.754106   -2.308824    5.405628    0.006386    0.002282    0.005110
H     2.903505   -1.499965    6.761594    0.007002   -0.006794    0.018896
154
* Frequency(6) -559.8500
C    -0.851677    5.043340    0.606809   -0.000198   -0.001868   -0.000322
C     4.112735    3.257030    0.382541    0.000152   -0.000194    0.001808
C     4.817906   -1.863305    0.587199   -0.002176   -0.000870   -0.003216
C     0.655821   -4.963370   -0.314878    0.001826    0.004520   -0.004226
C    -4.115631   -3.043649   -1.539659    0.010038    0.000410    0.000450
C    -5.038209    1.989841   -0.191478    0.004164   -0.001536    0.000410
O     0.003234    3.922187    0.636329   -0.001370   -0.009576    0.006388
O     3.982689    2.114566    1.168224    0.001652    0.000564    0.002886
O     3.423349   -2.069187    0.579707    0.004198   -0.003832    0.019886
O    -0.274299   -3.919726   -0.423992   -0.009790   -0.005638    0.018378
O    -3.993626   -1.978141   -0.651246   -0.000826   -0.002920    0.005580
O    -3.817888    2.285321    0.446306    0.009332   -0.008648    0.004224
C    -1.747273    5.041783    1.855279    0.000176    0.001894    0.001524
C     3.686890    4.471331    1.232546   -0.000760    0.000428    0.001954
C     5.237508   -1.285161    1.948720    0.001704   -0.000760    0.000164
C     1.171027   -4.996551    1.133596    0.000414   -0.001084   -0.002198
C    -3.991098   -4.330198   -0.699463    0.001840   -0.001348    0.000490
C    -5.801438    0.976109    0.681336   -0.002716    0.003166    0.000996
O    -1.005223    4.979020    3.044918   -0.001050   -0.003962   -0.001334
O     4.439044    4.581772    2.405396   -0.002786    0.000098    0.001068
O     4.925733   -2.127797    3.024220   -0.002168    0.004248   -0.000580
O     0.155212   -5.202902    2.078773    0.006892    0.004412    0.003388
O    -4.993078   -4.413338    0.273766    0.002390    0.000824    0.002026
O    -5.977910    1.442606    1.989742    0.000544   -0.003110   -0.000900
C    -2.678463    3.823296    1.819025    0.000738    0.001230    0.002300
C     2.184093    4.384026    1.557032   -0.001208    0.001906    0.002122
C     4.555915    0.076757    2.116232    0.003446    0.000508    0.001210
C     1.879029   -3.664962    1.419790    0.004686   -0.003112   -0.003746
C    -2.596541   -4.340609   -0.052504    0.002172   -0.003804   -0.005672
C    -5.071534   -0.375419    0.657087   -0.008324   -0.000926    0.000214
O    -3.696601    3.909443    2.782890    0.003056   -0.004500   -0.000206
O     1.736705    5.558839    2.192778   -0.002084   -0.000646    0.002336
O     4.971161    0.712578    3.299354   -0.007016   -0.001632    0.000686
O     2.516878   -3.681188    2.674707   -0.012188    0.007548    0.004388
O    -2.354488   -5.535347    0.654022    0.001872    0.003600    0.004108
O    -5.827303   -1.379104    1.294711    0.003530    0.000920    0.001278
C    -3.366504    3.638649    0.458111    0.004296   -0.002422    0.000076
C     1.353409    4.163325    0.279767    0.002340   -0.007374   -0.000564
C     4.852630    1.010866    0.934681   -0.001706   -0.000880   -0.001528
C     2.951827   -3.391216    0.361835    0.001442   -0.000942   -0.005150
C    -1.490514   -4.172033   -1.106403    0.007172    0.007854   -0.005726
C    -4.827866   -0.836885   -0.784912   -0.000264    0.000614   -0.001574
C    -2.439019    3.912197   -0.738977    0.000770    0.001968   -0.002770
C     1.944376    2.947683   -0.447412    0.004654   -0.008212   -0.002284
C     4.621352    0.302984   -0.417158   -0.004016   -0.001924   -0.002774
C     2.395493   -3.553517   -1.062485   -0.004152    0.009386   -0.005778
C    -1.818512   -2.958735   -1.986062    0.013846    0.021028    0.007124
C    -4.172081    0.269261   -1.628054   -0.000342    0.001024   -0.003918
O    -1.636245    5.072560   -0.547175   -0.002412    0.001450    0.002130
O     3.299150    3.186951   -0.774080    0.005826    0.004310   -0.002016
O     5.208686   -0.998897   -0.437380    0.007616    0.002852    0.000548
O     1.731508   -4.805501   -1.197830    0.006360    0.001160   -0.002204
O    -3.115947   -3.031002   -2.538926    0.011442    0.000440   -0.002510
O    -4.871857    1.507270   -1.492468    0.002084    0.000062    0.000094
C    -3.231001    4.176224   -2.027861   -0.001464    0.001448    0.000328
C     1.234153    2.549970   -1.728591    0.002836   -0.015836   -0.012828
C     5.285887    1.023827   -1.606165   -0.005846    0.001662    0.001204
C     3.516321   -3.538030   -2.108742   -0.001812    0.003244    0.002014
C    -0.819846   -2.732356   -3.113467    0.046398    0.051254    0.021332
C    -4.216693   -0.053975   -3.129144   -0.001910    0.000696   -0.001486
O    -4.140668    5.235526   -1.881719   -0.000880   -0.000054    0.001202
O     1.890246    1.581935   -2.337273   -0.009368   -0.013220   -0.007870
O     6.614686    1.386918   -1.342180   -0.005600   -0.001396   -0.000536
O     4.450368   -4.564272   -1.901495   -0.001088   -0.000112    0.000734
O    -1.204018   -1.713688   -3.888024   -0.007602    0.007320   -0.028180
O    -5.527597   -0.273232   -3.582487   -0.000578   -0.001620    0.002050
H    -0.265594    5.970461    0.579792    0.004656   -0.006330   -0.005096
H     5.137751    3.384299    0.013840    0.000010   -0.000034    0.001984
H     5.352364   -2.800385    0.387186   -0.000916    0.001866   -0.012882
H     0.203658   -5.927168   -0.581687    0.007630    0.002488   -0.021078
H    -5.065604   -3.016036   -2.087622    0.016198    0.004488   -0.010944
H    -5.633592    2.905497   -0.306722    0.010636    0.000242   -0.003898
H    -2.355198    5.959791    1.830369    0.006062    0.005886   -0.007898
H     3.872596    5.382307    0.653309    0.001064   -0.004844   -0.006308
H     6.325860   -1.155545    1.955379    0.001600   -0.005864   -0.012156
H     1.904456   -5.812795    1.217199   -0.001774   -0.007192   -0.018504
H    -4.103228   -5.202980   -1.350761    0.003358    0.005168   -0.007638
H    -6.805307    0.840086    0.263841    0.000862    0.007498   -0.008524
H    -0.120281    5.362474    2.907277   -0.007708    0.008694    0.012072
H     4.512632    3.707574    2.822702    0.004338   -0.002428   -0.002072
H     4.061338   -2.557663    2.871990    0.001662   -0.014728   -0.018676
H    -0.705053   -5.319737    1.633622    0.001858   -0.001706    0.019138
H    -5.131044   -3.535594    0.674145   -0.004922    0.004328   -0.000274
H    -5.159846    1.865935    2.298532   -0.007386    0.019772   -0.001114
H    -2.053643    2.944581    2.021409    0.010706    0.006572    0.006748
H     2.017458    3.519092    2.217811    0.008792    0.006944    0.008568
H     3.467955   -0.092163    2.147053    0.006064   -0.006048   -0.017330
H     1.128877   -2.860820    1.387725    0.012568   -0.008810   -0.044486
H    -2.529985   -3.480900    0.631881    0.006574   -0.001016   -0.012332
H    -4.093660   -0.275906    1.148930   -0.010508   -0.003798    0.000070
H    -3.292324    4.091033    3.645558    0.003808    0.004118   -0.000634
H     2.424656    5.838109    2.821005   -0.002280    0.001222    0.001488
H     5.228737    0.025022    3.933598    0.034712   -0.001010   -0.010532
H     1.927907   -4.120557    3.308379    0.016342   -0.114596   -0.019942
H    -3.170840   -5.776992    1.124202   -0.005262    0.004006   -0.001826
H    -6.137485   -1.029191    2.144986   -0.003620    0.005458   -0.000158
H    -4.226884    4.319152    0.414559    0.004048   -0.004736   -0.009078
H     1.424008    5.040982   -0.373572   -0.000986   -0.015694   -0.009658
H     5.895265    1.353601    0.986652   -0.000630   -0.000920   -0.018988
H     3.769209   -4.110747    0.501662    0.005480   -0.003580   -0.014972
H    -1.409661   -5.073968   -1.724428    0.014962    0.027134   -0.031472
H    -5.784143   -1.123290   -1.242829    0.005596    0.001778   -0.013584
H    -1.788900    3.040479   -0.884462    0.001598    0.011814   -0.046496
H     1.872382    2.073414    0.219914    0.035852   -0.028492   -0.032274
H     3.542097    0.221355   -0.602706   -0.002382   -0.019476   -0.031522
H     1.690380   -2.742477   -1.279689    0.015182    0.038012   -0.014106
H    -1.734109   -2.060204   -1.351673    0.013392    0.026412   -0.006430
H    -3.125021    0.384736   -1.320679    0.014400   -0.004790   -0.056236
H    -3.815253    3.292750   -2.285931    0.004484   -0.000204   -0.006038
H    -2.509558    4.382671   -2.825530   -0.002374   -0.008994   -0.004748
H     5.226430    0.345964   -2.464699   -0.020848    0.009944   -0.006164
H     4.743559    1.938344   -1.841460   -0.009612   -0.000386    0.000804
H     4.064116   -2.596420   -2.035398   -0.016066    0.011166   -0.005064
H     3.051599   -3.616572   -3.097472   -0.003586    0.019708   -0.002428
H    -3.743352    0.773602   -3.667794    0.007884   -0.006698   -0.004730
H    -3.651358   -0.964462   -3.328064    0.015124    0.010514   -0.003136
H    -3.640806    6.051761   -1.735468    0.001046   -0.000112   -0.002334
H     7.152661    0.583733   -1.288904   -0.002990   -0.000716    0.001754
H     3.997215   -5.412406   -2.018048    0.000242   -0.003886   -0.003978
H    -6.023313    0.554063   -3.490479    0.005832    0.006160   -0.006342
C    -0.165604   -0.903130   -4.399534   -0.070978    0.032444   -0.129200
H    -0.583235   -0.323780   -5.224136   -0.146220   -0.002076   -0.106466
H     0.698817   -1.501290   -4.701126   -0.068446    0.047144   -0.136456
O     0.181301   -3.377022   -3.298418   -0.009320   -0.032334   -0.024182
C     1.337126    1.023236   -3.527324   -0.006412   -0.009702   -0.017820
H     2.164932    0.489204   -4.000001    0.005382    0.025010   -0.027184
H     0.956530    1.813371   -4.184897   -0.034070    0.009288    0.028942
O     0.201314    3.032278   -2.135912    0.006434    0.018234   -0.003802
C     0.193762    0.038426   -3.197112    0.061040   -0.144720   -0.040536
O     0.558179   -0.899146   -2.221988   -0.000198   -0.147748   -0.418432
O    -1.003622    0.720214   -2.871052    0.007140   -0.011530    0.021462
O     0.474477   -0.110843   -0.670927   -0.167828    0.318048    0.853050
H    -0.783440    1.662332   -2.738063    0.134388   -0.034188   -0.072170
H    -2.338268    1.165044    0.988168    0.152192   -0.081110   -0.301542
H     1.260747   -0.590476   -0.341394   -0.177354    0.132208    0.518464
H     0.051734    0.456674    0.669352    0.156380   -0.800064   -0.896098
O    -1.885678    0.411826    1.402402    0.134076    0.049902    0.014702
C    -0.536242    0.706763    1.644227   -0.071190   -0.100294    0.013478
C     0.049029   -0.150951    2.716636    0.018538   -0.019768   -0.124260
H    -0.338745    1.780851    1.794964    0.453484   -0.182426   -0.732300
C     1.198265    0.249044    3.389548    0.029970   -0.001432   -0.036778
C    -0.521653   -1.385134    3.029357    0.001848   -0.034932   -0.019988
C     1.780813   -0.560470    4.345402   -0.017410    0.027730   -0.016104
H     1.644654    1.206060    3.162585    0.048134   -0.015238   -0.035248
C     0.042646   -2.192367    3.987924   -0.024182    0.006194   -0.013440
H    -1.412830   -1.693926    2.506498    0.014452   -0.056148   -0.017198
C     1.216044   -1.799647    4.644125    0.000982   -0.005536    0.014112
H     2.674655   -0.222194    4.841640   -0.037102    0.036630    0.014302
H    -0.388421   -3.150128    4.231275   -0.037388    0.019870   -0.000052
O     1.718795   -2.685262    5.532966   -0.013876    0.027164   -0.040102
C     2.963166   -2.404242    6.153034    0.001818    0.001666   -0.004352
H     3.162759   -3.262147    6.790380   -0.012890   -0.023084   -0.013266
H     3.754832   -2.308565    5.406209    0.006386    0.002282    0.005110
H     2.904301   -1.500737    6.763741    0.007002   -0.006794    0.018896
