19
Coordinates from ORCA-job job.QMRegion
  O          -1.81953540920925      1.10640416554918      2.72827775940076
  O           2.00936884593525     -1.71227236219375      2.73299552744158
  C           1.27937409137552     -0.91078162187207      3.67227074825572
  H           2.02031906062883     -0.32694940862416      4.23038404831932
  H           0.69857494082781     -1.55109298724653      4.34443228171227
  C          -0.97486713152463      0.35181626613853      3.58658178081587
  H          -1.50883488631267     -0.58749499084774      3.76243058505087
  H          -0.77759033258721      0.85772635339461      4.54480827132835
  C           0.36055960583522      0.05722960874529      2.94610054910766
  O           0.70142553274860      0.61192885026972      1.90837487598028
  H           0.59708344822868     -0.30675773745639     -1.07658923373743
  O           1.52534236836660     -0.46278585532584     -1.30972335996494
  H           0.95676880597555      2.62597942107148      4.00862810937411
  O           1.53299547920841      2.13624574131811      4.62749453798196
  O           2.71742473483363      1.88683895981899      3.80318298518010
  H           3.37119366548911      2.35892447186052      4.35335539786002
  H           1.99070887261433      0.32448014564230     -0.98824520365662
  H          -1.52371562663790      1.96492387609525      2.47910227223818
  H           1.46258133185700     -2.03922207175000      2.04097393099747
