150
 xtb: 6.7.1 (edcfbbe)
C           -5.07564609338404        1.63387499786884       -1.59026026200664
C           -1.57068326929882        5.09453953182301       -3.67257289333606
C            3.44452424504764        4.16723933984135       -2.75500645732589
C            4.73026924988511        0.10831249597402        0.42260338925177
C            1.33705114286816       -3.53043406824912        2.24685644510636
C           -3.73831826038287       -2.35426149438103        1.63040832286635
O           -3.79057438366307        2.21085243474156       -1.59868574869743
O           -0.53720960291415        5.07243405347559       -2.73717126524696
O            3.09961046663372        3.14418361423098       -1.83196005756817
O            3.42544950305070       -0.38254257539026        0.58785123542528
O            0.28792004073329       -2.64128427873216        2.48525552045474
O           -3.49359079245531       -1.11377455054563        1.01371701197894
C           -5.65400436783518        1.70409513438370       -0.16493392119253
C           -2.84867467600372        5.59136173153454       -2.96663815579234
C            3.09481144655221        5.55011089266925       -2.17923097100574
C            4.81008505211958        1.50016262391004        1.06793776635880
C            2.55050495487354       -3.06486140730607        3.08272903391814
C           -3.35013697413691       -2.25565820965451        3.11458712107939
O           -5.84937205544880        3.00768740498160        0.30754147328366
O           -2.65585605796535        6.82722528891684       -2.34086495209358
O            3.83067111760777        5.89980703939196       -1.04429685230288
O            4.46662733553160        1.49025380416570        2.42841972207111
O            2.25391126761803       -3.01364867103935        4.44961532462553
O           -4.06386633425080       -1.26473435418743        3.80134061356097
C           -4.70320908216379        0.92874422471073        0.75906972551037
C           -3.34063244581553        4.54112500573375       -1.95367286090992
C            1.58760148279211        5.56772614600618       -1.90038380033821
C            3.84669087297029        2.43594790273081        0.32473168792370
C            3.04463293274309       -1.69379014561541        2.58272329900116
C           -1.83671511632236       -2.01060360397252        3.20431417280480
O           -5.17960037229611        0.86943404959201        2.08213339520274
O           -4.58726309671579        4.90794068851997       -1.41584517733847
O            1.18089304872749        6.80751186968376       -1.37608909787987
O            3.96745737446905        3.75770432362937        0.79135354264441
O            4.24536278785287       -1.31438011256952        3.21919993891753
O           -1.39947833785174       -1.98286844580448        4.53887762866241
C           -4.53275434080197       -0.50869232773430        0.25186883981928
C           -3.47661005217823        3.15573539388293       -2.61030079859337
C            0.79873993094127        5.29779889202987       -3.18911914317340
C            4.14399221634104        2.42774738258796       -1.17898103172715
C            3.27105840327525       -1.70906591349890        1.06311602795192
C           -1.05688336744229       -3.11042242134752        2.47096685396853
C           -4.18868025649436       -0.53618452579328       -1.24785138844348
C           -2.12069336959624        2.84628303856223       -3.25791929314918
C            1.35732691709734        4.10415413604776       -3.99329796370551
C            4.20809003310596        0.98335218391748       -1.71105696685382
C            2.00616434843653       -2.27106462026405        0.40880378006008
C           -1.61238835759249       -3.33798931103017        1.04971183069600
O           -5.05637357581111        0.30010368670547       -2.00923995530136
O           -1.80843581472747        3.82189448098319       -4.23945318991314
O            2.78819277309123        3.98701405796979       -3.96785559146669
O            5.09279301244802        0.18801852807218       -0.92885286575028
O            1.70176469840178       -3.57111581365653        0.88150615108409
O           -3.04167861411085       -3.40124452138323        1.02173550389156
C           -4.33902304975975       -1.94940399588403       -1.82391690392077
C           -1.99178917845854        1.48710245641333       -3.94882548430765
C            1.02292352731605        4.20879982043814       -5.49419254833937
C            4.72418805473197        0.94509670198655       -3.15551923352229
C            2.09614654167565       -2.29031073780313       -1.11165887046546
C           -1.16796543998764       -4.68505229777136        0.45184906102983
O           -5.66116521184684       -2.41249479945265       -1.74680479109768
O           -0.70284230038792        1.29073976642589       -4.18073640685142
O            1.35553600391371        5.45967818671937       -6.03795777377044
O            5.99874520796067        1.51933458802089       -3.27892180013916
O            0.87014183378627       -2.31913291278246       -1.61241768215451
O           -1.44468944635124       -5.76466105595956        1.30533396866635
H           -5.73965266807830        2.14965943058198       -2.29508941383235
H           -1.32746779769948        5.74689998454591       -4.52104810260474
H            4.51362641660652        4.10928794876028       -2.99661392227955
H            5.46553014901071       -0.56682039575059        0.87552796721224
H            1.06200587076653       -4.55994485037646        2.50867683009002
H           -4.79668112978971       -2.62965764950391        1.53254168127303
H           -6.63355422346826        1.20797359861318       -0.17062480440453
H           -3.62659805224075        5.73921262307334       -3.72356345777683
H            3.33348691089942        6.30433188619493       -2.93789923839061
H            5.83876932756182        1.87549057009384        0.94675047740927
H            3.35377102391966       -3.80017668208528        2.96228693906013
H           -3.58496494846518       -3.20826704192170        3.60432446247437
H           -5.30761530644440        3.64404941661853       -0.19752075647630
H           -1.79958211344636        6.82442765390119       -1.88181717782352
H            3.81047989329871        5.17650003064455       -0.38498714061389
H            4.51593837737115        0.58182335351995        2.77817646449027
H            1.38396537854243       -2.59875368482735        4.57325036488362
H           -4.27467220446850       -0.51784300069165        3.20986465243755
H           -3.73273227231307        1.44148322092130        0.73659526888900
H           -2.59704624915361        4.45695978675261       -1.14560632000229
H            1.35597775411785        4.76662840331375       -1.18204425496105
H            2.82261154753760        2.07159291178595        0.48847224168552
H            2.26785088471032       -0.94431741022355        2.79177390310901
H           -1.61036889894950       -1.05076442126229        2.71725691811914
H           -5.54112634829651        1.74009815286251        2.31400470785552
H           -4.57193205686136        5.86216586789302       -1.23134675184558
H            1.93279954555706        7.18634237088824       -0.89094418425456
H            4.03807799183103        3.72639170309778        1.75787716799074
H            4.19108323429644       -1.58478531032362        4.15114565981530
H           -2.05383443541189       -1.49046473993561        5.06058778661869
H           -5.47579393701544       -1.04639284713230        0.40969996496326
H           -4.25606745445331        3.17087517327099       -3.37936156252031
H            0.82065532139834        6.20070928443532       -3.81600548346292
H            5.10738484317959        2.91898332230015       -1.35821769637746
H            4.14520634269885       -2.31987269682844        0.80584121614642
H           -1.12491359955766       -4.04624678607857        3.04231503124463
H           -3.15755044358381       -0.20201112580174       -1.39211113737237
H            0.90330065198865        3.18755171277833       -3.60430000541698
H            3.20896818010551        0.53255879055239       -1.67394506228965
H            1.17874288189768       -1.59904304713701        0.66420037730331
H           -1.26613656635995       -2.52754780765304        0.39952016174701
H           -3.73035000307426       -2.64341222779021       -1.24130683032240
H           -3.98293382177260       -1.93304891888777       -2.85972394096015
H            1.55998379976347        3.40386242344966       -6.00610933949211
H           -0.04728658238977        4.06799295533218       -5.64292018605206
H            4.05609664450830        1.53187654670921       -3.78992250535317
H            4.72415135927745       -0.09771953322355       -3.48999856876189
H           -1.68019134736634       -4.80559672216110       -0.50916884598942
H           -0.09156845764048       -4.68127888615638        0.28263095499494
H           -6.21482500934244       -1.82587115087439       -2.28281986491051
H            2.31987379395056        5.54012265853855       -6.05785998155596
H            6.62806242734820        0.97209928085093       -2.78693517698208
H           -2.40540272914623       -5.86255578106205        1.37469775397044
C            0.67312531324095       -2.00279970411708       -2.98944135506869
H            0.14354017393728       -2.83079874848256       -3.45886826580225
H            1.63623069430874       -1.82516458512327       -3.46971384231103
O            3.10781526501681       -2.23856972670207       -1.76122813529939
C           -0.20181552663351       -0.01956890027573       -4.39579758714910
H            0.80745805684917        0.09799586815245       -4.77907109574014
H           -0.83949088019671       -0.57707422391721       -5.08629401466109
O           -2.88987784110027        0.74905249707415       -4.25811947287213
C           -0.28908967326162       -0.80993391659343       -3.08559690198313
O            1.01057016823468        0.31856310659080       -1.90074408114246
O            0.75830570464242        1.69551306337690       -2.02860747012115
H            0.46901937077043        0.05044305473597       -1.00073994174565
O           -0.37183744664545       -0.18856465653630        0.02843728849234
H           -1.02233943732771       -0.67896793108650       -0.54612121282528
C           -1.03859463841650        0.97778828356267        0.49251601022324
O           -1.26246142982622       -0.70868687508028       -2.38300488235717
H           -1.47233354133037        1.54032434970943       -0.34648733343019
H            1.63621200074141        2.10133122123178       -1.95331751941552
H           -1.85529128168120        0.63847419462105        1.14361106749979
C           -0.10355261885449        1.84993749151262        1.28224313587364
C            0.09706953058339        3.17827187555537        0.93274739597710
C            0.53683300506986        1.33291854761594        2.40183658953353
C            0.90896378849645        3.98774185950403        1.70909647209653
H           -0.38992959067648        3.57810629702537        0.05352891252157
C            1.36166116191783        2.13670029581287        3.16685841043715
H            0.37279420486510        0.29787987222563        2.66787367937932
C            1.53768518921375        3.46813396190483        2.82781636471872
H            1.04813255837091        5.02321895299873        1.43883531160651
H            1.86073522511060        1.73248499675304        4.03293806844618
H            2.16060217236452        4.10015750825104        3.44012968418491
H           -1.34418506727559        2.86056166787534       -2.47786491848227
