11
Coordinates from ORCA-job job.QMRegion
  C          -0.24283626006862     -0.74408524253787     -3.06161860674169
  O           1.20731692995690      0.26406777250743     -2.11913089889344
  O           0.73117841763311      1.66066194033921     -2.05661856240732
  H           0.49601293592471      0.11608739047125     -0.66741744683021
  O          -0.28211533429334     -0.17494053814468     -0.06186742064886
  H          -0.88139910734406     -0.54462672832967     -0.80182355222933
  O          -1.26544029061761     -0.57355189339362     -2.35218817922145
  H           1.57763719457856      2.13938869471556     -1.91695189449096
  H           0.32940936909602     -1.67673297436917     -2.99554007197727
  H          -0.23144220184000     -0.23982015476367     -4.03617463579245
  H          -0.73929314621788      0.60445184796473      0.28806649610321
