150
* (null), Energy   -1000.0000000
C    -5.076403    1.629811   -1.587441   -0.002734   -0.003866   -0.001482
C    -1.583626    5.066745   -3.731631   -0.003034   -0.002178   -0.001504
C     3.416610    4.137513   -2.760248   -0.002254   -0.003882    0.002402
C     4.718596    0.125992    0.446131   -0.007574   -0.002224    0.000614
C     1.344627   -3.546179    2.221361   -0.002592   -0.001122    0.003780
C    -3.739843   -2.314593    1.685344   -0.002996    0.000024   -0.000322
O    -3.795755    2.219620   -1.612359    0.003170    0.001430   -0.000780
O    -0.557262    5.057006   -2.786863    0.001108   -0.002616   -0.002044
O     3.065114    3.121175   -1.831449   -0.006124    0.000528   -0.002538
O     3.417509   -0.384432    0.562429   -0.000142    0.002314    0.003748
O     0.305928   -2.652513    2.477029    0.000446    0.000020   -0.007762
O    -3.503402   -1.063350    1.089160    0.000078    0.001300    0.000488
C    -5.648521    1.728151   -0.160555   -0.000918   -0.002358   -0.000030
C    -2.866169    5.573765   -3.042456   -0.001652   -0.002294    0.000032
C     3.067946    5.526206   -2.196484   -0.000698   -0.001804   -0.000600
C     4.752334    1.515214    1.101575   -0.002334   -0.001498    0.000566
C     2.569697   -3.092294    3.046312   -0.001730   -0.001250    0.002344
C    -3.324041   -2.233798    3.163484   -0.002778   -0.000072    0.000834
O    -5.847679    3.041841    0.282269   -0.002576   -0.000890   -0.001084
O    -2.680220    6.821729   -2.438906   -0.001472   -0.001770   -0.003110
O     3.793235    5.876821   -1.055270   -0.002832   -0.002490   -0.002320
O     4.379251    1.490057    2.452745   -0.003250   -0.000528   -0.002518
O     2.289967   -3.050410    4.416389   -0.001946    0.000784    0.001116
O    -4.012881   -1.233063    3.861776   -0.001364    0.000570    0.000336
C    -4.692563    0.975115    0.777676    0.000952    0.000658    0.001974
C    -3.357896    4.540489   -2.013285   -0.002446    0.000048    0.001488
C     1.558156    5.560423   -1.937478   -0.000802    0.002184   -0.000750
C     3.780091    2.425774    0.339777   -0.000574   -0.000502   -0.001440
C     3.062411   -1.716509    2.553043   -0.000604    0.000472    0.002662
C    -1.804837   -2.010332    3.233663   -0.001064    0.001558    0.002742
O    -5.161102    0.946478    2.104145   -0.001938   -0.001358    0.000750
O    -4.605276    4.914496   -1.483517   -0.001302   -0.000652   -0.002708
O     1.152725    6.811903   -1.444746   -0.001370   -0.002916   -0.002774
O     3.845681    3.749463    0.809970   -0.003374   -0.000106   -0.001672
O     4.270564   -1.346691    3.181511    0.000366    0.001366    0.001946
O    -1.346221   -2.017611    4.561714   -0.000456   -0.000574    0.003340
C    -4.530023   -0.473565    0.300370    0.003086   -0.000108    0.000916
C    -3.490659    3.142356   -2.644332   -0.002146   -0.002826    0.005890
C     0.781403    5.274322   -3.230107   -0.001444   -0.000674   -0.000008
C     4.116027    2.433274   -1.155339    0.000556   -0.005162   -0.000134
C     3.269909   -1.716459    1.029391    0.002884   -0.003714    0.002662
C    -1.047915   -3.101012    2.461826   -0.002860    0.000730   -0.000070
C    -4.172895   -0.526060   -1.196347    0.002026   -0.002312   -0.000962
C    -2.135967    2.822723   -3.289987   -0.003562   -0.000318    0.002842
C     1.342839    4.073333   -4.021010    0.001074    0.003456   -0.002788
C     4.254215    0.999893   -1.701282    0.005040   -0.004016   -0.000906
C     1.993984   -2.269457    0.391821    0.004192   -0.006558    0.007020
C    -1.626469   -3.270223    1.041200   -0.005698   -0.002604   -0.000780
O    -5.046354    0.288974   -1.978373   -0.003488   -0.000620   -0.003628
O    -1.817742    3.786740   -4.282800   -0.001212   -0.004462   -0.002534
O     2.772728    3.949777   -3.978274   -0.003262   -0.000648   -0.004320
O     5.129769    0.222863   -0.891429    0.000366   -0.000744   -0.002598
O     1.701689   -3.576351    0.849906    0.003048   -0.007316   -0.001128
O    -3.054444   -3.353281    1.048812   -0.005050   -0.003444   -0.000316
C    -4.304367   -1.947345   -1.756305   -0.001484   -0.002648    0.003002
C    -2.005406    1.461875   -3.977631   -0.000132    0.003712    0.001880
C     1.025277    4.172469   -5.525385   -0.001536    0.004560   -0.000988
C     4.835640    1.003350   -3.119979   -0.000146   -0.001572    0.002186
C     2.039436   -2.273499   -1.132465   -0.000552    0.006492    0.007474
C    -1.183647   -4.582149    0.370773   -0.001160   -0.001372    0.001636
O    -5.626314   -2.417355   -1.699276   -0.003726   -0.002454   -0.000862
O    -0.715958    1.271151   -4.221934    0.007216    0.010974   -0.012332
O     1.363711    5.419685   -6.072109   -0.001420   -0.001246    0.002576
O     6.072605    1.661892   -3.191282   -0.000736   -0.001760   -0.001950
O     0.798394   -2.313229   -1.594451   -0.000352   -0.002096   -0.000868
O    -1.462302   -5.704729    1.167459   -0.002450   -0.003768    0.001744
H    -5.747439    2.125091   -2.299892   -0.000900   -0.000118    0.000246
H    -1.332131    5.707810   -4.586376   -0.000256   -0.003828   -0.001632
H     4.487585    4.075994   -2.992276   -0.003630   -0.008506   -0.002632
H     5.447944   -0.541142    0.921189   -0.003958   -0.001414   -0.003744
H     1.067366   -4.577091    2.472743    0.001080   -0.000452    0.003758
H    -4.799676   -2.588190    1.603807   -0.001410   -0.001678    0.003890
H    -6.626470    1.229261   -0.151540   -0.002146    0.000432   -0.006718
H    -3.640098    5.705539   -3.806450    0.002060   -0.003840   -0.004152
H     3.322653    6.273488   -2.956706   -0.000228   -0.006622   -0.005078
H     5.773504    1.916263    1.000809   -0.002702   -0.003458   -0.006182
H     3.369390   -3.827964    2.908078   -0.001968   -0.000370   -0.001024
H    -3.566130   -3.184287    3.652770   -0.004114   -0.001288   -0.002738
H    -5.303527    3.665628   -0.235125    0.006814   -0.006328    0.006930
H    -1.830324    6.827263   -1.968390   -0.008032   -0.000562    0.008850
H     3.748693    5.166293   -0.383387    0.005282   -0.001594    0.002194
H     4.481577    0.588418    2.809145   -0.009362   -0.002594    0.000572
H     1.418193   -2.641646    4.550943   -0.003870    0.003280   -0.003764
H    -4.203418   -0.479283    3.273111    0.002672   -0.000194   -0.004332
H    -3.719680    1.482955    0.737243   -0.009194    0.015230    0.001496
H    -2.614206    4.471246   -1.203960   -0.001468    0.006418    0.000504
H     1.311334    4.775134   -1.205938    0.001650   -0.001666   -0.002630
H     2.763947    2.028954    0.477140   -0.002204    0.005080   -0.011640
H     2.290786   -0.967073    2.780837    0.005100    0.003000    0.010504
H    -1.577662   -1.041994    2.764248   -0.006324    0.005970    0.015688
H    -5.515647    1.824045    2.318736    0.014112    0.000644    0.008590
H    -4.590755    5.870802   -1.310441   -0.002486   -0.003276    0.009798
H     1.887551    7.184731   -0.929373   -0.004606    0.002308    0.000876
H     3.889332    3.719077    1.778799    0.006716   -0.007848   -0.000100
H     4.222826   -1.632893    4.109176   -0.007564    0.005914    0.002300
H    -1.974876   -1.508816    5.098145    0.004808    0.010776   -0.003618
H    -5.478221   -1.002676    0.459993    0.000578    0.003796   -0.008962
H    -4.273058    3.140672   -3.411083    0.006310   -0.002366   -0.002586
H     0.810670    6.171339   -3.865793   -0.000332   -0.004212   -0.004704
H     5.063890    2.964164   -1.302809   -0.003674    0.000710   -0.007250
H     4.137179   -2.325756    0.751724    0.002262   -0.001208    0.001954
H    -1.125939   -4.053595    3.002209   -0.004694    0.000718   -0.003998
H    -3.145727   -0.180798   -1.337703    0.003146   -0.021508   -0.041996
H     0.881306    3.158114   -3.636073    0.000160   -0.004308   -0.012484
H     3.269340    0.517535   -1.725280   -0.002888    0.002218   -0.028662
H     1.168095   -1.610160    0.686199    0.009838   -0.043256    0.072620
H    -1.310151   -2.423211    0.422191   -0.018450   -0.026728   -0.031076
H    -3.703851   -2.632192   -1.155505   -0.006512   -0.005878    0.003146
H    -3.931029   -1.939660   -2.786619    0.010834   -0.007144    0.006260
H     1.566537    3.363757   -6.027392   -0.008216   -0.003520    0.001262
H    -0.043468    4.031090   -5.684785   -0.002088   -0.000344    0.002600
H     4.154861    1.544102   -3.781024   -0.008006   -0.009576    0.002366
H     4.916737   -0.035632   -3.456879   -0.006280   -0.000306   -0.002880
H    -1.699621   -4.651412   -0.593725    0.005792   -0.002958   -0.002694
H    -0.108178   -4.573859    0.198557   -0.001218   -0.004012    0.001404
H    -6.174240   -1.825855   -2.234957   -0.002386    0.007964    0.012058
H     2.328109    5.500378   -6.089520   -0.000980    0.002362   -0.009354
H     6.722421    1.147815   -2.689631   -0.002542   -0.003212    0.002354
H    -2.423387   -5.780074    1.257663   -0.002968    0.011966    0.008262
C     0.560573   -2.053484   -2.968847    0.002126    0.047168    0.023598
H    -0.053475   -2.870049   -3.365501   -0.142978    0.149206    0.022770
H     1.507826   -1.978250   -3.509430    0.005212   -0.059798   -0.004118
O     3.030965   -2.227530   -1.813091    0.002988   -0.007360    0.008038
C    -0.226857   -0.036901   -4.428341   -0.010432    0.003524    0.035126
H     0.780656    0.062950   -4.832600   -0.052842   -0.020632   -0.091586
H    -0.877302   -0.601680   -5.111029   -0.087952   -0.066828    0.175410
O    -2.900868    0.723509   -4.296720    0.003604    0.001660   -0.005398
C    -0.242836   -0.744085   -3.061619    0.265752    0.286084    0.224402
O     1.207317    0.264068   -2.119131    0.074224   -0.106736   -0.473226
O     0.731178    1.660662   -2.056619   -0.062060   -0.077032    0.064310
H     0.496013    0.116087   -0.667417   -0.830828   -0.275772    1.594230
O    -0.282115   -0.174941   -0.061867   -0.071666   -0.065156    0.015068
H    -0.881399   -0.544627   -0.801824   -0.021440   -0.004364   -0.262030
C    -0.968635    0.995432    0.463610   -0.010174    0.042322    0.021146
O    -1.265440   -0.573552   -2.352188    0.007744    0.042714    0.081604
H    -1.358566    1.593209   -0.365206   -0.005416    0.039088    0.034542
H     1.577637    2.139389   -1.916952   -0.088408   -0.049260   -0.042078
H    -1.803267    0.586860    1.043846    0.024688   -0.066994   -0.012730
C    -0.066486    1.816635    1.334817    0.002462    0.006624    0.006166
C     0.144604    3.159983    1.056027   -0.001134    0.003854    0.000002
C     0.535004    1.241359    2.448070   -0.000068   -0.003734    0.002264
C     0.931534    3.928899    1.896282   -0.000116    0.002612   -0.001258
H    -0.313858    3.601313    0.182305   -0.000328    0.006104    0.000916
C     1.332578    2.007188    3.278717    0.000466   -0.002816    0.000516
H     0.365069    0.195926    2.659342    0.001000    0.002942    0.020142
C     1.522712    3.352581    3.008625   -0.001176   -0.002122   -0.001094
H     1.082018    4.974740    1.680019    0.003812    0.003096    0.001824
H     1.799669    1.563167    4.142397    0.004896    0.005662    0.000500
H     2.129363    3.951268    3.669647   -0.001890    0.000806   -0.003468
H    -1.359462    2.838500   -2.510460    0.005698   -0.000920   -0.005782
150
* Frequency(6) -548.9500
C    -5.076714    1.629372   -1.587609   -0.002734   -0.003866   -0.001482
C    -1.583971    5.066497   -3.731802   -0.003034   -0.002178   -0.001504
C     3.416354    4.137072   -2.759975   -0.002254   -0.003882    0.002402
C     4.717735    0.125739    0.446201   -0.007574   -0.002224    0.000614
C     1.344332   -3.546307    2.221791   -0.002592   -0.001122    0.003780
C    -3.740183   -2.314590    1.685307   -0.002996    0.000024   -0.000322
O    -3.795395    2.219783   -1.612448    0.003170    0.001430   -0.000780
O    -0.557136    5.056709   -2.787095    0.001108   -0.002616   -0.002044
O     3.064418    3.121235   -1.831737   -0.006124    0.000528   -0.002538
O     3.417493   -0.384169    0.562855   -0.000142    0.002314    0.003748
O     0.305979   -2.652511    2.476147    0.000446    0.000020   -0.007762
O    -3.503393   -1.063202    1.089215    0.000078    0.001300    0.000488
C    -5.648625    1.727883   -0.160558   -0.000918   -0.002358   -0.000030
C    -2.866357    5.573504   -3.042452   -0.001652   -0.002294    0.000032
C     3.067867    5.526001   -2.196552   -0.000698   -0.001804   -0.000600
C     4.752069    1.515044    1.101639   -0.002334   -0.001498    0.000566
C     2.569500   -3.092436    3.046578   -0.001730   -0.001250    0.002344
C    -3.324357   -2.233806    3.163579   -0.002778   -0.000072    0.000834
O    -5.847972    3.041740    0.282146   -0.002576   -0.000890   -0.001084
O    -2.680387    6.821528   -2.439259   -0.001472   -0.001770   -0.003110
O     3.792913    5.876538   -1.055534   -0.002832   -0.002490   -0.002320
O     4.378882    1.489997    2.452459   -0.003250   -0.000528   -0.002518
O     2.289746   -3.050321    4.416516   -0.001946    0.000784    0.001116
O    -4.013036   -1.232998    3.861814   -0.001364    0.000570    0.000336
C    -4.692455    0.975190    0.777900    0.000952    0.000658    0.001974
C    -3.358174    4.540494   -2.013116   -0.002446    0.000048    0.001488
C     1.558065    5.560671   -1.937563   -0.000802    0.002184   -0.000750
C     3.780026    2.425717    0.339613   -0.000574   -0.000502   -0.001440
C     3.062342   -1.716455    2.553346   -0.000604    0.000472    0.002662
C    -1.804958   -2.010155    3.233975   -0.001064    0.001558    0.002742
O    -5.161322    0.946324    2.104230   -0.001938   -0.001358    0.000750
O    -4.605424    4.914422   -1.483825   -0.001302   -0.000652   -0.002708
O     1.152569    6.811572   -1.445061   -0.001370   -0.002916   -0.002774
O     3.845298    3.749451    0.809780   -0.003374   -0.000106   -0.001672
O     4.270606   -1.346536    3.181732    0.000366    0.001366    0.001946
O    -1.346273   -2.017676    4.562094   -0.000456   -0.000574    0.003340
C    -4.529672   -0.473577    0.300474    0.003086   -0.000108    0.000916
C    -3.490903    3.142035   -2.643663   -0.002146   -0.002826    0.005890
C     0.781239    5.274245   -3.230108   -0.001444   -0.000674   -0.000008
C     4.116090    2.432687   -1.155354    0.000556   -0.005162   -0.000134
C     3.270237   -1.716881    1.029694    0.002884   -0.003714    0.002662
C    -1.048240   -3.100929    2.461818   -0.002860    0.000730   -0.000070
C    -4.172665   -0.526323   -1.196456    0.002026   -0.002312   -0.000962
C    -2.136372    2.822687   -3.289664   -0.003562   -0.000318    0.002842
C     1.342961    4.073726   -4.021327    0.001074    0.003456   -0.002788
C     4.254788    0.999437   -1.701385    0.005040   -0.004016   -0.000906
C     1.994460   -2.270202    0.392619    0.004192   -0.006558    0.007020
C    -1.627117   -3.270519    1.041111   -0.005698   -0.002604   -0.000780
O    -5.046750    0.288904   -1.978785   -0.003488   -0.000620   -0.003628
O    -1.817880    3.786233   -4.283088   -0.001212   -0.004462   -0.002534
O     2.772357    3.949703   -3.978765   -0.003262   -0.000648   -0.004320
O     5.129811    0.222778   -0.891724    0.000366   -0.000744   -0.002598
O     1.702035   -3.577182    0.849778    0.003048   -0.007316   -0.001128
O    -3.055018   -3.353672    1.048776   -0.005050   -0.003444   -0.000316
C    -4.304536   -1.947646   -1.755964   -0.001484   -0.002648    0.003002
C    -2.005421    1.462297   -3.977417   -0.000132    0.003712    0.001880
C     1.025102    4.172987   -5.525497   -0.001536    0.004560   -0.000988
C     4.835623    1.003171   -3.119731   -0.000146   -0.001572    0.002186
C     2.039373   -2.272761   -1.131616   -0.000552    0.006492    0.007474
C    -1.183779   -4.582305    0.370959   -0.001160   -0.001372    0.001636
O    -5.626737   -2.417634   -1.699374   -0.003726   -0.002454   -0.000862
O    -0.715138    1.272398   -4.223335    0.007216    0.010974   -0.012332
O     1.363550    5.419543   -6.071816   -0.001420   -0.001246    0.002576
O     6.072521    1.661692   -3.191504   -0.000736   -0.001760   -0.001950
O     0.798354   -2.313467   -1.594550   -0.000352   -0.002096   -0.000868
O    -1.462580   -5.705157    1.167657   -0.002450   -0.003768    0.001744
H    -5.747541    2.125078   -2.299864   -0.000900   -0.000118    0.000246
H    -1.332160    5.707375   -4.586561   -0.000256   -0.003828   -0.001632
H     4.487172    4.075027   -2.992575   -0.003630   -0.008506   -0.002632
H     5.447494   -0.541303    0.920764   -0.003958   -0.001414   -0.003744
H     1.067489   -4.577142    2.473170    0.001080   -0.000452    0.003758
H    -4.799836   -2.588381    1.604249   -0.001410   -0.001678    0.003890
H    -6.626714    1.229310   -0.152303   -0.002146    0.000432   -0.006718
H    -3.639864    5.705103   -3.806922    0.002060   -0.003840   -0.004152
H     3.322627    6.272735   -2.957283   -0.000228   -0.006622   -0.005078
H     5.773197    1.915870    1.000106   -0.002702   -0.003458   -0.006182
H     3.369166   -3.828006    2.907962   -0.001968   -0.000370   -0.001024
H    -3.566598   -3.184433    3.652459   -0.004114   -0.001288   -0.002738
H    -5.302753    3.664909   -0.234337    0.006814   -0.006328    0.006930
H    -1.831237    6.827199   -1.967384   -0.008032   -0.000562    0.008850
H     3.749293    5.166112   -0.383138    0.005282   -0.001594    0.002194
H     4.480513    0.588123    2.809210   -0.009362   -0.002594    0.000572
H     1.417753   -2.641273    4.550515   -0.003870    0.003280   -0.003764
H    -4.203114   -0.479305    3.272619    0.002672   -0.000194   -0.004332
H    -3.720725    1.484686    0.737413   -0.009194    0.015230    0.001496
H    -2.614373    4.471975   -1.203903   -0.001468    0.006418    0.000504
H     1.311522    4.774945   -1.206237    0.001650   -0.001666   -0.002630
H     2.763697    2.029531    0.475817   -0.002204    0.005080   -0.011640
H     2.291366   -0.966732    2.782031    0.005100    0.003000    0.010504
H    -1.578381   -1.041316    2.766031   -0.006324    0.005970    0.015688
H    -5.514043    1.824118    2.319712    0.014112    0.000644    0.008590
H    -4.591038    5.870430   -1.309328   -0.002486   -0.003276    0.009798
H     1.887028    7.184993   -0.929273   -0.004606    0.002308    0.000876
H     3.890095    3.718185    1.778788    0.006716   -0.007848   -0.000100
H     4.221966   -1.632221    4.109437   -0.007564    0.005914    0.002300
H    -1.974330   -1.507591    5.097734    0.004808    0.010776   -0.003618
H    -5.478155   -1.002245    0.458975    0.000578    0.003796   -0.008962
H    -4.272341    3.140403   -3.411377    0.006310   -0.002366   -0.002586
H     0.810632    6.170860   -3.866328   -0.000332   -0.004212   -0.004704
H     5.063472    2.964245   -1.303633   -0.003674    0.000710   -0.007250
H     4.137436   -2.325893    0.751946    0.002262   -0.001208    0.001954
H    -1.126472   -4.053513    3.001755   -0.004694    0.000718   -0.003998
H    -3.145369   -0.183242   -1.342476    0.003146   -0.021508   -0.041996
H     0.881324    3.157624   -3.637492    0.000160   -0.004308   -0.012484
H     3.269012    0.517787   -1.728537   -0.002888    0.002218   -0.028662
H     1.169213   -1.615076    0.694452    0.009838   -0.043256    0.072620
H    -1.312248   -2.426248    0.418659   -0.018450   -0.026728   -0.031076
H    -3.704591   -2.632860   -1.155147   -0.006512   -0.005878    0.003146
H    -3.929798   -1.940472   -2.785908    0.010834   -0.007144    0.006260
H     1.565603    3.363357   -6.027249   -0.008216   -0.003520    0.001262
H    -0.043705    4.031051   -5.684490   -0.002088   -0.000344    0.002600
H     4.153951    1.543014   -3.780755   -0.008006   -0.009576    0.002366
H     4.916023   -0.035667   -3.457206   -0.006280   -0.000306   -0.002880
H    -1.698963   -4.651748   -0.594031    0.005792   -0.002958   -0.002694
H    -0.108316   -4.574315    0.198717   -0.001218   -0.004012    0.001404
H    -6.174511   -1.824950   -2.233587   -0.002386    0.007964    0.012058
H     2.327998    5.500646   -6.090583   -0.000980    0.002362   -0.009354
H     6.722132    1.147450   -2.689363   -0.002542   -0.003212    0.002354
H    -2.423724   -5.778714    1.258602   -0.002968    0.011966    0.008262
C     0.560815   -2.048124   -2.966165    0.002126    0.047168    0.023598
H    -0.069724   -2.853093   -3.362913   -0.142978    0.149206    0.022770
H     1.508418   -1.985046   -3.509898    0.005212   -0.059798   -0.004118
O     3.031305   -2.228366   -1.812178    0.002988   -0.007360    0.008038
C    -0.228043   -0.036501   -4.424349   -0.010432    0.003524    0.035126
H     0.774651    0.060605   -4.843008   -0.052842   -0.020632   -0.091586
H    -0.887297   -0.609275   -5.091095   -0.087952   -0.066828    0.175410
O    -2.900458    0.723698   -4.297333    0.003604    0.001660   -0.005398
C    -0.212635   -0.711573   -3.036117    0.265752    0.286084    0.224402
O     1.215752    0.251938   -2.172911    0.074224   -0.106736   -0.473226
O     0.724125    1.651908   -2.049311   -0.062060   -0.077032    0.064310
H     0.401594    0.084747   -0.486241   -0.830828   -0.275772    1.594230
O    -0.290259   -0.182346   -0.060155   -0.071666   -0.065156    0.015068
H    -0.883836   -0.545123   -0.831602   -0.021440   -0.004364   -0.262030
C    -0.969791    1.000242    0.466013   -0.010174    0.042322    0.021146
O    -1.264560   -0.568698   -2.342914    0.007744    0.042714    0.081604
H    -1.359182    1.597651   -0.361280   -0.005416    0.039088    0.034542
H     1.567590    2.133791   -1.921734   -0.088408   -0.049260   -0.042078
H    -1.800461    0.579246    1.042399    0.024688   -0.066994   -0.012730
C    -0.066206    1.817388    1.335518    0.002462    0.006624    0.006166
C     0.144475    3.160421    1.056027   -0.001134    0.003854    0.000002
C     0.534996    1.240935    2.448327   -0.000068   -0.003734    0.002264
C     0.931521    3.929196    1.896139   -0.000116    0.002612   -0.001258
H    -0.313895    3.602007    0.182409   -0.000328    0.006104    0.000916
C     1.332631    2.006868    3.278776    0.000466   -0.002816    0.000516
H     0.365183    0.196260    2.661631    0.001000    0.002942    0.020142
C     1.522578    3.352340    3.008501   -0.001176   -0.002122   -0.001094
H     1.082451    4.975092    1.680226    0.003812    0.003096    0.001824
H     1.800225    1.563810    4.142454    0.004896    0.005662    0.000500
H     2.129148    3.951360    3.669253   -0.001890    0.000806   -0.003468
H    -1.358814    2.838395   -2.511117    0.005698   -0.000920   -0.005782
150
* Frequency(6) -548.9500
C    -5.076991    1.628980   -1.587760   -0.002734   -0.003866   -0.001482
C    -1.584278    5.066277   -3.731954   -0.003034   -0.002178   -0.001504
C     3.416125    4.136678   -2.759732   -0.002254   -0.003882    0.002402
C     4.716968    0.125514    0.446263   -0.007574   -0.002224    0.000614
C     1.344070   -3.546420    2.222174   -0.002592   -0.001122    0.003780
C    -3.740487   -2.314588    1.685275   -0.002996    0.000024   -0.000322
O    -3.795074    2.219927   -1.612527    0.003170    0.001430   -0.000780
O    -0.557024    5.056444   -2.787302    0.001108   -0.002616   -0.002044
O     3.063797    3.121289   -1.831995   -0.006124    0.000528   -0.002538
O     3.417478   -0.383935    0.563235   -0.000142    0.002314    0.003748
O     0.306024   -2.652509    2.475360    0.000446    0.000020   -0.007762
O    -3.503385   -1.063071    1.089265    0.000078    0.001300    0.000488
C    -5.648718    1.727644   -0.160561   -0.000918   -0.002358   -0.000030
C    -2.866524    5.573272   -3.042449   -0.001652   -0.002294    0.000032
C     3.067796    5.525818   -2.196613   -0.000698   -0.001804   -0.000600
C     4.751832    1.514892    1.101697   -0.002334   -0.001498    0.000566
C     2.569325   -3.092563    3.046816   -0.001730   -0.001250    0.002344
C    -3.324638   -2.233813    3.163663   -0.002778   -0.000072    0.000834
O    -5.848233    3.041650    0.282036   -0.002576   -0.000890   -0.001084
O    -2.680536    6.821348   -2.439575   -0.001472   -0.001770   -0.003110
O     3.792626    5.876286   -1.055769   -0.002832   -0.002490   -0.002320
O     4.378552    1.489943    2.452204   -0.003250   -0.000528   -0.002518
O     2.289549   -3.050241    4.416629   -0.001946    0.000784    0.001116
O    -4.013174   -1.232940    3.861848   -0.001364    0.000570    0.000336
C    -4.692358    0.975256    0.778100    0.000952    0.000658    0.001974
C    -3.358422    4.540499   -2.012965   -0.002446    0.000048    0.001488
C     1.557984    5.560893   -1.937639   -0.000802    0.002184   -0.000750
C     3.779968    2.425666    0.339467   -0.000574   -0.000502   -0.001440
C     3.062281   -1.716408    2.553615   -0.000604    0.000472    0.002662
C    -1.805066   -2.009997    3.234252   -0.001064    0.001558    0.002742
O    -5.161519    0.946186    2.104306   -0.001938   -0.001358    0.000750
O    -4.605556    4.914356   -1.484099   -0.001302   -0.000652   -0.002708
O     1.152430    6.811276   -1.445342   -0.001370   -0.002916   -0.002774
O     3.844956    3.749440    0.809611   -0.003374   -0.000106   -0.001672
O     4.270643   -1.346397    3.181929    0.000366    0.001366    0.001946
O    -1.346319   -2.017734    4.562432   -0.000456   -0.000574    0.003340
C    -4.529360   -0.473588    0.300567    0.003086   -0.000108    0.000916
C    -3.491120    3.141748   -2.643066   -0.002146   -0.002826    0.005890
C     0.781093    5.274177   -3.230109   -0.001444   -0.000674   -0.000008
C     4.116147    2.432164   -1.155368    0.000556   -0.005162   -0.000134
C     3.270529   -1.717257    1.029963    0.002884   -0.003714    0.002662
C    -1.048530   -3.100855    2.461811   -0.002860    0.000730   -0.000070
C    -4.172459   -0.526557   -1.196554    0.002026   -0.002312   -0.000962
C    -2.136733    2.822655   -3.289376   -0.003562   -0.000318    0.002842
C     1.343070    4.074076   -4.021609    0.001074    0.003456   -0.002788
C     4.255298    0.999030   -1.701477    0.005040   -0.004016   -0.000906
C     1.994885   -2.270867    0.393330    0.004192   -0.006558    0.007020
C    -1.627694   -3.270783    1.041032   -0.005698   -0.002604   -0.000780
O    -5.047104    0.288841   -1.979153   -0.003488   -0.000620   -0.003628
O    -1.818003    3.785781   -4.283345   -0.001212   -0.004462   -0.002534
O     2.772027    3.949638   -3.979203   -0.003262   -0.000648   -0.004320
O     5.129848    0.222703   -0.891988    0.000366   -0.000744   -0.002598
O     1.702344   -3.577924    0.849664    0.003048   -0.007316   -0.001128
O    -3.055530   -3.354021    1.048744   -0.005050   -0.003444   -0.000316
C    -4.304686   -1.947914   -1.755660   -0.001484   -0.002648    0.003002
C    -2.005434    1.462673   -3.977227   -0.000132    0.003712    0.001880
C     1.024947    4.173449   -5.525597   -0.001536    0.004560   -0.000988
C     4.835609    1.003012   -3.119509   -0.000146   -0.001572    0.002186
C     2.039317   -2.272103   -1.130858   -0.000552    0.006492    0.007474
C    -1.183896   -4.582444    0.371125   -0.001160   -0.001372    0.001636
O    -5.627115   -2.417883   -1.699461   -0.003726   -0.002454   -0.000862
O    -0.714407    1.273510   -4.224585    0.007216    0.010974   -0.012332
O     1.363406    5.419417   -6.071555   -0.001420   -0.001246    0.002576
O     6.072447    1.661514   -3.191701   -0.000736   -0.001760   -0.001950
O     0.798318   -2.313680   -1.594638   -0.000352   -0.002096   -0.000868
O    -1.462829   -5.705539    1.167834   -0.002450   -0.003768    0.001744
H    -5.747632    2.125066   -2.299839   -0.000900   -0.000118    0.000246
H    -1.332186    5.706987   -4.586727   -0.000256   -0.003828   -0.001632
H     4.486805    4.074165   -2.992842   -0.003630   -0.008506   -0.002632
H     5.447093   -0.541446    0.920384   -0.003958   -0.001414   -0.003744
H     1.067598   -4.577188    2.473551    0.001080   -0.000452    0.003758
H    -4.799979   -2.588551    1.604643   -0.001410   -0.001678    0.003890
H    -6.626931    1.229354   -0.152984   -0.002146    0.000432   -0.006718
H    -3.639655    5.704713   -3.807343    0.002060   -0.003840   -0.004152
H     3.322604    6.272064   -2.957798   -0.000228   -0.006622   -0.005078
H     5.772923    1.915520    0.999480   -0.002702   -0.003458   -0.006182
H     3.368967   -3.828044    2.907858   -0.001968   -0.000370   -0.001024
H    -3.567014   -3.184564    3.652181   -0.004114   -0.001288   -0.002738
H    -5.302062    3.664268   -0.233635    0.006814   -0.006328    0.006930
H    -1.832051    6.827142   -1.966487   -0.008032   -0.000562    0.008850
H     3.749828    5.165950   -0.382915    0.005282   -0.001594    0.002194
H     4.479564    0.587860    2.809268   -0.009362   -0.002594    0.000572
H     1.417361   -2.640941    4.550134   -0.003870    0.003280   -0.003764
H    -4.202844   -0.479325    3.272180    0.002672   -0.000194   -0.004332
H    -3.721656    1.486229    0.737565   -0.009194    0.015230    0.001496
H    -2.614522    4.472626   -1.203852   -0.001468    0.006418    0.000504
H     1.311689    4.774776   -1.206503    0.001650   -0.001666   -0.002630
H     2.763473    2.030046    0.474638   -0.002204    0.005080   -0.011640
H     2.291882   -0.966428    2.783095    0.005100    0.003000    0.010504
H    -1.579021   -1.040711    2.767621   -0.006324    0.005970    0.015688
H    -5.512613    1.824183    2.320583    0.014112    0.000644    0.008590
H    -4.591289    5.870098   -1.308335   -0.002486   -0.003276    0.009798
H     1.886561    7.185227   -0.929185   -0.004606    0.002308    0.000876
H     3.890776    3.717390    1.778778    0.006716   -0.007848   -0.000100
H     4.221200   -1.631622    4.109670   -0.007564    0.005914    0.002300
H    -1.973842   -1.506499    5.097367    0.004808    0.010776   -0.003618
H    -5.478097   -1.001860    0.458066    0.000578    0.003796   -0.008962
H    -4.271702    3.140163   -3.411639    0.006310   -0.002366   -0.002586
H     0.810599    6.170434   -3.866804   -0.000332   -0.004212   -0.004704
H     5.063100    2.964317   -1.304368   -0.003674    0.000710   -0.007250
H     4.137665   -2.326016    0.752144    0.002262   -0.001208    0.001954
H    -1.126948   -4.053441    3.001350   -0.004694    0.000718   -0.003998
H    -3.145051   -0.185422   -1.346731    0.003146   -0.021508   -0.041996
H     0.881340    3.157188   -3.638757    0.000160   -0.004308   -0.012484
H     3.268719    0.518012   -1.731442   -0.002888    0.002218   -0.028662
H     1.170210   -1.619459    0.701810    0.009838   -0.043256    0.072620
H    -1.314117   -2.428957    0.415510   -0.018450   -0.026728   -0.031076
H    -3.705251   -2.633456   -1.154829   -0.006512   -0.005878    0.003146
H    -3.928700   -1.941196   -2.785273    0.010834   -0.007144    0.006260
H     1.564771    3.363000   -6.027121   -0.008216   -0.003520    0.001262
H    -0.043917    4.031016   -5.684226   -0.002088   -0.000344    0.002600
H     4.153140    1.542043   -3.780515   -0.008006   -0.009576    0.002366
H     4.915387   -0.035698   -3.457498   -0.006280   -0.000306   -0.002880
H    -1.698376   -4.652048   -0.594304    0.005792   -0.002958   -0.002694
H    -0.108440   -4.574721    0.198859   -0.001218   -0.004012    0.001404
H    -6.174753   -1.824143   -2.232365   -0.002386    0.007964    0.012058
H     2.327898    5.500886   -6.091531   -0.000980    0.002362   -0.009354
H     6.721875    1.147125   -2.689125   -0.002542   -0.003212    0.002354
H    -2.424025   -5.777502    1.259439   -0.002968    0.011966    0.008262
C     0.561030   -2.043344   -2.963774    0.002126    0.047168    0.023598
H    -0.084212   -2.837974   -3.360606   -0.142978    0.149206    0.022770
H     1.508946   -1.991105   -3.510315    0.005212   -0.059798   -0.004118
O     3.031607   -2.229112   -1.811363    0.002988   -0.007360    0.008038
C    -0.229100   -0.036143   -4.420790   -0.010432    0.003524    0.035126
H     0.769296    0.058515   -4.852289   -0.052842   -0.020632   -0.091586
H    -0.896209   -0.616046   -5.073320   -0.087952   -0.066828    0.175410
O    -2.900093    0.723866   -4.297880    0.003604    0.001660   -0.005398
C    -0.185706   -0.682584   -3.013378    0.265752    0.286084    0.224402
O     1.223273    0.241122   -2.220862    0.074224   -0.106736   -0.473226
O     0.717837    1.644102   -2.042794   -0.062060   -0.077032    0.064310
H     0.317406    0.056803   -0.324698   -0.830828   -0.275772    1.594230
O    -0.297521   -0.188948   -0.058628   -0.071666   -0.065156    0.015068
H    -0.886008   -0.545565   -0.858154   -0.021440   -0.004364   -0.262030
C    -0.970822    1.004530    0.468156   -0.010174    0.042322    0.021146
O    -1.263775   -0.564370   -2.334645    0.007744    0.042714    0.081604
H    -1.359730    1.601612   -0.357780   -0.005416    0.039088    0.034542
H     1.558632    2.128799   -1.925998   -0.088408   -0.049260   -0.042078
H    -1.797960    0.572458    1.041109    0.024688   -0.066994   -0.012730
C    -0.065957    1.818059    1.336143    0.002462    0.006624    0.006166
C     0.144360    3.160812    1.056027   -0.001134    0.003854    0.000002
C     0.534989    1.240556    2.448557   -0.000068   -0.003734    0.002264
C     0.931509    3.929461    1.896012   -0.000116    0.002612   -0.001258
H    -0.313929    3.602625    0.182502   -0.000328    0.006104    0.000916
C     1.332678    2.006583    3.278828    0.000466   -0.002816    0.000516
H     0.365284    0.196558    2.663672    0.001000    0.002942    0.020142
C     1.522459    3.352125    3.008390   -0.001176   -0.002122   -0.001094
H     1.082837    4.975406    1.680411    0.003812    0.003096    0.001824
H     1.800722    1.564384    4.142504    0.004896    0.005662    0.000500
H     2.128957    3.951441    3.668901   -0.001890    0.000806   -0.003468
H    -1.358237    2.838302   -2.511703    0.005698   -0.000920   -0.005782
150
* Frequency(6) -548.9500
C    -5.077204    1.628678   -1.587875   -0.002734   -0.003866   -0.001482
C    -1.584515    5.066107   -3.732072   -0.003034   -0.002178   -0.001504
C     3.415950    4.136376   -2.759544   -0.002254   -0.003882    0.002402
C     4.716377    0.125340    0.446311   -0.007574   -0.002224    0.000614
C     1.343868   -3.546508    2.222469   -0.002592   -0.001122    0.003780
C    -3.740721   -2.314586    1.685250   -0.002996    0.000024   -0.000322
O    -3.794826    2.220039   -1.612588    0.003170    0.001430   -0.000780
O    -0.556937    5.056239   -2.787462    0.001108   -0.002616   -0.002044
O     3.063320    3.121330   -1.832193   -0.006124    0.000528   -0.002538
O     3.417467   -0.383754    0.563527   -0.000142    0.002314    0.003748
O     0.306059   -2.652507    2.474755    0.000446    0.000020   -0.007762
O    -3.503379   -1.062969    1.089303    0.000078    0.001300    0.000488
C    -5.648790    1.727460   -0.160564   -0.000918   -0.002358   -0.000030
C    -2.866653    5.573093   -3.042447   -0.001652   -0.002294    0.000032
C     3.067741    5.525677   -2.196660   -0.000698   -0.001804   -0.000600
C     4.751650    1.514775    1.101741   -0.002334   -0.001498    0.000566
C     2.569190   -3.092660    3.046999   -0.001730   -0.001250    0.002344
C    -3.324855   -2.233819    3.163728   -0.002778   -0.000072    0.000834
O    -5.848434    3.041580    0.281951   -0.002576   -0.000890   -0.001084
O    -2.680651    6.821210   -2.439817   -0.001472   -0.001770   -0.003110
O     3.792405    5.876091   -1.055950   -0.002832   -0.002490   -0.002320
O     4.378299    1.489902    2.452007   -0.003250   -0.000528   -0.002518
O     2.289397   -3.050180    4.416716   -0.001946    0.000784    0.001116
O    -4.013281   -1.232896    3.861874   -0.001364    0.000570    0.000336
C    -4.692284    0.975308    0.778254    0.000952    0.000658    0.001974
C    -3.358613    4.540503   -2.012849   -0.002446    0.000048    0.001488
C     1.557921    5.561063   -1.937698   -0.000802    0.002184   -0.000750
C     3.779923    2.425627    0.339355   -0.000574   -0.000502   -0.001440
C     3.062234   -1.716371    2.553823   -0.000604    0.000472    0.002662
C    -1.805149   -2.009875    3.234466   -0.001064    0.001558    0.002742
O    -5.161670    0.946080    2.104365   -0.001938   -0.001358    0.000750
O    -4.605657    4.914305   -1.484310   -0.001302   -0.000652   -0.002708
O     1.152324    6.811049   -1.445559   -0.001370   -0.002916   -0.002774
O     3.844692    3.749432    0.809480   -0.003374   -0.000106   -0.001672
O     4.270671   -1.346291    3.182081    0.000366    0.001366    0.001946
O    -1.346355   -2.017779    4.562693   -0.000456   -0.000574    0.003340
C    -4.529119   -0.473597    0.300638    0.003086   -0.000108    0.000916
C    -3.491288    3.141528   -2.642606   -0.002146   -0.002826    0.005890
C     0.780980    5.274125   -3.230109   -0.001444   -0.000674   -0.000008
C     4.116190    2.431761   -1.155378    0.000556   -0.005162   -0.000134
C     3.270754   -1.717547    1.030171    0.002884   -0.003714    0.002662
C    -1.048753   -3.100798    2.461805   -0.002860    0.000730   -0.000070
C    -4.172301   -0.526737   -1.196629    0.002026   -0.002312   -0.000962
C    -2.137011    2.822630   -3.289154   -0.003562   -0.000318    0.002842
C     1.343154    4.074346   -4.021827    0.001074    0.003456   -0.002788
C     4.255692    0.998716   -1.701547    0.005040   -0.004016   -0.000906
C     1.995212   -2.271379    0.393878    0.004192   -0.006558    0.007020
C    -1.628139   -3.270986    1.040971   -0.005698   -0.002604   -0.000780
O    -5.047376    0.288792   -1.979436   -0.003488   -0.000620   -0.003628
O    -1.818097    3.785433   -4.283542   -0.001212   -0.004462   -0.002534
O     2.771772    3.949587   -3.979540   -0.003262   -0.000648   -0.004320
O     5.129876    0.222645   -0.892190    0.000366   -0.000744   -0.002598
O     1.702582   -3.578495    0.849575    0.003048   -0.007316   -0.001128
O    -3.055924   -3.354290    1.048719   -0.005050   -0.003444   -0.000316
C    -4.304802   -1.948121   -1.755425   -0.001484   -0.002648    0.003002
C    -2.005445    1.462963   -3.977080   -0.000132    0.003712    0.001880
C     1.024827    4.173805   -5.525674   -0.001536    0.004560   -0.000988
C     4.835597    1.002889   -3.119338   -0.000146   -0.001572    0.002186
C     2.039274   -2.271597   -1.130275   -0.000552    0.006492    0.007474
C    -1.183987   -4.582551    0.371252   -0.001160   -0.001372    0.001636
O    -5.627406   -2.418074   -1.699529   -0.003726   -0.002454   -0.000862
O    -0.713844    1.274366   -4.225547    0.007216    0.010974   -0.012332
O     1.363295    5.419320   -6.071354   -0.001420   -0.001246    0.002576
O     6.072389    1.661376   -3.191853   -0.000736   -0.001760   -0.001950
O     0.798291   -2.313843   -1.594705   -0.000352   -0.002096   -0.000868
O    -1.463020   -5.705833    1.167970   -0.002450   -0.003768    0.001744
H    -5.747703    2.125056   -2.299820   -0.000900   -0.000118    0.000246
H    -1.332206    5.706688   -4.586854   -0.000256   -0.003828   -0.001632
H     4.486521    4.073502   -2.993047   -0.003630   -0.008506   -0.002632
H     5.446784   -0.541556    0.920092   -0.003958   -0.001414   -0.003744
H     1.067682   -4.577223    2.473844    0.001080   -0.000452    0.003758
H    -4.800089   -2.588682    1.604947   -0.001410   -0.001678    0.003890
H    -6.627099    1.229388   -0.153508   -0.002146    0.000432   -0.006718
H    -3.639494    5.704414   -3.807667    0.002060   -0.003840   -0.004152
H     3.322586    6.271548   -2.958194   -0.000228   -0.006622   -0.005078
H     5.772712    1.915250    0.998998   -0.002702   -0.003458   -0.006182
H     3.368813   -3.828072    2.907778   -0.001968   -0.000370   -0.001024
H    -3.567335   -3.184664    3.651968   -0.004114   -0.001288   -0.002738
H    -5.301530    3.663774   -0.233094    0.006814   -0.006328    0.006930
H    -1.832677    6.827098   -1.965797   -0.008032   -0.000562    0.008850
H     3.750241    5.165826   -0.382744    0.005282   -0.001594    0.002194
H     4.478834    0.587658    2.809313   -0.009362   -0.002594    0.000572
H     1.417059   -2.640685    4.549840   -0.003870    0.003280   -0.003764
H    -4.202635   -0.479340    3.271842    0.002672   -0.000194   -0.004332
H    -3.722374    1.487418    0.737681   -0.009194    0.015230    0.001496
H    -2.614636    4.473127   -1.203812   -0.001468    0.006418    0.000504
H     1.311817    4.774646   -1.206709    0.001650   -0.001666   -0.002630
H     2.763301    2.030442    0.473729   -0.002204    0.005080   -0.011640
H     2.292280   -0.966194    2.783915    0.005100    0.003000    0.010504
H    -1.579515   -1.040245    2.768845   -0.006324    0.005970    0.015688
H    -5.511512    1.824234    2.321253    0.014112    0.000644    0.008590
H    -4.591483    5.869842   -1.307570   -0.002486   -0.003276    0.009798
H     1.886201    7.185407   -0.929116   -0.004606    0.002308    0.000876
H     3.891300    3.716777    1.778770    0.006716   -0.007848   -0.000100
H     4.220610   -1.631160    4.109850   -0.007564    0.005914    0.002300
H    -1.973467   -1.505659    5.097085    0.004808    0.010776   -0.003618
H    -5.478052   -1.001564    0.457367    0.000578    0.003796   -0.008962
H    -4.271209    3.139979   -3.411841    0.006310   -0.002366   -0.002586
H     0.810573    6.170105   -3.867171   -0.000332   -0.004212   -0.004704
H     5.062813    2.964372   -1.304933   -0.003674    0.000710   -0.007250
H     4.137842   -2.326110    0.752297    0.002262   -0.001208    0.001954
H    -1.127314   -4.053385    3.001038   -0.004694    0.000718   -0.003998
H    -3.144805   -0.187100   -1.350008    0.003146   -0.021508   -0.041996
H     0.881353    3.156852   -3.639731    0.000160   -0.004308   -0.012484
H     3.268494    0.518185   -1.733678   -0.002888    0.002218   -0.028662
H     1.170978   -1.622834    0.707477    0.009838   -0.043256    0.072620
H    -1.315557   -2.431043    0.413085   -0.018450   -0.026728   -0.031076
H    -3.705759   -2.633914   -1.154583   -0.006512   -0.005878    0.003146
H    -3.927855   -1.941753   -2.784785    0.010834   -0.007144    0.006260
H     1.564130    3.362726   -6.027022   -0.008216   -0.003520    0.001262
H    -0.044080    4.030989   -5.684023   -0.002088   -0.000344    0.002600
H     4.152515    1.541296   -3.780331   -0.008006   -0.009576    0.002366
H     4.914897   -0.035722   -3.457723   -0.006280   -0.000306   -0.002880
H    -1.697924   -4.652279   -0.594514    0.005792   -0.002958   -0.002694
H    -0.108535   -4.575035    0.198968   -0.001218   -0.004012    0.001404
H    -6.174939   -1.823521   -2.231424   -0.002386    0.007964    0.012058
H     2.327822    5.501070   -6.092261   -0.000980    0.002362   -0.009354
H     6.721676    1.146874   -2.688941   -0.002542   -0.003212    0.002354
H    -2.424257   -5.776568    1.260084   -0.002968    0.011966    0.008262
C     0.561196   -2.039663   -2.961933    0.002126    0.047168    0.023598
H    -0.095369   -2.826330   -3.358829   -0.142978    0.149206    0.022770
H     1.509353   -1.995771   -3.510637    0.005212   -0.059798   -0.004118
O     3.031841   -2.229687   -1.810736    0.002988   -0.007360    0.008038
C    -0.229914   -0.035868   -4.418049   -0.010432    0.003524    0.035126
H     0.765173    0.056905   -4.859435   -0.052842   -0.020632   -0.091586
H    -0.903073   -0.621261   -5.059632   -0.087952   -0.066828    0.175410
O    -2.899812    0.723995   -4.298302    0.003604    0.001660   -0.005398
C    -0.164968   -0.660260   -2.995867    0.265752    0.286084    0.224402
O     1.229065    0.232793   -2.257790    0.074224   -0.106736   -0.473226
O     0.712994    1.638091   -2.037776   -0.062060   -0.077032    0.064310
H     0.252574    0.035284   -0.200294   -0.830828   -0.275772    1.594230
O    -0.303114   -0.194032   -0.057452   -0.071666   -0.065156    0.015068
H    -0.887681   -0.545906   -0.878601   -0.021440   -0.004364   -0.262030
C    -0.971616    1.007833    0.469806   -0.010174    0.042322    0.021146
O    -1.263171   -0.561036   -2.328277    0.007744    0.042714    0.081604
H    -1.360153    1.604662   -0.355085   -0.005416    0.039088    0.034542
H     1.551733    2.124955   -1.929281   -0.088408   -0.049260   -0.042078
H    -1.796033    0.567230    1.040116    0.024688   -0.066994   -0.012730
C    -0.065765    1.818576    1.336624    0.002462    0.006624    0.006166
C     0.144272    3.161112    1.056028   -0.001134    0.003854    0.000002
C     0.534984    1.240265    2.448733   -0.000068   -0.003734    0.002264
C     0.931500    3.929664    1.895913   -0.000116    0.002612   -0.001258
H    -0.313954    3.603102    0.182573   -0.000328    0.006104    0.000916
C     1.332715    2.006363    3.278868    0.000466   -0.002816    0.000516
H     0.365362    0.196788    2.665244    0.001000    0.002942    0.020142
C     1.522367    3.351959    3.008304   -0.001176   -0.002122   -0.001094
H     1.083135    4.975647    1.680553    0.003812    0.003096    0.001824
H     1.801104    1.564826    4.142544    0.004896    0.005662    0.000500
H     2.128809    3.951504    3.668631   -0.001890    0.000806   -0.003468
H    -1.357792    2.838230   -2.512154    0.005698   -0.000920   -0.005782
150
* Frequency(6) -548.9500
C    -5.077331    1.628499   -1.587944   -0.002734   -0.003866   -0.001482
C    -1.584655    5.066006   -3.732141   -0.003034   -0.002178   -0.001504
C     3.415845    4.136196   -2.759433   -0.002254   -0.003882    0.002402
C     4.716026    0.125237    0.446339   -0.007574   -0.002224    0.000614
C     1.343748   -3.546560    2.222644   -0.002592   -0.001122    0.003780
C    -3.740860   -2.314585    1.685235   -0.002996    0.000024   -0.000322
O    -3.794679    2.220105   -1.612624    0.003170    0.001430   -0.000780
O    -0.556886    5.056118   -2.787557    0.001108   -0.002616   -0.002044
O     3.063036    3.121354   -1.832310   -0.006124    0.000528   -0.002538
O     3.417461   -0.383647    0.563701   -0.000142    0.002314    0.003748
O     0.306079   -2.652506    2.474395    0.000446    0.000020   -0.007762
O    -3.503376   -1.062909    1.089326    0.000078    0.001300    0.000488
C    -5.648832    1.727351   -0.160565   -0.000918   -0.002358   -0.000030
C    -2.866730    5.572987   -3.042445   -0.001652   -0.002294    0.000032
C     3.067709    5.525594   -2.196688   -0.000698   -0.001804   -0.000600
C     4.751542    1.514706    1.101767   -0.002334   -0.001498    0.000566
C     2.569110   -3.092718    3.047107   -0.001730   -0.001250    0.002344
C    -3.324984   -2.233822    3.163767   -0.002778   -0.000072    0.000834
O    -5.848553    3.041539    0.281901   -0.002576   -0.000890   -0.001084
O    -2.680719    6.821128   -2.439961   -0.001472   -0.001770   -0.003110
O     3.792274    5.875976   -1.056057   -0.002832   -0.002490   -0.002320
O     4.378148    1.489878    2.451891   -0.003250   -0.000528   -0.002518
O     2.289307   -3.050144    4.416768   -0.001946    0.000784    0.001116
O    -4.013344   -1.232870    3.861890   -0.001364    0.000570    0.000336
C    -4.692240    0.975338    0.778346    0.000952    0.000658    0.001974
C    -3.358726    4.540505   -2.012780   -0.002446    0.000048    0.001488
C     1.557884    5.561164   -1.937732   -0.000802    0.002184   -0.000750
C     3.779896    2.425604    0.339288   -0.000574   -0.000502   -0.001440
C     3.062206   -1.716349    2.553946   -0.000604    0.000472    0.002662
C    -1.805198   -2.009803    3.234593   -0.001064    0.001558    0.002742
O    -5.161760    0.946017    2.104399   -0.001938   -0.001358    0.000750
O    -4.605718    4.914275   -1.484436   -0.001302   -0.000652   -0.002708
O     1.152260    6.810914   -1.445687   -0.001370   -0.002916   -0.002774
O     3.844536    3.749427    0.809403   -0.003374   -0.000106   -0.001672
O     4.270688   -1.346228    3.182171    0.000366    0.001366    0.001946
O    -1.346376   -2.017806    4.562847   -0.000456   -0.000574    0.003340
C    -4.528976   -0.473602    0.300681    0.003086   -0.000108    0.000916
C    -3.491387    3.141397   -2.642334   -0.002146   -0.002826    0.005890
C     0.780913    5.274093   -3.230110   -0.001444   -0.000674   -0.000008
C     4.116216    2.431523   -1.155384    0.000556   -0.005162   -0.000134
C     3.270888   -1.717719    1.030294    0.002884   -0.003714    0.002662
C    -1.048885   -3.100764    2.461802   -0.002860    0.000730   -0.000070
C    -4.172208   -0.526844   -1.196673    0.002026   -0.002312   -0.000962
C    -2.137176    2.822615   -3.289023   -0.003562   -0.000318    0.002842
C     1.343203    4.074506   -4.021956    0.001074    0.003456   -0.002788
C     4.255925    0.998530   -1.701589    0.005040   -0.004016   -0.000906
C     1.995406   -2.271682    0.394203    0.004192   -0.006558    0.007020
C    -1.628402   -3.271107    1.040935   -0.005698   -0.002604   -0.000780
O    -5.047537    0.288764   -1.979604   -0.003488   -0.000620   -0.003628
O    -1.818153    3.785226   -4.283660   -0.001212   -0.004462   -0.002534
O     2.771621    3.949557   -3.979740   -0.003262   -0.000648   -0.004320
O     5.129893    0.222611   -0.892310    0.000366   -0.000744   -0.002598
O     1.702723   -3.578833    0.849523    0.003048   -0.007316   -0.001128
O    -3.056157   -3.354450    1.048705   -0.005050   -0.003444   -0.000316
C    -4.304871   -1.948243   -1.755286   -0.001484   -0.002648    0.003002
C    -2.005451    1.463134   -3.976993   -0.000132    0.003712    0.001880
C     1.024756    4.174016   -5.525720   -0.001536    0.004560   -0.000988
C     4.835590    1.002817   -3.119237   -0.000146   -0.001572    0.002186
C     2.039249   -2.271296   -1.129929   -0.000552    0.006492    0.007474
C    -1.184041   -4.582615    0.371328   -0.001160   -0.001372    0.001636
O    -5.627578   -2.418188   -1.699568   -0.003726   -0.002454   -0.000862
O    -0.713510    1.274874   -4.226118    0.007216    0.010974   -0.012332
O     1.363229    5.419262   -6.071235   -0.001420   -0.001246    0.002576
O     6.072355    1.661295   -3.191944   -0.000736   -0.001760   -0.001950
O     0.798275   -2.313940   -1.594746   -0.000352   -0.002096   -0.000868
O    -1.463133   -5.706007    1.168051   -0.002450   -0.003768    0.001744
H    -5.747744    2.125051   -2.299809   -0.000900   -0.000118    0.000246
H    -1.332218    5.706511   -4.586930   -0.000256   -0.003828   -0.001632
H     4.486353    4.073108   -2.993169   -0.003630   -0.008506   -0.002632
H     5.446601   -0.541622    0.919919   -0.003958   -0.001414   -0.003744
H     1.067732   -4.577244    2.474018    0.001080   -0.000452    0.003758
H    -4.800154   -2.588759    1.605127   -0.001410   -0.001678    0.003890
H    -6.627198    1.229408   -0.153819   -0.002146    0.000432   -0.006718
H    -3.639399    5.704236   -3.807859    0.002060   -0.003840   -0.004152
H     3.322576    6.271241   -2.958429   -0.000228   -0.006622   -0.005078
H     5.772587    1.915090    0.998712   -0.002702   -0.003458   -0.006182
H     3.368722   -3.828090    2.907731   -0.001968   -0.000370   -0.001024
H    -3.567526   -3.184724    3.651841   -0.004114   -0.001288   -0.002738
H    -5.301215    3.663481   -0.232774    0.006814   -0.006328    0.006930
H    -1.833049    6.827072   -1.965387   -0.008032   -0.000562    0.008850
H     3.750485    5.165752   -0.382643    0.005282   -0.001594    0.002194
H     4.478401    0.587538    2.809339   -0.009362   -0.002594    0.000572
H     1.416880   -2.640533    4.549666   -0.003870    0.003280   -0.003764
H    -4.202511   -0.479349    3.271641    0.002672   -0.000194   -0.004332
H    -3.722799    1.488122    0.737751   -0.009194    0.015230    0.001496
H    -2.614704    4.473424   -1.203789   -0.001468    0.006418    0.000504
H     1.311894    4.774569   -1.206830    0.001650   -0.001666   -0.002630
H     2.763199    2.030678    0.473191   -0.002204    0.005080   -0.011640
H     2.292516   -0.966055    2.784401    0.005100    0.003000    0.010504
H    -1.579808   -1.039968    2.769571   -0.006324    0.005970    0.015688
H    -5.510859    1.824264    2.321651    0.014112    0.000644    0.008590
H    -4.591598    5.869690   -1.307117   -0.002486   -0.003276    0.009798
H     1.885988    7.185514   -0.929076   -0.004606    0.002308    0.000876
H     3.891611    3.716414    1.778765    0.006716   -0.007848   -0.000100
H     4.220260   -1.630886    4.109956   -0.007564    0.005914    0.002300
H    -1.973245   -1.505160    5.096917    0.004808    0.010776   -0.003618
H    -5.478025   -1.001388    0.456952    0.000578    0.003796   -0.008962
H    -4.270917    3.139869   -3.411960    0.006310   -0.002366   -0.002586
H     0.810557    6.169910   -3.867389   -0.000332   -0.004212   -0.004704
H     5.062643    2.964405   -1.305269   -0.003674    0.000710   -0.007250
H     4.137946   -2.326166    0.752387    0.002262   -0.001208    0.001954
H    -1.127532   -4.053351    3.000853   -0.004694    0.000718   -0.003998
H    -3.144660   -0.188095   -1.351952    0.003146   -0.021508   -0.041996
H     0.881360    3.156652   -3.640309    0.000160   -0.004308   -0.012484
H     3.268360    0.518288   -1.735005   -0.002888    0.002218   -0.028662
H     1.171433   -1.624836    0.710838    0.009838   -0.043256    0.072620
H    -1.316411   -2.432280    0.411647   -0.018450   -0.026728   -0.031076
H    -3.706060   -2.634186   -1.154438   -0.006512   -0.005878    0.003146
H    -3.927353   -1.942084   -2.784495    0.010834   -0.007144    0.006260
H     1.563749    3.362563   -6.026964   -0.008216   -0.003520    0.001262
H    -0.044176    4.030973   -5.683903   -0.002088   -0.000344    0.002600
H     4.152145    1.540853   -3.780221   -0.008006   -0.009576    0.002366
H     4.914606   -0.035736   -3.457856   -0.006280   -0.000306   -0.002880
H    -1.697656   -4.652416   -0.594639    0.005792   -0.002958   -0.002694
H    -0.108591   -4.575220    0.199033   -0.001218   -0.004012    0.001404
H    -6.175050   -1.823153   -2.230866   -0.002386    0.007964    0.012058
H     2.327776    5.501179   -6.092694   -0.000980    0.002362   -0.009354
H     6.721559    1.146725   -2.688832   -0.002542   -0.003212    0.002354
H    -2.424394   -5.776014    1.260466   -0.002968    0.011966    0.008262
C     0.561294   -2.037480   -2.960840    0.002126    0.047168    0.023598
H    -0.101986   -2.819425   -3.357775   -0.142978    0.149206    0.022770
H     1.509594   -1.998539   -3.510827    0.005212   -0.059798   -0.004118
O     3.031979   -2.230027   -1.810364    0.002988   -0.007360    0.008038
C    -0.230396   -0.035705   -4.416423   -0.010432    0.003524    0.035126
H     0.762727    0.055950   -4.863674   -0.052842   -0.020632   -0.091586
H    -0.907143   -0.624354   -5.051514   -0.087952   -0.066828    0.175410
O    -2.899645    0.724072   -4.298551    0.003604    0.001660   -0.005398
C    -0.152669   -0.647020   -2.985482    0.265752    0.286084    0.224402
O     1.232500    0.227854   -2.279692    0.074224   -0.106736   -0.473226
O     0.710122    1.634526   -2.034799   -0.062060   -0.077032    0.064310
H     0.214121    0.022520   -0.126511   -0.830828   -0.275772    1.594230
O    -0.306431   -0.197048   -0.056755   -0.071666   -0.065156    0.015068
H    -0.888673   -0.546108   -0.890728   -0.021440   -0.004364   -0.262030
C    -0.972087    1.009791    0.470785   -0.010174    0.042322    0.021146
O    -1.262813   -0.559060   -2.324501    0.007744    0.042714    0.081604
H    -1.360404    1.606471   -0.353486   -0.005416    0.039088    0.034542
H     1.547641    2.122676   -1.931229   -0.088408   -0.049260   -0.042078
H    -1.794891    0.564130    1.039527    0.024688   -0.066994   -0.012730
C    -0.065651    1.818882    1.336909    0.002462    0.006624    0.006166
C     0.144219    3.161291    1.056028   -0.001134    0.003854    0.000002
C     0.534981    1.240092    2.448838   -0.000068   -0.003734    0.002264
C     0.931495    3.929785    1.895855   -0.000116    0.002612   -0.001258
H    -0.313969    3.603384    0.182616   -0.000328    0.006104    0.000916
C     1.332736    2.006233    3.278892    0.000466   -0.002816    0.000516
H     0.365408    0.196924    2.666176    0.001000    0.002942    0.020142
C     1.522313    3.351861    3.008254   -0.001176   -0.002122   -0.001094
H     1.083311    4.975790    1.680638    0.003812    0.003096    0.001824
H     1.801330    1.565088    4.142567    0.004896    0.005662    0.000500
H     2.128722    3.951541    3.668470   -0.001890    0.000806   -0.003468
H    -1.357529    2.838188   -2.512422    0.005698   -0.000920   -0.005782
150
* Frequency(6) -548.9500
C    -5.077357    1.628463   -1.587958   -0.002734   -0.003866   -0.001482
C    -1.584684    5.065985   -3.732156   -0.003034   -0.002178   -0.001504
C     3.415824    4.136159   -2.759410   -0.002254   -0.003882    0.002402
C     4.715954    0.125216    0.446345   -0.007574   -0.002224    0.000614
C     1.343723   -3.546570    2.222679   -0.002592   -0.001122    0.003780
C    -3.740888   -2.314585    1.685232   -0.002996    0.000024   -0.000322
O    -3.794649    2.220119   -1.612631    0.003170    0.001430   -0.000780
O    -0.556876    5.056094   -2.787576    0.001108   -0.002616   -0.002044
O     3.062978    3.121359   -1.832334   -0.006124    0.000528   -0.002538
O     3.417459   -0.383625    0.563736   -0.000142    0.002314    0.003748
O     0.306084   -2.652506    2.474322    0.000446    0.000020   -0.007762
O    -3.503375   -1.062897    1.089330    0.000078    0.001300    0.000488
C    -5.648841    1.727329   -0.160565   -0.000918   -0.002358   -0.000030
C    -2.866745    5.572965   -3.042445   -0.001652   -0.002294    0.000032
C     3.067703    5.525577   -2.196693   -0.000698   -0.001804   -0.000600
C     4.751520    1.514691    1.101772   -0.002334   -0.001498    0.000566
C     2.569094   -3.092730    3.047130   -0.001730   -0.001250    0.002344
C    -3.325010   -2.233823    3.163775   -0.002778   -0.000072    0.000834
O    -5.848578    3.041531    0.281891   -0.002576   -0.000890   -0.001084
O    -2.680733    6.821112   -2.439991   -0.001472   -0.001770   -0.003110
O     3.792247    5.875952   -1.056079   -0.002832   -0.002490   -0.002320
O     4.378117    1.489873    2.451867   -0.003250   -0.000528   -0.002518
O     2.289288   -3.050137    4.416778   -0.001946    0.000784    0.001116
O    -4.013357   -1.232864    3.861893   -0.001364    0.000570    0.000336
C    -4.692231    0.975345    0.778365    0.000952    0.000658    0.001974
C    -3.358749    4.540506   -2.012766   -0.002446    0.000048    0.001488
C     1.557876    5.561185   -1.937740   -0.000802    0.002184   -0.000750
C     3.779891    2.425599    0.339275   -0.000574   -0.000502   -0.001440
C     3.062200   -1.716344    2.553972   -0.000604    0.000472    0.002662
C    -1.805208   -2.009789    3.234619   -0.001064    0.001558    0.002742
O    -5.161778    0.946004    2.104407   -0.001938   -0.001358    0.000750
O    -4.605730    4.914269   -1.484462   -0.001302   -0.000652   -0.002708
O     1.152247    6.810886   -1.445714   -0.001370   -0.002916   -0.002774
O     3.844504    3.749426    0.809387   -0.003374   -0.000106   -0.001672
O     4.270692   -1.346215    3.182190    0.000366    0.001366    0.001946
O    -1.346380   -2.017811    4.562879   -0.000456   -0.000574    0.003340
C    -4.528947   -0.473603    0.300690    0.003086   -0.000108    0.000916
C    -3.491408    3.141370   -2.642278   -0.002146   -0.002826    0.005890
C     0.780899    5.274087   -3.230110   -0.001444   -0.000674   -0.000008
C     4.116221    2.431473   -1.155386    0.000556   -0.005162   -0.000134
C     3.270915   -1.717754    1.030320    0.002884   -0.003714    0.002662
C    -1.048913   -3.100757    2.461802   -0.002860    0.000730   -0.000070
C    -4.172188   -0.526866   -1.196683    0.002026   -0.002312   -0.000962
C    -2.137209    2.822612   -3.288996   -0.003562   -0.000318    0.002842
C     1.343214    4.074538   -4.021982    0.001074    0.003456   -0.002788
C     4.255973    0.998492   -1.701598    0.005040   -0.004016   -0.000906
C     1.995446   -2.271744    0.394270    0.004192   -0.006558    0.007020
C    -1.628456   -3.271131    1.040928   -0.005698   -0.002604   -0.000780
O    -5.047571    0.288758   -1.979638   -0.003488   -0.000620   -0.003628
O    -1.818165    3.785184   -4.283684   -0.001212   -0.004462   -0.002534
O     2.771590    3.949551   -3.979781   -0.003262   -0.000648   -0.004320
O     5.129897    0.222603   -0.892335    0.000366   -0.000744   -0.002598
O     1.702752   -3.578903    0.849513    0.003048   -0.007316   -0.001128
O    -3.056205   -3.354482    1.048702   -0.005050   -0.003444   -0.000316
C    -4.304885   -1.948269   -1.755258   -0.001484   -0.002648    0.003002
C    -2.005452    1.463170   -3.976975   -0.000132    0.003712    0.001880
C     1.024741    4.174060   -5.525730   -0.001536    0.004560   -0.000988
C     4.835589    1.002802   -3.119217   -0.000146   -0.001572    0.002186
C     2.039243   -2.271235   -1.129858   -0.000552    0.006492    0.007474
C    -1.184052   -4.582628    0.371344   -0.001160   -0.001372    0.001636
O    -5.627614   -2.418211   -1.699577   -0.003726   -0.002454   -0.000862
O    -0.713441    1.274979   -4.226235    0.007216    0.010974   -0.012332
O     1.363216    5.419250   -6.071210   -0.001420   -0.001246    0.002576
O     6.072348    1.661278   -3.191962   -0.000736   -0.001760   -0.001950
O     0.798271   -2.313960   -1.594754   -0.000352   -0.002096   -0.000868
O    -1.463157   -5.706043    1.168067   -0.002450   -0.003768    0.001744
H    -5.747753    2.125050   -2.299806   -0.000900   -0.000118    0.000246
H    -1.332220    5.706475   -4.586945   -0.000256   -0.003828   -0.001632
H     4.486319    4.073027   -2.993194   -0.003630   -0.008506   -0.002632
H     5.446563   -0.541635    0.919883   -0.003958   -0.001414   -0.003744
H     1.067743   -4.577249    2.474054    0.001080   -0.000452    0.003758
H    -4.800168   -2.588775    1.605164   -0.001410   -0.001678    0.003890
H    -6.627219    1.229412   -0.153883   -0.002146    0.000432   -0.006718
H    -3.639379    5.704200   -3.807898    0.002060   -0.003840   -0.004152
H     3.322573    6.271178   -2.958477   -0.000228   -0.006622   -0.005078
H     5.772562    1.915057    0.998653   -0.002702   -0.003458   -0.006182
H     3.368704   -3.828093    2.907721   -0.001968   -0.000370   -0.001024
H    -3.567565   -3.184736    3.651815   -0.004114   -0.001288   -0.002738
H    -5.301150    3.663421   -0.232708    0.006814   -0.006328    0.006930
H    -1.833126    6.827067   -1.965303   -0.008032   -0.000562    0.008850
H     3.750535    5.165737   -0.382622    0.005282   -0.001594    0.002194
H     4.478311    0.587513    2.809345   -0.009362   -0.002594    0.000572
H     1.416843   -2.640502    4.549630   -0.003870    0.003280   -0.003764
H    -4.202486   -0.479351    3.271600    0.002672   -0.000194   -0.004332
H    -3.722887    1.488267    0.737765   -0.009194    0.015230    0.001496
H    -2.614718    4.473485   -1.203784   -0.001468    0.006418    0.000504
H     1.311910    4.774553   -1.206855    0.001650   -0.001666   -0.002630
H     2.763178    2.030726    0.473080   -0.002204    0.005080   -0.011640
H     2.292565   -0.966027    2.784501    0.005100    0.003000    0.010504
H    -1.579868   -1.039912    2.769720   -0.006324    0.005970    0.015688
H    -5.510725    1.824270    2.321732    0.014112    0.000644    0.008590
H    -4.591622    5.869659   -1.307023   -0.002486   -0.003276    0.009798
H     1.885944    7.185536   -0.929067   -0.004606    0.002308    0.000876
H     3.891675    3.716340    1.778764    0.006716   -0.007848   -0.000100
H     4.220188   -1.630830    4.109978   -0.007564    0.005914    0.002300
H    -1.973199   -1.505057    5.096883    0.004808    0.010776   -0.003618
H    -5.478019   -1.001352    0.456867    0.000578    0.003796   -0.008962
H    -4.270857    3.139847   -3.411985    0.006310   -0.002366   -0.002586
H     0.810554    6.169870   -3.867434   -0.000332   -0.004212   -0.004704
H     5.062608    2.964412   -1.305338   -0.003674    0.000710   -0.007250
H     4.137968   -2.326177    0.752406    0.002262   -0.001208    0.001954
H    -1.127576   -4.053345    3.000814   -0.004694    0.000718   -0.003998
H    -3.144630   -0.188300   -1.352351    0.003146   -0.021508   -0.041996
H     0.881362    3.156611   -3.640427    0.000160   -0.004308   -0.012484
H     3.268333    0.518309   -1.735277   -0.002888    0.002218   -0.028662
H     1.171527   -1.625248    0.711529    0.009838   -0.043256    0.072620
H    -1.316586   -2.432534    0.411352   -0.018450   -0.026728   -0.031076
H    -3.706122   -2.634242   -1.154408   -0.006512   -0.005878    0.003146
H    -3.927250   -1.942152   -2.784435    0.010834   -0.007144    0.006260
H     1.563671    3.362529   -6.026952   -0.008216   -0.003520    0.001262
H    -0.044196    4.030970   -5.683878   -0.002088   -0.000344    0.002600
H     4.152068    1.540762   -3.780199   -0.008006   -0.009576    0.002366
H     4.914547   -0.035739   -3.457884   -0.006280   -0.000306   -0.002880
H    -1.697601   -4.652444   -0.594665    0.005792   -0.002958   -0.002694
H    -0.108603   -4.575258    0.199047   -0.001218   -0.004012    0.001404
H    -6.175072   -1.823077   -2.230751   -0.002386    0.007964    0.012058
H     2.327767    5.501202   -6.092783   -0.000980    0.002362   -0.009354
H     6.721534    1.146695   -2.688810   -0.002542   -0.003212    0.002354
H    -2.424422   -5.775900    1.260545   -0.002968    0.011966    0.008262
C     0.561315   -2.037032   -2.960616    0.002126    0.047168    0.023598
H    -0.103346   -2.818005   -3.357559   -0.142978    0.149206    0.022770
H     1.509644   -1.999108   -3.510866    0.005212   -0.059798   -0.004118
O     3.032007   -2.230097   -1.810287    0.002988   -0.007360    0.008038
C    -0.230496   -0.035672   -4.416089   -0.010432    0.003524    0.035126
H     0.762224    0.055753   -4.864546   -0.052842   -0.020632   -0.091586
H    -0.907980   -0.624990   -5.049845   -0.087952   -0.066828    0.175410
O    -2.899611    0.724088   -4.298603    0.003604    0.001660   -0.005398
C    -0.150140   -0.644298   -2.983347    0.265752    0.286084    0.224402
O     1.233207    0.226838   -2.284194    0.074224   -0.106736   -0.473226
O     0.709531    1.633793   -2.034187   -0.062060   -0.077032    0.064310
H     0.206216    0.019896   -0.111342   -0.830828   -0.275772    1.594230
O    -0.307112   -0.197668   -0.056611   -0.071666   -0.065156    0.015068
H    -0.888877   -0.546149   -0.893221   -0.021440   -0.004364   -0.262030
C    -0.972184    1.010194    0.470986   -0.010174    0.042322    0.021146
O    -1.262739   -0.558653   -2.323724    0.007744    0.042714    0.081604
H    -1.360455    1.606843   -0.353158   -0.005416    0.039088    0.034542
H     1.546800    2.122207   -1.931629   -0.088408   -0.049260   -0.042078
H    -1.794656    0.563492    1.039406    0.024688   -0.066994   -0.012730
C    -0.065627    1.818945    1.336968    0.002462    0.006624    0.006166
C     0.144208    3.161327    1.056028   -0.001134    0.003854    0.000002
C     0.534980    1.240057    2.448860   -0.000068   -0.003734    0.002264
C     0.931494    3.929810    1.895843   -0.000116    0.002612   -0.001258
H    -0.313972    3.603442    0.182625   -0.000328    0.006104    0.000916
C     1.332741    2.006206    3.278897    0.000466   -0.002816    0.000516
H     0.365418    0.196952    2.666368    0.001000    0.002942    0.020142
C     1.522302    3.351841    3.008243   -0.001176   -0.002122   -0.001094
H     1.083348    4.975820    1.680655    0.003812    0.003096    0.001824
H     1.801377    1.565142    4.142571    0.004896    0.005662    0.000500
H     2.128704    3.951549    3.668437   -0.001890    0.000806   -0.003468
H    -1.357475    2.838179   -2.512477    0.005698   -0.000920   -0.005782
150
* Frequency(6) -548.9500
C    -5.077279    1.628572   -1.587916   -0.002734   -0.003866   -0.001482
C    -1.584598    5.066047   -3.732113   -0.003034   -0.002178   -0.001504
C     3.415888    4.136269   -2.759478   -0.002254   -0.003882    0.002402
C     4.716168    0.125279    0.446328   -0.007574   -0.002224    0.000614
C     1.343796   -3.546539    2.222573   -0.002592   -0.001122    0.003780
C    -3.740803   -2.314585    1.685241   -0.002996    0.000024   -0.000322
O    -3.794739    2.220078   -1.612609    0.003170    0.001430   -0.000780
O    -0.556907    5.056168   -2.787518    0.001108   -0.002616   -0.002044
O     3.063151    3.121344   -1.832262   -0.006124    0.000528   -0.002538
O     3.417463   -0.383690    0.563630   -0.000142    0.002314    0.003748
O     0.306071   -2.652507    2.474541    0.000446    0.000020   -0.007762
O    -3.503377   -1.062933    1.089316    0.000078    0.001300    0.000488
C    -5.648815    1.727395   -0.160565   -0.000918   -0.002358   -0.000030
C    -2.866699    5.573030   -3.042446   -0.001652   -0.002294    0.000032
C     3.067722    5.525628   -2.196676   -0.000698   -0.001804   -0.000600
C     4.751586    1.514734    1.101756   -0.002334   -0.001498    0.000566
C     2.569142   -3.092695    3.047063   -0.001730   -0.001250    0.002344
C    -3.324931   -2.233821    3.163751   -0.002778   -0.000072    0.000834
O    -5.848505    3.041556    0.281922   -0.002576   -0.000890   -0.001084
O    -2.680692    6.821162   -2.439903   -0.001472   -0.001770   -0.003110
O     3.792327    5.876023   -1.056014   -0.002832   -0.002490   -0.002320
O     4.378209    1.489888    2.451938   -0.003250   -0.000528   -0.002518
O     2.289343   -3.050159    4.416747   -0.001946    0.000784    0.001116
O    -4.013318   -1.232880    3.861884   -0.001364    0.000570    0.000336
C    -4.692258    0.975326    0.778309    0.000952    0.000658    0.001974
C    -3.358680    4.540504   -2.012808   -0.002446    0.000048    0.001488
C     1.557899    5.561123   -1.937718   -0.000802    0.002184   -0.000750
C     3.779907    2.425613    0.339315   -0.000574   -0.000502   -0.001440
C     3.062217   -1.716358    2.553896   -0.000604    0.000472    0.002662
C    -1.805178   -2.009833    3.234542   -0.001064    0.001558    0.002742
O    -5.161723    0.946043    2.104385   -0.001938   -0.001358    0.000750
O    -4.605693    4.914287   -1.484385   -0.001302   -0.000652   -0.002708
O     1.152286    6.810968   -1.445635   -0.001370   -0.002916   -0.002774
O     3.844600    3.749429    0.809434   -0.003374   -0.000106   -0.001672
O     4.270681   -1.346253    3.182135    0.000366    0.001366    0.001946
O    -1.346367   -2.017795    4.562785   -0.000456   -0.000574    0.003340
C    -4.529034   -0.473600    0.300664    0.003086   -0.000108    0.000916
C    -3.491347    3.141450   -2.642444   -0.002146   -0.002826    0.005890
C     0.780940    5.274106   -3.230110   -0.001444   -0.000674   -0.000008
C     4.116205    2.431619   -1.155382    0.000556   -0.005162   -0.000134
C     3.270833   -1.717649    1.030244    0.002884   -0.003714    0.002662
C    -1.048832   -3.100778    2.461804   -0.002860    0.000730   -0.000070
C    -4.172246   -0.526801   -1.196655    0.002026   -0.002312   -0.000962
C    -2.137109    2.822621   -3.289076   -0.003562   -0.000318    0.002842
C     1.343183    4.074441   -4.021904    0.001074    0.003456   -0.002788
C     4.255830    0.998606   -1.701572    0.005040   -0.004016   -0.000906
C     1.995328   -2.271559    0.394071    0.004192   -0.006558    0.007020
C    -1.628295   -3.271058    1.040950   -0.005698   -0.002604   -0.000780
O    -5.047472    0.288775   -1.979536   -0.003488   -0.000620   -0.003628
O    -1.818130    3.785310   -4.283612   -0.001212   -0.004462   -0.002534
O     2.771682    3.949569   -3.979659   -0.003262   -0.000648   -0.004320
O     5.129886    0.222625   -0.892262    0.000366   -0.000744   -0.002598
O     1.702666   -3.578696    0.849544    0.003048   -0.007316   -0.001128
O    -3.056063   -3.354385    1.048711   -0.005050   -0.003444   -0.000316
C    -4.304843   -1.948194   -1.755343   -0.001484   -0.002648    0.003002
C    -2.005448    1.463065   -3.977028   -0.000132    0.003712    0.001880
C     1.024785    4.173931   -5.525702   -0.001536    0.004560   -0.000988
C     4.835593    1.002846   -3.119278   -0.000146   -0.001572    0.002186
C     2.039259   -2.271418   -1.130069   -0.000552    0.006492    0.007474
C    -1.184019   -4.582589    0.371297   -0.001160   -0.001372    0.001636
O    -5.627508   -2.418142   -1.699552   -0.003726   -0.002454   -0.000862
O    -0.713645    1.274668   -4.225887    0.007216    0.010974   -0.012332
O     1.363256    5.419286   -6.071283   -0.001420   -0.001246    0.002576
O     6.072369    1.661328   -3.191907   -0.000736   -0.001760   -0.001950
O     0.798281   -2.313901   -1.594729   -0.000352   -0.002096   -0.000868
O    -1.463087   -5.705937    1.168018   -0.002450   -0.003768    0.001744
H    -5.747727    2.125053   -2.299813   -0.000900   -0.000118    0.000246
H    -1.332213    5.706583   -4.586899   -0.000256   -0.003828   -0.001632
H     4.486422    4.073268   -2.993120   -0.003630   -0.008506   -0.002632
H     5.446675   -0.541595    0.919989   -0.003958   -0.001414   -0.003744
H     1.067712   -4.577236    2.473948    0.001080   -0.000452    0.003758
H    -4.800128   -2.588728    1.605054   -0.001410   -0.001678    0.003890
H    -6.627158    1.229399   -0.153693   -0.002146    0.000432   -0.006718
H    -3.639438    5.704308   -3.807781    0.002060   -0.003840   -0.004152
H     3.322580    6.271366   -2.958334   -0.000228   -0.006622   -0.005078
H     5.772638    1.915155    0.998828   -0.002702   -0.003458   -0.006182
H     3.368759   -3.828083    2.907750   -0.001968   -0.000370   -0.001024
H    -3.567449   -3.184700    3.651892   -0.004114   -0.001288   -0.002738
H    -5.301343    3.663600   -0.232904    0.006814   -0.006328    0.006930
H    -1.832898    6.827083   -1.965553   -0.008032   -0.000562    0.008850
H     3.750386    5.165782   -0.382684    0.005282   -0.001594    0.002194
H     4.478576    0.587587    2.809328   -0.009362   -0.002594    0.000572
H     1.416953   -2.640595    4.549737   -0.003870    0.003280   -0.003764
H    -4.202562   -0.479345    3.271723    0.002672   -0.000194   -0.004332
H    -3.722627    1.487837    0.737722   -0.009194    0.015230    0.001496
H    -2.614677    4.473303   -1.203798   -0.001468    0.006418    0.000504
H     1.311863    4.774600   -1.206781    0.001650   -0.001666   -0.002630
H     2.763241    2.030582    0.473409   -0.002204    0.005080   -0.011640
H     2.292421   -0.966111    2.784204    0.005100    0.003000    0.010504
H    -1.579689   -1.040080    2.769276   -0.006324    0.005970    0.015688
H    -5.511124    1.824251    2.321489    0.014112    0.000644    0.008590
H    -4.591552    5.869752   -1.307301   -0.002486   -0.003276    0.009798
H     1.886075    7.185471   -0.929092   -0.004606    0.002308    0.000876
H     3.891485    3.716562    1.778767    0.006716   -0.007848   -0.000100
H     4.220402   -1.630997    4.109913   -0.007564    0.005914    0.002300
H    -1.973335   -1.505362    5.096985    0.004808    0.010776   -0.003618
H    -5.478036   -1.001459    0.457120    0.000578    0.003796   -0.008962
H    -4.271036    3.139914   -3.411912    0.006310   -0.002366   -0.002586
H     0.810564    6.169989   -3.867301   -0.000332   -0.004212   -0.004704
H     5.062712    2.964392   -1.305133   -0.003674    0.000710   -0.007250
H     4.137904   -2.326143    0.752350    0.002262   -0.001208    0.001954
H    -1.127444   -4.053365    3.000928   -0.004694    0.000718   -0.003998
H    -3.144719   -0.187692   -1.351164    0.003146   -0.021508   -0.041996
H     0.881357    3.156733   -3.640074    0.000160   -0.004308   -0.012484
H     3.268414    0.518246   -1.734467   -0.002888    0.002218   -0.028662
H     1.171248   -1.624024    0.709475    0.009838   -0.043256    0.072620
H    -1.316065   -2.431778    0.412230   -0.018450   -0.026728   -0.031076
H    -3.705938   -2.634076   -1.154497   -0.006512   -0.005878    0.003146
H    -3.927556   -1.941950   -2.784613    0.010834   -0.007144    0.006260
H     1.563904    3.362629   -6.026988   -0.008216   -0.003520    0.001262
H    -0.044137    4.030980   -5.683952   -0.002088   -0.000344    0.002600
H     4.152295    1.541033   -3.780266   -0.008006   -0.009576    0.002366
H     4.914724   -0.035730   -3.457802   -0.006280   -0.000306   -0.002880
H    -1.697765   -4.652360   -0.594588    0.005792   -0.002958   -0.002694
H    -0.108568   -4.575145    0.199007   -0.001218   -0.004012    0.001404
H    -6.175005   -1.823302   -2.231092   -0.002386    0.007964    0.012058
H     2.327795    5.501135   -6.092518   -0.000980    0.002362   -0.009354
H     6.721606    1.146785   -2.688876   -0.002542   -0.003212    0.002354
H    -2.424338   -5.776239    1.260311   -0.002968    0.011966    0.008262
C     0.561254   -2.038366   -2.961283    0.002126    0.047168    0.023598
H    -0.099302   -2.822225   -3.358203   -0.142978    0.149206    0.022770
H     1.509497   -1.997416   -3.510750    0.005212   -0.059798   -0.004118
O     3.031923   -2.229889   -1.810515    0.002988   -0.007360    0.008038
C    -0.230201   -0.035771   -4.417082   -0.010432    0.003524    0.035126
H     0.763719    0.056337   -4.861955   -0.052842   -0.020632   -0.091586
H    -0.905492   -0.623100   -5.054806   -0.087952   -0.066828    0.175410
O    -2.899713    0.724041   -4.298450    0.003604    0.001660   -0.005398
C    -0.157657   -0.652389   -2.989694    0.265752    0.286084    0.224402
O     1.231107    0.229857   -2.270810    0.074224   -0.106736   -0.473226
O     0.711286    1.635972   -2.036006   -0.062060   -0.077032    0.064310
H     0.229715    0.027696   -0.156433   -0.830828   -0.275772    1.594230
O    -0.305085   -0.195825   -0.057037   -0.071666   -0.065156    0.015068
H    -0.888271   -0.546026   -0.885810   -0.021440   -0.004364   -0.262030
C    -0.971896    1.008997    0.470388   -0.010174    0.042322    0.021146
O    -1.262958   -0.559861   -2.326032    0.007744    0.042714    0.081604
H    -1.360302    1.605738   -0.354135   -0.005416    0.039088    0.034542
H     1.549300    2.123600   -1.930439   -0.088408   -0.049260   -0.042078
H    -1.795354    0.565387    1.039766    0.024688   -0.066994   -0.012730
C    -0.065697    1.818758    1.336793    0.002462    0.006624    0.006166
C     0.144241    3.161218    1.056028   -0.001134    0.003854    0.000002
C     0.534982    1.240162    2.448796   -0.000068   -0.003734    0.002264
C     0.931497    3.929736    1.895879   -0.000116    0.002612   -0.001258
H    -0.313963    3.603269    0.182599   -0.000328    0.006104    0.000916
C     1.332727    2.006285    3.278882    0.000466   -0.002816    0.000516
H     0.365390    0.196869    2.665798    0.001000    0.002942    0.020142
C     1.522335    3.351901    3.008274   -0.001176   -0.002122   -0.001094
H     1.083240    4.975732    1.680604    0.003812    0.003096    0.001824
H     1.801238    1.564982    4.142557    0.004896    0.005662    0.000500
H     2.128757    3.951526    3.668535   -0.001890    0.000806   -0.003468
H    -1.357636    2.838205   -2.512313    0.005698   -0.000920   -0.005782
150
* Frequency(6) -548.9500
C    -5.077107    1.628815   -1.587823   -0.002734   -0.003866   -0.001482
C    -1.584407    5.066184   -3.732018   -0.003034   -0.002178   -0.001504
C     3.416030    4.136513   -2.759629   -0.002254   -0.003882    0.002402
C     4.716646    0.125419    0.446289   -0.007574   -0.002224    0.000614
C     1.343960   -3.546468    2.222334   -0.002592   -0.001122    0.003780
C    -3.740614   -2.314587    1.685261   -0.002996    0.000024   -0.000322
O    -3.794939    2.219988   -1.612560    0.003170    0.001430   -0.000780
O    -0.556977    5.056332   -2.787389    0.001108   -0.002616   -0.002044
O     3.063537    3.121311   -1.832103   -0.006124    0.000528   -0.002538
O     3.417472   -0.383836    0.563394   -0.000142    0.002314    0.003748
O     0.306043   -2.652508    2.475030    0.000446    0.000020   -0.007762
O    -3.503382   -1.063015    1.089286    0.000078    0.001300    0.000488
C    -5.648757    1.727544   -0.160563   -0.000918   -0.002358   -0.000030
C    -2.866594    5.573174   -3.042448   -0.001652   -0.002294    0.000032
C     3.067766    5.525741   -2.196639   -0.000698   -0.001804   -0.000600
C     4.751733    1.514828    1.101721   -0.002334   -0.001498    0.000566
C     2.569252   -3.092616    3.046916   -0.001730   -0.001250    0.002344
C    -3.324756   -2.233817    3.163699   -0.002778   -0.000072    0.000834
O    -5.848342    3.041612    0.281990   -0.002576   -0.000890   -0.001084
O    -2.680599    6.821273   -2.439707   -0.001472   -0.001770   -0.003110
O     3.792506    5.876180   -1.055867   -0.002832   -0.002490   -0.002320
O     4.378414    1.489921    2.452097   -0.003250   -0.000528   -0.002518
O     2.289466   -3.050208    4.416676   -0.001946    0.000784    0.001116
O    -4.013232   -1.232916    3.861863   -0.001364    0.000570    0.000336
C    -4.692318    0.975284    0.778184    0.000952    0.000658    0.001974
C    -3.358526    4.540501   -2.012902   -0.002446    0.000048    0.001488
C     1.557949    5.560985   -1.937671   -0.000802    0.002184   -0.000750
C     3.779943    2.425645    0.339406   -0.000574   -0.000502   -0.001440
C     3.062255   -1.716387    2.553728   -0.000604    0.000472    0.002662
C    -1.805111   -2.009931    3.234369   -0.001064    0.001558    0.002742
O    -5.161601    0.946128    2.104338   -0.001938   -0.001358    0.000750
O    -4.605611    4.914328   -1.484214   -0.001302   -0.000652   -0.002708
O     1.152372    6.811152   -1.445460   -0.001370   -0.002916   -0.002774
O     3.844812    3.749436    0.809539   -0.003374   -0.000106   -0.001672
O     4.270658   -1.346339    3.182012    0.000366    0.001366    0.001946
O    -1.346338   -2.017759    4.562574   -0.000456   -0.000574    0.003340
C    -4.529228   -0.473593    0.300606    0.003086   -0.000108    0.000916
C    -3.491212    3.141628   -2.642815   -0.002146   -0.002826    0.005890
C     0.781031    5.274148   -3.230109   -0.001444   -0.000674   -0.000008
C     4.116170    2.431945   -1.155374    0.000556   -0.005162   -0.000134
C     3.270652   -1.717415    1.030076    0.002884   -0.003714    0.002662
C    -1.048651   -3.100824    2.461808   -0.002860    0.000730   -0.000070
C    -4.172373   -0.526655   -1.196595    0.002026   -0.002312   -0.000962
C    -2.136884    2.822641   -3.289255   -0.003562   -0.000318    0.002842
C     1.343116    4.074223   -4.021728    0.001074    0.003456   -0.002788
C     4.255513    0.998859   -1.701515    0.005040   -0.004016   -0.000906
C     1.995063   -2.271146    0.393629    0.004192   -0.006558    0.007020
C    -1.627936   -3.270894    1.040999   -0.005698   -0.002604   -0.000780
O    -5.047252    0.288814   -1.979307   -0.003488   -0.000620   -0.003628
O    -1.818054    3.785591   -4.283453   -0.001212   -0.004462   -0.002534
O     2.771888    3.949610   -3.979386   -0.003262   -0.000648   -0.004320
O     5.129863    0.222671   -0.892098    0.000366   -0.000744   -0.002598
O     1.702474   -3.578235    0.849616    0.003048   -0.007316   -0.001128
O    -3.055744   -3.354168    1.048731   -0.005050   -0.003444   -0.000316
C    -4.304749   -1.948027   -1.755532   -0.001484   -0.002648    0.003002
C    -2.005440    1.462831   -3.977147   -0.000132    0.003712    0.001880
C     1.024881    4.173643   -5.525639   -0.001536    0.004560   -0.000988
C     4.835602    1.002945   -3.119416   -0.000146   -0.001572    0.002186
C     2.039294   -2.271827   -1.130540   -0.000552    0.006492    0.007474
C    -1.183946   -4.582502    0.371194   -0.001160   -0.001372    0.001636
O    -5.627273   -2.417987   -1.699498   -0.003726   -0.002454   -0.000862
O    -0.714100    1.273977   -4.225110    0.007216    0.010974   -0.012332
O     1.363345    5.419364   -6.071446   -0.001420   -0.001246    0.002576
O     6.072415    1.661439   -3.191784   -0.000736   -0.001760   -0.001950
O     0.798303   -2.313769   -1.594675   -0.000352   -0.002096   -0.000868
O    -1.462933   -5.705699    1.167908   -0.002450   -0.003768    0.001744
H    -5.747671    2.125061   -2.299829   -0.000900   -0.000118    0.000246
H    -1.332197    5.706824   -4.586796   -0.000256   -0.003828   -0.001632
H     4.486650    4.073804   -2.992954   -0.003630   -0.008506   -0.002632
H     5.446925   -0.541506    0.920225   -0.003958   -0.001414   -0.003744
H     1.067644   -4.577207    2.473711    0.001080   -0.000452    0.003758
H    -4.800039   -2.588622    1.604809   -0.001410   -0.001678    0.003890
H    -6.627023    1.229372   -0.153270   -0.002146    0.000432   -0.006718
H    -3.639568    5.704550   -3.807519    0.002060   -0.003840   -0.004152
H     3.322594    6.271783   -2.958014   -0.000228   -0.006622   -0.005078
H     5.772808    1.915373    0.999217   -0.002702   -0.003458   -0.006182
H     3.368883   -3.828059    2.907814   -0.001968   -0.000370   -0.001024
H    -3.567189   -3.184619    3.652065   -0.004114   -0.001288   -0.002738
H    -5.301772    3.663999   -0.233341    0.006814   -0.006328    0.006930
H    -1.832392    6.827118   -1.966111   -0.008032   -0.000562    0.008850
H     3.750053    5.165883   -0.382822    0.005282   -0.001594    0.002194
H     4.479166    0.587750    2.809292   -0.009362   -0.002594    0.000572
H     1.417196   -2.640801    4.549974   -0.003870    0.003280   -0.003764
H    -4.202730   -0.479333    3.271995    0.002672   -0.000194   -0.004332
H    -3.722047    1.486877    0.737628   -0.009194    0.015230    0.001496
H    -2.614584    4.472899   -1.203830   -0.001468    0.006418    0.000504
H     1.311759    4.774705   -1.206615    0.001650   -0.001666   -0.002630
H     2.763379    2.030262    0.474143   -0.002204    0.005080   -0.011640
H     2.292099   -0.966300    2.783542    0.005100    0.003000    0.010504
H    -1.579290   -1.040457    2.768288   -0.006324    0.005970    0.015688
H    -5.512013    1.824211    2.320948    0.014112    0.000644    0.008590
H    -4.591395    5.869958   -1.307918   -0.002486   -0.003276    0.009798
H     1.886365    7.185325   -0.929147   -0.004606    0.002308    0.000876
H     3.891061    3.717056    1.778773    0.006716   -0.007848   -0.000100
H     4.220878   -1.631370    4.109768   -0.007564    0.005914    0.002300
H    -1.973638   -1.506041    5.097213    0.004808    0.010776   -0.003618
H    -5.478072   -1.001699    0.457685    0.000578    0.003796   -0.008962
H    -4.271433    3.140063   -3.411749    0.006310   -0.002366   -0.002586
H     0.810585    6.170254   -3.867004   -0.000332   -0.004212   -0.004704
H     5.062944    2.964347   -1.304676   -0.003674    0.000710   -0.007250
H     4.137761   -2.326067    0.752227    0.002262   -0.001208    0.001954
H    -1.127148   -4.053410    3.001180   -0.004694    0.000718   -0.003998
H    -3.144917   -0.186336   -1.348517    0.003146   -0.021508   -0.041996
H     0.881347    3.157005   -3.639288    0.000160   -0.004308   -0.012484
H     3.268596    0.518106   -1.732661   -0.002888    0.002218   -0.028662
H     1.170628   -1.621299    0.704899    0.009838   -0.043256    0.072620
H    -1.314902   -2.430094    0.414189   -0.018450   -0.026728   -0.031076
H    -3.705528   -2.633706   -1.154695   -0.006512   -0.005878    0.003146
H    -3.928239   -1.941500   -2.785007    0.010834   -0.007144    0.006260
H     1.564421    3.362851   -6.027067   -0.008216   -0.003520    0.001262
H    -0.044006    4.031001   -5.684115   -0.002088   -0.000344    0.002600
H     4.152799    1.541636   -3.780415   -0.008006   -0.009576    0.002366
H     4.915120   -0.035711   -3.457621   -0.006280   -0.000306   -0.002880
H    -1.698130   -4.652174   -0.594419    0.005792   -0.002958   -0.002694
H    -0.108492   -4.574892    0.198919   -0.001218   -0.004012    0.001404
H    -6.174854   -1.823804   -2.231852   -0.002386    0.007964    0.012058
H     2.327857    5.500986   -6.091929   -0.000980    0.002362   -0.009354
H     6.721766    1.146988   -2.689025   -0.002542   -0.003212    0.002354
H    -2.424151   -5.776993    1.259790   -0.002968    0.011966    0.008262
C     0.561120   -2.041338   -2.962770    0.002126    0.047168    0.023598
H    -0.090292   -2.831628   -3.359638   -0.142978    0.149206    0.022770
H     1.509168   -1.993648   -3.510490    0.005212   -0.059798   -0.004118
O     3.031734   -2.229425   -1.811021    0.002988   -0.007360    0.008038
C    -0.229543   -0.035994   -4.419296   -0.010432    0.003524    0.035126
H     0.767049    0.057637   -4.856184   -0.052842   -0.020632   -0.091586
H    -0.899950   -0.618888   -5.065860   -0.087952   -0.066828    0.175410
O    -2.899940    0.723936   -4.298110    0.003604    0.001660   -0.005398
C    -0.174404   -0.670417   -3.003835    0.265752    0.286084    0.224402
O     1.226430    0.236583   -2.240988    0.074224   -0.106736   -0.473226
O     0.715197    1.640826   -2.040059   -0.062060   -0.077032    0.064310
H     0.282072    0.045075   -0.256897   -0.830828   -0.275772    1.594230
O    -0.300569   -0.191719   -0.057987   -0.071666   -0.065156    0.015068
H    -0.886920   -0.545751   -0.869298   -0.021440   -0.004364   -0.262030
C    -0.971255    1.006330    0.469055   -0.010174    0.042322    0.021146
O    -1.263446   -0.562553   -2.331175    0.007744    0.042714    0.081604
H    -1.359961    1.603274   -0.356311   -0.005416    0.039088    0.034542
H     1.554872    2.126704   -1.927787   -0.088408   -0.049260   -0.042078
H    -1.796910    0.569609    1.040568    0.024688   -0.066994   -0.012730
C    -0.065852    1.818341    1.336405    0.002462    0.006624    0.006166
C     0.144312    3.160975    1.056028   -0.001134    0.003854    0.000002
C     0.534986    1.240397    2.448653   -0.000068   -0.003734    0.002264
C     0.931504    3.929572    1.895958   -0.000116    0.002612   -0.001258
H    -0.313942    3.602885    0.182541   -0.000328    0.006104    0.000916
C     1.332698    2.006463    3.278850    0.000466   -0.002816    0.000516
H     0.365327    0.196684    2.664529    0.001000    0.002942    0.020142
C     1.522409    3.352035    3.008343   -0.001176   -0.002122   -0.001094
H     1.083000    4.975537    1.680489    0.003812    0.003096    0.001824
H     1.800930    1.564625    4.142526    0.004896    0.005662    0.000500
H     2.128876    3.951476    3.668754   -0.001890    0.000806   -0.003468
H    -1.357995    2.838263   -2.511949    0.005698   -0.000920   -0.005782
150
* Frequency(6) -548.9500
C    -5.076858    1.629167   -1.587688   -0.002734   -0.003866   -0.001482
C    -1.584131    5.066382   -3.731882   -0.003034   -0.002178   -0.001504
C     3.416235    4.136866   -2.759848   -0.002254   -0.003882    0.002402
C     4.717334    0.125622    0.446233   -0.007574   -0.002224    0.000614
C     1.344195   -3.546366    2.221991   -0.002592   -0.001122    0.003780
C    -3.740342   -2.314589    1.685290   -0.002996    0.000024   -0.000322
O    -3.795227    2.219858   -1.612489    0.003170    0.001430   -0.000780
O    -0.557077    5.056570   -2.787203    0.001108   -0.002616   -0.002044
O     3.064094    3.121263   -1.831872   -0.006124    0.000528   -0.002538
O     3.417485   -0.384047    0.563053   -0.000142    0.002314    0.003748
O     0.306002   -2.652510    2.475736    0.000446    0.000020   -0.007762
O    -3.503389   -1.063133    1.089241    0.000078    0.001300    0.000488
C    -5.648674    1.727758   -0.160560   -0.000918   -0.002358   -0.000030
C    -2.866444    5.573383   -3.042451   -0.001652   -0.002294    0.000032
C     3.067830    5.525905   -2.196584   -0.000698   -0.001804   -0.000600
C     4.751945    1.514964    1.101669   -0.002334   -0.001498    0.000566
C     2.569409   -3.092502    3.046702   -0.001730   -0.001250    0.002344
C    -3.324504   -2.233810    3.163623   -0.002778   -0.000072    0.000834
O    -5.848108    3.041693    0.282088   -0.002576   -0.000890   -0.001084
O    -2.680465    6.821434   -2.439424   -0.001472   -0.001770   -0.003110
O     3.792763    5.876406   -1.055656   -0.002832   -0.002490   -0.002320
O     4.378710    1.489969    2.452326   -0.003250   -0.000528   -0.002518
O     2.289643   -3.050279    4.416575   -0.001946    0.000784    0.001116
O    -4.013108   -1.232968    3.861832   -0.001364    0.000570    0.000336
C    -4.692404    0.975225    0.778005    0.000952    0.000658    0.001974
C    -3.358303    4.540497   -2.013037   -0.002446    0.000048    0.001488
C     1.558022    5.560787   -1.937603   -0.000802    0.002184   -0.000750
C     3.779995    2.425690    0.339537   -0.000574   -0.000502   -0.001440
C     3.062310   -1.716430    2.553486   -0.000604    0.000472    0.002662
C    -1.805014   -2.010072    3.234120   -0.001064    0.001558    0.002742
O    -5.161425    0.946252    2.104270   -0.001938   -0.001358    0.000750
O    -4.605493    4.914387   -1.483968   -0.001302   -0.000652   -0.002708
O     1.152497    6.811417   -1.445208   -0.001370   -0.002916   -0.002774
O     3.845119    3.749445    0.809691   -0.003374   -0.000106   -0.001672
O     4.270625   -1.346463    3.181835    0.000366    0.001366    0.001946
O    -1.346297   -2.017707    4.562270   -0.000456   -0.000574    0.003340
C    -4.529509   -0.473583    0.300523    0.003086   -0.000108    0.000916
C    -3.491016    3.141885   -2.643351   -0.002146   -0.002826    0.005890
C     0.781162    5.274210   -3.230108   -0.001444   -0.000674   -0.000008
C     4.116120    2.432414   -1.155361    0.000556   -0.005162   -0.000134
C     3.270389   -1.717078    1.029834    0.002884   -0.003714    0.002662
C    -1.048391   -3.100890    2.461814   -0.002860    0.000730   -0.000070
C    -4.172558   -0.526445   -1.196507    0.002026   -0.002312   -0.000962
C    -2.136560    2.822670   -3.289514   -0.003562   -0.000318    0.002842
C     1.343018    4.073909   -4.021474    0.001074    0.003456   -0.002788
C     4.255055    0.999224   -1.701433    0.005040   -0.004016   -0.000906
C     1.994682   -2.270549    0.392990    0.004192   -0.006558    0.007020
C    -1.627418   -3.270657    1.041070   -0.005698   -0.002604   -0.000780
O    -5.046935    0.288871   -1.978977   -0.003488   -0.000620   -0.003628
O    -1.817944    3.785997   -4.283222   -0.001212   -0.004462   -0.002534
O     2.772185    3.949669   -3.978994   -0.003262   -0.000648   -0.004320
O     5.129830    0.222739   -0.891862    0.000366   -0.000744   -0.002598
O     1.702197   -3.577570    0.849718    0.003048   -0.007316   -0.001128
O    -3.055285   -3.353855    1.048759   -0.005050   -0.003444   -0.000316
C    -4.304614   -1.947786   -1.755805   -0.001484   -0.002648    0.003002
C    -2.005428    1.462493   -3.977318   -0.000132    0.003712    0.001880
C     1.025021    4.173229   -5.525550   -0.001536    0.004560   -0.000988
C     4.835616    1.003088   -3.119615   -0.000146   -0.001572    0.002186
C     2.039344   -2.272418   -1.131220   -0.000552    0.006492    0.007474
C    -1.183840   -4.582378    0.371046   -0.001160   -0.001372    0.001636
O    -5.626935   -2.417764   -1.699420   -0.003726   -0.002454   -0.000862
O    -0.714756    1.272979   -4.223988    0.007216    0.010974   -0.012332
O     1.363474    5.419477   -6.071680   -0.001420   -0.001246    0.002576
O     6.072482    1.661599   -3.191607   -0.000736   -0.001760   -0.001950
O     0.798335   -2.313578   -1.594596   -0.000352   -0.002096   -0.000868
O    -1.462710   -5.705357    1.167750   -0.002450   -0.003768    0.001744
H    -5.747589    2.125071   -2.299851   -0.000900   -0.000118    0.000246
H    -1.332174    5.707172   -4.586648   -0.000256   -0.003828   -0.001632
H     4.486980    4.074577   -2.992714   -0.003630   -0.008506   -0.002632
H     5.447285   -0.541378    0.920565   -0.003958   -0.001414   -0.003744
H     1.067546   -4.577166    2.473369    0.001080   -0.000452    0.003758
H    -4.799911   -2.588470    1.604455   -0.001410   -0.001678    0.003890
H    -6.626827    1.229333   -0.152659   -0.002146    0.000432   -0.006718
H    -3.639755    5.704899   -3.807142    0.002060   -0.003840   -0.004152
H     3.322615    6.272385   -2.957552   -0.000228   -0.006622   -0.005078
H     5.773054    1.915687    0.999779   -0.002702   -0.003458   -0.006182
H     3.369062   -3.828026    2.907907   -0.001968   -0.000370   -0.001024
H    -3.566815   -3.184502    3.652314   -0.004114   -0.001288   -0.002738
H    -5.302392    3.664574   -0.233971    0.006814   -0.006328    0.006930
H    -1.831662    6.827169   -1.966916   -0.008032   -0.000562    0.008850
H     3.749573    5.166027   -0.383022    0.005282   -0.001594    0.002194
H     4.480017    0.587986    2.809240   -0.009362   -0.002594    0.000572
H     1.417548   -2.641100    4.550316   -0.003870    0.003280   -0.003764
H    -4.202973   -0.479315    3.272389    0.002672   -0.000194   -0.004332
H    -3.721212    1.485492    0.737492   -0.009194    0.015230    0.001496
H    -2.614451    4.472315   -1.203876   -0.001468    0.006418    0.000504
H     1.311609    4.774856   -1.206376    0.001650   -0.001666   -0.002630
H     2.763580    2.029800    0.475201   -0.002204    0.005080   -0.011640
H     2.291636   -0.966573    2.782587    0.005100    0.003000    0.010504
H    -1.578715   -1.041000    2.766861   -0.006324    0.005970    0.015688
H    -5.513296    1.824152    2.320167    0.014112    0.000644    0.008590
H    -4.591169    5.870256   -1.308809   -0.002486   -0.003276    0.009798
H     1.886784    7.185115   -0.929227   -0.004606    0.002308    0.000876
H     3.890451    3.717770    1.778782    0.006716   -0.007848   -0.000100
H     4.221566   -1.631908    4.109559   -0.007564    0.005914    0.002300
H    -1.974075   -1.507021    5.097542    0.004808    0.010776   -0.003618
H    -5.478125   -1.002044    0.458500    0.000578    0.003796   -0.008962
H    -4.272007    3.140278   -3.411514    0.006310   -0.002366   -0.002586
H     0.810615    6.170637   -3.866577   -0.000332   -0.004212   -0.004704
H     5.063278    2.964282   -1.304017   -0.003674    0.000710   -0.007250
H     4.137556   -2.325957    0.752050    0.002262   -0.001208    0.001954
H    -1.126721   -4.053475    3.001543   -0.004694    0.000718   -0.003998
H    -3.145203   -0.184381   -1.344699    0.003146   -0.021508   -0.041996
H     0.881333    3.157396   -3.638153    0.000160   -0.004308   -0.012484
H     3.268859    0.517904   -1.730055   -0.002888    0.002218   -0.028662
H     1.169734   -1.617366    0.698296    0.009838   -0.043256    0.072620
H    -1.313224   -2.427663    0.417014   -0.018450   -0.026728   -0.031076
H    -3.704936   -2.633171   -1.154981   -0.006512   -0.005878    0.003146
H    -3.929224   -1.940850   -2.785576    0.010834   -0.007144    0.006260
H     1.565168    3.363171   -6.027182   -0.008216   -0.003520    0.001262
H    -0.043816    4.031033   -5.684352   -0.002088   -0.000344    0.002600
H     4.153527    1.542507   -3.780630   -0.008006   -0.009576    0.002366
H     4.915691   -0.035683   -3.457359   -0.006280   -0.000306   -0.002880
H    -1.698656   -4.651905   -0.594174    0.005792   -0.002958   -0.002694
H    -0.108381   -4.574527    0.198791   -0.001218   -0.004012    0.001404
H    -6.174637   -1.824528   -2.232948   -0.002386    0.007964    0.012058
H     2.327946    5.500771   -6.091078   -0.000980    0.002362   -0.009354
H     6.721998    1.147280   -2.689239   -0.002542   -0.003212    0.002354
H    -2.423881   -5.778081    1.259039   -0.002968    0.011966    0.008262
C     0.560927   -2.045627   -2.964916    0.002126    0.047168    0.023598
H    -0.077293   -2.845194   -3.361708   -0.142978    0.149206    0.022770
H     1.508694   -1.988211   -3.510116    0.005212   -0.059798   -0.004118
O     3.031463   -2.228756   -1.811752    0.002988   -0.007360    0.008038
C    -0.228595   -0.036314   -4.422490   -0.010432    0.003524    0.035126
H     0.771853    0.059513   -4.847857   -0.052842   -0.020632   -0.091586
H    -0.891953   -0.612812   -5.081809   -0.087952   -0.066828    0.175410
O    -2.900268    0.723786   -4.297619    0.003604    0.001660   -0.005398
C    -0.198567   -0.696429   -3.024238    0.265752    0.286084    0.224402
O     1.219681    0.246288   -2.197962    0.074224   -0.106736   -0.473226
O     0.720840    1.647830   -2.045906   -0.062060   -0.077032    0.064310
H     0.357612    0.070148   -0.401848   -0.830828   -0.275772    1.594230
O    -0.294053   -0.185795   -0.059357   -0.071666   -0.065156    0.015068
H    -0.884971   -0.545354   -0.845473   -0.021440   -0.004364   -0.262030
C    -0.970330    1.002482    0.467133   -0.010174    0.042322    0.021146
O    -1.264150   -0.566437   -2.338594    0.007744    0.042714    0.081604
H    -1.359468    1.599720   -0.359452   -0.005416    0.039088    0.034542
H     1.562910    2.131183   -1.923961   -0.088408   -0.049260   -0.042078
H    -1.799154    0.575700    1.041725    0.024688   -0.066994   -0.012730
C    -0.066076    1.817738    1.335844    0.002462    0.006624    0.006166
C     0.144415    3.160625    1.056027   -0.001134    0.003854    0.000002
C     0.534993    1.240737    2.448447   -0.000068   -0.003734    0.002264
C     0.931515    3.929334    1.896072   -0.000116    0.002612   -0.001258
H    -0.313913    3.602330    0.182458   -0.000328    0.006104    0.000916
C     1.332656    2.006719    3.278803    0.000466   -0.002816    0.000516
H     0.365236    0.196416    2.662697    0.001000    0.002942    0.020142
C     1.522516    3.352228    3.008443   -0.001176   -0.002122   -0.001094
H     1.082653    4.975256    1.680323    0.003812    0.003096    0.001824
H     1.800485    1.564110    4.142480    0.004896    0.005662    0.000500
H     2.129048    3.951402    3.669069   -0.001890    0.000806   -0.003468
H    -1.358513    2.838347   -2.511423    0.005698   -0.000920   -0.005782
150
* Frequency(6) -548.9500
C    -5.076561    1.629588   -1.587526   -0.002734   -0.003866   -0.001482
C    -1.583801    5.066620   -3.731718   -0.003034   -0.002178   -0.001504
C     3.416480    4.137289   -2.760110   -0.002254   -0.003882    0.002402
C     4.718160    0.125864    0.446166   -0.007574   -0.002224    0.000614
C     1.344478   -3.546244    2.221579   -0.002592   -0.001122    0.003780
C    -3.740016   -2.314592    1.685325   -0.002996    0.000024   -0.000322
O    -3.795572    2.219702   -1.612404    0.003170    0.001430   -0.000780
O    -0.557198    5.056855   -2.786981    0.001108   -0.002616   -0.002044
O     3.064761    3.121205   -1.831595   -0.006124    0.000528   -0.002538
O     3.417501   -0.384299    0.562645   -0.000142    0.002314    0.003748
O     0.305954   -2.652512    2.476582    0.000446    0.000020   -0.007762
O    -3.503398   -1.063275    1.089188    0.000078    0.001300    0.000488
C    -5.648574    1.728015   -0.160557   -0.000918   -0.002358   -0.000030
C    -2.866264    5.573633   -3.042454   -0.001652   -0.002294    0.000032
C     3.067906    5.526102   -2.196519   -0.000698   -0.001804   -0.000600
C     4.752200    1.515128    1.101608   -0.002334   -0.001498    0.000566
C     2.569597   -3.092366    3.046447   -0.001730   -0.001250    0.002344
C    -3.324201   -2.233802    3.163532   -0.002778   -0.000072    0.000834
O    -5.847827    3.041790    0.282207   -0.002576   -0.000890   -0.001084
O    -2.680305    6.821627   -2.439085   -0.001472   -0.001770   -0.003110
O     3.793072    5.876678   -1.055404   -0.002832   -0.002490   -0.002320
O     4.379064    1.490027    2.452600   -0.003250   -0.000528   -0.002518
O     2.289855   -3.050365    4.416453   -0.001946    0.000784    0.001116
O    -4.012960   -1.233030    3.861795   -0.001364    0.000570    0.000336
C    -4.692508    0.975153    0.777790    0.000952    0.000658    0.001974
C    -3.358037    4.540492   -2.013199   -0.002446    0.000048    0.001488
C     1.558110    5.560549   -1.937521   -0.000802    0.002184   -0.000750
C     3.780058    2.425745    0.339694   -0.000574   -0.000502   -0.001440
C     3.062376   -1.716482    2.553196   -0.000604    0.000472    0.002662
C    -1.804898   -2.010242    3.233821   -0.001064    0.001558    0.002742
O    -5.161214    0.946400    2.104188   -0.001938   -0.001358    0.000750
O    -4.605351    4.914458   -1.483673   -0.001302   -0.000652   -0.002708
O     1.152646    6.811735   -1.444906   -0.001370   -0.002916   -0.002774
O     3.845487    3.749457    0.809874   -0.003374   -0.000106   -0.001672
O     4.270585   -1.346612    3.181623    0.000366    0.001366    0.001946
O    -1.346247   -2.017644    4.561906   -0.000456   -0.000574    0.003340
C    -4.529845   -0.473571    0.300423    0.003086   -0.000108    0.000916
C    -3.490783    3.142193   -2.643993   -0.002146   -0.002826    0.005890
C     0.781320    5.274283   -3.230107   -0.001444   -0.000674   -0.000008
C     4.116059    2.432977   -1.155347    0.000556   -0.005162   -0.000134
C     3.270075   -1.716673    1.029544    0.002884   -0.003714    0.002662
C    -1.048080   -3.100970    2.461822   -0.002860    0.000730   -0.000070
C    -4.172778   -0.526193   -1.196402    0.002026   -0.002312   -0.000962
C    -2.136172    2.822705   -3.289823   -0.003562   -0.000318    0.002842
C     1.342901    4.073532   -4.021171    0.001074    0.003456   -0.002788
C     4.254505    0.999662   -1.701334    0.005040   -0.004016   -0.000906
C     1.994225   -2.269835    0.392225    0.004192   -0.006558    0.007020
C    -1.626797   -3.270373    1.041155   -0.005698   -0.002604   -0.000780
O    -5.046555    0.288938   -1.978582   -0.003488   -0.000620   -0.003628
O    -1.817812    3.786483   -4.282946   -0.001212   -0.004462   -0.002534
O     2.772540    3.949740   -3.978523   -0.003262   -0.000648   -0.004320
O     5.129790    0.222820   -0.891579    0.000366   -0.000744   -0.002598
O     1.701865   -3.576772    0.849841    0.003048   -0.007316   -0.001128
O    -3.054735   -3.353479    1.048794   -0.005050   -0.003444   -0.000316
C    -4.304452   -1.947498   -1.756132   -0.001484   -0.002648    0.003002
C    -2.005414    1.462089   -3.977523   -0.000132    0.003712    0.001880
C     1.025189    4.172732   -5.525442   -0.001536    0.004560   -0.000988
C     4.835632    1.003259   -3.119853   -0.000146   -0.001572    0.002186
C     2.039404   -2.273125   -1.132034   -0.000552    0.006492    0.007474
C    -1.183714   -4.582228    0.370867   -0.001160   -0.001372    0.001636
O    -5.626529   -2.417496   -1.699326   -0.003726   -0.002454   -0.000862
O    -0.715542    1.271783   -4.222644    0.007216    0.010974   -0.012332
O     1.363629    5.419613   -6.071961   -0.001420   -0.001246    0.002576
O     6.072563    1.661791   -3.191394   -0.000736   -0.001760   -0.001950
O     0.798374   -2.313350   -1.594501   -0.000352   -0.002096   -0.000868
O    -1.462443   -5.704946    1.167559   -0.002450   -0.003768    0.001744
H    -5.747491    2.125084   -2.299878   -0.000900   -0.000118    0.000246
H    -1.332146    5.707589   -4.586470   -0.000256   -0.003828   -0.001632
H     4.487376    4.075504   -2.992428   -0.003630   -0.008506   -0.002632
H     5.447716   -0.541223    0.920973   -0.003958   -0.001414   -0.003744
H     1.067428   -4.577117    2.472959    0.001080   -0.000452    0.003758
H    -4.799757   -2.588287    1.604031   -0.001410   -0.001678    0.003890
H    -6.626594    1.229286   -0.151927   -0.002146    0.000432   -0.006718
H    -3.639979    5.705318   -3.806689    0.002060   -0.003840   -0.004152
H     3.322640    6.273107   -2.956999   -0.000228   -0.006622   -0.005078
H     5.773348    1.916064    1.000453   -0.002702   -0.003458   -0.006182
H     3.369277   -3.827985    2.908019   -0.001968   -0.000370   -0.001024
H    -3.566367   -3.184361    3.652612   -0.004114   -0.001288   -0.002738
H    -5.303134    3.665263   -0.234726    0.006814   -0.006328    0.006930
H    -1.830787    6.827231   -1.967880   -0.008032   -0.000562    0.008850
H     3.748997    5.166201   -0.383261    0.005282   -0.001594    0.002194
H     4.481038    0.588269    2.809178   -0.009362   -0.002594    0.000572
H     1.417970   -2.641457    4.550726   -0.003870    0.003280   -0.003764
H    -4.203264   -0.479294    3.272861    0.002672   -0.000194   -0.004332
H    -3.720210    1.483832    0.737329   -0.009194    0.015230    0.001496
H    -2.614291    4.471616   -1.203931   -0.001468    0.006418    0.000504
H     1.311429    4.775038   -1.206090    0.001650   -0.001666   -0.002630
H     2.763820    2.029247    0.476469   -0.002204    0.005080   -0.011640
H     2.291080   -0.966900    2.781442    0.005100    0.003000    0.010504
H    -1.578026   -1.041650    2.765152   -0.006324    0.005970    0.015688
H    -5.514834    1.824082    2.319231    0.014112    0.000644    0.008590
H    -4.590898    5.870613   -1.309877   -0.002486   -0.003276    0.009798
H     1.887286    7.184864   -0.929323   -0.004606    0.002308    0.000876
H     3.889719    3.718625    1.778793    0.006716   -0.007848   -0.000100
H     4.222390   -1.632552    4.109308   -0.007564    0.005914    0.002300
H    -1.974599   -1.508195    5.097937    0.004808    0.010776   -0.003618
H    -5.478188   -1.002457    0.459477    0.000578    0.003796   -0.008962
H    -4.272694    3.140536   -3.411232    0.006310   -0.002366   -0.002586
H     0.810651    6.171096   -3.866064   -0.000332   -0.004212   -0.004704
H     5.063678    2.964205   -1.303227   -0.003674    0.000710   -0.007250
H     4.137309   -2.325826    0.751837    0.002262   -0.001208    0.001954
H    -1.126209   -4.053554    3.001979   -0.004694    0.000718   -0.003998
H    -3.145546   -0.182037   -1.340122    0.003146   -0.021508   -0.041996
H     0.881315    3.157866   -3.636792    0.000160   -0.004308   -0.012484
H     3.269174    0.517663   -1.726931   -0.002888    0.002218   -0.028662
H     1.168662   -1.612652    0.690383    0.009838   -0.043256    0.072620
H    -1.311214   -2.424751    0.420401   -0.018450   -0.026728   -0.031076
H    -3.704226   -2.632531   -1.155324   -0.006512   -0.005878    0.003146
H    -3.930405   -1.940072   -2.786258    0.010834   -0.007144    0.006260
H     1.566064    3.363554   -6.027319   -0.008216   -0.003520    0.001262
H    -0.043588    4.031070   -5.684635   -0.002088   -0.000344    0.002600
H     4.154400    1.543550   -3.780888   -0.008006   -0.009576    0.002366
H     4.916375   -0.035650   -3.457045   -0.006280   -0.000306   -0.002880
H    -1.699287   -4.651582   -0.593880    0.005792   -0.002958   -0.002694
H    -0.108248   -4.574090    0.198638   -0.001218   -0.004012    0.001404
H    -6.174377   -1.825396   -2.234262   -0.002386    0.007964    0.012058
H     2.328053    5.500514   -6.090059   -0.000980    0.002362   -0.009354
H     6.722275    1.147630   -2.689495   -0.002542   -0.003212    0.002354
H    -2.423558   -5.779385    1.258139   -0.002968    0.011966    0.008262
C     0.560695   -2.050767   -2.967488    0.002126    0.047168    0.023598
H    -0.061712   -2.861454   -3.364189   -0.142978    0.149206    0.022770
H     1.508126   -1.981695   -3.509667    0.005212   -0.059798   -0.004118
O     3.031137   -2.227954   -1.812628    0.002988   -0.007360    0.008038
C    -0.227458   -0.036698   -4.426317   -0.010432    0.003524    0.035126
H     0.777612    0.061761   -4.837876   -0.052842   -0.020632   -0.091586
H    -0.882369   -0.605530   -5.100924   -0.087952   -0.066828    0.175410
O    -2.900660    0.723605   -4.297031    0.003604    0.001660   -0.005398
C    -0.227527   -0.727604   -3.048692    0.265752    0.286084    0.224402
O     1.211593    0.257919   -2.146393    0.074224   -0.106736   -0.473226
O     0.727603    1.656224   -2.052914   -0.062060   -0.077032    0.064310
H     0.448151    0.100200   -0.575576   -0.830828   -0.275772    1.594230
O    -0.286244   -0.178695   -0.060999   -0.071666   -0.065156    0.015068
H    -0.882634   -0.544878   -0.816919   -0.021440   -0.004364   -0.262030
C    -0.969221    0.997870    0.464828   -0.010174    0.042322    0.021146
O    -1.264994   -0.571091   -2.347487    0.007744    0.042714    0.081604
H    -1.358878    1.595461   -0.363216   -0.005416    0.039088    0.034542
H     1.572544    2.136551   -1.919376   -0.088408   -0.049260   -0.042078
H    -1.801845    0.583001    1.043113    0.024688   -0.066994   -0.012730
C    -0.066344    1.817017    1.335172    0.002462    0.006624    0.006166
C     0.144539    3.160205    1.056027   -0.001134    0.003854    0.000002
C     0.535000    1.241144    2.448200   -0.000068   -0.003734    0.002264
C     0.931527    3.929049    1.896210   -0.000116    0.002612   -0.001258
H    -0.313877    3.601665    0.182358   -0.000328    0.006104    0.000916
C     1.332605    2.007026    3.278747    0.000466   -0.002816    0.000516
H     0.365127    0.196095    2.660502    0.001000    0.002942    0.020142
C     1.522644    3.352459    3.008562   -0.001176   -0.002122   -0.001094
H     1.082238    4.974918    1.680124    0.003812    0.003096    0.001824
H     1.799951    1.563493    4.142426    0.004896    0.005662    0.000500
H     2.129254    3.951314    3.669447   -0.001890    0.000806   -0.003468
H    -1.359134    2.838447   -2.510793    0.005698   -0.000920   -0.005782
150
* Frequency(6) -548.9500
C    -5.076245    1.630034   -1.587356   -0.002734   -0.003866   -0.001482
C    -1.583451    5.066870   -3.731544   -0.003034   -0.002178   -0.001504
C     3.416740    4.137737   -2.760386   -0.002254   -0.003882    0.002402
C     4.719032    0.126120    0.446096   -0.007574   -0.002224    0.000614
C     1.344776   -3.546114    2.221143   -0.002592   -0.001122    0.003780
C    -3.739670   -2.314594    1.685363   -0.002996    0.000024   -0.000322
O    -3.795938    2.219538   -1.612314    0.003170    0.001430   -0.000780
O    -0.557326    5.057157   -2.786745    0.001108   -0.002616   -0.002044
O     3.065467    3.121145   -1.831303   -0.006124    0.000528   -0.002538
O     3.417517   -0.384565    0.562213   -0.000142    0.002314    0.003748
O     0.305902   -2.652514    2.477476    0.000446    0.000020   -0.007762
O    -3.503406   -1.063425    1.089132    0.000078    0.001300    0.000488
C    -5.648468    1.728287   -0.160553   -0.000918   -0.002358   -0.000030
C    -2.866074    5.573897   -3.042458   -0.001652   -0.002294    0.000032
C     3.067986    5.526310   -2.196449   -0.000698   -0.001804   -0.000600
C     4.752468    1.515300    1.101542   -0.002334   -0.001498    0.000566
C     2.569797   -3.092222    3.046177   -0.001730   -0.001250    0.002344
C    -3.323881   -2.233794    3.163436   -0.002778   -0.000072    0.000834
O    -5.847531    3.041892    0.282331   -0.002576   -0.000890   -0.001084
O    -2.680135    6.821831   -2.438727   -0.001472   -0.001770   -0.003110
O     3.793398    5.876964   -1.055136   -0.002832   -0.002490   -0.002320
O     4.379438    1.490087    2.452890   -0.003250   -0.000528   -0.002518
O     2.290079   -3.050455    4.416325   -0.001946    0.000784    0.001116
O    -4.012802   -1.233096    3.861757   -0.001364    0.000570    0.000336
C    -4.692618    0.975077    0.777562    0.000952    0.000658    0.001974
C    -3.357755    4.540486   -2.013371   -0.002446    0.000048    0.001488
C     1.558202    5.560297   -1.937435   -0.000802    0.002184   -0.000750
C     3.780124    2.425803    0.339860   -0.000574   -0.000502   -0.001440
C     3.062446   -1.716536    2.552890   -0.000604    0.000472    0.002662
C    -1.804776   -2.010422    3.233505   -0.001064    0.001558    0.002742
O    -5.160990    0.946556    2.104102   -0.001938   -0.001358    0.000750
O    -4.605201    4.914534   -1.483361   -0.001302   -0.000652   -0.002708
O     1.152804    6.812071   -1.444586   -0.001370   -0.002916   -0.002774
O     3.845875    3.749469    0.810066   -0.003374   -0.000106   -0.001672
O     4.270543   -1.346770    3.181399    0.000366    0.001366    0.001946
O    -1.346195   -2.017578    4.561522   -0.000456   -0.000574    0.003340
C    -4.530201   -0.473559    0.300317    0.003086   -0.000108    0.000916
C    -3.490535    3.142519   -2.644671   -0.002146   -0.002826    0.005890
C     0.781486    5.274361   -3.230107   -0.001444   -0.000674   -0.000008
C     4.115995    2.433571   -1.155331    0.000556   -0.005162   -0.000134
C     3.269743   -1.716245    1.029238    0.002884   -0.003714    0.002662
C    -1.047750   -3.101054    2.461830   -0.002860    0.000730   -0.000070
C    -4.173012   -0.525927   -1.196292    0.002026   -0.002312   -0.000962
C    -2.135762    2.822741   -3.290151   -0.003562   -0.000318    0.002842
C     1.342777    4.073134   -4.020849    0.001074    0.003456   -0.002788
C     4.253925    1.000124   -1.701230    0.005040   -0.004016   -0.000906
C     1.993743   -2.269079    0.391417    0.004192   -0.006558    0.007020
C    -1.626141   -3.270073    1.041245   -0.005698   -0.002604   -0.000780
O    -5.046153    0.289010   -1.978164   -0.003488   -0.000620   -0.003628
O    -1.817672    3.786997   -4.282654   -0.001212   -0.004462   -0.002534
O     2.772916    3.949814   -3.978025   -0.003262   -0.000648   -0.004320
O     5.129748    0.222906   -0.891279    0.000366   -0.000744   -0.002598
O     1.701513   -3.575930    0.849971    0.003048   -0.007316   -0.001128
O    -3.054153   -3.353083    1.048830   -0.005050   -0.003444   -0.000316
C    -4.304282   -1.947192   -1.756478   -0.001484   -0.002648    0.003002
C    -2.005398    1.461661   -3.977739   -0.000132    0.003712    0.001880
C     1.025365    4.172206   -5.525328   -0.001536    0.004560   -0.000988
C     4.835648    1.003441   -3.120105   -0.000146   -0.001572    0.002186
C     2.039468   -2.273873   -1.132896   -0.000552    0.006492    0.007474
C    -1.183580   -4.582070    0.370679   -0.001160   -0.001372    0.001636
O    -5.626099   -2.417214   -1.699226   -0.003726   -0.002454   -0.000862
O    -0.716374    1.270519   -4.221224    0.007216    0.010974   -0.012332
O     1.363793    5.419757   -6.072257   -0.001420   -0.001246    0.002576
O     6.072647    1.661993   -3.191170   -0.000736   -0.001760   -0.001950
O     0.798414   -2.313108   -1.594401   -0.000352   -0.002096   -0.000868
O    -1.462161   -5.704512    1.167359   -0.002450   -0.003768    0.001744
H    -5.747387    2.125098   -2.299906   -0.000900   -0.000118    0.000246
H    -1.332116    5.708031   -4.586282   -0.000256   -0.003828   -0.001632
H     4.487794    4.076484   -2.992124   -0.003630   -0.008506   -0.002632
H     5.448172   -0.541061    0.921405   -0.003958   -0.001414   -0.003744
H     1.067304   -4.577065    2.472527    0.001080   -0.000452    0.003758
H    -4.799595   -2.588093    1.603583   -0.001410   -0.001678    0.003890
H    -6.626346    1.229236   -0.151153   -0.002146    0.000432   -0.006718
H    -3.640217    5.705760   -3.806211    0.002060   -0.003840   -0.004152
H     3.322666    6.273869   -2.956413   -0.000228   -0.006622   -0.005078
H     5.773660    1.916462    1.001165   -0.002702   -0.003458   -0.006182
H     3.369503   -3.827943    2.908137   -0.001968   -0.000370   -0.001024
H    -3.565893   -3.184213    3.652928   -0.004114   -0.001288   -0.002738
H    -5.303920    3.665993   -0.235524    0.006814   -0.006328    0.006930
H    -1.829861    6.827295   -1.968900   -0.008032   -0.000562    0.008850
H     3.748389    5.166385   -0.383513    0.005282   -0.001594    0.002194
H     4.482116    0.588567    2.809112   -0.009362   -0.002594    0.000572
H     1.418416   -2.641835    4.551160   -0.003870    0.003280   -0.003764
H    -4.203572   -0.479272    3.273361    0.002672   -0.000194   -0.004332
H    -3.719150    1.482078    0.737157   -0.009194    0.015230    0.001496
H    -2.614121    4.470876   -1.203989   -0.001468    0.006418    0.000504
H     1.311239    4.775230   -1.205786    0.001650   -0.001666   -0.002630
H     2.764074    2.028661    0.477811   -0.002204    0.005080   -0.011640
H     2.290492   -0.967246    2.780232    0.005100    0.003000    0.010504
H    -1.577298   -1.042338    2.763344   -0.006324    0.005970    0.015688
H    -5.516460    1.824008    2.318241    0.014112    0.000644    0.008590
H    -4.590612    5.870991   -1.311005   -0.002486   -0.003276    0.009798
H     1.887816    7.184598   -0.929423   -0.004606    0.002308    0.000876
H     3.888945    3.719529    1.778805    0.006716   -0.007848   -0.000100
H     4.223262   -1.633234    4.109044   -0.007564    0.005914    0.002300
H    -1.975153   -1.509437    5.098353    0.004808    0.010776   -0.003618
H    -5.478254   -1.002895    0.460509    0.000578    0.003796   -0.008962
H    -4.273422    3.140808   -3.410934    0.006310   -0.002366   -0.002586
H     0.810689    6.171582   -3.865522   -0.000332   -0.004212   -0.004704
H     5.064102    2.964123   -1.302391   -0.003674    0.000710   -0.007250
H     4.137049   -2.325686    0.751611    0.002262   -0.001208    0.001954
H    -1.125669   -4.053636    3.002439   -0.004694    0.000718   -0.003998
H    -3.145908   -0.179559   -1.335284    0.003146   -0.021508   -0.041996
H     0.881297    3.158362   -3.635354    0.000160   -0.004308   -0.012484
H     3.269506    0.517407   -1.723629   -0.002888    0.002218   -0.028662
H     1.167528   -1.607668    0.682015    0.009838   -0.043256    0.072620
H    -1.309088   -2.421671    0.423981   -0.018450   -0.026728   -0.031076
H    -3.703476   -2.631853   -1.155686   -0.006512   -0.005878    0.003146
H    -3.931653   -1.939248   -2.786980    0.010834   -0.007144    0.006260
H     1.567010    3.363960   -6.027465   -0.008216   -0.003520    0.001262
H    -0.043348    4.031110   -5.684935   -0.002088   -0.000344    0.002600
H     4.155322    1.544654   -3.781160   -0.008006   -0.009576    0.002366
H     4.917099   -0.035614   -3.456713   -0.006280   -0.000306   -0.002880
H    -1.699955   -4.651242   -0.593570    0.005792   -0.002958   -0.002694
H    -0.108108   -4.573628    0.198476   -0.001218   -0.004012    0.001404
H    -6.174103   -1.826314   -2.235652   -0.002386    0.007964    0.012058
H     2.328165    5.500242   -6.088981   -0.000980    0.002362   -0.009354
H     6.722567    1.148000   -2.689767   -0.002542   -0.003212    0.002354
H    -2.423216   -5.780763    1.257187   -0.002968    0.011966    0.008262
C     0.560451   -2.056201   -2.970206    0.002126    0.047168    0.023598
H    -0.045238   -2.878644   -3.366813   -0.142978    0.149206    0.022770
H     1.507526   -1.974805   -3.509193    0.005212   -0.059798   -0.004118
O     3.030793   -2.227106   -1.813554    0.002988   -0.007360    0.008038
C    -0.226256   -0.037104   -4.430365   -0.010432    0.003524    0.035126
H     0.783700    0.064139   -4.827324   -0.052842   -0.020632   -0.091586
H    -0.872235   -0.597830   -5.121134   -0.087952   -0.066828    0.175410
O    -2.901076    0.723413   -4.296409    0.003604    0.001660   -0.005398
C    -0.258145   -0.760566   -3.074546    0.265752    0.286084    0.224402
O     1.203041    0.270217   -2.091869    0.074224   -0.106736   -0.473226
O     0.734753    1.665100   -2.060324   -0.062060   -0.077032    0.064310
H     0.543875    0.131974   -0.759258   -0.830828   -0.275772    1.594230
O    -0.277986   -0.171187   -0.062735   -0.071666   -0.065156    0.015068
H    -0.880164   -0.544376   -0.786729   -0.021440   -0.004364   -0.262030
C    -0.968049    0.992994    0.462392   -0.010174    0.042322    0.021146
O    -1.265886   -0.576013   -2.356889    0.007744    0.042714    0.081604
H    -1.358254    1.590957   -0.367196   -0.005416    0.039088    0.034542
H     1.582730    2.142227   -1.914528   -0.088408   -0.049260   -0.042078
H    -1.804689    0.590719    1.044579    0.024688   -0.066994   -0.012730
C    -0.066628    1.816253    1.334462    0.002462    0.006624    0.006166
C     0.144669    3.159761    1.056027   -0.001134    0.003854    0.000002
C     0.535008    1.241574    2.447940   -0.000068   -0.003734    0.002264
C     0.931541    3.928749    1.896354   -0.000116    0.002612   -0.001258
H    -0.313839    3.600961    0.182252   -0.000328    0.006104    0.000916
C     1.332551    2.007350    3.278687    0.000466   -0.002816    0.000516
H     0.365011    0.195757    2.658182    0.001000    0.002942    0.020142
C     1.522780    3.352703    3.008688   -0.001176   -0.002122   -0.001094
H     1.081798    4.974562    1.679914    0.003812    0.003096    0.001824
H     1.799387    1.562841    4.142368    0.004896    0.005662    0.000500
H     2.129472    3.951222    3.669847   -0.001890    0.000806   -0.003468
H    -1.359790    2.838553   -2.510127    0.005698   -0.000920   -0.005782
150
* Frequency(6) -548.9500
C    -5.075948    1.630455   -1.587194   -0.002734   -0.003866   -0.001482
C    -1.583121    5.067108   -3.731380   -0.003034   -0.002178   -0.001504
C     3.416985    4.138160   -2.760648   -0.002254   -0.003882    0.002402
C     4.719858    0.126362    0.446029   -0.007574   -0.002224    0.000614
C     1.345059   -3.545992    2.220731   -0.002592   -0.001122    0.003780
C    -3.739344   -2.314597    1.685398   -0.002996    0.000024   -0.000322
O    -3.796283    2.219382   -1.612229    0.003170    0.001430   -0.000780
O    -0.557447    5.057442   -2.786523    0.001108   -0.002616   -0.002044
O     3.066134    3.121087   -1.831026   -0.006124    0.000528   -0.002538
O     3.417533   -0.384817    0.561805   -0.000142    0.002314    0.003748
O     0.305854   -2.652516    2.478322    0.000446    0.000020   -0.007762
O    -3.503415   -1.063567    1.089079    0.000078    0.001300    0.000488
C    -5.648368    1.728544   -0.160550   -0.000918   -0.002358   -0.000030
C    -2.865894    5.574147   -3.042461   -0.001652   -0.002294    0.000032
C     3.068062    5.526507   -2.196384   -0.000698   -0.001804   -0.000600
C     4.752723    1.515464    1.101481   -0.002334   -0.001498    0.000566
C     2.569985   -3.092086    3.045922   -0.001730   -0.001250    0.002344
C    -3.323578   -2.233786    3.163345   -0.002778   -0.000072    0.000834
O    -5.847250    3.041989    0.282450   -0.002576   -0.000890   -0.001084
O    -2.679975    6.822024   -2.438388   -0.001472   -0.001770   -0.003110
O     3.793707    5.877236   -1.054884   -0.002832   -0.002490   -0.002320
O     4.379792    1.490145    2.453164   -0.003250   -0.000528   -0.002518
O     2.290291   -3.050541    4.416203   -0.001946    0.000784    0.001116
O    -4.012654   -1.233158    3.861720   -0.001364    0.000570    0.000336
C    -4.692722    0.975005    0.777347    0.000952    0.000658    0.001974
C    -3.357489    4.540481   -2.013533   -0.002446    0.000048    0.001488
C     1.558290    5.560059   -1.937353   -0.000802    0.002184   -0.000750
C     3.780187    2.425858    0.340017   -0.000574   -0.000502   -0.001440
C     3.062512   -1.716588    2.552600   -0.000604    0.000472    0.002662
C    -1.804660   -2.010592    3.233206   -0.001064    0.001558    0.002742
O    -5.160779    0.946704    2.104020   -0.001938   -0.001358    0.000750
O    -4.605059    4.914605   -1.483066   -0.001302   -0.000652   -0.002708
O     1.152953    6.812389   -1.444284   -0.001370   -0.002916   -0.002774
O     3.846243    3.749481    0.810249   -0.003374   -0.000106   -0.001672
O     4.270503   -1.346919    3.181187    0.000366    0.001366    0.001946
O    -1.346145   -2.017515    4.561158   -0.000456   -0.000574    0.003340
C    -4.530537   -0.473547    0.300217    0.003086   -0.000108    0.000916
C    -3.490302    3.142827   -2.645313   -0.002146   -0.002826    0.005890
C     0.781644    5.274434   -3.230106   -0.001444   -0.000674   -0.000008
C     4.115934    2.434134   -1.155317    0.000556   -0.005162   -0.000134
C     3.269429   -1.715840    1.028948    0.002884   -0.003714    0.002662
C    -1.047439   -3.101134    2.461838   -0.002860    0.000730   -0.000070
C    -4.173232   -0.525675   -1.196187    0.002026   -0.002312   -0.000962
C    -2.135374    2.822776   -3.290460   -0.003562   -0.000318    0.002842
C     1.342660    4.072757   -4.020546    0.001074    0.003456   -0.002788
C     4.253375    1.000562   -1.701131    0.005040   -0.004016   -0.000906
C     1.993286   -2.268365    0.390652    0.004192   -0.006558    0.007020
C    -1.625520   -3.269789    1.041330   -0.005698   -0.002604   -0.000780
O    -5.045773    0.289077   -1.977769   -0.003488   -0.000620   -0.003628
O    -1.817540    3.787483   -4.282378   -0.001212   -0.004462   -0.002534
O     2.773271    3.949885   -3.977554   -0.003262   -0.000648   -0.004320
O     5.129708    0.222987   -0.890996    0.000366   -0.000744   -0.002598
O     1.701181   -3.575132    0.850094    0.003048   -0.007316   -0.001128
O    -3.053603   -3.352707    1.048865   -0.005050   -0.003444   -0.000316
C    -4.304120   -1.946904   -1.756805   -0.001484   -0.002648    0.003002
C    -2.005384    1.461257   -3.977944   -0.000132    0.003712    0.001880
C     1.025533    4.171709   -5.525220   -0.001536    0.004560   -0.000988
C     4.835664    1.003612   -3.120343   -0.000146   -0.001572    0.002186
C     2.039528   -2.274580   -1.133710   -0.000552    0.006492    0.007474
C    -1.183454   -4.581920    0.370500   -0.001160   -0.001372    0.001636
O    -5.625693   -2.416946   -1.699132   -0.003726   -0.002454   -0.000862
O    -0.717160    1.269323   -4.219880    0.007216    0.010974   -0.012332
O     1.363948    5.419893   -6.072538   -0.001420   -0.001246    0.002576
O     6.072728    1.662185   -3.190957   -0.000736   -0.001760   -0.001950
O     0.798453   -2.312880   -1.594306   -0.000352   -0.002096   -0.000868
O    -1.461894   -5.704101    1.167168   -0.002450   -0.003768    0.001744
H    -5.747289    2.125111   -2.299933   -0.000900   -0.000118    0.000246
H    -1.332088    5.708448   -4.586104   -0.000256   -0.003828   -0.001632
H     4.488190    4.077411   -2.991838   -0.003630   -0.008506   -0.002632
H     5.448603   -0.540906    0.921813   -0.003958   -0.001414   -0.003744
H     1.067186   -4.577016    2.472117    0.001080   -0.000452    0.003758
H    -4.799441   -2.587910    1.603159   -0.001410   -0.001678    0.003890
H    -6.626113    1.229189   -0.150421   -0.002146    0.000432   -0.006718
H    -3.640441    5.706179   -3.805758    0.002060   -0.003840   -0.004152
H     3.322691    6.274591   -2.955860   -0.000228   -0.006622   -0.005078
H     5.773954    1.916839    1.001839   -0.002702   -0.003458   -0.006182
H     3.369718   -3.827902    2.908249   -0.001968   -0.000370   -0.001024
H    -3.565445   -3.184072    3.653226   -0.004114   -0.001288   -0.002738
H    -5.304662    3.666682   -0.236279    0.006814   -0.006328    0.006930
H    -1.828986    6.827357   -1.969864   -0.008032   -0.000562    0.008850
H     3.747813    5.166559   -0.383752    0.005282   -0.001594    0.002194
H     4.483137    0.588850    2.809050   -0.009362   -0.002594    0.000572
H     1.418838   -2.642192    4.551570   -0.003870    0.003280   -0.003764
H    -4.203863   -0.479251    3.273833    0.002672   -0.000194   -0.004332
H    -3.718148    1.480418    0.736994   -0.009194    0.015230    0.001496
H    -2.613961    4.470177   -1.204044   -0.001468    0.006418    0.000504
H     1.311059    4.775412   -1.205500    0.001650   -0.001666   -0.002630
H     2.764314    2.028108    0.479079   -0.002204    0.005080   -0.011640
H     2.289936   -0.967573    2.779087    0.005100    0.003000    0.010504
H    -1.576609   -1.042988    2.761635   -0.006324    0.005970    0.015688
H    -5.517998    1.823938    2.317305    0.014112    0.000644    0.008590
H    -4.590341    5.871348   -1.312073   -0.002486   -0.003276    0.009798
H     1.888318    7.184347   -0.929519   -0.004606    0.002308    0.000876
H     3.888213    3.720384    1.778816    0.006716   -0.007848   -0.000100
H     4.224086   -1.633878    4.108793   -0.007564    0.005914    0.002300
H    -1.975677   -1.510611    5.098748    0.004808    0.010776   -0.003618
H    -5.478317   -1.003308    0.461486    0.000578    0.003796   -0.008962
H    -4.274109    3.141066   -3.410652    0.006310   -0.002366   -0.002586
H     0.810725    6.172041   -3.865009   -0.000332   -0.004212   -0.004704
H     5.064502    2.964046   -1.301601   -0.003674    0.000710   -0.007250
H     4.136802   -2.325555    0.751398    0.002262   -0.001208    0.001954
H    -1.125157   -4.053715    3.002875   -0.004694    0.000718   -0.003998
H    -3.146251   -0.177215   -1.330707    0.003146   -0.021508   -0.041996
H     0.881279    3.158832   -3.633993    0.000160   -0.004308   -0.012484
H     3.269821    0.517166   -1.720505   -0.002888    0.002218   -0.028662
H     1.166456   -1.602954    0.674102    0.009838   -0.043256    0.072620
H    -1.307078   -2.418759    0.427368   -0.018450   -0.026728   -0.031076
H    -3.702766   -2.631213   -1.156029   -0.006512   -0.005878    0.003146
H    -3.932834   -1.938470   -2.787662    0.010834   -0.007144    0.006260
H     1.567906    3.364343   -6.027602   -0.008216   -0.003520    0.001262
H    -0.043120    4.031147   -5.685218   -0.002088   -0.000344    0.002600
H     4.156195    1.545697   -3.781418   -0.008006   -0.009576    0.002366
H     4.917783   -0.035581   -3.456399   -0.006280   -0.000306   -0.002880
H    -1.700586   -4.650919   -0.593276    0.005792   -0.002958   -0.002694
H    -0.107975   -4.573191    0.198323   -0.001218   -0.004012    0.001404
H    -6.173843   -1.827182   -2.236966   -0.002386    0.007964    0.012058
H     2.328272    5.499985   -6.087962   -0.000980    0.002362   -0.009354
H     6.722844    1.148350   -2.690023   -0.002542   -0.003212    0.002354
H    -2.422893   -5.782067    1.256287   -0.002968    0.011966    0.008262
C     0.560219   -2.061341   -2.972778    0.002126    0.047168    0.023598
H    -0.029657   -2.894904   -3.369294   -0.142978    0.149206    0.022770
H     1.506958   -1.968289   -3.508744    0.005212   -0.059798   -0.004118
O     3.030467   -2.226304   -1.814430    0.002988   -0.007360    0.008038
C    -0.225119   -0.037488   -4.434192   -0.010432    0.003524    0.035126
H     0.789459    0.066387   -4.817343   -0.052842   -0.020632   -0.091586
H    -0.862651   -0.590548   -5.140249   -0.087952   -0.066828    0.175410
O    -2.901468    0.723232   -4.295821    0.003604    0.001660   -0.005398
C    -0.287105   -0.791741   -3.099000    0.265752    0.286084    0.224402
O     1.194953    0.281848   -2.040300    0.074224   -0.106736   -0.473226
O     0.741516    1.673494   -2.067332   -0.062060   -0.077032    0.064310
H     0.634414    0.162026   -0.932986   -0.830828   -0.275772    1.594230
O    -0.270177   -0.164087   -0.064377   -0.071666   -0.065156    0.015068
H    -0.877827   -0.543900   -0.758175   -0.021440   -0.004364   -0.262030
C    -0.966940    0.988382    0.460087   -0.010174    0.042322    0.021146
O    -1.266730   -0.580667   -2.365782    0.007744    0.042714    0.081604
H    -1.357664    1.586698   -0.370960   -0.005416    0.039088    0.034542
H     1.592364    2.147595   -1.909943   -0.088408   -0.049260   -0.042078
H    -1.807380    0.598020    1.045967    0.024688   -0.066994   -0.012730
C    -0.066896    1.815532    1.333790    0.002462    0.006624    0.006166
C     0.144793    3.159341    1.056027   -0.001134    0.003854    0.000002
C     0.535015    1.241981    2.447693   -0.000068   -0.003734    0.002264
C     0.931553    3.928464    1.896492   -0.000116    0.002612   -0.001258
H    -0.313803    3.600296    0.182152   -0.000328    0.006104    0.000916
C     1.332500    2.007657    3.278631    0.000466   -0.002816    0.000516
H     0.364902    0.195436    2.655987    0.001000    0.002942    0.020142
C     1.522908    3.352934    3.008807   -0.001176   -0.002122   -0.001094
H     1.081383    4.974224    1.679715    0.003812    0.003096    0.001824
H     1.798853    1.562224    4.142314    0.004896    0.005662    0.000500
H     2.129678    3.951134    3.670225   -0.001890    0.000806   -0.003468
H    -1.360411    2.838653   -2.509497    0.005698   -0.000920   -0.005782
150
* Frequency(6) -548.9500
C    -5.075699    1.630807   -1.587059   -0.002734   -0.003866   -0.001482
C    -1.582845    5.067306   -3.731244   -0.003034   -0.002178   -0.001504
C     3.417190    4.138513   -2.760867   -0.002254   -0.003882    0.002402
C     4.720546    0.126565    0.445973   -0.007574   -0.002224    0.000614
C     1.345294   -3.545890    2.220388   -0.002592   -0.001122    0.003780
C    -3.739072   -2.314599    1.685427   -0.002996    0.000024   -0.000322
O    -3.796571    2.219252   -1.612158    0.003170    0.001430   -0.000780
O    -0.557547    5.057680   -2.786337    0.001108   -0.002616   -0.002044
O     3.066691    3.121039   -1.830795   -0.006124    0.000528   -0.002538
O     3.417546   -0.385028    0.561464   -0.000142    0.002314    0.003748
O     0.305813   -2.652518    2.479028    0.000446    0.000020   -0.007762
O    -3.503422   -1.063685    1.089034    0.000078    0.001300    0.000488
C    -5.648285    1.728758   -0.160547   -0.000918   -0.002358   -0.000030
C    -2.865744    5.574356   -3.042464   -0.001652   -0.002294    0.000032
C     3.068126    5.526671   -2.196329   -0.000698   -0.001804   -0.000600
C     4.752935    1.515600    1.101429   -0.002334   -0.001498    0.000566
C     2.570142   -3.091972    3.045708   -0.001730   -0.001250    0.002344
C    -3.323326   -2.233779    3.163269   -0.002778   -0.000072    0.000834
O    -5.847016    3.042070    0.282548   -0.002576   -0.000890   -0.001084
O    -2.679841    6.822185   -2.438105   -0.001472   -0.001770   -0.003110
O     3.793964    5.877462   -1.054673   -0.002832   -0.002490   -0.002320
O     4.380088    1.490193    2.453393   -0.003250   -0.000528   -0.002518
O     2.290468   -3.050612    4.416102   -0.001946    0.000784    0.001116
O    -4.012530   -1.233210    3.861689   -0.001364    0.000570    0.000336
C    -4.692808    0.974946    0.777168    0.000952    0.000658    0.001974
C    -3.357266    4.540477   -2.013668   -0.002446    0.000048    0.001488
C     1.558363    5.559861   -1.937285   -0.000802    0.002184   -0.000750
C     3.780239    2.425903    0.340148   -0.000574   -0.000502   -0.001440
C     3.062567   -1.716631    2.552358   -0.000604    0.000472    0.002662
C    -1.804563   -2.010733    3.232957   -0.001064    0.001558    0.002742
O    -5.160603    0.946828    2.103952   -0.001938   -0.001358    0.000750
O    -4.604941    4.914664   -1.482820   -0.001302   -0.000652   -0.002708
O     1.153078    6.812654   -1.444032   -0.001370   -0.002916   -0.002774
O     3.846550    3.749490    0.810401   -0.003374   -0.000106   -0.001672
O     4.270470   -1.347043    3.181010    0.000366    0.001366    0.001946
O    -1.346104   -2.017463    4.560854   -0.000456   -0.000574    0.003340
C    -4.530818   -0.473537    0.300134    0.003086   -0.000108    0.000916
C    -3.490106    3.143084   -2.645849   -0.002146   -0.002826    0.005890
C     0.781775    5.274496   -3.230105   -0.001444   -0.000674   -0.000008
C     4.115884    2.434603   -1.155304    0.000556   -0.005162   -0.000134
C     3.269166   -1.715503    1.028706    0.002884   -0.003714    0.002662
C    -1.047179   -3.101200    2.461844   -0.002860    0.000730   -0.000070
C    -4.173417   -0.525465   -1.196099    0.002026   -0.002312   -0.000962
C    -2.135050    2.822805   -3.290719   -0.003562   -0.000318    0.002842
C     1.342562    4.072443   -4.020292    0.001074    0.003456   -0.002788
C     4.252917    1.000927   -1.701049    0.005040   -0.004016   -0.000906
C     1.992905   -2.267768    0.390013    0.004192   -0.006558    0.007020
C    -1.625002   -3.269552    1.041401   -0.005698   -0.002604   -0.000780
O    -5.045456    0.289134   -1.977439   -0.003488   -0.000620   -0.003628
O    -1.817430    3.787889   -4.282147   -0.001212   -0.004462   -0.002534
O     2.773568    3.949944   -3.977162   -0.003262   -0.000648   -0.004320
O     5.129675    0.223055   -0.890760    0.000366   -0.000744   -0.002598
O     1.700904   -3.574467    0.850196    0.003048   -0.007316   -0.001128
O    -3.053144   -3.352394    1.048893   -0.005050   -0.003444   -0.000316
C    -4.303985   -1.946663   -1.757078   -0.001484   -0.002648    0.003002
C    -2.005372    1.460919   -3.978115   -0.000132    0.003712    0.001880
C     1.025673    4.171295   -5.525131   -0.001536    0.004560   -0.000988
C     4.835678    1.003755   -3.120542   -0.000146   -0.001572    0.002186
C     2.039578   -2.275171   -1.134390   -0.000552    0.006492    0.007474
C    -1.183348   -4.581796    0.370352   -0.001160   -0.001372    0.001636
O    -5.625355   -2.416723   -1.699054   -0.003726   -0.002454   -0.000862
O    -0.717816    1.268325   -4.218758    0.007216    0.010974   -0.012332
O     1.364077    5.420006   -6.072772   -0.001420   -0.001246    0.002576
O     6.072795    1.662345   -3.190780   -0.000736   -0.001760   -0.001950
O     0.798485   -2.312689   -1.594227   -0.000352   -0.002096   -0.000868
O    -1.461671   -5.703759    1.167010   -0.002450   -0.003768    0.001744
H    -5.747207    2.125121   -2.299955   -0.000900   -0.000118    0.000246
H    -1.332065    5.708796   -4.585956   -0.000256   -0.003828   -0.001632
H     4.488520    4.078184   -2.991598   -0.003630   -0.008506   -0.002632
H     5.448963   -0.540778    0.922153   -0.003958   -0.001414   -0.003744
H     1.067088   -4.576975    2.471775    0.001080   -0.000452    0.003758
H    -4.799313   -2.587758    1.602805   -0.001410   -0.001678    0.003890
H    -6.625917    1.229150   -0.149810   -0.002146    0.000432   -0.006718
H    -3.640628    5.706528   -3.805381    0.002060   -0.003840   -0.004152
H     3.322712    6.275193   -2.955398   -0.000228   -0.006622   -0.005078
H     5.774200    1.917153    1.002401   -0.002702   -0.003458   -0.006182
H     3.369897   -3.827869    2.908342   -0.001968   -0.000370   -0.001024
H    -3.565071   -3.183955    3.653475   -0.004114   -0.001288   -0.002738
H    -5.305282    3.667257   -0.236909    0.006814   -0.006328    0.006930
H    -1.828256    6.827408   -1.970669   -0.008032   -0.000562    0.008850
H     3.747333    5.166703   -0.383952    0.005282   -0.001594    0.002194
H     4.483988    0.589086    2.808998   -0.009362   -0.002594    0.000572
H     1.419190   -2.642491    4.551912   -0.003870    0.003280   -0.003764
H    -4.204106   -0.479233    3.274227    0.002672   -0.000194   -0.004332
H    -3.717313    1.479033    0.736858   -0.009194    0.015230    0.001496
H    -2.613828    4.469593   -1.204090   -0.001468    0.006418    0.000504
H     1.310909    4.775563   -1.205261    0.001650   -0.001666   -0.002630
H     2.764515    2.027646    0.480137   -0.002204    0.005080   -0.011640
H     2.289473   -0.967846    2.778132    0.005100    0.003000    0.010504
H    -1.576034   -1.043531    2.760208   -0.006324    0.005970    0.015688
H    -5.519281    1.823879    2.316524    0.014112    0.000644    0.008590
H    -4.590115    5.871646   -1.312964   -0.002486   -0.003276    0.009798
H     1.888737    7.184137   -0.929599   -0.004606    0.002308    0.000876
H     3.887603    3.721098    1.778825    0.006716   -0.007848   -0.000100
H     4.224774   -1.634416    4.108584   -0.007564    0.005914    0.002300
H    -1.976114   -1.511591    5.099077    0.004808    0.010776   -0.003618
H    -5.478370   -1.003653    0.462301    0.000578    0.003796   -0.008962
H    -4.274683    3.141281   -3.410417    0.006310   -0.002366   -0.002586
H     0.810755    6.172424   -3.864582   -0.000332   -0.004212   -0.004704
H     5.064836    2.963981   -1.300942   -0.003674    0.000710   -0.007250
H     4.136597   -2.325445    0.751221    0.002262   -0.001208    0.001954
H    -1.124730   -4.053780    3.003238   -0.004694    0.000718   -0.003998
H    -3.146537   -0.175260   -1.326889    0.003146   -0.021508   -0.041996
H     0.881265    3.159223   -3.632858    0.000160   -0.004308   -0.012484
H     3.270084    0.516964   -1.717899   -0.002888    0.002218   -0.028662
H     1.165562   -1.599021    0.667499    0.009838   -0.043256    0.072620
H    -1.305400   -2.416328    0.430193   -0.018450   -0.026728   -0.031076
H    -3.702174   -2.630678   -1.156315   -0.006512   -0.005878    0.003146
H    -3.933819   -1.937820   -2.788231    0.010834   -0.007144    0.006260
H     1.568653    3.364663   -6.027717   -0.008216   -0.003520    0.001262
H    -0.042930    4.031179   -5.685455   -0.002088   -0.000344    0.002600
H     4.156923    1.546568   -3.781633   -0.008006   -0.009576    0.002366
H     4.918354   -0.035553   -3.456137   -0.006280   -0.000306   -0.002880
H    -1.701112   -4.650650   -0.593031    0.005792   -0.002958   -0.002694
H    -0.107864   -4.572826    0.198195   -0.001218   -0.004012    0.001404
H    -6.173626   -1.827906   -2.238062   -0.002386    0.007964    0.012058
H     2.328361    5.499770   -6.087111   -0.000980    0.002362   -0.009354
H     6.723076    1.148642   -2.690237   -0.002542   -0.003212    0.002354
H    -2.422623   -5.783155    1.255536   -0.002968    0.011966    0.008262
C     0.560026   -2.065630   -2.974924    0.002126    0.047168    0.023598
H    -0.016658   -2.908470   -3.371364   -0.142978    0.149206    0.022770
H     1.506484   -1.962852   -3.508370    0.005212   -0.059798   -0.004118
O     3.030196   -2.225635   -1.815161    0.002988   -0.007360    0.008038
C    -0.224171   -0.037808   -4.437386   -0.010432    0.003524    0.035126
H     0.794263    0.068263   -4.809016   -0.052842   -0.020632   -0.091586
H    -0.854654   -0.584472   -5.156198   -0.087952   -0.066828    0.175410
O    -2.901796    0.723082   -4.295330    0.003604    0.001660   -0.005398
C    -0.311268   -0.817753   -3.119403    0.265752    0.286084    0.224402
O     1.188204    0.291553   -1.997274    0.074224   -0.106736   -0.473226
O     0.747159    1.680498   -2.073179   -0.062060   -0.077032    0.064310
H     0.709954    0.187099   -1.077937   -0.830828   -0.275772    1.594230
O    -0.263661   -0.158163   -0.065747   -0.071666   -0.065156    0.015068
H    -0.875878   -0.543503   -0.734350   -0.021440   -0.004364   -0.262030
C    -0.966015    0.984534    0.458165   -0.010174    0.042322    0.021146
O    -1.267434   -0.584551   -2.373201    0.007744    0.042714    0.081604
H    -1.357171    1.583144   -0.374101   -0.005416    0.039088    0.034542
H     1.600402    2.152074   -1.906117   -0.088408   -0.049260   -0.042078
H    -1.809624    0.604111    1.047124    0.024688   -0.066994   -0.012730
C    -0.067120    1.814929    1.333229    0.002462    0.006624    0.006166
C     0.144896    3.158991    1.056026   -0.001134    0.003854    0.000002
C     0.535022    1.242321    2.447487   -0.000068   -0.003734    0.002264
C     0.931564    3.928226    1.896606   -0.000116    0.002612   -0.001258
H    -0.313774    3.599741    0.182069   -0.000328    0.006104    0.000916
C     1.332458    2.007913    3.278584    0.000466   -0.002816    0.000516
H     0.364811    0.195168    2.654155    0.001000    0.002942    0.020142
C     1.523015    3.353127    3.008907   -0.001176   -0.002122   -0.001094
H     1.081036    4.973943    1.679549    0.003812    0.003096    0.001824
H     1.798408    1.561709    4.142268    0.004896    0.005662    0.000500
H     2.129850    3.951060    3.670540   -0.001890    0.000806   -0.003468
H    -1.360929    2.838737   -2.508971    0.005698   -0.000920   -0.005782
150
* Frequency(6) -548.9500
C    -5.075527    1.631050   -1.586966   -0.002734   -0.003866   -0.001482
C    -1.582654    5.067443   -3.731149   -0.003034   -0.002178   -0.001504
C     3.417332    4.138757   -2.761018   -0.002254   -0.003882    0.002402
C     4.721024    0.126705    0.445934   -0.007574   -0.002224    0.000614
C     1.345458   -3.545819    2.220149   -0.002592   -0.001122    0.003780
C    -3.738883   -2.314601    1.685447   -0.002996    0.000024   -0.000322
O    -3.796771    2.219162   -1.612109    0.003170    0.001430   -0.000780
O    -0.557617    5.057844   -2.786208    0.001108   -0.002616   -0.002044
O     3.067077    3.121006   -1.830636   -0.006124    0.000528   -0.002538
O     3.417555   -0.385174    0.561228   -0.000142    0.002314    0.003748
O     0.305785   -2.652519    2.479517    0.000446    0.000020   -0.007762
O    -3.503427   -1.063767    1.089004    0.000078    0.001300    0.000488
C    -5.648227    1.728907   -0.160545   -0.000918   -0.002358   -0.000030
C    -2.865639    5.574500   -3.042466   -0.001652   -0.002294    0.000032
C     3.068170    5.526784   -2.196292   -0.000698   -0.001804   -0.000600
C     4.753082    1.515694    1.101394   -0.002334   -0.001498    0.000566
C     2.570252   -3.091893    3.045561   -0.001730   -0.001250    0.002344
C    -3.323151   -2.233775    3.163217   -0.002778   -0.000072    0.000834
O    -5.846853    3.042126    0.282616   -0.002576   -0.000890   -0.001084
O    -2.679748    6.822296   -2.437909   -0.001472   -0.001770   -0.003110
O     3.794143    5.877619   -1.054526   -0.002832   -0.002490   -0.002320
O     4.380293    1.490226    2.453552   -0.003250   -0.000528   -0.002518
O     2.290591   -3.050661    4.416031   -0.001946    0.000784    0.001116
O    -4.012444   -1.233246    3.861668   -0.001364    0.000570    0.000336
C    -4.692868    0.974904    0.777043    0.000952    0.000658    0.001974
C    -3.357112    4.540474   -2.013762   -0.002446    0.000048    0.001488
C     1.558413    5.559723   -1.937238   -0.000802    0.002184   -0.000750
C     3.780275    2.425935    0.340239   -0.000574   -0.000502   -0.001440
C     3.062605   -1.716660    2.552190   -0.000604    0.000472    0.002662
C    -1.804496   -2.010831    3.232784   -0.001064    0.001558    0.002742
O    -5.160481    0.946913    2.103905   -0.001938   -0.001358    0.000750
O    -4.604859    4.914705   -1.482649   -0.001302   -0.000652   -0.002708
O     1.153164    6.812838   -1.443857   -0.001370   -0.002916   -0.002774
O     3.846762    3.749497    0.810506   -0.003374   -0.000106   -0.001672
O     4.270447   -1.347129    3.180887    0.000366    0.001366    0.001946
O    -1.346075   -2.017427    4.560643   -0.000456   -0.000574    0.003340
C    -4.531012   -0.473530    0.300076    0.003086   -0.000108    0.000916
C    -3.489971    3.143262   -2.646220   -0.002146   -0.002826    0.005890
C     0.781866    5.274538   -3.230104   -0.001444   -0.000674   -0.000008
C     4.115849    2.434929   -1.155296    0.000556   -0.005162   -0.000134
C     3.268985   -1.715269    1.028538    0.002884   -0.003714    0.002662
C    -1.046998   -3.101246    2.461848   -0.002860    0.000730   -0.000070
C    -4.173544   -0.525319   -1.196039    0.002026   -0.002312   -0.000962
C    -2.134825    2.822825   -3.290898   -0.003562   -0.000318    0.002842
C     1.342495    4.072225   -4.020116    0.001074    0.003456   -0.002788
C     4.252600    1.001180   -1.700992    0.005040   -0.004016   -0.000906
C     1.992640   -2.267355    0.389571    0.004192   -0.006558    0.007020
C    -1.624643   -3.269388    1.041450   -0.005698   -0.002604   -0.000780
O    -5.045236    0.289173   -1.977210   -0.003488   -0.000620   -0.003628
O    -1.817354    3.788170   -4.281988   -0.001212   -0.004462   -0.002534
O     2.773774    3.949985   -3.976889   -0.003262   -0.000648   -0.004320
O     5.129652    0.223101   -0.890596    0.000366   -0.000744   -0.002598
O     1.700712   -3.574006    0.850268    0.003048   -0.007316   -0.001128
O    -3.052825   -3.352177    1.048913   -0.005050   -0.003444   -0.000316
C    -4.303891   -1.946496   -1.757267   -0.001484   -0.002648    0.003002
C    -2.005364    1.460685   -3.978234   -0.000132    0.003712    0.001880
C     1.025769    4.171007   -5.525068   -0.001536    0.004560   -0.000988
C     4.835687    1.003854   -3.120680   -0.000146   -0.001572    0.002186
C     2.039613   -2.275580   -1.134861   -0.000552    0.006492    0.007474
C    -1.183275   -4.581709    0.370249   -0.001160   -0.001372    0.001636
O    -5.625120   -2.416568   -1.699000   -0.003726   -0.002454   -0.000862
O    -0.718271    1.267634   -4.217981    0.007216    0.010974   -0.012332
O     1.364166    5.420084   -6.072935   -0.001420   -0.001246    0.002576
O     6.072841    1.662456   -3.190657   -0.000736   -0.001760   -0.001950
O     0.798507   -2.312557   -1.594173   -0.000352   -0.002096   -0.000868
O    -1.461517   -5.703521    1.166900   -0.002450   -0.003768    0.001744
H    -5.747151    2.125129   -2.299971   -0.000900   -0.000118    0.000246
H    -1.332049    5.709037   -4.585853   -0.000256   -0.003828   -0.001632
H     4.488748    4.078720   -2.991432   -0.003630   -0.008506   -0.002632
H     5.449213   -0.540689    0.922389   -0.003958   -0.001414   -0.003744
H     1.067020   -4.576946    2.471538    0.001080   -0.000452    0.003758
H    -4.799224   -2.587652    1.602560   -0.001410   -0.001678    0.003890
H    -6.625782    1.229123   -0.149387   -0.002146    0.000432   -0.006718
H    -3.640758    5.706770   -3.805119    0.002060   -0.003840   -0.004152
H     3.322726    6.275610   -2.955078   -0.000228   -0.006622   -0.005078
H     5.774370    1.917371    1.002790   -0.002702   -0.003458   -0.006182
H     3.370021   -3.827845    2.908406   -0.001968   -0.000370   -0.001024
H    -3.564811   -3.183874    3.653648   -0.004114   -0.001288   -0.002738
H    -5.305711    3.667656   -0.237346    0.006814   -0.006328    0.006930
H    -1.827750    6.827443   -1.971227   -0.008032   -0.000562    0.008850
H     3.747000    5.166804   -0.384090    0.005282   -0.001594    0.002194
H     4.484578    0.589249    2.808962   -0.009362   -0.002594    0.000572
H     1.419433   -2.642697    4.552149   -0.003870    0.003280   -0.003764
H    -4.204274   -0.479221    3.274499    0.002672   -0.000194   -0.004332
H    -3.716733    1.478073    0.736764   -0.009194    0.015230    0.001496
H    -2.613735    4.469189   -1.204122   -0.001468    0.006418    0.000504
H     1.310805    4.775668   -1.205095    0.001650   -0.001666   -0.002630
H     2.764653    2.027326    0.480871   -0.002204    0.005080   -0.011640
H     2.289151   -0.968035    2.777470    0.005100    0.003000    0.010504
H    -1.575635   -1.043908    2.759220   -0.006324    0.005970    0.015688
H    -5.520170    1.823839    2.315983    0.014112    0.000644    0.008590
H    -4.589958    5.871852   -1.313581   -0.002486   -0.003276    0.009798
H     1.889027    7.183991   -0.929654   -0.004606    0.002308    0.000876
H     3.887179    3.721592    1.778831    0.006716   -0.007848   -0.000100
H     4.225250   -1.634789    4.108439   -0.007564    0.005914    0.002300
H    -1.976417   -1.512270    5.099305    0.004808    0.010776   -0.003618
H    -5.478406   -1.003893    0.462866    0.000578    0.003796   -0.008962
H    -4.275080    3.141430   -3.410254    0.006310   -0.002366   -0.002586
H     0.810776    6.172689   -3.864285   -0.000332   -0.004212   -0.004704
H     5.065068    2.963936   -1.300485   -0.003674    0.000710   -0.007250
H     4.136454   -2.325369    0.751098    0.002262   -0.001208    0.001954
H    -1.124434   -4.053825    3.003490   -0.004694    0.000718   -0.003998
H    -3.146735   -0.173904   -1.324242    0.003146   -0.021508   -0.041996
H     0.881255    3.159495   -3.632072    0.000160   -0.004308   -0.012484
H     3.270266    0.516824   -1.716093   -0.002888    0.002218   -0.028662
H     1.164942   -1.596296    0.662923    0.009838   -0.043256    0.072620
H    -1.304237   -2.414644    0.432152   -0.018450   -0.026728   -0.031076
H    -3.701764   -2.630308   -1.156513   -0.006512   -0.005878    0.003146
H    -3.934502   -1.937370   -2.788625    0.010834   -0.007144    0.006260
H     1.569170    3.364885   -6.027796   -0.008216   -0.003520    0.001262
H    -0.042799    4.031200   -5.685618   -0.002088   -0.000344    0.002600
H     4.157427    1.547171   -3.781782   -0.008006   -0.009576    0.002366
H     4.918750   -0.035534   -3.455956   -0.006280   -0.000306   -0.002880
H    -1.701477   -4.650464   -0.592862    0.005792   -0.002958   -0.002694
H    -0.107788   -4.572573    0.198107   -0.001218   -0.004012    0.001404
H    -6.173475   -1.828408   -2.238822   -0.002386    0.007964    0.012058
H     2.328423    5.499621   -6.086522   -0.000980    0.002362   -0.009354
H     6.723236    1.148845   -2.690386   -0.002542   -0.003212    0.002354
H    -2.422436   -5.783909    1.255015   -0.002968    0.011966    0.008262
C     0.559892   -2.068602   -2.976411    0.002126    0.047168    0.023598
H    -0.007648   -2.917873   -3.372799   -0.142978    0.149206    0.022770
H     1.506155   -1.959084   -3.508110    0.005212   -0.059798   -0.004118
O     3.030007   -2.225171   -1.815667    0.002988   -0.007360    0.008038
C    -0.223513   -0.038031   -4.439600   -0.010432    0.003524    0.035126
H     0.797593    0.069563   -4.803245   -0.052842   -0.020632   -0.091586
H    -0.849112   -0.580260   -5.167252   -0.087952   -0.066828    0.175410
O    -2.902023    0.722977   -4.294990    0.003604    0.001660   -0.005398
C    -0.328015   -0.835781   -3.133544    0.265752    0.286084    0.224402
O     1.183527    0.298279   -1.967452    0.074224   -0.106736   -0.473226
O     0.751070    1.685352   -2.077232   -0.062060   -0.077032    0.064310
H     0.762311    0.204478   -1.178401   -0.830828   -0.275772    1.594230
O    -0.259145   -0.154057   -0.066697   -0.071666   -0.065156    0.015068
H    -0.874527   -0.543228   -0.717838   -0.021440   -0.004364   -0.262030
C    -0.965374    0.981867    0.456832   -0.010174    0.042322    0.021146
O    -1.267922   -0.587243   -2.378344    0.007744    0.042714    0.081604
H    -1.356830    1.580680   -0.376277   -0.005416    0.039088    0.034542
H     1.605974    2.155178   -1.903465   -0.088408   -0.049260   -0.042078
H    -1.811180    0.608333    1.047926    0.024688   -0.066994   -0.012730
C    -0.067275    1.814512    1.332841    0.002462    0.006624    0.006166
C     0.144967    3.158748    1.056026   -0.001134    0.003854    0.000002
C     0.535026    1.242556    2.447344   -0.000068   -0.003734    0.002264
C     0.931571    3.928062    1.896685   -0.000116    0.002612   -0.001258
H    -0.313753    3.599357    0.182011   -0.000328    0.006104    0.000916
C     1.332429    2.008091    3.278552    0.000466   -0.002816    0.000516
H     0.364748    0.194983    2.652886    0.001000    0.002942    0.020142
C     1.523089    3.353261    3.008976   -0.001176   -0.002122   -0.001094
H     1.080796    4.973748    1.679434    0.003812    0.003096    0.001824
H     1.798100    1.561352    4.142237    0.004896    0.005662    0.000500
H     2.129969    3.951010    3.670759   -0.001890    0.000806   -0.003468
H    -1.361288    2.838795   -2.508607    0.005698   -0.000920   -0.005782
150
* Frequency(6) -548.9500
C    -5.075449    1.631159   -1.586924   -0.002734   -0.003866   -0.001482
C    -1.582568    5.067505   -3.731106   -0.003034   -0.002178   -0.001504
C     3.417396    4.138867   -2.761086   -0.002254   -0.003882    0.002402
C     4.721238    0.126768    0.445917   -0.007574   -0.002224    0.000614
C     1.345531   -3.545788    2.220043   -0.002592   -0.001122    0.003780
C    -3.738798   -2.314601    1.685456   -0.002996    0.000024   -0.000322
O    -3.796861    2.219121   -1.612087    0.003170    0.001430   -0.000780
O    -0.557648    5.057918   -2.786150    0.001108   -0.002616   -0.002044
O     3.067250    3.120991   -1.830564   -0.006124    0.000528   -0.002538
O     3.417559   -0.385239    0.561122   -0.000142    0.002314    0.003748
O     0.305772   -2.652520    2.479736    0.000446    0.000020   -0.007762
O    -3.503429   -1.063803    1.088990    0.000078    0.001300    0.000488
C    -5.648201    1.728973   -0.160545   -0.000918   -0.002358   -0.000030
C    -2.865593    5.574565   -3.042467   -0.001652   -0.002294    0.000032
C     3.068189    5.526835   -2.196275   -0.000698   -0.001804   -0.000600
C     4.753148    1.515737    1.101378   -0.002334   -0.001498    0.000566
C     2.570300   -3.091858    3.045494   -0.001730   -0.001250    0.002344
C    -3.323072   -2.233773    3.163193   -0.002778   -0.000072    0.000834
O    -5.846780    3.042151    0.282647   -0.002576   -0.000890   -0.001084
O    -2.679707    6.822346   -2.437821   -0.001472   -0.001770   -0.003110
O     3.794223    5.877690   -1.054461   -0.002832   -0.002490   -0.002320
O     4.380385    1.490241    2.453623   -0.003250   -0.000528   -0.002518
O     2.290646   -3.050683    4.416000   -0.001946    0.000784    0.001116
O    -4.012405   -1.233262    3.861659   -0.001364    0.000570    0.000336
C    -4.692895    0.974885    0.776987    0.000952    0.000658    0.001974
C    -3.357043    4.540472   -2.013804   -0.002446    0.000048    0.001488
C     1.558436    5.559661   -1.937216   -0.000802    0.002184   -0.000750
C     3.780291    2.425949    0.340279   -0.000574   -0.000502   -0.001440
C     3.062622   -1.716674    2.552114   -0.000604    0.000472    0.002662
C    -1.804466   -2.010875    3.232707   -0.001064    0.001558    0.002742
O    -5.160426    0.946952    2.103883   -0.001938   -0.001358    0.000750
O    -4.604822    4.914723   -1.482572   -0.001302   -0.000652   -0.002708
O     1.153203    6.812920   -1.443778   -0.001370   -0.002916   -0.002774
O     3.846858    3.749500    0.810553   -0.003374   -0.000106   -0.001672
O     4.270436   -1.347167    3.180832    0.000366    0.001366    0.001946
O    -1.346062   -2.017411    4.560549   -0.000456   -0.000574    0.003340
C    -4.531099   -0.473527    0.300050    0.003086   -0.000108    0.000916
C    -3.489910    3.143342   -2.646386   -0.002146   -0.002826    0.005890
C     0.781907    5.274557   -3.230104   -0.001444   -0.000674   -0.000008
C     4.115833    2.435075   -1.155292    0.000556   -0.005162   -0.000134
C     3.268903   -1.715164    1.028462    0.002884   -0.003714    0.002662
C    -1.046917   -3.101267    2.461850   -0.002860    0.000730   -0.000070
C    -4.173602   -0.525254   -1.196011    0.002026   -0.002312   -0.000962
C    -2.134725    2.822834   -3.290978   -0.003562   -0.000318    0.002842
C     1.342464    4.072128   -4.020038    0.001074    0.003456   -0.002788
C     4.252457    1.001294   -1.700966    0.005040   -0.004016   -0.000906
C     1.992522   -2.267170    0.389372    0.004192   -0.006558    0.007020
C    -1.624482   -3.269315    1.041472   -0.005698   -0.002604   -0.000780
O    -5.045137    0.289190   -1.977108   -0.003488   -0.000620   -0.003628
O    -1.817319    3.788296   -4.281916   -0.001212   -0.004462   -0.002534
O     2.773866    3.950003   -3.976767   -0.003262   -0.000648   -0.004320
O     5.129641    0.223123   -0.890523    0.000366   -0.000744   -0.002598
O     1.700626   -3.573799    0.850299    0.003048   -0.007316   -0.001128
O    -3.052683   -3.352080    1.048922   -0.005050   -0.003444   -0.000316
C    -4.303849   -1.946421   -1.757352   -0.001484   -0.002648    0.003002
C    -2.005360    1.460580   -3.978287   -0.000132    0.003712    0.001880
C     1.025813    4.170878   -5.525040   -0.001536    0.004560   -0.000988
C     4.835691    1.003898   -3.120741   -0.000146   -0.001572    0.002186
C     2.039629   -2.275763   -1.135072   -0.000552    0.006492    0.007474
C    -1.183242   -4.581670    0.370202   -0.001160   -0.001372    0.001636
O    -5.625014   -2.416499   -1.698975   -0.003726   -0.002454   -0.000862
O    -0.718475    1.267323   -4.217633    0.007216    0.010974   -0.012332
O     1.364206    5.420120   -6.073008   -0.001420   -0.001246    0.002576
O     6.072862    1.662506   -3.190602   -0.000736   -0.001760   -0.001950
O     0.798517   -2.312498   -1.594148   -0.000352   -0.002096   -0.000868
O    -1.461447   -5.703415    1.166851   -0.002450   -0.003768    0.001744
H    -5.747125    2.125132   -2.299978   -0.000900   -0.000118    0.000246
H    -1.332042    5.709145   -4.585807   -0.000256   -0.003828   -0.001632
H     4.488851    4.078961   -2.991358   -0.003630   -0.008506   -0.002632
H     5.449325   -0.540649    0.922495   -0.003958   -0.001414   -0.003744
H     1.066989   -4.576933    2.471432    0.001080   -0.000452    0.003758
H    -4.799184   -2.587605    1.602450   -0.001410   -0.001678    0.003890
H    -6.625721    1.229110   -0.149197   -0.002146    0.000432   -0.006718
H    -3.640817    5.706878   -3.805002    0.002060   -0.003840   -0.004152
H     3.322733    6.275798   -2.954935   -0.000228   -0.006622   -0.005078
H     5.774446    1.917469    1.002965   -0.002702   -0.003458   -0.006182
H     3.370076   -3.827835    2.908435   -0.001968   -0.000370   -0.001024
H    -3.564695   -3.183838    3.653725   -0.004114   -0.001288   -0.002738
H    -5.305904    3.667835   -0.237542    0.006814   -0.006328    0.006930
H    -1.827522    6.827459   -1.971477   -0.008032   -0.000562    0.008850
H     3.746851    5.166849   -0.384152    0.005282   -0.001594    0.002194
H     4.484843    0.589323    2.808945   -0.009362   -0.002594    0.000572
H     1.419543   -2.642790    4.552256   -0.003870    0.003280   -0.003764
H    -4.204350   -0.479215    3.274622    0.002672   -0.000194   -0.004332
H    -3.716473    1.477643    0.736721   -0.009194    0.015230    0.001496
H    -2.613694    4.469007   -1.204136   -0.001468    0.006418    0.000504
H     1.310758    4.775715   -1.205021    0.001650   -0.001666   -0.002630
H     2.764716    2.027182    0.481200   -0.002204    0.005080   -0.011640
H     2.289007   -0.968119    2.777173    0.005100    0.003000    0.010504
H    -1.575456   -1.044076    2.758776   -0.006324    0.005970    0.015688
H    -5.520569    1.823820    2.315740    0.014112    0.000644    0.008590
H    -4.589888    5.871945   -1.313859   -0.002486   -0.003276    0.009798
H     1.889158    7.183926   -0.929679   -0.004606    0.002308    0.000876
H     3.886989    3.721814    1.778834    0.006716   -0.007848   -0.000100
H     4.225464   -1.634956    4.108374   -0.007564    0.005914    0.002300
H    -1.976553   -1.512575    5.099407    0.004808    0.010776   -0.003618
H    -5.478423   -1.004000    0.463119    0.000578    0.003796   -0.008962
H    -4.275259    3.141497   -3.410181    0.006310   -0.002366   -0.002586
H     0.810786    6.172808   -3.864152   -0.000332   -0.004212   -0.004704
H     5.065172    2.963916   -1.300280   -0.003674    0.000710   -0.007250
H     4.136390   -2.325335    0.751042    0.002262   -0.001208    0.001954
H    -1.124302   -4.053845    3.003604   -0.004694    0.000718   -0.003998
H    -3.146824   -0.173296   -1.323055    0.003146   -0.021508   -0.041996
H     0.881250    3.159617   -3.631719    0.000160   -0.004308   -0.012484
H     3.270347    0.516761   -1.715283   -0.002888    0.002218   -0.028662
H     1.164663   -1.595072    0.660869    0.009838   -0.043256    0.072620
H    -1.303716   -2.413888    0.433030   -0.018450   -0.026728   -0.031076
H    -3.701580   -2.630142   -1.156602   -0.006512   -0.005878    0.003146
H    -3.934808   -1.937168   -2.788803    0.010834   -0.007144    0.006260
H     1.569403    3.364985   -6.027832   -0.008216   -0.003520    0.001262
H    -0.042740    4.031210   -5.685692   -0.002088   -0.000344    0.002600
H     4.157654    1.547442   -3.781849   -0.008006   -0.009576    0.002366
H     4.918927   -0.035525   -3.455874   -0.006280   -0.000306   -0.002880
H    -1.701641   -4.650380   -0.592785    0.005792   -0.002958   -0.002694
H    -0.107753   -4.572460    0.198067   -0.001218   -0.004012    0.001404
H    -6.173408   -1.828633   -2.239163   -0.002386    0.007964    0.012058
H     2.328451    5.499554   -6.086257   -0.000980    0.002362   -0.009354
H     6.723308    1.148935   -2.690452   -0.002542   -0.003212    0.002354
H    -2.422352   -5.784248    1.254781   -0.002968    0.011966    0.008262
C     0.559831   -2.069936   -2.977078    0.002126    0.047168    0.023598
H    -0.003604   -2.922093   -3.373443   -0.142978    0.149206    0.022770
H     1.506008   -1.957392   -3.507994    0.005212   -0.059798   -0.004118
O     3.029923   -2.224963   -1.815895    0.002988   -0.007360    0.008038
C    -0.223218   -0.038130   -4.440593   -0.010432    0.003524    0.035126
H     0.799088    0.070147   -4.800654   -0.052842   -0.020632   -0.091586
H    -0.846624   -0.578370   -5.172213   -0.087952   -0.066828    0.175410
O    -2.902125    0.722930   -4.294837    0.003604    0.001660   -0.005398
C    -0.335532   -0.843872   -3.139891    0.265752    0.286084    0.224402
O     1.181427    0.301298   -1.954068    0.074224   -0.106736   -0.473226
O     0.752825    1.687531   -2.079051   -0.062060   -0.077032    0.064310
H     0.785810    0.212278   -1.223492   -0.830828   -0.275772    1.594230
O    -0.257118   -0.152214   -0.067123   -0.071666   -0.065156    0.015068
H    -0.873921   -0.543105   -0.710427   -0.021440   -0.004364   -0.262030
C    -0.965086    0.980670    0.456234   -0.010174    0.042322    0.021146
O    -1.268141   -0.588451   -2.380652    0.007744    0.042714    0.081604
H    -1.356677    1.579575   -0.377254   -0.005416    0.039088    0.034542
H     1.608474    2.156571   -1.902275   -0.088408   -0.049260   -0.042078
H    -1.811878    0.610228    1.048286    0.024688   -0.066994   -0.012730
C    -0.067345    1.814325    1.332666    0.002462    0.006624    0.006166
C     0.145000    3.158639    1.056026   -0.001134    0.003854    0.000002
C     0.535028    1.242661    2.447280   -0.000068   -0.003734    0.002264
C     0.931574    3.927988    1.896721   -0.000116    0.002612   -0.001258
H    -0.313744    3.599184    0.181985   -0.000328    0.006104    0.000916
C     1.332415    2.008170    3.278537    0.000466   -0.002816    0.000516
H     0.364720    0.194900    2.652316    0.001000    0.002942    0.020142
C     1.523122    3.353321    3.009007   -0.001176   -0.002122   -0.001094
H     1.080688    4.973660    1.679383    0.003812    0.003096    0.001824
H     1.797961    1.561192    4.142223    0.004896    0.005662    0.000500
H     2.130022    3.950987    3.670857   -0.001890    0.000806   -0.003468
H    -1.361449    2.838821   -2.508443    0.005698   -0.000920   -0.005782
150
* Frequency(6) -548.9500
C    -5.075475    1.631123   -1.586938   -0.002734   -0.003866   -0.001482
C    -1.582597    5.067484   -3.731121   -0.003034   -0.002178   -0.001504
C     3.417375    4.138830   -2.761063   -0.002254   -0.003882    0.002402
C     4.721166    0.126747    0.445923   -0.007574   -0.002224    0.000614
C     1.345506   -3.545798    2.220078   -0.002592   -0.001122    0.003780
C    -3.738826   -2.314601    1.685453   -0.002996    0.000024   -0.000322
O    -3.796831    2.219135   -1.612094    0.003170    0.001430   -0.000780
O    -0.557638    5.057894   -2.786169    0.001108   -0.002616   -0.002044
O     3.067192    3.120996   -1.830588   -0.006124    0.000528   -0.002538
O     3.417557   -0.385217    0.561157   -0.000142    0.002314    0.003748
O     0.305777   -2.652520    2.479663    0.000446    0.000020   -0.007762
O    -3.503428   -1.063791    1.088994    0.000078    0.001300    0.000488
C    -5.648210    1.728951   -0.160545   -0.000918   -0.002358   -0.000030
C    -2.865608    5.574543   -3.042467   -0.001652   -0.002294    0.000032
C     3.068183    5.526818   -2.196280   -0.000698   -0.001804   -0.000600
C     4.753126    1.515722    1.101383   -0.002334   -0.001498    0.000566
C     2.570284   -3.091870    3.045517   -0.001730   -0.001250    0.002344
C    -3.323098   -2.233774    3.163201   -0.002778   -0.000072    0.000834
O    -5.846805    3.042143    0.282637   -0.002576   -0.000890   -0.001084
O    -2.679721    6.822330   -2.437851   -0.001472   -0.001770   -0.003110
O     3.794196    5.877666   -1.054483   -0.002832   -0.002490   -0.002320
O     4.380354    1.490236    2.453599   -0.003250   -0.000528   -0.002518
O     2.290627   -3.050676    4.416010   -0.001946    0.000784    0.001116
O    -4.012418   -1.233256    3.861662   -0.001364    0.000570    0.000336
C    -4.692886    0.974892    0.777006    0.000952    0.000658    0.001974
C    -3.357066    4.540473   -2.013790   -0.002446    0.000048    0.001488
C     1.558428    5.559682   -1.937224   -0.000802    0.002184   -0.000750
C     3.780286    2.425944    0.340266   -0.000574   -0.000502   -0.001440
C     3.062616   -1.716669    2.552140   -0.000604    0.000472    0.002662
C    -1.804476   -2.010861    3.232733   -0.001064    0.001558    0.002742
O    -5.160444    0.946939    2.103891   -0.001938   -0.001358    0.000750
O    -4.604834    4.914717   -1.482598   -0.001302   -0.000652   -0.002708
O     1.153190    6.812892   -1.443805   -0.001370   -0.002916   -0.002774
O     3.846826    3.749499    0.810537   -0.003374   -0.000106   -0.001672
O     4.270440   -1.347154    3.180851    0.000366    0.001366    0.001946
O    -1.346066   -2.017416    4.560581   -0.000456   -0.000574    0.003340
C    -4.531070   -0.473528    0.300059    0.003086   -0.000108    0.000916
C    -3.489931    3.143315   -2.646330   -0.002146   -0.002826    0.005890
C     0.781893    5.274551   -3.230104   -0.001444   -0.000674   -0.000008
C     4.115838    2.435025   -1.155294    0.000556   -0.005162   -0.000134
C     3.268930   -1.715199    1.028488    0.002884   -0.003714    0.002662
C    -1.046945   -3.101260    2.461850   -0.002860    0.000730   -0.000070
C    -4.173582   -0.525276   -1.196021    0.002026   -0.002312   -0.000962
C    -2.134758    2.822831   -3.290951   -0.003562   -0.000318    0.002842
C     1.342475    4.072160   -4.020064    0.001074    0.003456   -0.002788
C     4.252505    1.001256   -1.700975    0.005040   -0.004016   -0.000906
C     1.992562   -2.267232    0.389439    0.004192   -0.006558    0.007020
C    -1.624536   -3.269339    1.041465   -0.005698   -0.002604   -0.000780
O    -5.045171    0.289184   -1.977142   -0.003488   -0.000620   -0.003628
O    -1.817331    3.788254   -4.281940   -0.001212   -0.004462   -0.002534
O     2.773835    3.949997   -3.976808   -0.003262   -0.000648   -0.004320
O     5.129645    0.223115   -0.890548    0.000366   -0.000744   -0.002598
O     1.700655   -3.573869    0.850289    0.003048   -0.007316   -0.001128
O    -3.052731   -3.352112    1.048919   -0.005050   -0.003444   -0.000316
C    -4.303863   -1.946447   -1.757324   -0.001484   -0.002648    0.003002
C    -2.005361    1.460616   -3.978269   -0.000132    0.003712    0.001880
C     1.025798    4.170922   -5.525050   -0.001536    0.004560   -0.000988
C     4.835690    1.003883   -3.120721   -0.000146   -0.001572    0.002186
C     2.039623   -2.275702   -1.135001   -0.000552    0.006492    0.007474
C    -1.183253   -4.581683    0.370218   -0.001160   -0.001372    0.001636
O    -5.625050   -2.416522   -1.698984   -0.003726   -0.002454   -0.000862
O    -0.718406    1.267428   -4.217750    0.007216    0.010974   -0.012332
O     1.364193    5.420108   -6.072983   -0.001420   -0.001246    0.002576
O     6.072855    1.662489   -3.190620   -0.000736   -0.001760   -0.001950
O     0.798513   -2.312518   -1.594156   -0.000352   -0.002096   -0.000868
O    -1.461471   -5.703451    1.166867   -0.002450   -0.003768    0.001744
H    -5.747134    2.125131   -2.299975   -0.000900   -0.000118    0.000246
H    -1.332044    5.709109   -4.585822   -0.000256   -0.003828   -0.001632
H     4.488817    4.078880   -2.991383   -0.003630   -0.008506   -0.002632
H     5.449287   -0.540662    0.922459   -0.003958   -0.001414   -0.003744
H     1.067000   -4.576938    2.471468    0.001080   -0.000452    0.003758
H    -4.799198   -2.587621    1.602487   -0.001410   -0.001678    0.003890
H    -6.625742    1.229114   -0.149261   -0.002146    0.000432   -0.006718
H    -3.640797    5.706842   -3.805041    0.002060   -0.003840   -0.004152
H     3.322730    6.275735   -2.954983   -0.000228   -0.006622   -0.005078
H     5.774421    1.917436    1.002906   -0.002702   -0.003458   -0.006182
H     3.370058   -3.827838    2.908425   -0.001968   -0.000370   -0.001024
H    -3.564734   -3.183850    3.653699   -0.004114   -0.001288   -0.002738
H    -5.305839    3.667775   -0.237476    0.006814   -0.006328    0.006930
H    -1.827599    6.827454   -1.971393   -0.008032   -0.000562    0.008850
H     3.746901    5.166834   -0.384131    0.005282   -0.001594    0.002194
H     4.484753    0.589298    2.808951   -0.009362   -0.002594    0.000572
H     1.419506   -2.642759    4.552220   -0.003870    0.003280   -0.003764
H    -4.204325   -0.479217    3.274581    0.002672   -0.000194   -0.004332
H    -3.716561    1.477788    0.736735   -0.009194    0.015230    0.001496
H    -2.613708    4.469068   -1.204131   -0.001468    0.006418    0.000504
H     1.310774    4.775699   -1.205046    0.001650   -0.001666   -0.002630
H     2.764695    2.027230    0.481089   -0.002204    0.005080   -0.011640
H     2.289056   -0.968091    2.777273    0.005100    0.003000    0.010504
H    -1.575516   -1.044020    2.758925   -0.006324    0.005970    0.015688
H    -5.520435    1.823826    2.315821    0.014112    0.000644    0.008590
H    -4.589912    5.871914   -1.313765   -0.002486   -0.003276    0.009798
H     1.889114    7.183948   -0.929670   -0.004606    0.002308    0.000876
H     3.887053    3.721740    1.778833    0.006716   -0.007848   -0.000100
H     4.225392   -1.634900    4.108396   -0.007564    0.005914    0.002300
H    -1.976507   -1.512472    5.099373    0.004808    0.010776   -0.003618
H    -5.478417   -1.003964    0.463034    0.000578    0.003796   -0.008962
H    -4.275199    3.141475   -3.410206    0.006310   -0.002366   -0.002586
H     0.810783    6.172768   -3.864197   -0.000332   -0.004212   -0.004704
H     5.065137    2.963923   -1.300349   -0.003674    0.000710   -0.007250
H     4.136412   -2.325346    0.751061    0.002262   -0.001208    0.001954
H    -1.124346   -4.053839    3.003565   -0.004694    0.000718   -0.003998
H    -3.146794   -0.173501   -1.323454    0.003146   -0.021508   -0.041996
H     0.881252    3.159576   -3.631837    0.000160   -0.004308   -0.012484
H     3.270320    0.516782   -1.715555   -0.002888    0.002218   -0.028662
H     1.164757   -1.595484    0.661560    0.009838   -0.043256    0.072620
H    -1.303891   -2.414142    0.432735   -0.018450   -0.026728   -0.031076
H    -3.701642   -2.630198   -1.156572   -0.006512   -0.005878    0.003146
H    -3.934705   -1.937236   -2.788743    0.010834   -0.007144    0.006260
H     1.569325    3.364951   -6.027820   -0.008216   -0.003520    0.001262
H    -0.042760    4.031207   -5.685667   -0.002088   -0.000344    0.002600
H     4.157577    1.547351   -3.781827   -0.008006   -0.009576    0.002366
H     4.918868   -0.035528   -3.455902   -0.006280   -0.000306   -0.002880
H    -1.701586   -4.650408   -0.592811    0.005792   -0.002958   -0.002694
H    -0.107765   -4.572498    0.198081   -0.001218   -0.004012    0.001404
H    -6.173430   -1.828557   -2.239048   -0.002386    0.007964    0.012058
H     2.328442    5.499577   -6.086346   -0.000980    0.002362   -0.009354
H     6.723283    1.148905   -2.690430   -0.002542   -0.003212    0.002354
H    -2.422380   -5.784134    1.254860   -0.002968    0.011966    0.008262
C     0.559852   -2.069488   -2.976854    0.002126    0.047168    0.023598
H    -0.004964   -2.920673   -3.373227   -0.142978    0.149206    0.022770
H     1.506058   -1.957961   -3.508033    0.005212   -0.059798   -0.004118
O     3.029951   -2.225033   -1.815818    0.002988   -0.007360    0.008038
C    -0.223318   -0.038097   -4.440259   -0.010432    0.003524    0.035126
H     0.798585    0.069950   -4.801526   -0.052842   -0.020632   -0.091586
H    -0.847461   -0.579006   -5.170544   -0.087952   -0.066828    0.175410
O    -2.902091    0.722946   -4.294889    0.003604    0.001660   -0.005398
C    -0.333003   -0.841150   -3.137756    0.265752    0.286084    0.224402
O     1.182134    0.300282   -1.958570    0.074224   -0.106736   -0.473226
O     0.752234    1.686798   -2.078439   -0.062060   -0.077032    0.064310
H     0.777905    0.209654   -1.208323   -0.830828   -0.275772    1.594230
O    -0.257799   -0.152834   -0.066979   -0.071666   -0.065156    0.015068
H    -0.874125   -0.543146   -0.712920   -0.021440   -0.004364   -0.262030
C    -0.965183    0.981073    0.456435   -0.010174    0.042322    0.021146
O    -1.268067   -0.588044   -2.379875    0.007744    0.042714    0.081604
H    -1.356728    1.579947   -0.376926   -0.005416    0.039088    0.034542
H     1.607633    2.156102   -1.902675   -0.088408   -0.049260   -0.042078
H    -1.811643    0.609590    1.048165    0.024688   -0.066994   -0.012730
C    -0.067321    1.814388    1.332725    0.002462    0.006624    0.006166
C     0.144989    3.158675    1.056026   -0.001134    0.003854    0.000002
C     0.535027    1.242626    2.447302   -0.000068   -0.003734    0.002264
C     0.931573    3.928013    1.896709   -0.000116    0.002612   -0.001258
H    -0.313747    3.599242    0.181994   -0.000328    0.006104    0.000916
C     1.332420    2.008143    3.278542    0.000466   -0.002816    0.000516
H     0.364730    0.194928    2.652508    0.001000    0.002942    0.020142
C     1.523111    3.353301    3.008996   -0.001176   -0.002122   -0.001094
H     1.080725    4.973690    1.679400    0.003812    0.003096    0.001824
H     1.798008    1.561246    4.142227    0.004896    0.005662    0.000500
H     2.130004    3.950995    3.670824   -0.001890    0.000806   -0.003468
H    -1.361395    2.838812   -2.508498    0.005698   -0.000920   -0.005782
150
* Frequency(6) -548.9500
C    -5.075602    1.630944   -1.587007   -0.002734   -0.003866   -0.001482
C    -1.582737    5.067383   -3.731190   -0.003034   -0.002178   -0.001504
C     3.417270    4.138650   -2.760952   -0.002254   -0.003882    0.002402
C     4.720815    0.126644    0.445951   -0.007574   -0.002224    0.000614
C     1.345386   -3.545850    2.220253   -0.002592   -0.001122    0.003780
C    -3.738965   -2.314600    1.685438   -0.002996    0.000024   -0.000322
O    -3.796684    2.219201   -1.612130    0.003170    0.001430   -0.000780
O    -0.557587    5.057773   -2.786264    0.001108   -0.002616   -0.002044
O     3.066908    3.121020   -1.830705   -0.006124    0.000528   -0.002538
O     3.417551   -0.385110    0.561331   -0.000142    0.002314    0.003748
O     0.305797   -2.652519    2.479303    0.000446    0.000020   -0.007762
O    -3.503425   -1.063731    1.089017    0.000078    0.001300    0.000488
C    -5.648252    1.728842   -0.160546   -0.000918   -0.002358   -0.000030
C    -2.865685    5.574437   -3.042465   -0.001652   -0.002294    0.000032
C     3.068151    5.526735   -2.196308   -0.000698   -0.001804   -0.000600
C     4.753018    1.515653    1.101409   -0.002334   -0.001498    0.000566
C     2.570204   -3.091928    3.045625   -0.001730   -0.001250    0.002344
C    -3.323227   -2.233777    3.163240   -0.002778   -0.000072    0.000834
O    -5.846924    3.042102    0.282587   -0.002576   -0.000890   -0.001084
O    -2.679789    6.822248   -2.437995   -0.001472   -0.001770   -0.003110
O     3.794065    5.877551   -1.054590   -0.002832   -0.002490   -0.002320
O     4.380203    1.490212    2.453483   -0.003250   -0.000528   -0.002518
O     2.290537   -3.050640    4.416062   -0.001946    0.000784    0.001116
O    -4.012481   -1.233230    3.861678   -0.001364    0.000570    0.000336
C    -4.692842    0.974922    0.777098    0.000952    0.000658    0.001974
C    -3.357179    4.540475   -2.013721   -0.002446    0.000048    0.001488
C     1.558391    5.559783   -1.937258   -0.000802    0.002184   -0.000750
C     3.780259    2.425921    0.340199   -0.000574   -0.000502   -0.001440
C     3.062588   -1.716647    2.552263   -0.000604    0.000472    0.002662
C    -1.804525   -2.010789    3.232860   -0.001064    0.001558    0.002742
O    -5.160534    0.946876    2.103925   -0.001938   -0.001358    0.000750
O    -4.604895    4.914687   -1.482724   -0.001302   -0.000652   -0.002708
O     1.153126    6.812757   -1.443933   -0.001370   -0.002916   -0.002774
O     3.846670    3.749494    0.810460   -0.003374   -0.000106   -0.001672
O     4.270457   -1.347091    3.180941    0.000366    0.001366    0.001946
O    -1.346087   -2.017443    4.560735   -0.000456   -0.000574    0.003340
C    -4.530927   -0.473533    0.300102    0.003086   -0.000108    0.000916
C    -3.490030    3.143184   -2.646058   -0.002146   -0.002826    0.005890
C     0.781826    5.274519   -3.230105   -0.001444   -0.000674   -0.000008
C     4.115864    2.434787   -1.155300    0.000556   -0.005162   -0.000134
C     3.269064   -1.715371    1.028611    0.002884   -0.003714    0.002662
C    -1.047077   -3.101226    2.461847   -0.002860    0.000730   -0.000070
C    -4.173489   -0.525383   -1.196065    0.002026   -0.002312   -0.000962
C    -2.134923    2.822816   -3.290820   -0.003562   -0.000318    0.002842
C     1.342524    4.072320   -4.020193    0.001074    0.003456   -0.002788
C     4.252738    1.001070   -1.701017    0.005040   -0.004016   -0.000906
C     1.992756   -2.267535    0.389764    0.004192   -0.006558    0.007020
C    -1.624799   -3.269460    1.041429   -0.005698   -0.002604   -0.000780
O    -5.045332    0.289156   -1.977310   -0.003488   -0.000620   -0.003628
O    -1.817387    3.788047   -4.282058   -0.001212   -0.004462   -0.002534
O     2.773684    3.949967   -3.977008   -0.003262   -0.000648   -0.004320
O     5.129662    0.223081   -0.890668    0.000366   -0.000744   -0.002598
O     1.700796   -3.574207    0.850237    0.003048   -0.007316   -0.001128
O    -3.052964   -3.352272    1.048905   -0.005050   -0.003444   -0.000316
C    -4.303932   -1.946569   -1.757185   -0.001484   -0.002648    0.003002
C    -2.005367    1.460787   -3.978182   -0.000132    0.003712    0.001880
C     1.025727    4.171133   -5.525096   -0.001536    0.004560   -0.000988
C     4.835683    1.003811   -3.120620   -0.000146   -0.001572    0.002186
C     2.039598   -2.275401   -1.134655   -0.000552    0.006492    0.007474
C    -1.183307   -4.581747    0.370294   -0.001160   -0.001372    0.001636
O    -5.625222   -2.416636   -1.699023   -0.003726   -0.002454   -0.000862
O    -0.718072    1.267936   -4.218321    0.007216    0.010974   -0.012332
O     1.364127    5.420050   -6.072864   -0.001420   -0.001246    0.002576
O     6.072821    1.662408   -3.190711   -0.000736   -0.001760   -0.001950
O     0.798497   -2.312615   -1.594197   -0.000352   -0.002096   -0.000868
O    -1.461584   -5.703625    1.166948   -0.002450   -0.003768    0.001744
H    -5.747175    2.125126   -2.299964   -0.000900   -0.000118    0.000246
H    -1.332056    5.708932   -4.585898   -0.000256   -0.003828   -0.001632
H     4.488649    4.078486   -2.991505   -0.003630   -0.008506   -0.002632
H     5.449104   -0.540728    0.922286   -0.003958   -0.001414   -0.003744
H     1.067050   -4.576959    2.471642    0.001080   -0.000452    0.003758
H    -4.799263   -2.587698    1.602667   -0.001410   -0.001678    0.003890
H    -6.625841    1.229134   -0.149572   -0.002146    0.000432   -0.006718
H    -3.640702    5.706664   -3.805233    0.002060   -0.003840   -0.004152
H     3.322720    6.275428   -2.955218   -0.000228   -0.006622   -0.005078
H     5.774296    1.917276    1.002620   -0.002702   -0.003458   -0.006182
H     3.369967   -3.827856    2.908378   -0.001968   -0.000370   -0.001024
H    -3.564925   -3.183910    3.653572   -0.004114   -0.001288   -0.002738
H    -5.305524    3.667482   -0.237156    0.006814   -0.006328    0.006930
H    -1.827971    6.827428   -1.970983   -0.008032   -0.000562    0.008850
H     3.747145    5.166760   -0.384030    0.005282   -0.001594    0.002194
H     4.484320    0.589178    2.808977   -0.009362   -0.002594    0.000572
H     1.419327   -2.642607    4.552046   -0.003870    0.003280   -0.003764
H    -4.204201   -0.479226    3.274380    0.002672   -0.000194   -0.004332
H    -3.716986    1.478492    0.736805   -0.009194    0.015230    0.001496
H    -2.613776    4.469365   -1.204108   -0.001468    0.006418    0.000504
H     1.310851    4.775622   -1.205167    0.001650   -0.001666   -0.002630
H     2.764593    2.027466    0.480551   -0.002204    0.005080   -0.011640
H     2.289292   -0.967952    2.777759    0.005100    0.003000    0.010504
H    -1.575809   -1.043743    2.759651   -0.006324    0.005970    0.015688
H    -5.519782    1.823856    2.316219    0.014112    0.000644    0.008590
H    -4.590027    5.871762   -1.313312   -0.002486   -0.003276    0.009798
H     1.888901    7.184055   -0.929630   -0.004606    0.002308    0.000876
H     3.887364    3.721377    1.778828    0.006716   -0.007848   -0.000100
H     4.225042   -1.634626    4.108502   -0.007564    0.005914    0.002300
H    -1.976285   -1.511973    5.099205    0.004808    0.010776   -0.003618
H    -5.478390   -1.003788    0.462619    0.000578    0.003796   -0.008962
H    -4.274907    3.141365   -3.410325    0.006310   -0.002366   -0.002586
H     0.810767    6.172573   -3.864415   -0.000332   -0.004212   -0.004704
H     5.064967    2.963956   -1.300685   -0.003674    0.000710   -0.007250
H     4.136516   -2.325402    0.751151    0.002262   -0.001208    0.001954
H    -1.124564   -4.053805    3.003380   -0.004694    0.000718   -0.003998
H    -3.146649   -0.174496   -1.325398    0.003146   -0.021508   -0.041996
H     0.881259    3.159376   -3.632415    0.000160   -0.004308   -0.012484
H     3.270186    0.516885   -1.716882   -0.002888    0.002218   -0.028662
H     1.165212   -1.597486    0.664921    0.009838   -0.043256    0.072620
H    -1.304745   -2.415379    0.431297   -0.018450   -0.026728   -0.031076
H    -3.701943   -2.630470   -1.156427   -0.006512   -0.005878    0.003146
H    -3.934203   -1.937567   -2.788453    0.010834   -0.007144    0.006260
H     1.568944    3.364788   -6.027762   -0.008216   -0.003520    0.001262
H    -0.042856    4.031191   -5.685547   -0.002088   -0.000344    0.002600
H     4.157207    1.546908   -3.781717   -0.008006   -0.009576    0.002366
H     4.918577   -0.035542   -3.456035   -0.006280   -0.000306   -0.002880
H    -1.701318   -4.650545   -0.592936    0.005792   -0.002958   -0.002694
H    -0.107821   -4.572683    0.198146   -0.001218   -0.004012    0.001404
H    -6.173541   -1.828189   -2.238490   -0.002386    0.007964    0.012058
H     2.328396    5.499686   -6.086779   -0.000980    0.002362   -0.009354
H     6.723166    1.148756   -2.690321   -0.002542   -0.003212    0.002354
H    -2.422517   -5.783580    1.255242   -0.002968    0.011966    0.008262
C     0.559950   -2.067305   -2.975761    0.002126    0.047168    0.023598
H    -0.011581   -2.913768   -3.372173   -0.142978    0.149206    0.022770
H     1.506299   -1.960729   -3.508223    0.005212   -0.059798   -0.004118
O     3.030089   -2.225373   -1.815446    0.002988   -0.007360    0.008038
C    -0.223800   -0.037934   -4.438633   -0.010432    0.003524    0.035126
H     0.796139    0.068995   -4.805765   -0.052842   -0.020632   -0.091586
H    -0.851531   -0.582099   -5.162426   -0.087952   -0.066828    0.175410
O    -2.901924    0.723023   -4.295138    0.003604    0.001660   -0.005398
C    -0.320704   -0.827910   -3.127371    0.265752    0.286084    0.224402
O     1.185569    0.295343   -1.980472    0.074224   -0.106736   -0.473226
O     0.749362    1.683233   -2.075462   -0.062060   -0.077032    0.064310
H     0.739452    0.196890   -1.134540   -0.830828   -0.275772    1.594230
O    -0.261116   -0.155850   -0.066282   -0.071666   -0.065156    0.015068
H    -0.875117   -0.543348   -0.725047   -0.021440   -0.004364   -0.262030
C    -0.965654    0.983031    0.457414   -0.010174    0.042322    0.021146
O    -1.267709   -0.586068   -2.376099    0.007744    0.042714    0.081604
H    -1.356979    1.581756   -0.375327   -0.005416    0.039088    0.034542
H     1.603541    2.153823   -1.904623   -0.088408   -0.049260   -0.042078
H    -1.810501    0.606490    1.047576    0.024688   -0.066994   -0.012730
C    -0.067207    1.814694    1.333010    0.002462    0.006624    0.006166
C     0.144936    3.158854    1.056026   -0.001134    0.003854    0.000002
C     0.535024    1.242453    2.447407   -0.000068   -0.003734    0.002264
C     0.931568    3.928134    1.896651   -0.000116    0.002612   -0.001258
H    -0.313762    3.599524    0.182037   -0.000328    0.006104    0.000916
C     1.332441    2.008013    3.278566    0.000466   -0.002816    0.000516
H     0.364776    0.195064    2.653440    0.001000    0.002942    0.020142
C     1.523057    3.353203    3.008946   -0.001176   -0.002122   -0.001094
H     1.080901    4.973833    1.679485    0.003812    0.003096    0.001824
H     1.798234    1.561508    4.142250    0.004896    0.005662    0.000500
H     2.129917    3.951032    3.670663   -0.001890    0.000806   -0.003468
H    -1.361132    2.838770   -2.508766    0.005698   -0.000920   -0.005782
150
* Frequency(6) -548.9500
C    -5.075815    1.630642   -1.587122   -0.002734   -0.003866   -0.001482
C    -1.582974    5.067213   -3.731308   -0.003034   -0.002178   -0.001504
C     3.417095    4.138348   -2.760764   -0.002254   -0.003882    0.002402
C     4.720224    0.126470    0.445999   -0.007574   -0.002224    0.000614
C     1.345184   -3.545938    2.220548   -0.002592   -0.001122    0.003780
C    -3.739199   -2.314598    1.685413   -0.002996    0.000024   -0.000322
O    -3.796436    2.219313   -1.612191    0.003170    0.001430   -0.000780
O    -0.557500    5.057568   -2.786424    0.001108   -0.002616   -0.002044
O     3.066431    3.121061   -1.830903   -0.006124    0.000528   -0.002538
O     3.417540   -0.384929    0.561623   -0.000142    0.002314    0.003748
O     0.305832   -2.652517    2.478698    0.000446    0.000020   -0.007762
O    -3.503419   -1.063629    1.089055    0.000078    0.001300    0.000488
C    -5.648324    1.728658   -0.160549   -0.000918   -0.002358   -0.000030
C    -2.865814    5.574258   -3.042463   -0.001652   -0.002294    0.000032
C     3.068096    5.526594   -2.196355   -0.000698   -0.001804   -0.000600
C     4.752836    1.515536    1.101453   -0.002334   -0.001498    0.000566
C     2.570069   -3.092025    3.045808   -0.001730   -0.001250    0.002344
C    -3.323444   -2.233783    3.163305   -0.002778   -0.000072    0.000834
O    -5.847125    3.042032    0.282502   -0.002576   -0.000890   -0.001084
O    -2.679904    6.822110   -2.438237   -0.001472   -0.001770   -0.003110
O     3.793844    5.877356   -1.054771   -0.002832   -0.002490   -0.002320
O     4.379950    1.490171    2.453286   -0.003250   -0.000528   -0.002518
O     2.290385   -3.050579    4.416149   -0.001946    0.000784    0.001116
O    -4.012588   -1.233186    3.861704   -0.001364    0.000570    0.000336
C    -4.692768    0.974974    0.777252    0.000952    0.000658    0.001974
C    -3.357370    4.540479   -2.013605   -0.002446    0.000048    0.001488
C     1.558328    5.559953   -1.937317   -0.000802    0.002184   -0.000750
C     3.780214    2.425882    0.340087   -0.000574   -0.000502   -0.001440
C     3.062541   -1.716610    2.552471   -0.000604    0.000472    0.002662
C    -1.804608   -2.010667    3.233074   -0.001064    0.001558    0.002742
O    -5.160685    0.946770    2.103984   -0.001938   -0.001358    0.000750
O    -4.604996    4.914636   -1.482935   -0.001302   -0.000652   -0.002708
O     1.153020    6.812530   -1.444150   -0.001370   -0.002916   -0.002774
O     3.846406    3.749486    0.810329   -0.003374   -0.000106   -0.001672
O     4.270485   -1.346985    3.181093    0.000366    0.001366    0.001946
O    -1.346123   -2.017488    4.560996   -0.000456   -0.000574    0.003340
C    -4.530686   -0.473542    0.300173    0.003086   -0.000108    0.000916
C    -3.490198    3.142964   -2.645598   -0.002146   -0.002826    0.005890
C     0.781713    5.274467   -3.230105   -0.001444   -0.000674   -0.000008
C     4.115907    2.434384   -1.155310    0.000556   -0.005162   -0.000134
C     3.269289   -1.715661    1.028819    0.002884   -0.003714    0.002662
C    -1.047300   -3.101169    2.461841   -0.002860    0.000730   -0.000070
C    -4.173331   -0.525563   -1.196140    0.002026   -0.002312   -0.000962
C    -2.135201    2.822791   -3.290598   -0.003562   -0.000318    0.002842
C     1.342608    4.072590   -4.020411    0.001074    0.003456   -0.002788
C     4.253132    1.000756   -1.701087    0.005040   -0.004016   -0.000906
C     1.993083   -2.268047    0.390312    0.004192   -0.006558    0.007020
C    -1.625244   -3.269663    1.041368   -0.005698   -0.002604   -0.000780
O    -5.045604    0.289107   -1.977593   -0.003488   -0.000620   -0.003628
O    -1.817481    3.787699   -4.282255   -0.001212   -0.004462   -0.002534
O     2.773429    3.949916   -3.977345   -0.003262   -0.000648   -0.004320
O     5.129690    0.223023   -0.890870    0.000366   -0.000744   -0.002598
O     1.701034   -3.574778    0.850148    0.003048   -0.007316   -0.001128
O    -3.053358   -3.352541    1.048880   -0.005050   -0.003444   -0.000316
C    -4.304048   -1.946776   -1.756950   -0.001484   -0.002648    0.003002
C    -2.005378    1.461077   -3.978035   -0.000132    0.003712    0.001880
C     1.025607    4.171489   -5.525173   -0.001536    0.004560   -0.000988
C     4.835671    1.003688   -3.120449   -0.000146   -0.001572    0.002186
C     2.039555   -2.274895   -1.134072   -0.000552    0.006492    0.007474
C    -1.183398   -4.581854    0.370421   -0.001160   -0.001372    0.001636
O    -5.625513   -2.416827   -1.699091   -0.003726   -0.002454   -0.000862
O    -0.717509    1.268792   -4.219283    0.007216    0.010974   -0.012332
O     1.364016    5.419953   -6.072663   -0.001420   -0.001246    0.002576
O     6.072763    1.662270   -3.190863   -0.000736   -0.001760   -0.001950
O     0.798470   -2.312778   -1.594264   -0.000352   -0.002096   -0.000868
O    -1.461775   -5.703919    1.167084   -0.002450   -0.003768    0.001744
H    -5.747246    2.125116   -2.299945   -0.000900   -0.000118    0.000246
H    -1.332076    5.708633   -4.586025   -0.000256   -0.003828   -0.001632
H     4.488365    4.077823   -2.991710   -0.003630   -0.008506   -0.002632
H     5.448795   -0.540838    0.921994   -0.003958   -0.001414   -0.003744
H     1.067134   -4.576994    2.471935    0.001080   -0.000452    0.003758
H    -4.799373   -2.587829    1.602971   -0.001410   -0.001678    0.003890
H    -6.626009    1.229168   -0.150096   -0.002146    0.000432   -0.006718
H    -3.640541    5.706365   -3.805557    0.002060   -0.003840   -0.004152
H     3.322702    6.274912   -2.955614   -0.000228   -0.006622   -0.005078
H     5.774085    1.917006    1.002138   -0.002702   -0.003458   -0.006182
H     3.369813   -3.827884    2.908298   -0.001968   -0.000370   -0.001024
H    -3.565246   -3.184010    3.653359   -0.004114   -0.001288   -0.002738
H    -5.304992    3.666988   -0.236615    0.006814   -0.006328    0.006930
H    -1.828597    6.827384   -1.970293   -0.008032   -0.000562    0.008850
H     3.747558    5.166636   -0.383859    0.005282   -0.001594    0.002194
H     4.483590    0.588976    2.809022   -0.009362   -0.002594    0.000572
H     1.419025   -2.642351    4.551752   -0.003870    0.003280   -0.003764
H    -4.203992   -0.479241    3.274042    0.002672   -0.000194   -0.004332
H    -3.717704    1.479681    0.736921   -0.009194    0.015230    0.001496
H    -2.613890    4.469866   -1.204068   -0.001468    0.006418    0.000504
H     1.310979    4.775492   -1.205373    0.001650   -0.001666   -0.002630
H     2.764421    2.027862    0.479642   -0.002204    0.005080   -0.011640
H     2.289690   -0.967718    2.778579    0.005100    0.003000    0.010504
H    -1.576303   -1.043277    2.760875   -0.006324    0.005970    0.015688
H    -5.518681    1.823907    2.316889    0.014112    0.000644    0.008590
H    -4.590221    5.871506   -1.312547   -0.002486   -0.003276    0.009798
H     1.888541    7.184235   -0.929561   -0.004606    0.002308    0.000876
H     3.887888    3.720764    1.778820    0.006716   -0.007848   -0.000100
H     4.224452   -1.634164    4.108682   -0.007564    0.005914    0.002300
H    -1.975910   -1.511133    5.098923    0.004808    0.010776   -0.003618
H    -5.478345   -1.003492    0.461920    0.000578    0.003796   -0.008962
H    -4.274414    3.141181   -3.410527    0.006310   -0.002366   -0.002586
H     0.810741    6.172244   -3.864782   -0.000332   -0.004212   -0.004704
H     5.064680    2.964011   -1.301250   -0.003674    0.000710   -0.007250
H     4.136693   -2.325496    0.751304    0.002262   -0.001208    0.001954
H    -1.124930   -4.053749    3.003068   -0.004694    0.000718   -0.003998
H    -3.146403   -0.176174   -1.328675    0.003146   -0.021508   -0.041996
H     0.881272    3.159040   -3.633389    0.000160   -0.004308   -0.012484
H     3.269961    0.517058   -1.719118   -0.002888    0.002218   -0.028662
H     1.165980   -1.600861    0.670588    0.009838   -0.043256    0.072620
H    -1.306185   -2.417465    0.428872   -0.018450   -0.026728   -0.031076
H    -3.702451   -2.630928   -1.156181   -0.006512   -0.005878    0.003146
H    -3.933358   -1.938124   -2.787965    0.010834   -0.007144    0.006260
H     1.568303    3.364514   -6.027663   -0.008216   -0.003520    0.001262
H    -0.043019    4.031164   -5.685344   -0.002088   -0.000344    0.002600
H     4.156582    1.546161   -3.781533   -0.008006   -0.009576    0.002366
H     4.918087   -0.035566   -3.456260   -0.006280   -0.000306   -0.002880
H    -1.700866   -4.650776   -0.593146    0.005792   -0.002958   -0.002694
H    -0.107916   -4.572997    0.198255   -0.001218   -0.004012    0.001404
H    -6.173727   -1.827567   -2.237549   -0.002386    0.007964    0.012058
H     2.328320    5.499870   -6.087509   -0.000980    0.002362   -0.009354
H     6.722967    1.148505   -2.690137   -0.002542   -0.003212    0.002354
H    -2.422749   -5.782646    1.255887   -0.002968    0.011966    0.008262
C     0.560116   -2.063624   -2.973920    0.002126    0.047168    0.023598
H    -0.022738   -2.902124   -3.370396   -0.142978    0.149206    0.022770
H     1.506706   -1.965395   -3.508545    0.005212   -0.059798   -0.004118
O     3.030323   -2.225948   -1.814819    0.002988   -0.007360    0.008038
C    -0.224614   -0.037659   -4.435892   -0.010432    0.003524    0.035126
H     0.792016    0.067385   -4.812911   -0.052842   -0.020632   -0.091586
H    -0.858395   -0.587314   -5.148738   -0.087952   -0.066828    0.175410
O    -2.901643    0.723152   -4.295560    0.003604    0.001660   -0.005398
C    -0.299966   -0.805586   -3.109860    0.265752    0.286084    0.224402
O     1.191361    0.287014   -2.017400    0.074224   -0.106736   -0.473226
O     0.744519    1.677222   -2.070444   -0.062060   -0.077032    0.064310
H     0.674620    0.175371   -1.010136   -0.830828   -0.275772    1.594230
O    -0.266709   -0.160934   -0.065106   -0.071666   -0.065156    0.015068
H    -0.876790   -0.543689   -0.745494   -0.021440   -0.004364   -0.262030
C    -0.966448    0.986334    0.459064   -0.010174    0.042322    0.021146
O    -1.267105   -0.582734   -2.369731    0.007744    0.042714    0.081604
H    -1.357402    1.584806   -0.372632   -0.005416    0.039088    0.034542
H     1.596642    2.149979   -1.907906   -0.088408   -0.049260   -0.042078
H    -1.808574    0.601262    1.046583    0.024688   -0.066994   -0.012730
C    -0.067015    1.815211    1.333491    0.002462    0.006624    0.006166
C     0.144848    3.159154    1.056027   -0.001134    0.003854    0.000002
C     0.535019    1.242162    2.447583   -0.000068   -0.003734    0.002264
C     0.931559    3.928337    1.896552   -0.000116    0.002612   -0.001258
H    -0.313787    3.600001    0.182108   -0.000328    0.006104    0.000916
C     1.332478    2.007793    3.278606    0.000466   -0.002816    0.000516
H     0.364854    0.195294    2.655012    0.001000    0.002942    0.020142
C     1.522965    3.353037    3.008860   -0.001176   -0.002122   -0.001094
H     1.081199    4.974074    1.679627    0.003812    0.003096    0.001824
H     1.798616    1.561950    4.142290    0.004896    0.005662    0.000500
H     2.129769    3.951095    3.670393   -0.001890    0.000806   -0.003468
H    -1.360687    2.838698   -2.509217    0.005698   -0.000920   -0.005782
150
* Frequency(6) -548.9500
C    -5.076092    1.630250   -1.587273   -0.002734   -0.003866   -0.001482
C    -1.583281    5.066993   -3.731460   -0.003034   -0.002178   -0.001504
C     3.416866    4.137954   -2.760521   -0.002254   -0.003882    0.002402
C     4.719457    0.126245    0.446061   -0.007574   -0.002224    0.000614
C     1.344922   -3.546051    2.220931   -0.002592   -0.001122    0.003780
C    -3.739503   -2.314596    1.685381   -0.002996    0.000024   -0.000322
O    -3.796115    2.219457   -1.612270    0.003170    0.001430   -0.000780
O    -0.557388    5.057303   -2.786631    0.001108   -0.002616   -0.002044
O     3.065810    3.121115   -1.831161   -0.006124    0.000528   -0.002538
O     3.417525   -0.384695    0.562003   -0.000142    0.002314    0.003748
O     0.305877   -2.652515    2.477911    0.000446    0.000020   -0.007762
O    -3.503411   -1.063498    1.089105    0.000078    0.001300    0.000488
C    -5.648417    1.728419   -0.160552   -0.000918   -0.002358   -0.000030
C    -2.865981    5.574026   -3.042460   -0.001652   -0.002294    0.000032
C     3.068025    5.526411   -2.196416   -0.000698   -0.001804   -0.000600
C     4.752599    1.515384    1.101511   -0.002334   -0.001498    0.000566
C     2.569894   -3.092152    3.046046   -0.001730   -0.001250    0.002344
C    -3.323725   -2.233790    3.163389   -0.002778   -0.000072    0.000834
O    -5.847386    3.041942    0.282392   -0.002576   -0.000890   -0.001084
O    -2.680053    6.821930   -2.438553   -0.001472   -0.001770   -0.003110
O     3.793557    5.877104   -1.055006   -0.002832   -0.002490   -0.002320
O     4.379620    1.490117    2.453031   -0.003250   -0.000528   -0.002518
O     2.290188   -3.050499    4.416262   -0.001946    0.000784    0.001116
O    -4.012726   -1.233128    3.861738   -0.001364    0.000570    0.000336
C    -4.692671    0.975040    0.777452    0.000952    0.000658    0.001974
C    -3.357618    4.540484   -2.013454   -0.002446    0.000048    0.001488
C     1.558247    5.560175   -1.937393   -0.000802    0.002184   -0.000750
C     3.780156    2.425831    0.339941   -0.000574   -0.000502   -0.001440
C     3.062480   -1.716563    2.552740   -0.000604    0.000472    0.002662
C    -1.804716   -2.010509    3.233351   -0.001064    0.001558    0.002742
O    -5.160882    0.946632    2.104060   -0.001938   -0.001358    0.000750
O    -4.605128    4.914570   -1.483209   -0.001302   -0.000652   -0.002708
O     1.152881    6.812234   -1.444431   -0.001370   -0.002916   -0.002774
O     3.846064    3.749475    0.810160   -0.003374   -0.000106   -0.001672
O     4.270522   -1.346846    3.181290    0.000366    0.001366    0.001946
O    -1.346169   -2.017546    4.561334   -0.000456   -0.000574    0.003340
C    -4.530374   -0.473553    0.300266    0.003086   -0.000108    0.000916
C    -3.490415    3.142677   -2.645001   -0.002146   -0.002826    0.005890
C     0.781567    5.274399   -3.230106   -0.001444   -0.000674   -0.000008
C     4.115964    2.433861   -1.155324    0.000556   -0.005162   -0.000134
C     3.269581   -1.716037    1.029088    0.002884   -0.003714    0.002662
C    -1.047590   -3.101095    2.461834   -0.002860    0.000730   -0.000070
C    -4.173125   -0.525797   -1.196238    0.002026   -0.002312   -0.000962
C    -2.135562    2.822759   -3.290310   -0.003562   -0.000318    0.002842
C     1.342717    4.072940   -4.020693    0.001074    0.003456   -0.002788
C     4.253642    1.000349   -1.701179    0.005040   -0.004016   -0.000906
C     1.993508   -2.268712    0.391023    0.004192   -0.006558    0.007020
C    -1.625821   -3.269927    1.041289   -0.005698   -0.002604   -0.000780
O    -5.045958    0.289044   -1.977961   -0.003488   -0.000620   -0.003628
O    -1.817604    3.787247   -4.282512   -0.001212   -0.004462   -0.002534
O     2.773099    3.949851   -3.977783   -0.003262   -0.000648   -0.004320
O     5.129727    0.222948   -0.891134    0.000366   -0.000744   -0.002598
O     1.701343   -3.575520    0.850034    0.003048   -0.007316   -0.001128
O    -3.053870   -3.352890    1.048848   -0.005050   -0.003444   -0.000316
C    -4.304198   -1.947044   -1.756646   -0.001484   -0.002648    0.003002
C    -2.005391    1.461453   -3.977845   -0.000132    0.003712    0.001880
C     1.025452    4.171951   -5.525273   -0.001536    0.004560   -0.000988
C     4.835657    1.003529   -3.120227   -0.000146   -0.001572    0.002186
C     2.039499   -2.274237   -1.133314   -0.000552    0.006492    0.007474
C    -1.183515   -4.581993    0.370587   -0.001160   -0.001372    0.001636
O    -5.625891   -2.417076   -1.699178   -0.003726   -0.002454   -0.000862
O    -0.716778    1.269904   -4.220533    0.007216    0.010974   -0.012332
O     1.363872    5.419827   -6.072402   -0.001420   -0.001246    0.002576
O     6.072689    1.662092   -3.191060   -0.000736   -0.001760   -0.001950
O     0.798434   -2.312991   -1.594352   -0.000352   -0.002096   -0.000868
O    -1.462024   -5.704301    1.167261   -0.002450   -0.003768    0.001744
H    -5.747337    2.125104   -2.299920   -0.000900   -0.000118    0.000246
H    -1.332102    5.708245   -4.586191   -0.000256   -0.003828   -0.001632
H     4.487998    4.076961   -2.991977   -0.003630   -0.008506   -0.002632
H     5.448394   -0.540981    0.921614   -0.003958   -0.001414   -0.003744
H     1.067243   -4.577040    2.472316    0.001080   -0.000452    0.003758
H    -4.799516   -2.587999    1.603365   -0.001410   -0.001678    0.003890
H    -6.626226    1.229212   -0.150777   -0.002146    0.000432   -0.006718
H    -3.640332    5.705975   -3.805978    0.002060   -0.003840   -0.004152
H     3.322679    6.274241   -2.956129   -0.000228   -0.006622   -0.005078
H     5.773811    1.916656    1.001512   -0.002702   -0.003458   -0.006182
H     3.369614   -3.827922    2.908194   -0.001968   -0.000370   -0.001024
H    -3.565662   -3.184141    3.653081   -0.004114   -0.001288   -0.002738
H    -5.304301    3.666347   -0.235913    0.006814   -0.006328    0.006930
H    -1.829411    6.827327   -1.969396   -0.008032   -0.000562    0.008850
H     3.748093    5.166474   -0.383636    0.005282   -0.001594    0.002194
H     4.482641    0.588713    2.809080   -0.009362   -0.002594    0.000572
H     1.418633   -2.642019    4.551371   -0.003870    0.003280   -0.003764
H    -4.203722   -0.479261    3.273603    0.002672   -0.000194   -0.004332
H    -3.718635    1.481224    0.737073   -0.009194    0.015230    0.001496
H    -2.614039    4.470517   -1.204017   -0.001468    0.006418    0.000504
H     1.311146    4.775323   -1.205639    0.001650   -0.001666   -0.002630
H     2.764197    2.028377    0.478463   -0.002204    0.005080   -0.011640
H     2.290206   -0.967414    2.779643    0.005100    0.003000    0.010504
H    -1.576943   -1.042672    2.762465   -0.006324    0.005970    0.015688
H    -5.517251    1.823972    2.317760    0.014112    0.000644    0.008590
H    -4.590472    5.871174   -1.311554   -0.002486   -0.003276    0.009798
H     1.888074    7.184469   -0.929473   -0.004606    0.002308    0.000876
H     3.888569    3.719969    1.778810    0.006716   -0.007848   -0.000100
H     4.223686   -1.633565    4.108915   -0.007564    0.005914    0.002300
H    -1.975422   -1.510041    5.098556    0.004808    0.010776   -0.003618
H    -5.478287   -1.003107    0.461011    0.000578    0.003796   -0.008962
H    -4.273775    3.140941   -3.410789    0.006310   -0.002366   -0.002586
H     0.810708    6.171818   -3.865258   -0.000332   -0.004212   -0.004704
H     5.064308    2.964083   -1.301985   -0.003674    0.000710   -0.007250
H     4.136922   -2.325619    0.751502    0.002262   -0.001208    0.001954
H    -1.125406   -4.053677    3.002663   -0.004694    0.000718   -0.003998
H    -3.146085   -0.178354   -1.332930    0.003146   -0.021508   -0.041996
H     0.881288    3.158604   -3.634654    0.000160   -0.004308   -0.012484
H     3.269668    0.517283   -1.722023   -0.002888    0.002218   -0.028662
H     1.166977   -1.605244    0.677946    0.009838   -0.043256    0.072620
H    -1.308054   -2.420174    0.425723   -0.018450   -0.026728   -0.031076
H    -3.703111   -2.631524   -1.155863   -0.006512   -0.005878    0.003146
H    -3.932260   -1.938848   -2.787330    0.010834   -0.007144    0.006260
H     1.567471    3.364157   -6.027535   -0.008216   -0.003520    0.001262
H    -0.043231    4.031129   -5.685080   -0.002088   -0.000344    0.002600
H     4.155771    1.545190   -3.781293   -0.008006   -0.009576    0.002366
H     4.917451   -0.035597   -3.456552   -0.006280   -0.000306   -0.002880
H    -1.700279   -4.651076   -0.593419    0.005792   -0.002958   -0.002694
H    -0.108040   -4.573403    0.198397   -0.001218   -0.004012    0.001404
H    -6.173969   -1.826760   -2.236327   -0.002386    0.007964    0.012058
H     2.328220    5.500110   -6.088457   -0.000980    0.002362   -0.009354
H     6.722710    1.148180   -2.689899   -0.002542   -0.003212    0.002354
H    -2.423050   -5.781434    1.256724   -0.002968    0.011966    0.008262
C     0.560331   -2.058844   -2.971529    0.002126    0.047168    0.023598
H    -0.037226   -2.887005   -3.368089   -0.142978    0.149206    0.022770
H     1.507234   -1.971454   -3.508962    0.005212   -0.059798   -0.004118
O     3.030625   -2.226694   -1.814004    0.002988   -0.007360    0.008038
C    -0.225671   -0.037301   -4.432333   -0.010432    0.003524    0.035126
H     0.786661    0.065295   -4.822192   -0.052842   -0.020632   -0.091586
H    -0.867307   -0.594085   -5.130963   -0.087952   -0.066828    0.175410
O    -2.901278    0.723320   -4.296107    0.003604    0.001660   -0.005398
C    -0.273037   -0.776597   -3.087121    0.265752    0.286084    0.224402
O     1.198882    0.276198   -2.065351    0.074224   -0.106736   -0.473226
O     0.738231    1.669416   -2.063927   -0.062060   -0.077032    0.064310
H     0.590432    0.147427   -0.848593   -0.830828   -0.275772    1.594230
O    -0.273971   -0.167536   -0.063579   -0.071666   -0.065156    0.015068
H    -0.878962   -0.544131   -0.772046   -0.021440   -0.004364   -0.262030
C    -0.967479    0.990622    0.461207   -0.010174    0.042322    0.021146
O    -1.266320   -0.578406   -2.361462    0.007744    0.042714    0.081604
H    -1.357950    1.588767   -0.369132   -0.005416    0.039088    0.034542
H     1.587684    2.144987   -1.912170   -0.088408   -0.049260   -0.042078
H    -1.806073    0.594474    1.045293    0.024688   -0.066994   -0.012730
C    -0.066766    1.815882    1.334116    0.002462    0.006624    0.006166
C     0.144733    3.159545    1.056027   -0.001134    0.003854    0.000002
C     0.535012    1.241783    2.447813   -0.000068   -0.003734    0.002264
C     0.931547    3.928602    1.896425   -0.000116    0.002612   -0.001258
H    -0.313821    3.600619    0.182201   -0.000328    0.006104    0.000916
C     1.332525    2.007508    3.278658    0.000466   -0.002816    0.000516
H     0.364955    0.195592    2.657053    0.001000    0.002942    0.020142
C     1.522846    3.352822    3.008749   -0.001176   -0.002122   -0.001094
H     1.081585    4.974388    1.679812    0.003812    0.003096    0.001824
H     1.799113    1.562524    4.142340    0.004896    0.005662    0.000500
H     2.129578    3.951176    3.670041   -0.001890    0.000806   -0.003468
H    -1.360110    2.838605   -2.509803    0.005698   -0.000920   -0.005782
150
* Frequency(6) -548.9500
C    -5.076403    1.629811   -1.587441   -0.002734   -0.003866   -0.001482
C    -1.583626    5.066745   -3.731631   -0.003034   -0.002178   -0.001504
C     3.416610    4.137513   -2.760248   -0.002254   -0.003882    0.002402
C     4.718596    0.125992    0.446131   -0.007574   -0.002224    0.000614
C     1.344627   -3.546179    2.221361   -0.002592   -0.001122    0.003780
C    -3.739843   -2.314593    1.685344   -0.002996    0.000024   -0.000322
O    -3.795755    2.219620   -1.612359    0.003170    0.001430   -0.000780
O    -0.557262    5.057006   -2.786863    0.001108   -0.002616   -0.002044
O     3.065114    3.121175   -1.831449   -0.006124    0.000528   -0.002538
O     3.417509   -0.384432    0.562429   -0.000142    0.002314    0.003748
O     0.305928   -2.652513    2.477029    0.000446    0.000020   -0.007762
O    -3.503402   -1.063350    1.089160    0.000078    0.001300    0.000488
C    -5.648521    1.728151   -0.160555   -0.000918   -0.002358   -0.000030
C    -2.866169    5.573765   -3.042456   -0.001652   -0.002294    0.000032
C     3.067946    5.526206   -2.196484   -0.000698   -0.001804   -0.000600
C     4.752334    1.515214    1.101575   -0.002334   -0.001498    0.000566
C     2.569697   -3.092294    3.046312   -0.001730   -0.001250    0.002344
C    -3.324041   -2.233798    3.163484   -0.002778   -0.000072    0.000834
O    -5.847679    3.041841    0.282269   -0.002576   -0.000890   -0.001084
O    -2.680220    6.821729   -2.438906   -0.001472   -0.001770   -0.003110
O     3.793235    5.876821   -1.055270   -0.002832   -0.002490   -0.002320
O     4.379251    1.490057    2.452745   -0.003250   -0.000528   -0.002518
O     2.289967   -3.050410    4.416389   -0.001946    0.000784    0.001116
O    -4.012881   -1.233063    3.861776   -0.001364    0.000570    0.000336
C    -4.692563    0.975115    0.777676    0.000952    0.000658    0.001974
C    -3.357896    4.540489   -2.013285   -0.002446    0.000048    0.001488
C     1.558156    5.560423   -1.937478   -0.000802    0.002184   -0.000750
C     3.780091    2.425774    0.339777   -0.000574   -0.000502   -0.001440
C     3.062411   -1.716509    2.553043   -0.000604    0.000472    0.002662
C    -1.804837   -2.010332    3.233663   -0.001064    0.001558    0.002742
O    -5.161102    0.946478    2.104145   -0.001938   -0.001358    0.000750
O    -4.605276    4.914496   -1.483517   -0.001302   -0.000652   -0.002708
O     1.152725    6.811903   -1.444746   -0.001370   -0.002916   -0.002774
O     3.845681    3.749463    0.809970   -0.003374   -0.000106   -0.001672
O     4.270564   -1.346691    3.181511    0.000366    0.001366    0.001946
O    -1.346221   -2.017611    4.561714   -0.000456   -0.000574    0.003340
C    -4.530023   -0.473565    0.300370    0.003086   -0.000108    0.000916
C    -3.490659    3.142356   -2.644332   -0.002146   -0.002826    0.005890
C     0.781403    5.274322   -3.230107   -0.001444   -0.000674   -0.000008
C     4.116027    2.433274   -1.155339    0.000556   -0.005162   -0.000134
C     3.269909   -1.716459    1.029391    0.002884   -0.003714    0.002662
C    -1.047915   -3.101012    2.461826   -0.002860    0.000730   -0.000070
C    -4.172895   -0.526060   -1.196347    0.002026   -0.002312   -0.000962
C    -2.135967    2.822723   -3.289987   -0.003562   -0.000318    0.002842
C     1.342839    4.073333   -4.021010    0.001074    0.003456   -0.002788
C     4.254215    0.999893   -1.701282    0.005040   -0.004016   -0.000906
C     1.993984   -2.269457    0.391821    0.004192   -0.006558    0.007020
C    -1.626469   -3.270223    1.041200   -0.005698   -0.002604   -0.000780
O    -5.046354    0.288974   -1.978373   -0.003488   -0.000620   -0.003628
O    -1.817742    3.786740   -4.282800   -0.001212   -0.004462   -0.002534
O     2.772728    3.949777   -3.978274   -0.003262   -0.000648   -0.004320
O     5.129769    0.222863   -0.891429    0.000366   -0.000744   -0.002598
O     1.701689   -3.576351    0.849906    0.003048   -0.007316   -0.001128
O    -3.054444   -3.353281    1.048812   -0.005050   -0.003444   -0.000316
C    -4.304367   -1.947345   -1.756305   -0.001484   -0.002648    0.003002
C    -2.005406    1.461875   -3.977631   -0.000132    0.003712    0.001880
C     1.025277    4.172469   -5.525385   -0.001536    0.004560   -0.000988
C     4.835640    1.003350   -3.119979   -0.000146   -0.001572    0.002186
C     2.039436   -2.273499   -1.132465   -0.000552    0.006492    0.007474
C    -1.183647   -4.582149    0.370773   -0.001160   -0.001372    0.001636
O    -5.626314   -2.417355   -1.699276   -0.003726   -0.002454   -0.000862
O    -0.715958    1.271151   -4.221934    0.007216    0.010974   -0.012332
O     1.363711    5.419685   -6.072109   -0.001420   -0.001246    0.002576
O     6.072605    1.661892   -3.191282   -0.000736   -0.001760   -0.001950
O     0.798394   -2.313229   -1.594451   -0.000352   -0.002096   -0.000868
O    -1.462302   -5.704729    1.167459   -0.002450   -0.003768    0.001744
H    -5.747439    2.125091   -2.299892   -0.000900   -0.000118    0.000246
H    -1.332131    5.707810   -4.586376   -0.000256   -0.003828   -0.001632
H     4.487585    4.075994   -2.992276   -0.003630   -0.008506   -0.002632
H     5.447944   -0.541142    0.921189   -0.003958   -0.001414   -0.003744
H     1.067366   -4.577091    2.472743    0.001080   -0.000452    0.003758
H    -4.799676   -2.588190    1.603807   -0.001410   -0.001678    0.003890
H    -6.626470    1.229261   -0.151540   -0.002146    0.000432   -0.006718
H    -3.640098    5.705539   -3.806450    0.002060   -0.003840   -0.004152
H     3.322653    6.273488   -2.956706   -0.000228   -0.006622   -0.005078
H     5.773504    1.916263    1.000809   -0.002702   -0.003458   -0.006182
H     3.369390   -3.827964    2.908078   -0.001968   -0.000370   -0.001024
H    -3.566130   -3.184287    3.652770   -0.004114   -0.001288   -0.002738
H    -5.303527    3.665628   -0.235125    0.006814   -0.006328    0.006930
H    -1.830324    6.827263   -1.968390   -0.008032   -0.000562    0.008850
H     3.748693    5.166293   -0.383387    0.005282   -0.001594    0.002194
H     4.481577    0.588418    2.809145   -0.009362   -0.002594    0.000572
H     1.418193   -2.641646    4.550943   -0.003870    0.003280   -0.003764
H    -4.203418   -0.479283    3.273111    0.002672   -0.000194   -0.004332
H    -3.719680    1.482955    0.737243   -0.009194    0.015230    0.001496
H    -2.614206    4.471246   -1.203960   -0.001468    0.006418    0.000504
H     1.311334    4.775134   -1.205938    0.001650   -0.001666   -0.002630
H     2.763947    2.028954    0.477140   -0.002204    0.005080   -0.011640
H     2.290786   -0.967073    2.780837    0.005100    0.003000    0.010504
H    -1.577662   -1.041994    2.764248   -0.006324    0.005970    0.015688
H    -5.515647    1.824045    2.318736    0.014112    0.000644    0.008590
H    -4.590755    5.870802   -1.310441   -0.002486   -0.003276    0.009798
H     1.887551    7.184731   -0.929373   -0.004606    0.002308    0.000876
H     3.889332    3.719077    1.778799    0.006716   -0.007848   -0.000100
H     4.222826   -1.632893    4.109176   -0.007564    0.005914    0.002300
H    -1.974876   -1.508816    5.098145    0.004808    0.010776   -0.003618
H    -5.478221   -1.002676    0.459993    0.000578    0.003796   -0.008962
H    -4.273058    3.140672   -3.411083    0.006310   -0.002366   -0.002586
H     0.810670    6.171339   -3.865793   -0.000332   -0.004212   -0.004704
H     5.063890    2.964164   -1.302809   -0.003674    0.000710   -0.007250
H     4.137179   -2.325756    0.751724    0.002262   -0.001208    0.001954
H    -1.125939   -4.053595    3.002209   -0.004694    0.000718   -0.003998
H    -3.145727   -0.180798   -1.337703    0.003146   -0.021508   -0.041996
H     0.881306    3.158114   -3.636073    0.000160   -0.004308   -0.012484
H     3.269340    0.517535   -1.725280   -0.002888    0.002218   -0.028662
H     1.168095   -1.610160    0.686199    0.009838   -0.043256    0.072620
H    -1.310151   -2.423211    0.422191   -0.018450   -0.026728   -0.031076
H    -3.703851   -2.632192   -1.155505   -0.006512   -0.005878    0.003146
H    -3.931029   -1.939660   -2.786619    0.010834   -0.007144    0.006260
H     1.566537    3.363757   -6.027392   -0.008216   -0.003520    0.001262
H    -0.043468    4.031090   -5.684785   -0.002088   -0.000344    0.002600
H     4.154861    1.544102   -3.781024   -0.008006   -0.009576    0.002366
H     4.916737   -0.035632   -3.456879   -0.006280   -0.000306   -0.002880
H    -1.699621   -4.651412   -0.593725    0.005792   -0.002958   -0.002694
H    -0.108178   -4.573859    0.198557   -0.001218   -0.004012    0.001404
H    -6.174240   -1.825855   -2.234957   -0.002386    0.007964    0.012058
H     2.328109    5.500378   -6.089520   -0.000980    0.002362   -0.009354
H     6.722421    1.147815   -2.689631   -0.002542   -0.003212    0.002354
H    -2.423387   -5.780074    1.257663   -0.002968    0.011966    0.008262
C     0.560573   -2.053484   -2.968847    0.002126    0.047168    0.023598
H    -0.053475   -2.870049   -3.365501   -0.142978    0.149206    0.022770
H     1.507826   -1.978250   -3.509430    0.005212   -0.059798   -0.004118
O     3.030965   -2.227530   -1.813091    0.002988   -0.007360    0.008038
C    -0.226857   -0.036901   -4.428341   -0.010432    0.003524    0.035126
H     0.780656    0.062950   -4.832600   -0.052842   -0.020632   -0.091586
H    -0.877302   -0.601680   -5.111029   -0.087952   -0.066828    0.175410
O    -2.900868    0.723509   -4.296720    0.003604    0.001660   -0.005398
C    -0.242836   -0.744085   -3.061619    0.265752    0.286084    0.224402
O     1.207317    0.264068   -2.119131    0.074224   -0.106736   -0.473226
O     0.731178    1.660662   -2.056619   -0.062060   -0.077032    0.064310
H     0.496013    0.116087   -0.667417   -0.830828   -0.275772    1.594230
O    -0.282115   -0.174941   -0.061867   -0.071666   -0.065156    0.015068
H    -0.881399   -0.544627   -0.801824   -0.021440   -0.004364   -0.262030
C    -0.968635    0.995432    0.463610   -0.010174    0.042322    0.021146
O    -1.265440   -0.573552   -2.352188    0.007744    0.042714    0.081604
H    -1.358566    1.593209   -0.365206   -0.005416    0.039088    0.034542
H     1.577637    2.139389   -1.916952   -0.088408   -0.049260   -0.042078
H    -1.803267    0.586860    1.043846    0.024688   -0.066994   -0.012730
C    -0.066486    1.816635    1.334817    0.002462    0.006624    0.006166
C     0.144604    3.159983    1.056027   -0.001134    0.003854    0.000002
C     0.535004    1.241359    2.448070   -0.000068   -0.003734    0.002264
C     0.931534    3.928899    1.896282   -0.000116    0.002612   -0.001258
H    -0.313858    3.601313    0.182305   -0.000328    0.006104    0.000916
C     1.332578    2.007188    3.278717    0.000466   -0.002816    0.000516
H     0.365069    0.195926    2.659342    0.001000    0.002942    0.020142
C     1.522712    3.352581    3.008625   -0.001176   -0.002122   -0.001094
H     1.082018    4.974740    1.680019    0.003812    0.003096    0.001824
H     1.799669    1.563167    4.142397    0.004896    0.005662    0.000500
H     2.129363    3.951268    3.669647   -0.001890    0.000806   -0.003468
H    -1.359462    2.838500   -2.510460    0.005698   -0.000920   -0.005782
