19
Coordinates from ORCA-job job
  C           4.00885993168504     12.20328950902745     17.44315576505890
  O           2.39827012727243     14.01676150928480     18.92126168162534
  C           4.83978527150572     11.36679264988145     16.72276900432905
  C           6.43328180631263     13.15327489836342     16.48143482071717
  C           4.39158195801259     13.52295019275688     17.68632430873718
  H           4.54201174095630     10.34720589621026     16.53749728610432
  H           5.88872471986463     15.02066766850016     17.40211882120791
  H           3.05954463366749     11.86760659262701     17.83224388812021
  C           6.05072183336703     11.84146547461416     16.24171569847040
  C           5.61025509049312     13.99821058203982     17.20244276373892
  C           2.27864110764901     17.37864514008149     18.53421380112385
  H           7.37539551301109     13.52063927250065     16.10677455406232
  C           3.47068711385457     14.37463351508942     18.46637355684940
  O           3.16407129500943     16.51691693962134     19.46103243630812
  O           1.60656517104662     18.16336901534016     19.31608490021693
  H           6.69876140381264     11.18833342845743     15.67885102352666
  O           4.00055793523687     15.63164444440699     18.61383467815729
  H           3.02891398899638     17.85575374389783     17.85273627013780
  H           1.69973671034635     16.60772498809900     17.95978847390804
