9
Coordinates from ORCA-job job.QMRegion
  O           2.39827012727243     14.01676150928480     18.92126168162534
  C           2.27864110764901     17.37864514008149     18.53421380112385
  C           3.47068711385457     14.37463351508942     18.46637355684940
  O           3.16407129500943     16.51691693962134     19.46103243630812
  O           1.60656517104662     18.16336901534016     19.31608490021693
  O           4.00055793523687     15.63164444440699     18.61383467815729
  H           3.02891398899638     17.85575374389783     17.85273627013780
  H           1.69973671034635     16.60772498809900     17.95978847390804
  H           4.16048117929446     13.73668217340691     17.88207954596196
