11
Coordinates from ORCA-job job.QMRegion
  C          -0.19074919981425     -1.32946613971582      2.89742088990974
  O          -1.03059244545679     -1.39909360207972      1.79983307332865
  O          -1.54843166844525     -1.00660864372609      3.12546536363491
  C           1.90984960631313     -1.46448282828741     -0.66524142761842
  H           2.55911214049559     -0.75912904375247     -0.06396209936926
  O           0.90571225501126     -2.00150410903460      0.02490436111267
  H           2.40038636610061     -3.33494505169443     -1.08083927962884
  O           2.93834107182631     -2.52645952049719     -1.05550460166076
  H           0.49652646196194     -0.48823229479031      2.88544168117285
  H           0.17584268600421     -2.25481446802857      3.33145607695051
  H           1.66905808525545     -0.94399578158449     -1.65652333838548
