147
Coordinates from ORCA-job job
  C           1.71111767039806      3.77502197947974     -0.19679837197694
  O           0.98686051448205      2.68825682856272     -0.72324457094571
  C           2.92278938617059      4.00794403734276     -1.10984428082911
  O           2.11777005316161      3.57434063372339      1.12477233645242
  C          -0.42129765226121      2.72238169796897     -0.59306586432603
  O           2.55108308040969      4.28734309262188     -2.42908818186889
  C           3.81642093038749      2.76268467052323     -1.02884777911482
  C           3.01246536287816      2.48557961686948      1.35336640011982
  C          -1.04654173038583      2.74223725593427     -1.99520402518705
  C          -0.95022922573509      1.47569645763010      0.13494853781003
  O           4.98071866542706      2.90835309655612     -1.80041520437131
  C           4.23601828074545      2.50734795819500      0.42256186315217
  C           3.40911195581758      2.61820235830471      2.83255811310055
  C          -2.58166290000111      2.71033818542482     -1.88086067583088
  O          -0.60192635055173      3.89835258099384     -2.65519384053917
  O          -2.36225779791385      1.52432425824808      0.22752775269596
  C          -0.46164328602589      1.35697202655008      1.56744606329042
  O           4.89360030040220      1.24696462334743      0.41628835975942
  O           4.13281751634559      3.79177879094065      3.07700182902941
  C          -3.01259925097464      1.50139440480317     -1.02418076075736
  O          -3.18296189705818      2.69158936944538     -3.14148070578465
  O           0.58886497066083      0.53814844896796      1.65262984405405
  O          -0.96766881624928      1.90457298519705      2.51058110023563
  C           5.96546477275863      1.04678965170432      1.29952617879929
  O          -2.73798042260279      0.34669431205222     -1.75701353681063
  C           0.78190219527762     -0.13892889480500      2.88046758465241
  C           7.05788085984364      0.28394849465014      0.53268345755294
  O           5.60070153556450      0.34986268656684      2.45924189289107
  C          -3.61129824738559     -0.77301955834164     -1.65506047453285
  C          -0.19074919981425     -1.32946613971582      2.89742088990974
  O           7.44411856226972      0.96056837950899     -0.63055540481839
  C           6.54706746970483     -1.13077459301251      0.21816691141888
  C           5.08279422371462     -0.96510307136249      2.27274418840927
  C          -3.36772341740010     -1.53189682783101     -2.96943386388781
  C          -3.34896123140296     -1.64668297279071     -0.40660743659653
  C           0.32290539912442     -2.62602900115740      3.50557447581616
  O          -1.03059244545679     -1.39909360207972      1.79983307332865
  O          -1.54843166844525     -1.00660864372609      3.12546536363491
  O           7.55809891274289     -1.91475053232780     -0.35915275607353
  C           6.06791542020774     -1.84909180901794      1.48739943328451
  C           4.83202808612469     -1.48267807247380      3.69934958052578
  C          -3.97338536357279     -2.93858549357299     -2.95264715660099
  O          -3.88568618564008     -0.74999853508237     -4.01526108607761
  O          -3.86702338805247     -2.96628600647345     -0.55415632270644
  C          -4.05961698013758     -1.09793997799295      0.84498523641351
  O           1.55741944479645     -2.92243501630961      2.85885281546823
  O           5.47810802236993     -3.04073235102167      0.99141578885876
  O           6.02424561296567     -1.64881959082816      4.41409069669324
  C          -3.43939106693351     -3.64692613811530     -1.69638724466344
  O          -3.66001624768395     -3.63438166700744     -4.12624534313741
  O          -3.97878215180613     -2.01780408987726      1.91135339107002
  C           1.73655926970637     -4.13543967588640      2.35499105579907
  C           5.35626770204849     -4.16622599281961      1.80231166438988
  O          -2.04176411863395     -3.69655239544485     -1.81358323321864
  C           3.02039296157094     -4.17368009467667      1.53740806990375
  O           1.01653460316845     -5.07639308812698      2.55561143165241
  C           5.54064500478151     -5.38444980964686      0.87701670660141
  O           4.10038767104023     -4.25393179714496      2.45113057592598
  C          -1.35722038376867     -4.88499118437909     -1.47274415489605
  C           3.03091408636185     -5.34292198868064      0.54407108890582
  O           6.78531817642968     -5.36569853570225      0.24073167029905
  C           4.39725308232159     -5.38811462254641     -0.15413095851630
  C          -0.14763992759168     -4.92687433848428     -2.41503637189246
  C          -0.88039631334292     -4.93544275828118     -0.00931864872030
  O           2.03078391136124     -5.15083022630250     -0.45487090903060
  O           4.43998636854899     -6.53426284087544     -0.96525925769027
  C           0.69074118127479     -6.18021453953501     -2.12651415261435
  O          -0.62611949907445     -4.92825948901426     -3.73520248648065
  O          -0.03828643625719     -6.07505487237634      0.17570060643728
  C          -2.02069633085535     -5.12522635346667      1.02136244833777
  C           1.08665974561951     -6.18063787926964     -0.64081424057619
  O           1.79662421989874     -6.26992975828361     -2.97968324841772
  O          -2.06775612440580     -4.14043657104802      2.01561978736829
  C           1.90984960631313     -1.46448282828741     -0.66524142761842
  H           2.55911214049559     -0.75912904375247     -0.06396209936926
  C           1.59011944440220     -0.77336460708143     -1.98149510813323
  C           2.61289477657033     -0.15263915584615     -2.68629912913149
  C           0.31487252228870     -0.80274156216362     -2.51478965194643
  C           2.35444716182917      0.45502842958485     -3.90067108459565
  C           0.05142570493685     -0.18949426071620     -3.72966589277928
  C           1.07013270739685      0.44290896460082     -4.42096902194542
  H           1.08093015451865      4.67434788262705     -0.16244399338013
  H           3.48431614369933      4.87727752295825     -0.74690557199665
  H          -0.73151440263811      3.61465992841570     -0.03349728963064
  H           1.71156628869188      3.84587736851089     -2.63460046595527
  H           3.23281491740657      1.89444740461763     -1.37272501831349
  H           2.49587285129541      1.53343430062214      1.17520641724880
  H          -0.70515365464650      1.84158672650348     -2.52877667682514
  H          -0.61494660672412      0.57789460574519     -0.40312078405714
  H           4.74903547787842      3.40454358620623     -2.60340062052601
  H           4.93845902183518      3.29003095313677      0.74169018299430
  H           4.05435850959279      1.78578794819654      3.11438538737354
  H           2.49091423929283      2.58952151608696      3.43098787466892
  H          -2.91759674400309      3.62852155218605     -1.38576348131512
  H          -1.20362069144587      4.07794880295750     -3.39835224242812
  H           3.55661748878817      4.55240912360033      2.90772617183901
  H          -4.08120854673297      1.56800531948042     -0.77838971552598
  H          -3.18020131703769      1.78437933083958     -3.48930365400707
  H           6.34970857992834      2.00934315830473      1.66472856987321
  H           1.80800815759066     -0.50952797690553      2.88844040412695
  H           0.56967560749761      0.51965076769384      3.73331351208131
  H           7.95366100192231      0.20457601051485      1.15809812966111
  H          -4.65302298196318     -0.42033657496520     -1.64329571733925
  H           6.66079893020650      1.33459279441430     -1.06824666263778
  H           5.67811939518426     -1.06148383468631     -0.45749390305155
  H           4.13622801122710     -0.92516813996810      1.71088525694085
  H          -2.28126266261979     -1.65012747194213     -3.08413419262058
  H          -2.26235130704074     -1.69990925632560     -0.23632699845747
  H           0.51171818879266     -2.47122679731059      4.57464876814867
  H          -0.40713615923340     -3.43389483992870      3.33975409409935
  H           7.99003864554878     -1.39128677056926     -1.05453163440694
  H           6.92820158913363     -2.09795005275144      2.12456446458891
  H           4.16885169103566     -0.76921913055979      4.20383396984260
  H           4.34155105729650     -2.45542135410481      3.65877541026107
  H          -5.06530281576565     -2.88325427528444     -2.89951565669711
  H          -4.00870266984947     -1.32302559081351     -4.79083998326726
  H          -3.62379507978697     -0.13403339188918      1.10824446846007
  H          -5.12240282150306     -0.98100322844229      0.60105617308805
  H           6.43723700286637     -0.77968934934011      4.53511366462656
  H          -3.86623598985264     -4.65601928871420     -1.61514143101664
  H          -2.72965562473166     -3.91723939924878     -4.09827449893014
  H          -3.54113016991558     -1.62294217203343      2.67991901600099
  H           6.09185800151020     -4.16285445368225      2.61768940356891
  H           3.08155904562836     -3.23435820998213      0.97330775309666
  H           5.50025725938160     -6.30254779422753      1.47152758351492
  H          -1.99898795662140     -5.75529455588483     -1.67598981649071
  H           2.84120192485253     -6.27993500609180      1.08022587059806
  H           6.95603205666497     -4.46867033818205     -0.09431375202821
  H           4.48155512811401     -4.47538048571328     -0.76580860267074
  H           0.45499148399042     -4.02316634095167     -2.22620191187685
  H          -0.32640142075214     -4.00544029956012      0.20338901394288
  H           5.36752810406962     -6.69629094241154     -1.20989069996706
  H           0.06961672998453     -7.06276460604149     -2.32157681455707
  H           0.09674146438849     -5.21180587794158     -4.32080275185478
  H          -1.80416620624798     -6.07003990405475      1.52974093477703
  H          -2.98343529104166     -5.19676703382757      0.51050434231939
  H           1.53647427769065     -7.14558364996424     -0.36872280423012
  H           2.55897605102432     -5.83112225997366     -2.57290738014931
  H          -2.68785841343005     -3.42932762328483      1.75904805690788
  O           0.90571225501126     -2.00150410903460      0.02490436111267
  H           3.61141435276479     -0.17956963370054     -2.27083478076381
  H          -0.45040766227131     -1.32109481892016     -1.94937443060034
  H           3.15610937275101      0.93374349366211     -4.44105875136122
  H          -0.95001758429492     -0.20819807952328     -4.13197738285485
  H           0.86588915586291      0.91700691238415     -5.36797283565957
  H           2.40038636610061     -3.33494505169443     -1.08083927962884
  O           2.93834107182631     -2.52645952049719     -1.05550460166076
