13
Coordinates from ORCA-job job.QMRegion
  C          -0.30929315135258     -0.65825201147644      3.10492281086322
  O          -0.60086885585070     -1.05075434292245      1.98739368483180
  H          -1.35743890343828     -0.27561057946958      0.50748554584257
  O          -1.49336334777278      0.08358043648330     -0.38900060818421
  H           0.56271880841923      0.16970295268044     -0.42262773150582
  O           1.44371685995373      0.11300024001945     -0.01275655678693
  H           1.73957448831111      0.64585069079361      1.85794123899622
  O           1.92255767551016      1.03427515315750      2.73211383032505
  H           2.69954816049565      0.54924946706608      3.03805900148890
  H           2.00343930674647      0.75859647872277     -0.47537396484802
  H          -2.14106964163279     -0.52960240245149     -0.77199828845041
  H           0.44366855249283     -1.22609585649579      3.67488054252157
  H          -0.74944028194675      0.25080118314680      3.52704121896185
