139
 xtb: 6.7.1 (edcfbbe)
C            0.72428245903206        4.86848233535870       -0.28432917689427
C           -4.26865631550053        3.23370566589687        0.30823821986264
C           -5.02548264195971       -1.85717072317300       -0.41994956861222
C           -0.78703730717885       -4.98148468777609       -0.60870889978055
C            4.15941498795062       -3.18329840425479        0.01683561217412
C            5.11235039778517        1.93185132404354       -0.49807641225231
O           -0.17698067709787        3.78399213048672       -0.20712696936149
O           -4.22699510818337        2.15978939428920       -0.57709982093865
O           -3.65893026630276       -2.06654432350048       -0.68325045647944
O            0.11564252251288       -3.90780596133355       -0.51345542397517
O            4.02086379832847       -2.00279249775999       -0.71508621074993
O            3.75275037541707        2.17143995665090       -0.73290397859446
C            1.40301656096198        4.88515775628318       -1.66684751299568
C           -3.87754085515887        4.50353238261491       -0.47597243755472
C           -5.65217016252552       -1.10100034821824       -1.60460672956483
C           -1.53701299693108       -4.85811759448080       -1.94538779039163
C            3.82374786810065       -4.35486058954016       -0.92429999464084
C            5.66579255986946        1.17162756345827       -1.71624826955166
O            0.47423222760262        4.86602603955124       -2.71803898435803
O           -4.71128415933807        4.71537884916839       -1.57947216085367
O           -5.54117842016242       -1.80067884570713       -2.81307603678570
O           -0.70359053946215       -4.94862784459713       -3.07023400694688
O            4.64708133287110       -4.36656402701290       -2.05574243092569
O            5.56198169824466        1.92012158253492       -2.89612956595316
C            2.31136699006497        3.66102248392076       -1.81627945222967
C           -2.40548047187956        4.42375488145601       -0.92325261753398
C           -4.99877613259535        0.28346995436149       -1.70056746653890
C           -2.24554494399629       -3.49678085791375       -1.93375346554832
C            2.34418395316417       -4.26053740113774       -1.32831245620964
C            4.90188360055623       -0.15651225400575       -1.83109637576000
O            3.14060543082189        3.75782532176068       -2.95223561625746
O           -1.99412511804655        5.64768623772418       -1.49361753111658
O           -5.61481648731367        1.07104099293711       -2.68975530303166
O           -3.03160505779647       -3.29444220683844       -3.08281395467693
O            1.95503837638816       -5.37236381338571       -2.10291530598285
O            5.43352945050148       -0.97522097936609       -2.84295763041926
C            3.23381965000026        3.48455425928405       -0.60488648098649
C           -1.48596209757113        4.07789950898355        0.25958698698775
C           -5.09197343954970        1.04507208049291       -0.37185304096519
C           -3.16048583990680       -3.39626463023836       -0.70828535144828
C            1.43629844645996       -4.18762969740617       -0.09059038054338
C            4.95447646785046       -0.94764824965540       -0.51769587604674
C            2.49041110417943        3.65109259018702        0.73246826951462
C           -2.05481028472573        2.82733746337939        0.93422309673459
C           -4.68714063773252        0.17138059565597        0.83462993705612
C           -2.40585596727323       -3.74716457841147        0.58837552203982
C            1.93756517464749       -3.05194111730016        0.80586287577728
C            4.58858396967225       -0.05846328319961        0.68653916076535
O            1.67711547415564        4.82211148731582        0.73495279289871
O           -3.37718202811501        3.06436460202889        1.39146313860546
O           -5.23128210208707       -1.15293268241376        0.76447904418845
O           -1.70601157618259       -4.98280471997283        0.44660686495165
O            3.30751388866757       -3.21336900825896        1.13533541097583
O            5.30013700834933        1.17861759959595        0.66761867255597
C            3.47634065923993        3.80545064889910        1.89911567275119
C           -1.26724104836543        2.34427294134230        2.14968379766924
C           -5.23533815605466        0.71971997987794        2.16529013427111
C           -3.37179575599933       -3.91682110167083        1.76661391914238
C            1.26644886118392       -3.00469212300850        2.17360645927191
C            4.94864888902549       -0.70305338035091        2.03581306951286
O            4.31876116089199        4.91739843967844        1.73992524119233
O           -1.58092962481124        1.08096139694605        2.35165428243458
O           -6.61333362859381        0.98856733719410        2.11156132086131
O           -4.32399728196278       -4.92365549628487        1.53398456491089
O            1.87384614607429       -2.07116257962712        2.92049192283355
O            6.29101113984257       -1.11310004406490        2.08042089698579
H            0.18889643018589        5.81245225043161       -0.13095135797951
H           -5.26259832677206        3.35169349198939        0.75887227469376
H           -5.53372098397560       -2.81685124852977       -0.27332333240130
H           -0.26690434823339       -5.94572939287723       -0.54601618031358
H            5.16683888509733       -3.28993690557693        0.43116493185116
H            5.66513822518831        2.86543535490585       -0.33761951468373
H            2.02362466729342        5.79473115002325       -1.71755626179570
H           -4.00105496359003        5.36946947361931        0.18394190841235
H           -6.72384021601786       -0.97978664995381       -1.41673769195502
H           -2.28738895897327       -5.66090484891341       -1.99863510587939
H            3.99595673599372       -5.29737018681317       -0.39412252868224
H            6.73118954159524        0.96707690623547       -1.56725791976313
H           -0.33630204969261        5.33855243728522       -2.45102743742235
H           -4.84720007843473        3.87088548994428       -2.04069754803069
H           -4.64859788898378       -2.18809602651467       -2.90283184117547
H            0.22284490770333       -5.08666246521511       -2.79639209655832
H            4.74098180550697       -3.45895697319503       -2.39303684133383
H            4.71053384159274        2.39772008168206       -2.91676630186327
H            1.68284545618828        2.76559503088575       -1.89867369626472
H           -2.30963347117867        3.62124679515622       -1.66966343807424
H           -3.93310220261752        0.15361320654458       -1.94061347332256
H           -1.46361229592902       -2.72595079339122       -1.87427383088020
H            2.20032497508342       -3.33520084124080       -1.90518536378955
H            3.84501438335774        0.06781178535597       -2.04181305133650
H            2.58245184193825        3.95665020125531       -3.71942269132131
H           -2.73516717457974        5.99327353640423       -2.01934056979722
H           -5.75880350789559        0.51594608053163       -3.47283527610089
H           -2.52534194333104       -3.59402188865981       -3.85345782893929
H            2.68179635085260       -5.58096080640290       -2.71297721474740
H            5.59326277044851       -0.42270347044938       -3.62468018575859
H            4.04148032838054        4.22551922329422       -0.66208247129469
H           -1.45503120188093        4.90535525691295        0.97917860104911
H           -6.12188569851820        1.40363702665669       -0.23441810607066
H           -3.98865130992468       -4.09995623704600       -0.83375447480148
H            1.47279321243007       -5.12229210344636        0.47491590915379
H            5.96229046543266       -1.36043580605725       -0.37866058639258
H            1.86678574610941        2.76903803612178        0.91655297242617
H           -2.07621890701824        2.00494134418207        0.20879177275634
H           -3.59660007498864        0.12050112426723        0.89303704652205
H           -1.67946320002328       -2.96321413546636        0.83736126438055
H            1.79549906604016       -2.09212265391426        0.26114833874448
H            3.51230940942169        0.14817388564059        0.63506599419469
H            4.12471747896429        2.92803663496077        1.93956022574528
H            2.89938622253608        3.87672587421261        2.82772040577926
H           -5.01559744648745       -0.02060761046609        2.94192596840075
H           -4.74042681599249        1.65613516485351        2.41928740264803
H           -3.92912694517872       -2.98869089368086        1.91032709661426
H           -2.77981032184154       -4.13064412321189        2.66337089580425
H            4.74313551387045        0.03035904121628        2.82420134280704
H            4.34116986703268       -1.59314537909350        2.20591477302403
H            3.77216016734747        5.71641158928380        1.75486068207250
H           -7.08514773695333        0.14963881210547        2.00740935368729
H           -3.85700319927842       -5.76887595001065        1.46595452152642
H            6.85300489156244       -0.32593736225724        2.03234334762068
C            1.00687231893302       -1.28480918844875        3.73252322093237
H            1.64868279145714       -0.66274870783634        4.38843844174653
H            0.34139310781166       -1.90632846052895        4.32447715298050
O            0.39482351696353       -3.72640458004394        2.56091873349078
C           -0.90409051688283        0.33816533371813        3.35534069883922
H           -1.62874848606253       -0.36909726636058        3.76244417838643
H           -0.49691172474056        0.99631912918948        4.11116017119623
O           -0.51932735436212        3.00572272405011        2.82191551104363
C            0.24713084788409       -0.42170112228250        2.69373792200486
O           -0.21925230240281       -1.29427096947481        1.70003505619666
H           -0.82725808004518       -0.85871686546944        0.94433273150332
O           -1.55721963587476       -0.33889156980516        0.00467576042424
H           -0.83076691351593        0.04161819061793       -0.58499725255737
O            0.55542202985562        1.01679639931460       -0.67424697070021
H            0.82454813600846        0.81982544924638        0.24043935256340
O            1.13203292488977        0.50827287849879        2.12014782778151
H            2.01994721462161        0.11552318365868        2.08945611798108
H            0.22474450095119        1.92151558872409       -0.65167248429298
H           -2.03247417652197       -1.04440747166083       -0.47625907495986
