139
Coordinates from ORCA-job job E -262.785367782660
  C           0.72367987983505      4.86742024240955     -0.28453754881147
  C          -4.26943870655688      3.23430694709936      0.30801399717866
  C          -5.02372686194385     -1.85584144240231     -0.41980102146980
  C          -0.78668705583929     -4.98235579245067     -0.60761720771491
  C           4.15365747268971     -3.18280378127865      0.02073518940342
  C           5.11134694816766      1.93184375288195     -0.49851083188213
  O          -0.17614551179832      3.78326896204157     -0.20802098682443
  O          -4.22407805668174      2.15872079976172     -0.57431879364791
  O          -3.64976137737952     -2.06032020489975     -0.67901653489052
  O           0.11510692316228     -3.90762420006064     -0.51685926651290
  O           4.02164168974849     -2.00339144330160     -0.71527040604644
  O           3.75294152542053      2.17100479215844     -0.73333051369369
  C           1.40282809733716      4.88539907596215     -1.66712506824780
  C          -3.87772628590855      4.50386570016486     -0.47596339467164
  C          -5.65111026496725     -1.10137539583313     -1.60497643418344
  C          -1.53753711790622     -4.85907145900385     -1.94510090893595
  C           3.82175401510832     -4.35419112928185     -0.92271022761589
  C           5.66561684597686      1.17172853824036     -1.71636926163611
  O           0.47402604953065      4.86517640568187     -2.71753631970391
  O          -4.71138143323782      4.71550177002287     -1.57965839746389
  O          -5.54114266943813     -1.80090968542492     -2.81337835395273
  O          -0.70347669485437     -4.94831282803468     -3.07013653254184
  O           4.64615164105531     -4.36591208654467     -2.05431116747322
  O           5.56181413514511      1.91990751525761     -2.89597298270909
  C           2.31149191867979      3.66105066410590     -1.81684589090985
  C          -2.40526958945101      4.42398673250501     -0.92362211191810
  C          -4.99865310672112      0.28431436758694     -1.70223694830996
  C          -2.24452861514865     -3.49687676795502     -1.93490178588909
  C           2.34306954715314     -4.26037740184778     -1.32591330837313
  C           4.90194669608374     -0.15679167993485     -1.83126640058538
  O           3.14104472001442      3.75766788801776     -2.95235262151646
  O          -1.99363823308240      5.64845900147264     -1.49400661466656
  O          -5.61631166311975      1.07220121002662     -2.69051314765538
  O          -3.03183687130903     -3.29290557989612     -3.08263843735967
  O           1.95461948114524     -5.37223174068358     -2.10201154331558
  O           5.43361523836641     -0.97522877919616     -2.84292790394495
  C           3.23329578938435      3.48474182764032     -0.60463554530622
  C          -1.48566477825096      4.07926748324349      0.26049793957600
  C          -5.09233753975932      1.04568711863152     -0.37241552247531
  C          -3.15676644152160     -3.39352645249932     -0.70766332093558
  C           1.43427990728284     -4.18030110358036     -0.08775008894183
  C           4.95443427387665     -0.94761507577698     -0.51719053381102
  C           2.49024447948184      3.65159404564419      0.73298771512082
  C          -2.05488076346476      2.82841905739262      0.93455301240761
  C          -4.68985018247569      0.17186765869987      0.83554397791472
  C          -2.40269353978760     -3.74632631283584      0.59060243344287
  C           1.92854564561052     -3.03268381711726      0.79885893667472
  C           4.58963139941770     -0.05829044874432      0.68692668106309
  O           1.67744489200159      4.82211550577622      0.73580158959752
  O          -3.37772740718731      3.06415766529935      1.39284254696760
  O          -5.22914069632145     -1.15422789798817      0.76541403123761
  O          -1.70815579316615     -4.98573489656473      0.44587094716098
  O           3.29630657046466     -3.21193401545335      1.13949978916955
  O           5.30061121736672      1.17837257515145      0.66833679573195
  C           3.47650928104321      3.80557432215320      1.89893479902554
  C          -1.26586482702878      2.34280121860201      2.15134296260740
  C          -5.23726340133093      0.72047792205944      2.16608602026066
  C          -3.37146336255611     -3.91614354110584      1.76713486506659
  C           1.19253469425322     -2.92382544998503      2.14520866662880
  C           4.94866239234610     -0.70335902164245      2.03525839403618
  O           4.31897898160030      4.91751087773573      1.73990506619883
  O          -1.57360646849331      1.07361216985215      2.34497707435439
  O          -6.61544978237524      0.98925798545209      2.11231549070207
  O          -4.32342675507166     -4.92347401596746      1.53335896265103
  O           1.88479594587030     -2.06659822161735      2.94696484234641
  O           6.29076146355184     -1.11314860418236      2.08061793029520
  H           0.18901939800092      5.81227186457466     -0.13087964981077
  H          -5.26272385676349      3.35227967448471      0.75865920047078
  H          -5.53226246199766     -2.81672862411527     -0.27384828501901
  H          -0.26650091149344     -5.94578993957213     -0.54532626500735
  H           5.16491740778248     -3.28989256080496      0.43310884470814
  H           5.66496092365507      2.86534517529584     -0.33743067006123
  H           2.02368424332392      5.79472512616703     -1.71720279975576
  H          -4.00100359136962      5.36954690776601      0.18399150613841
  H          -6.72346131123052     -0.98029142945850     -1.41621753361440
  H          -2.28684539050029     -5.66187193708939     -1.99812247763708
  H           3.99539355733788     -5.29684951260902     -0.39310034003700
  H           6.73105852245567      0.96707472158183     -1.56684805488694
  H          -0.33639432426645      5.33867598925015     -2.45127111067024
  H          -4.84668812272549      3.87079763658981     -2.04097811174313
  H          -4.64861941326722     -2.18840595944212     -2.90356707734354
  H           0.22261194230605     -5.08675777312451     -2.79626173487031
  H           4.74093510720833     -3.45856189024617     -2.39230314442775
  H           4.71040374859650      2.39784550586877     -2.91684552825637
  H           1.68328517722208      2.76546922077499     -1.89950241266402
  H          -2.30966433317497      3.62204177842704     -1.67047716726328
  H          -3.93377128357316      0.15464530417798     -1.94354478441019
  H          -1.46080112546285     -2.72851614878043     -1.87671614837945
  H           2.20054699251289     -3.33543542941291     -1.90506996068298
  H           3.84506454678690      0.06738979601215     -2.04187879542877
  H           2.58236829918644      3.95650269286247     -3.71943950673825
  H          -2.73495776184945      5.99308070046222     -2.01966445367370
  H          -5.75854660418240      0.51651250460779     -3.47322433734877
  H          -2.52634381603232     -3.59396573075316     -3.85373019086667
  H           2.68204133983508     -5.58045616088221     -2.71256542180901
  H           5.59292780988563     -0.42250557555075     -3.62473823061886
  H           4.04128253449897      4.22560134600839     -0.66166047346392
  H          -1.45481481688629      4.90596814953156      0.97901077216060
  H          -6.12199977550703      1.40336270584148     -0.23464566850880
  H          -3.98724751272585     -4.09930272228337     -0.83245241552587
  H           1.47285780783735     -5.11773225442538      0.47959198717766
  H           5.96228035504290     -1.36035052910497     -0.37805598346637
  H           1.86745512979818      2.76902164297069      0.91852181120757
  H          -2.07970493992513      2.00884403716457      0.20568361888290
  H          -3.59826364708219      0.12233211061986      0.89846697556323
  H          -1.67476959387208     -2.96769655430576      0.84358912962058
  H           1.80242614535940     -2.08942269710988      0.25235227609697
  H           3.51250785869358      0.14743541604945      0.63680687871673
  H           4.12445845215190      2.92785279530044      1.93984918883117
  H           2.89969460689735      3.87644432133665      2.82793572719622
  H          -5.01578519599919     -0.02013430182699      2.94246756351319
  H          -4.74112742042784      1.65645430677825      2.41961134640478
  H          -3.93005542123873     -2.98915313511510      1.91099374449124
  H          -2.77925488874890     -4.12958848285297      2.66353208618881
  H           4.74259936918506      0.02980043165111      2.82446126213205
  H           4.33995091965724     -1.59247827744396      2.20602338025277
  H           3.77202180815228      5.71639838521782      1.75481657826613
  H          -7.08551094721080      0.14973160119109      2.00779792265708
  H          -3.85686154292281     -5.76870176905428      1.46602444720169
  H           6.85263700384346     -0.32557458534185      2.03219080587992
  C           1.03079904030524     -1.27689668361788      3.75355278077183
  H           1.65530984807967     -0.65977333615344      4.39405531367992
  H           0.34737462011267     -1.90389164156882      4.33065642106996
  O           0.39711952997799     -3.73868996965267      2.56342596460089
  C          -0.90127024258109      0.32372710890484      3.34580956115396
  H          -1.62862160783440     -0.37085332390570      3.76232073990458
  H          -0.49131497854180      0.98974199385209      4.10735263695086
  O          -0.52098451315999      3.00728398756364      2.82419975656639
  C           0.24987260964652     -0.46529111799257      2.68540036341464
  O          -0.13956760572419     -1.34558901085334      1.73586386278366
  H          -0.95028969426573     -0.81697678252794      0.80896531476606
  O          -1.54677243638039     -0.34091515638428     -0.02447564807467
  H          -0.80847692666943      0.07383835268312     -0.58093836903830
  O           0.51833328684475      0.99741989927117     -0.66327106325344
  H           0.82545382727186      0.81409660693339      0.24049923865549
  O           1.13602602577297      0.50995028510228      2.11407515616890
  H           2.02038014464624      0.11640551921431      2.08979888962141
  H           0.22726924022868      1.92103118737312     -0.65081899016658
  H          -2.05453306854380     -1.03061431173988     -0.49359001962084
