133
Coordinates from ORCA-job job_im3
  C           0.80135718483883      4.96416044365920     -0.39613405405524
  C          -4.14755506496511      3.24470275891808      0.53810782613677
  C          -5.05307495742794     -1.84232769189283      0.01658078693005
  C          -0.75800352502817     -4.78904334680557     -0.87871701423536
  C           4.22865335898289     -3.21614725706628      0.02710600768422
  C           5.18563621054034      1.98975666197215     -0.44731480447215
  O          -0.09008544101200      3.85885523677136     -0.31458047709159
  O          -4.22592180969466      2.14637283881131     -0.32111438381510
  O          -3.71748624069629     -2.01091808078297     -0.42288989878936
  O           0.18958679025356     -3.77512692776211     -0.61137135245169
  O           4.06643983670467     -1.95386038084117     -0.56064536974425
  O           3.84235025357289      2.24675646205295     -0.79814192904565
  C           1.46768427296234      4.95185379825786     -1.78008567866523
  C          -3.81572748980278      4.49044034607725     -0.31146057318489
  C          -5.83870807274129     -1.10894528705619     -1.08340476855459
  C          -1.51295941172550     -4.44731444160100     -2.17213251360676
  C           3.90174003411945     -4.27055226649154     -1.05565428332996
  C           5.81171849437180      1.18381253912131     -1.60008166192110
  O           0.53329073887333      4.97289198754918     -2.82616723203874
  O          -4.73714094901932      4.67784807892924     -1.34300319903726
  O          -5.88326585770315     -1.82578891181418     -2.28248643013149
  O          -0.64588894581461     -4.19774874831517     -3.24579106846816
  O           4.74292471109905     -4.14956243882137     -2.16290910713304
  O           5.77170529000394      1.88597964459822     -2.80883963018201
  C           2.32684362098233      3.68301407667816     -1.88707302126190
  C          -2.38205111974477      4.38426276873174     -0.86983757455295
  C          -5.17354497079465      0.25745359692881     -1.28978220687701
  C          -2.37394913444948     -3.20078810892842     -1.93419148653618
  C           2.42202214444637     -4.12163747445226     -1.47042901114943
  C           5.05128325443918     -0.15029850181243     -1.71216109382954
  O           3.05530363768331      3.64029656090089     -3.08427626063331
  O          -2.00532323780407      5.56629949513838     -1.52898433598027
  O          -5.87071020970170      1.01912672971682     -2.23557963952088
  O          -3.22261839241730     -2.93990955485091     -3.01797679393212
  O           2.02938384381642     -5.10640675546968     -2.38725550039669
  O           5.60472258779990     -0.98703692217671     -2.69266568167930
  C           3.32521012066285      3.56961045233716     -0.72873666298035
  C          -1.36852690109908      4.09757003652149      0.25510849916062
  C          -5.08366280468858      1.05871650139166      0.01470390444021
  C          -3.25176678285067     -3.32784918957792     -0.68467127493258
  C           1.50235540396965     -4.19361471207904     -0.24816350504103
  C           5.03566497231486     -0.91770262011304     -0.38392014823985
  C           2.64411369267835      3.82913645846222      0.62615031501530
  C          -1.87460759340448      2.85254223914930      1.01871145849983
  C          -4.55585504833553      0.19901076134638      1.18616286541541
  C          -2.45575523393777     -3.86285826924527      0.51448130445491
  C           2.02341769686765     -3.22584577011172      0.81824839502238
  C           4.64938390154532      0.00968115593205      0.78428752055466
  O           1.78538243511892      4.96373285053810      0.59625239436175
  O          -3.15772938647987      3.07733251432755      1.54062648668267
  O          -5.11161239884902     -1.11245652232589      1.20430346154631
  O          -1.66693443049280     -4.98604130224748      0.16565586015648
  O           3.37069266141008     -3.41539117894303      1.14862533665990
  O           5.31210590986063      1.26837048472880      0.74832118141033
  C           3.67481565131227      4.10313155928478      1.73262064050310
  C          -0.96693326916405      2.34684967880742      2.13774984768053
  C          -4.95414826025259      0.77429513152548      2.56030814257996
  C          -3.37430048845290     -4.32535203067212      1.65708676521572
  C           1.08335963764775     -3.20168623327310      2.02351872385907
  C           5.01483281632503     -0.61755140660049      2.14021092728287
  O           4.50138574599596      5.18585776124999      1.41368932614665
  O          -1.59752921427147      1.46813796991233      2.92897986072756
  O          -6.32396027408233      1.03659260917234      2.63337441041743
  O          -4.31156514336678     -5.26707960454403      1.23006919451377
  O           1.31870811615435     -2.14196146721984      2.79962991091071
  O           6.37254271900715     -0.94922600602492      2.20785412551134
  H           0.25007820620449      5.90389599683664     -0.25047496979478
  H          -5.08581802664800      3.38508629907506      1.09133214301483
  H          -5.51042214504365     -2.81237267842743      0.25027108290609
  H          -0.24766734671643     -5.75732271081788     -0.98935391912508
  H           5.24569595600391     -3.35164257216108      0.41744893335375
  H           5.73133927085359      2.92922604743253     -0.27660936141229
  H           2.12627240274226      5.83531587699290     -1.85641612054081
  H          -3.87605541027111      5.37713512252883      0.33181259278706
  H          -6.87656684619862     -0.97294657980349     -0.75860713213725
  H          -2.18068609563835     -5.29251767384903     -2.41023329767255
  H           4.05573272296914     -5.27414832258263     -0.64144379629802
  H           6.87022428462120      0.99197332094200     -1.38191636856526
  H          -0.32837963340159      5.26902110209968     -2.48051874141139
  H          -4.90137583660564      3.82616242443329     -1.77594342977641
  H          -4.98459188947257     -2.11403401751412     -2.52275931047195
  H           0.19619007443080     -4.66502330641797     -3.09435835561127
  H           4.84961802231669     -3.20841588026346     -2.38446365281603
  H           4.89136435963982      2.28503969942182     -2.91476810435705
  H           1.63839040927057      2.81714964492254     -1.82006029196063
  H          -2.34306882334403      3.53629584409694     -1.57701938285845
  H          -4.13537172471039      0.07874938751173     -1.62741448664653
  H          -1.69177249641683     -2.34545155815609     -1.75924529755791
  H           2.29354613228676     -3.11764559909251     -1.91828265809343
  H           4.00146653828651      0.09149063413608     -1.96402568242361
  H           2.46360681664296      3.90801646502471     -3.80367488858846
  H          -2.76287894380945      5.86594069131013     -2.06372540032460
  H          -6.20024666240335      0.40523067729054     -2.91390090930309
  H          -2.72355776816366     -3.07259849173579     -3.83820856891100
  H           2.74150871556002     -5.20456399122083     -3.04346633875103
  H           5.85175731276320     -0.43175266590140     -3.45168242007379
  H           4.13662794672870      4.30158927144080     -0.88257202915772
  H          -1.32056795036929      4.95013986196824      0.95069581138836
  H          -6.08062922435257      1.44636756386049      0.27871992191594
  H          -4.09787726208605     -3.99935222635261     -0.89827985830721
  H           1.46751417042097     -5.22480487485134      0.15265092539614
  H           6.03170836843613     -1.35709453479772     -0.20701840241176
  H           2.05548683907589      2.93346840582423      0.88751528409606
  H          -1.91174726979942      2.01737748452921      0.28585040294756
  H          -3.45251005675610      0.12898547601900      1.11753092265729
  H          -1.81662616448813     -3.03734231586274      0.88122641022939
  H           1.92972547212383     -2.20472218725636      0.37971072121284
  H           3.55904191226025      0.17789216888131      0.73341776075860
  H           4.31251284636636      3.22919974136779      1.85317945143717
  H           3.12623797156458      4.28120106991106      2.66691036826623
  H          -4.63784025109392      0.03961585687455      3.31043951503263
  H          -4.42365842110492      1.70747035667970      2.74244195257993
  H          -3.91628059377211     -3.46031830042127      2.04453401946125
  H          -2.73142021828148     -4.72081090126301      2.45164403813761
  H           4.73936322108781      0.09313928335412      2.92728518996285
  H           4.44736359019099     -1.53898900650626      2.28005816341413
  H           3.93461290957078      5.96105432582678      1.29912073284007
  H          -6.79539823061182      0.19457486869902      2.54209740515554
  H          -3.82859108677399     -6.05784996742321      0.94164566207193
  H           6.88171369172210     -0.13407550932249      2.08395971673249
  C           0.28330006727083     -1.78255791443819      3.77531541792685
  H           0.87231936308649     -1.33769216707462      4.57375390687765
  H          -0.22925349330125     -2.69092505631922      4.09469825223374
  O           0.17237352490377     -3.98841114583417      2.18097785670429
  C          -0.76452881070299      0.58384380829410      3.73870898662792
  H          -1.23342201521543      0.60296965985686      4.71777286762193
  H           0.26031196852738      0.98753044393706      3.74868777497022
  O           0.19216895585045      2.68101085734430      2.26168164834351
  C          -0.83650378559813     -0.86065777066839      3.30953874405079
  O          -1.94437253750302     -1.36474136653258      3.03463511937061
  O          -0.52864751140470     -0.40981598181404      1.24223022837501
  O           0.63790767588399      0.21120094345388      0.60817791265461
  H           1.01353712630513     -0.61018618707724      0.22886947986303
