19
Coordinates from ORCA-job job_im7.QMRegion
  C          -1.13356640580803      2.47030034234031      2.20234223212478
  C           1.14075728478250     -3.18990830468566      1.99758210750805
  O          -1.71287823248713      1.41518334264927      2.79529252301477
  O           1.44630652280830     -2.18396622043277      2.80553278652705
  C           0.40884975009819     -1.64383164873422      3.67367961304251
  H           0.97836739076672     -1.22096958560014      4.50865237050762
  H          -0.25155080817722     -2.43966960987133      4.00978876820605
  O           0.25776441352363     -3.99860867509460      2.18760978703178
  C          -0.90982737015633      0.57206919116544      3.66458657399318
  H          -1.58190122907654      0.24167241225849      4.43961560786835
  H          -0.06453719861007      1.18043774953970      4.04434888569635
  O          -0.11394145462823      3.02303721764896      2.54527836552367
  C          -0.47006601354136     -0.65523726879301      2.87415337507969
  O          -1.47025771832052     -1.29430063096307      2.24869661446086
  O           0.32353403704618     -0.13056953178497      1.64349821032099
  O           1.51335963057037      0.72448920750586      2.01402171046542
  H           2.05567985524878      0.06546367362999      2.46069117651132
  H          -1.73474324398428      2.77016069770753      1.35223378832422
  H           1.76615391645034     -3.17361351226228      1.10876587741920
