133
Coordinates from ORCA-job job_im9
  C           0.65462596031463      4.81855754627557     -0.37502093255863
  C          -4.36291313385376      3.36061615819161      0.41513092708677
  C          -4.99205564575487     -1.78155970855921      0.05115865187054
  C          -0.74879729404862     -4.74059570453301     -0.90883940084201
  C           4.28505763323691     -3.37302434986944     -0.18176184173802
  C           4.96811185836845      1.79667184769998     -0.27101683052733
  O          -0.29299493581999      3.78089624153177     -0.21694768219541
  O          -4.35169017146820      2.22296645707625     -0.38762136896809
  O          -3.62219378436329     -1.87985559428725     -0.30375273729464
  O           0.22349091052052     -3.75662943029572     -0.62857232452257
  O           4.16339674329862     -2.15259629006424     -0.84133715658997
  O           3.58598487917477      1.95821409196857     -0.52843652819741
  C           1.31885223875118      4.64628843213523     -1.74830034901571
  C          -3.97754090908359      4.55843865603592     -0.48129097592653
  C          -5.76948200674122     -1.12241590399966     -1.10104338649362
  C          -1.49295671547655     -4.29857920903990     -2.17552132867075
  C           3.87481348443644     -4.45615821826056     -1.20240686279209
  C           5.62309929673397      1.18168147296215     -1.52023674575496
  O           0.38416227706152      4.62658251473825     -2.79237525918428
  O          -4.83716364390035      4.68927489841915     -1.57196161999618
  O          -5.73800426526538     -1.87102407030146     -2.28059317084534
  O          -0.62185971186279     -4.09471699456050     -3.25465212135034
  O           4.67701828276013     -4.41147712175427     -2.34326182748245
  O           5.50176857791458      1.99902162529756     -2.64841469481069
  C           2.08641078829704      3.31929366389331     -1.73851795259880
  C          -2.51783444601352      4.40346789222663     -0.95912958710931
  C          -5.16831672857717      0.26958514970122     -1.32181267714647
  C          -2.21868010280593     -2.98623431110742     -1.85228571175547
  C           2.39405407593338     -4.24007801482013     -1.57172670675712
  C           4.96321382322765     -0.18218498042225     -1.75783994381998
  O           2.82121254724125      3.13237715884441     -2.91901371292649
  O          -2.08918672736131      5.53916628224124     -1.66439436485325
  O          -5.87789305021015      0.97311298968991     -2.30427327855693
  O          -3.00203051899579     -2.54728712209882     -2.92914505272922
  O           1.91964540257125     -5.23666379944529     -2.43863072760919
  O           5.56376377519706     -0.86162088724745     -2.82751405166770
  C           3.06818850167405      3.27588930007921     -0.56383674749750
  C          -1.57985902991118      4.16854767301658      0.23339114888547
  C          -5.16027094626850      1.10499321479099     -0.03457187168932
  C          -3.13247839855580     -3.16641235249230     -0.63572912288122
  C           1.52583070087911     -4.21905638366506     -0.30822023507212
  C           5.04111114700130     -1.07990606501295     -0.51689534495918
  C           2.36262159382443      3.61756928185534      0.75809054333726
  C          -2.14890636599144      2.99567749981950      1.02749537403064
  C          -4.62238878881602      0.30162158680454      1.17251149993143
  C          -2.34609837214537     -3.75447895007292      0.54542273324042
  C           2.11380668323288     -3.19433765745236      0.66128017848540
  C           4.62454669041676     -0.33261049809532      0.76743780897572
  O           1.61152008543763      4.81765525007931      0.64341206428972
  O          -3.44392755860618      3.26514136033478      1.49263167991709
  O          -5.13937646451531     -1.02721543473322      1.21228566757812
  O          -1.64218009037495     -4.92206765127572      0.15277548602202
  O           3.45641953320871     -3.44797806355384      0.96978147161239
  O           5.18179146655029      0.97638766361156      0.83577571469690
  C           3.37062071375058      3.84803118290719      1.89278179355235
  C          -1.28555059113000      2.59185954127359      2.20740922385940
  C          -5.07574492941366      0.88938147185512      2.52249109475582
  C          -3.26361034409850     -4.17836663099593      1.70091919077163
  C           1.30124782405373     -3.08640228554453      1.94126634048013
  C           5.15055777764821     -1.02582757375090      2.03908781749757
  O           4.28859706368725      4.85235646188844      1.57148080229892
  O          -1.67557529173249      1.36660929697789      2.57309517261039
  O          -6.46549786110773      1.01952090935424      2.58108593901849
  O          -4.25324739513156     -5.06937862129381      1.28276194454601
  O           1.71607857708104     -2.03114998668845      2.62958742847679
  O           6.52435961138733     -1.27777020897754      1.95483327745912
  H           0.16482008001388      5.79732077291372     -0.30478313045783
  H          -5.34046892297188      3.51432647720639      0.88951655941196
  H          -5.40359198733945     -2.76992040260743      0.29011228101444
  H          -0.27651061632413     -5.71990286156788     -1.05382410437611
  H           5.30294081088086     -3.53703735231788      0.19334328834442
  H           5.43355168259978      2.75607345657468     -0.01464842459815
  H           2.03465296473605      5.47046854911662     -1.89584987315996
  H          -4.06418559482821      5.47874261138114      0.10621602733487
  H          -6.82294242070887     -1.03293549675649     -0.81546517865725
  H          -2.24116831026815     -5.06433265973223     -2.43356696317729
  H           4.00186676559764     -5.44772378215404     -0.75715867913998
  H           6.69531246571682      1.04887378489870     -1.34227229956617
  H          -0.43318534202019      5.07767059183832     -2.50501086113002
  H          -4.96185120641168      3.81765973183500     -1.97831559071479
  H          -4.81184331398970     -2.05159574878300     -2.52605654254258
  H           0.20760801805612     -4.58525805037764     -3.09717489536500
  H           4.77008282183794     -3.48650463713186     -2.62325702314016
  H           4.57714927195131      2.29255133415137     -2.74061160948068
  H           1.35877945172191      2.49975593213276     -1.60131546389826
  H          -2.45483539277315      3.51145331805654     -1.60443694844386
  H          -4.11420425834537      0.13807182955132     -1.62798058968270
  H          -1.46424541926784     -2.22352063368193     -1.58373464043713
  H           2.29829278583055     -3.24968968270224     -2.04721938895440
  H           3.89202846538534     -0.00966957026555     -1.96632144039966
  H           2.25989362523115      3.39058150639590     -3.66658883788586
  H          -2.81701345594061      5.81498374269265     -2.24828538878601
  H          -6.13463904045518      0.33126919458298     -2.98747871267083
  H          -2.50635726136014     -2.71360089255115     -3.74720297321642
  H           2.59985804133549     -5.37629999836427     -3.12067685536951
  H           5.75507933813660     -0.20270639611816     -3.51489129088145
  H           3.87459688965040      3.99886791427415     -0.74281781965794
  H          -1.51444683178697      5.05521556058033      0.87458258572790
  H          -6.17982836492067      1.44853800983466      0.19201566045257
  H          -3.96049965368249     -3.83738481831928     -0.89722965107371
  H           1.48108598052265     -5.20566401859207      0.16759463307759
  H           6.06480555052469     -1.46244959145586     -0.40110289402484
  H           1.69710773387785      2.78233164229302      1.02201685561958
  H          -2.16096806065972      2.11238911698820      0.36443328026825
  H          -3.52134665415899      0.26388861641243      1.12568979238816
  H          -1.64629289284243     -2.97832010881414      0.90133375023724
  H           2.00977273949119     -2.20057356329723      0.18577768642449
  H           3.52374198819437     -0.27172305824895      0.79050279436374
  H           3.93120979673402      2.92801807600579      2.06283314935725
  H           2.80228323869135      4.08739777467311      2.79892198545291
  H          -4.70357580010542      0.21734516694364      3.30602137748182
  H          -4.64173037394304      1.87654985793017      2.67381702079588
  H          -3.76069003831611     -3.29239652507428      2.10043954023592
  H          -2.62748056555405     -4.61521278322014      2.48066246473945
  H           4.92607232642197     -0.37004506986749      2.88886510594441
  H           4.64742389592952     -1.98279867748671      2.18146717169378
  H           3.78951247953888      5.66988324519998      1.42664125410966
  H          -6.84819143415915      0.13971688625926      2.44448155270747
  H          -3.81071012702185     -5.86125282323820      0.94043074914206
  H           6.97248028496955     -0.42406087887439      1.85628568811269
  C           0.75823623025179     -1.33267072084393      3.45233343279463
  H           1.35575123453636     -0.88351508092745      4.23890410533263
  H          -0.00501970510671     -2.01843053256843      3.81156392370578
  O           0.41176660614033     -3.83880725700700      2.27738029066266
  C          -0.81448619035575      0.57787079755560      3.42885300185659
  H          -1.50055864683614     -0.08060702732228      3.94844465007238
  H          -0.24430579107209      1.24285500353383      4.07457784048846
  O          -0.39799170593751      3.25674677317688      2.69957904704752
  C           0.09196949131512     -0.29140038828235      2.55091385166700
  O          -0.56265407578219     -0.87342509304734      1.51322879896533
  O           1.05343273303608      0.48842295704801      1.89710643527492
  O           1.93361138069817      1.16255395828020      2.93565763860007
  H           2.64136798021867      0.48124729197631      3.02425406008184
