19
Coordinates from ORCA-job job_im0.QMRegion
  C          -0.53914614855125      1.81041612870870      1.64360516981330
  C           0.77435230547935     -3.06093640663040      2.01350557491924
  O          -1.13341721723493      1.36373758699917      2.73634042536035
  O           0.93813208305445     -2.11521514452234      2.91162286096741
  C          -0.11385008314273     -2.02314210402873      3.91011354331613
  H           0.41268934855030     -1.71089389600731      4.82140648558123
  H          -0.62956672235373     -2.97153744284087      4.01833038574436
  O          -0.08192725776629     -3.90469850493187      2.07259226735367
  C          -0.42350365447607      0.37034943425098      3.49482504592867
  H          -0.45716584597980      0.71520994139714      4.54166959679223
  H           0.60166174683689      0.30183504789342      3.14498487041316
  O           0.61261395250957      1.56221745293470      1.31972823252830
  C          -1.07901481185898     -0.95523289672145      3.48278781069403
  O          -2.25276751292489     -1.15848339998599      3.33974604227587
  O          -1.17892280929551     -0.92450519346048      0.68473952231116
  O          -0.43531097455143     -0.88145215301564     -0.57887523774851
  H          -0.36136597342630     -1.84322056326527     -0.76447817444106
  H          -1.24512937118075      2.33816869961997      1.02487708331274
  H           1.46439035196938     -2.96664260817191      1.18758342083943
