19
Coordinates from ORCA-job job_im5.QMRegion
  C          -1.04000800017515      2.40527782862058      2.18100538730566
  C           1.08847643679308     -3.19874475090403      2.00174820532849
  O          -1.66115875972852      1.44464835030785      2.88616156917000
  O           1.34604760753708     -2.16425120392767      2.80504286300919
  C           0.32057538379129     -1.75530402549064      3.76039776595512
  H           0.91180656298995     -1.29660504753128      4.55482303084425
  H          -0.22430981694071     -2.63132820878249      4.11611366529931
  O           0.19723120023612     -4.00364763018895      2.18080993085112
  C          -0.84836951923617      0.57935771393092      3.73032121591709
  H          -1.41053047088593      0.50653519291501      4.65561385791204
  H           0.13280145915798      1.07277695754905      3.87753986482600
  O           0.06431538023146      2.83990201637720      2.40859740188237
  C          -0.78023310155490     -0.83749923868085      3.21910030873020
  O          -1.84724976085432     -1.40216909207733      2.84856203243407
  O          -0.25604097170911     -0.39136342926287      1.23975178555413
  O           1.00504041908773      0.30343174413504      0.89646392241755
  H           1.57013582391386     -0.15596577854615      1.55163479646306
  H          -1.66526707861064      2.73830804576126      1.35566682294342
  H           1.74070217027656     -3.19827370307550      1.13390244914269
