19
Coordinates from ORCA-job job_im3.QMRegion
  C          -0.96693326916405      2.34684967880742      2.13774984768053
  C           1.08335963764775     -3.20168623327310      2.02351872385907
  O          -1.59752921427147      1.46813796991233      2.92897986072756
  O           1.31870811615435     -2.14196146721984      2.79962991091071
  C           0.28330006727083     -1.78255791443819      3.77531541792685
  H           0.87231936308649     -1.33769216707462      4.57375390687765
  H          -0.22925349330125     -2.69092505631922      4.09469825223374
  O           0.17237352490377     -3.98841114583417      2.18097785670429
  C          -0.76452881070299      0.58384380829410      3.73870898662792
  H          -1.23342201521543      0.60296965985686      4.71777286762193
  H           0.26031196852738      0.98753044393706      3.74868777497022
  O           0.19216895585045      2.68101085734430      2.26168164834351
  C          -0.83650378559813     -0.86065777066839      3.30953874405079
  O          -1.94437253750302     -1.36474136653258      3.03463511937061
  O          -0.52864751140470     -0.40981598181404      1.24223022837501
  O           0.63790767588399      0.21120094345388      0.60817791265461
  H           1.01353712630513     -0.61018618707724      0.22886947986303
  H          -1.61308814431935      2.70684191883041      1.34112919714034
  H           1.75227644366776     -3.21887742700684      1.16588490981021
