133
Coordinates from ORCA-job job_im7
  C           0.74518823387984      4.91270764564469     -0.41165794166953
  C          -4.22974612205009      3.28347696701980      0.48094648630090
  C          -5.03927249054492     -1.82562941369606      0.02598821065268
  C          -0.76384517315229     -4.77894881102153     -0.90281960250912
  C           4.22973984221356     -3.25518991194995     -0.06161621126255
  C           5.11654580879539      1.92104826750301     -0.41068855996280
  O          -0.15105488732816      3.81965915945116     -0.27539475064027
  O          -4.27720492397677      2.17056891456036     -0.35691701865417
  O          -3.69093600821718     -1.97432711382548     -0.37799594339104
  O           0.17563175172079     -3.76121792310770     -0.62808283881339
  O           4.11937322895545     -2.02440429716355     -0.70991746928271
  O           3.75163812747763      2.14261168687138     -0.70602614058645
  C           1.40898583092402      4.83181926845624     -1.79513882560122
  C          -3.87056614928678      4.51192376537042     -0.38221537099669
  C          -5.81893437326796     -1.11649166635756     -1.09567880457839
  C          -1.51708259138264     -4.39792280688847     -2.18614735401974
  C           3.86753596513019     -4.33298183977553     -1.10768676583824
  C           5.74929570622253      1.19094668170035     -1.61195458470643
  O           0.46974449778309      4.83008178949285     -2.83701055720240
  O          -4.76984887909245      4.68523336549761     -1.43500080698699
  O          -5.83607014760924     -1.84597707321396     -2.28748769984742
  O          -0.64692072820954     -4.16421374632453     -3.26089698748152
  O           4.70515663328585     -4.26310459750660     -2.22247675424406
  O           5.66372469409602      1.94256815124673     -2.78905265735295
  C           2.23676116198969      3.53943325948599     -1.85254270248148
  C          -2.42704409610624      4.37945710317671     -0.91454991550878
  C          -5.17324201151034      0.25704437623845     -1.30807383091735
  C          -2.32334115141736     -3.12269736719527     -1.90816688188572
  C           2.39373685840984     -4.14312770161135     -1.51819748784238
  C           5.03606162697791     -0.16074155193199     -1.77137813417148
  O           2.96712668296350      3.43258812730423     -3.04684425203848
  O          -2.03322992823595      5.54706949753459     -1.59018831434902
  O          -5.87178204931620      1.00000770798838     -2.26871603482596
  O          -3.14474802195407     -2.78005905808831     -2.99230806498562
  O           1.97055874536173     -5.13788086111376     -2.41407243835310
  O           5.60240228325836     -0.93143264211108     -2.79846751318800
  C           3.23740915129839      3.46658965302732     -0.69196771923212
  C          -1.44167151841860      4.10891203189034      0.23793774427897
  C          -5.11811636737273      1.07402255019192     -0.01138755878805
  C          -3.22139188457474     -3.28118498475776     -0.67602431337720
  C           1.49016078954281     -4.17600335421991     -0.28078146113485
  C           5.07690015040923     -0.99012682654465     -0.48212039875626
  C           2.54734735392864      3.77645304961180      0.64749182577493
  C          -1.97805864957464      2.89152372993608      1.00816783690365
  C          -4.59289797424198      0.23514978836201      1.17688541183034
  C          -2.43505816213497     -3.85367964788142      0.51153639455958
  C           2.01965453854763     -3.16700851983490      0.74848976487154
  C           4.69283171121322     -0.13447601835336      0.74127091319749
  O           1.73134698090073      4.93876286733850      0.57895430468204
  O          -3.26790514141798      3.13795556473463      1.50854101094456
  O          -5.13522789402688     -1.08317561266199      1.20370203516221
  O          -1.67359627711845     -4.98889129134551      0.14006074214859
  O           3.37202776139703     -3.36212892902946      1.06848632546126
  O           5.29511890044699      1.15503222607483      0.74458714236056
  C           3.57257616516979      4.03247271136221      1.76015080418809
  C          -1.13356640580803      2.47030034234031      2.20234223212478
  C          -5.01744058105859      0.81765294247942      2.53844077972985
  C          -3.35774876859575     -4.29915809067355      1.65352309003944
  C           1.14075728478250     -3.18990830468566      1.99758210750805
  C           5.13847642514448     -0.79393276866466      2.05626456332115
  O           4.44036236560693      5.08156407260877      1.43596721099648
  O          -1.71287823248713      1.41518334264927      2.79529252301477
  O          -6.39615950106010      1.02840997532147      2.60279599643031
  O          -4.31887027918274     -5.21803925905064      1.22938187915602
  O           1.44630652280830     -2.18396622043277      2.80553278652705
  O           6.50686827870650     -1.08937804817341      2.04529164845473
  H           0.20423160156838      5.86231299420430     -0.30276022194318
  H          -5.18207256529967      3.43412216038007      1.00602490124514
  H          -5.48439629569035     -2.80021616145603      0.26078543873432
  H          -0.25440311348644     -5.74304254391157     -1.02877630638582
  H           5.23908031841673     -3.41655786219754      0.33790377429291
  H           5.63096635259355      2.86991787970071     -0.21229470169941
  H           2.08664589547912      5.69398237660564     -1.90325542028615
  H          -3.93499757629764      5.40783361704830      0.24428802495931
  H          -6.86198545531847     -0.99397851893403     -0.78548730625394
  H          -2.21575064918337     -5.21210896504138     -2.43345105218699
  H           3.99891170423022     -5.32845474140718     -0.67067969073633
  H           6.81443245615960      1.02671717561239     -1.41683049421727
  H          -0.37437162357416      5.19062927838705     -2.50722036352936
  H          -4.92356336840351      3.82632396602909     -1.85756765154129
  H          -4.92473714090282     -2.09228005221417     -2.52956924323236
  H           0.19897954294595     -4.62140758442107     -3.09536059599843
  H           4.80467843620743     -3.33290324742919     -2.48624193131724
  H           4.76229199359604      2.29893427781788     -2.87681783291573
  H           1.53976107304261      2.69030506668989     -1.74658402849853
  H          -2.38437303317312      3.51741952495422     -1.60017918793248
  H          -4.12935851357643      0.09326445785200     -1.63065028116674
  H          -1.61177644272242     -2.30746277802713     -1.68631413627705
  H           2.28756090438927     -3.14796132881751     -1.98052647794310
  H           3.97376009899306      0.04580674067851     -1.98794494021019
  H           2.38822917538311      3.70654006712391     -3.77597580588965
  H          -2.78471278631386      5.84266779852585     -2.13296443948244
  H          -6.17774070505212      0.37511011388493     -2.94805981055730
  H          -2.64663022030502     -2.93925617816863     -3.81005217093197
  H           2.67653917882089     -5.25683577972702     -3.07274696403538
  H           5.82572599511677     -0.32800417717815     -3.52811183408507
  H           4.04700163219285      4.19111256826552     -0.87143581860413
  H          -1.39432545881291      4.97140776739795      0.91693118687158
  H          -6.12244254431827      1.44833894842009      0.23522101590434
  H          -4.06361445394157     -3.94457108724884     -0.91860761371790
  H           1.46730632163940     -5.18049869117259      0.16191985255987
  H           6.07833389184124     -1.42614955589054     -0.35065261475677
  H           1.92052091441930      2.90984777763243      0.91651485297109
  H          -2.00007790102348      2.02988684736157      0.31217997622820
  H          -3.49259700050883      0.17362108311284      1.12214089220409
  H          -1.77456942014565     -3.05387216483649      0.89061062567395
  H           1.88258515011411     -2.15677352494970      0.31419082139564
  H           3.59587022376386     -0.01853865305571      0.71135136811775
  H           4.17952078434111      3.13721521213266      1.89542050792362
  H           3.02144421192919      4.23808769479203      2.68539382369853
  H          -4.68106970664762      0.10650163240370      3.30377730781851
  H          -4.52413265736103      1.77304442311561      2.71022751923243
  H          -3.87658822523179     -3.42244657951567      2.04504016801236
  H          -2.72204244487686     -4.71272135090407      2.44604695870710
  H           4.89665559908366     -0.10406360466094      2.87790193425344
  H           4.60526866306719     -1.73113368003337      2.20714474491265
  H           3.90340141390174      5.87788375191712      1.31180435398197
  H          -6.83285926001837      0.16980658378505      2.49117655907880
  H          -3.85009608527539     -6.00742524620943      0.91485597677286
  H           6.98821313986413     -0.25478455260997      1.94568418891781
  C           0.40884975009819     -1.64383164873422      3.67367961304251
  H           0.97836739076672     -1.22096958560014      4.50865237050762
  H          -0.25155080817722     -2.43966960987133      4.00978876820605
  O           0.25776441352363     -3.99860867509460      2.18760978703178
  C          -0.90982737015633      0.57206919116544      3.66458657399318
  H          -1.58190122907654      0.24167241225849      4.43961560786835
  H          -0.06453719861007      1.18043774953970      4.04434888569635
  O          -0.11394145462823      3.02303721764896      2.54527836552367
  C          -0.47006601354136     -0.65523726879301      2.87415337507969
  O          -1.47025771832052     -1.29430063096307      2.24869661446086
  O           0.32353403704618     -0.13056953178497      1.64349821032099
  O           1.51335963057037      0.72448920750586      2.01402171046542
  H           2.05567985524878      0.06546367362999      2.46069117651132
