133
Coordinates from ORCA-job job_im0
  C           0.94055090863569      5.00297849194046     -0.39116111202789
  C          -3.82127338049450      3.04058906562917      0.66421593091349
  C          -5.09578306338366     -1.90405334301018      0.00228776513410
  C          -0.80654215203812     -4.79017805135607     -0.86196569341304
  C           3.99763332450894     -2.91427074985106      0.23804040341699
  C           5.28257058794518      2.13292143819700     -0.53736059117694
  O           0.14683780949904      3.82615153411294     -0.44382172343669
  O          -4.06237936364109      2.03748944532763     -0.27874342540148
  O          -3.81857533369474     -2.13455477950556     -0.56001793135330
  O           0.04537044965356     -3.67103354822576     -0.67130707681099
  O           3.84421321652016     -1.67386843373437     -0.38445629811566
  O           4.00825556540416      2.45207142048304     -1.02893282766951
  C           1.60263777791928      5.16158997588442     -1.76158479511334
  C          -3.56276823189294      4.35903425204135     -0.09812973512291
  C          -5.88817779496800     -1.09787774070766     -1.03740489276873
  C          -1.57252605420426     -4.59076703476516     -2.17660185218740
  C           3.79286421474994     -3.98857300486835     -0.85033393165831
  C           5.89453140289999      1.18249809541393     -1.58319357725860
  O           0.66076657223497      5.25152375709888     -2.79805051209795
  O          -4.57775637067540      4.62620273959424     -1.01725520438938
  O          -6.01070426522838     -1.78509273422176     -2.24917052578544
  O          -0.71046070509959     -4.30787410006871     -3.24696720003659
  O           4.72377324142765     -3.85315682843913     -1.88077016552313
  O           5.96683353195416      1.78709122098881     -2.84187989332388
  C           2.49365628560488      3.93353815845289     -1.97549982271093
  C          -2.19154866507087      4.30956130951020     -0.79875373008408
  C          -5.15019545716549      0.23106939178454     -1.23916974435482
  C          -2.54425978000816     -3.41645254916328     -2.01458679841041
  C           2.35166982287643     -3.86658620620881     -1.38625774305254
  C           5.00980261255885     -0.07158512621790     -1.62312281500442
  O           3.23128609399812      4.02046341669451     -3.16525910149903
  O          -1.86485556626777      5.55035817259852     -1.36526697887950
  O          -5.84485525446383      1.06267510269222     -2.12399909005985
  O          -3.45818197857210     -3.33787537154338     -3.07234157759028
  O           2.04940135334367     -4.88011877309245     -2.30630112153698
  O           5.53400759251905     -1.06209287923069     -2.46908722038658
  C           3.49310950996155      3.75734616719358     -0.82529614002172
  C          -1.09903331725828      3.91140349761770      0.20714968721331
  C          -4.94990858741933      0.98300924608117      0.08061904983046
  C          -3.37281440823033     -3.47436720637448     -0.72297785340310
  C           1.36684477603826     -3.95849600866148     -0.21957013756200
  C           4.85916692159527     -0.68851290288731     -0.23005208172969
  C           2.83960372268911      3.89894296046556      0.56250531898396
  C          -1.53086325719537      2.55176696669921      0.77445812876064
  C          -4.39781559461384      0.06817307813418      1.19555055681620
  C          -2.55158081817254     -3.91144601609677      0.49650185469797
  C           1.74409296819473     -2.92842120537126      0.85280102953552
  C           4.45809208484844      0.35486198978476      0.82606676951060
  O           1.89551986318396      4.96596154046027      0.62079524905581
  O          -2.72055670066351      2.71390830410484      1.49298796870900
  O          -5.02467710759939     -1.21196974303385      1.21146803020747
  O          -1.69506113806329     -4.99625460753048      0.19153006323886
  O           3.06466791527168     -3.07330299644588      1.29277315029527
  O           5.25038327413735      1.52882922670503      0.72784373194554
  C           3.87427101189294      4.24909295810775      1.64699955667565
  C          -0.53914614855125      1.81041612870870      1.64360516981330
  C          -4.67477931913511      0.62222756810781      2.61003277823711
  C          -3.43073439337102     -4.38035667405255      1.66548884192212
  C           0.77435230547935     -3.06093640663040      2.01350557491924
  C           4.68976954750872     -0.18187098314094      2.24859023350272
  O           4.59227431643484      5.40330469889604      1.31475721266399
  O          -1.13341721723493      1.36373758699917      2.73634042536035
  O          -6.00040978215522      1.03562369312733      2.75560205298304
  O          -4.32605500326905     -5.37832612674902      1.28217819402649
  O           0.93813208305445     -2.11521514452234      2.91162286096741
  O           6.01802913355916     -0.57703959602026      2.43393499669422
  H           0.31477347921275      5.87405513805531     -0.16155770684496
  H          -4.67020441040267      3.15092299002503      1.34992525194374
  H          -5.59184601880306     -2.85251710641877      0.24044943068340
  H          -0.20430630505926     -5.70638271098959     -0.90721618289554
  H           4.97956262238532     -3.01538044967612      0.71532590244619
  H           5.89727123158442      3.03404062775804     -0.41086086015466
  H           2.22975232420140      6.06614332445391     -1.75390173011150
  H          -3.55913573376124      5.18592259291486      0.62073657652123
  H          -6.90252475598436     -0.90889729309786     -0.67265161535983
  H          -2.15266153065044     -5.50514122391944     -2.37806800413601
  H           3.93321392021871     -4.98496568491512     -0.41792546234796
  H           6.91562411172537      0.91018612990403     -1.30010201960885
  H          -0.22218215845256      5.40248516889700     -2.41520005133209
  H          -4.78608995160496      3.81190697873719     -1.50009505875435
  H          -5.15074277855136     -2.16470880801905     -2.49735768821147
  H           0.15836246850266     -4.71944273932047     -3.08334855836290
  H           4.84907917984606     -2.90912221757108     -2.09528264137420
  H           5.12984523666898      2.24795109904352     -3.01114367075490
  H           1.84154384401107      3.04192435549916     -1.98745067610013
  H          -2.21786427494979      3.53041545093539     -1.57945142602158
  H          -4.13925051461848      0.00390625863480     -1.63032652419034
  H          -1.94439772309264     -2.48941129999349     -1.95763928881971
  H           2.22853173805766     -2.87455506698937     -1.85323249759038
  H           4.00222714941498      0.22583118165932     -1.96184545280431
  H           2.63372367991258      4.34365615182242     -3.85661337315382
  H          -2.65808896242288      5.88740263659492     -1.81628797836626
  H          -6.24550632698962      0.49250958667063     -2.80238260591596
  H          -2.97518611429113     -3.45489886780496     -3.90604015353906
  H           2.81697199841419     -4.97512442887596     -2.89736900464114
  H           5.86072485945875     -0.62473426134292     -3.27187039492683
  H           4.29813525802256      4.49877320597602     -0.93299515438585
  H          -1.05126230671304      4.62718306089965      1.03736742278169
  H          -5.90501208395672      1.41495319622947      0.41330701617545
  H          -4.22793286921373     -4.14822239924511     -0.86653215397655
  H           1.39463766056783     -4.95847012113044      0.22955847633300
  H           5.80593601862301     -1.16028978864546      0.06372514895818
  H           2.33779289816705      2.94929055551740      0.79851581280442
  H          -1.67533831263607      1.84476698424687     -0.06803976067632
  H          -3.30834220457417     -0.06010661972724      1.04159592053947
  H          -1.97651269537715     -3.02676445882482      0.82045895557089
  H           1.58682684428305     -1.91425544673351      0.44072566511333
  H           3.39054650336089      0.59566853523740      0.68503503135871
  H           4.59329797933967      3.43652582084213      1.74978220056925
  H           3.33309510689421      4.37776178628838      2.59205081439273
  H          -4.41481378811767     -0.17389317659043      3.31552230318375
  H          -4.02882184570262      1.47713229734144      2.80527426296648
  H          -4.00766091278137     -3.53021154477315      2.03593719660763
  H          -2.75563538756007     -4.72374023591008      2.45810662386604
  H           4.40484817464227      0.60270199708705      2.95959870589779
  H           4.05984111012138     -1.05883383510654      2.41319564490810
  H           3.95604710532896      6.12849813290314      1.23038609541450
  H          -6.56793709372406      0.25224500170432      2.70577179685531
  H          -3.81112944092760     -6.15809650273941      1.02281068869284
  H           6.57732900752961      0.20307459235264      2.29645269495009
  C          -0.11385008314273     -2.02314210402873      3.91011354331613
  H           0.41268934855030     -1.71089389600731      4.82140648558123
  H          -0.62956672235373     -2.97153744284087      4.01833038574436
  O          -0.08192725776629     -3.90469850493187      2.07259226735367
  C          -0.42350365447607      0.37034943425098      3.49482504592867
  H          -0.45716584597980      0.71520994139714      4.54166959679223
  H           0.60166174683689      0.30183504789342      3.14498487041316
  O           0.61261395250957      1.56221745293470      1.31972823252830
  C          -1.07901481185898     -0.95523289672145      3.48278781069403
  O          -2.25276751292489     -1.15848339998599      3.33974604227587
  O          -1.17892280929551     -0.92450519346048      0.68473952231116
  O          -0.43531097455143     -0.88145215301564     -0.57887523774851
  H          -0.36136597342630     -1.84322056326527     -0.76447817444106
