19
Coordinates from ORCA-job job_im8.QMRegion
  C          -1.17817783701218      2.49435988721854      2.20064254363536
  C           1.18279483070929     -3.16710296964737      1.98343952440856
  O          -1.72054464313556      1.39048743120732      2.73184671564422
  O           1.51681376744292     -2.14399527618841      2.75908899171019
  C           0.49913083025689     -1.55348595866386      3.60693827759703
  H           1.07358546826390     -1.13718283660899      4.43964342511977
  H          -0.20812977050306     -2.31080485237678      3.93405558055610
  O           0.31187689032435     -3.97573302174122      2.22289776731059
  C          -0.90445942647256      0.56489957275060      3.60205330638501
  H          -1.60457489719252      0.10858015299427      4.28696705582412
  H          -0.15083093619405      1.20070579104945      4.08255145135541
  O          -0.19297919770704      3.08142624163338      2.59157393403197
  C          -0.28758493077362     -0.54346130325318      2.75651004644154
  O          -1.14166590833059     -1.16538455191966      1.93416866424507
  O           0.63291461475811      0.12853694242008      1.75534094266451
  O           1.70008291163661      0.92818266551493      2.45453334359490
  H           2.27816696709641      0.20708145758946      2.76823764606964
  H          -1.77897808409877      2.79271245891114      1.35156361960249
  H           1.79292556578925     -3.16748058157082      1.08506959567445
