19
Coordinates from ORCA-job job_im2.QMRegion
  C          -0.89917257858007      2.26806234016159      2.06846506857362
  C           1.04770399422478     -3.17623138469106      2.02426491885716
  O          -1.53495580183894      1.45572662688720      2.91769722835538
  O           1.26864572949765     -2.12657358153216      2.81325376161674
  C           0.23274662449623     -1.82133447286959      3.80418230900285
  H           0.81598016459931     -1.39754142065583      4.61483193225774
  H          -0.27389963884765     -2.74607520321343      4.08424502955025
  O           0.13672716236333     -3.96266049149020      2.16555200796297
  C          -0.70100606299068      0.56463580439832      3.71331783682226
  H          -1.10231290183576      0.65208127203194      4.72023475966419
  H           0.34103583965251      0.89910255646004      3.64262405186098
  O           0.29109005523291      2.50534385010155      2.10568366007294
  C          -0.87704234537079     -0.88437086946188      3.35967760004169
  O          -1.98767881616228     -1.33660581797060      3.08715116645018
  O          -0.62392048176309     -0.49164662034613      1.15343364797221
  O           0.47846248024091      0.01054919600030      0.33140054473286
  H           0.65546223983102     -0.80487108503510     -0.15494002266674
  H          -1.56182405370136      2.65857519921352      1.30362633230896
  H           1.72321123423013     -3.18228417084658      1.17382471281835
