133
Coordinates from ORCA-job job_im6
  C           0.76427590090484      4.93243270116319     -0.41068310080522
  C          -4.20495479268794      3.27132218739704      0.49616567780831
  C          -5.04569319912824     -1.83147442240055      0.02246889688912
  C          -0.76504960363825     -4.78598319029393     -0.89781392863542
  C           4.22677255896570     -3.23615705162328     -0.03520777242184
  C           5.15391940419827      1.94895311447467     -0.43351451966118
  O          -0.12656603102531      3.83210846059401     -0.28320475564604
  O          -4.26133297644336      2.16253184382437     -0.34721405772903
  O          -3.70021472806076     -1.98759498707100     -0.39069653590452
  O           0.17521296392438     -3.76679721253888     -0.62660392334483
  O           4.11550610111684     -1.99619544251467     -0.67015552668333
  O           3.79042774588621      2.18143265154889     -0.73335502831844
  C           1.42796122912809      4.87112598593105     -1.79526273053846
  C          -3.85260236810519      4.50488061972984     -0.36186951180683
  C          -5.82642586137329     -1.11438092856059     -1.09306811679029
  C          -1.51904213570196     -4.41593161531533     -2.18410760526811
  C           3.87434316593157     -4.30938668177963     -1.09093892198028
  C           5.77928674380466      1.19313579381137     -1.62275653155152
  O           0.48940389430989      4.87327446579325     -2.83768226021463
  O          -4.75784935582055      4.68364558569143     -1.40874392358859
  O          -5.85211974531961     -1.83981161159119     -2.28747546026285
  O          -0.64909628287694     -4.17694432170566     -3.25816986548336
  O           4.71528198999826     -4.22790721789307     -2.20254937236980
  O           5.70077323499867      1.92742807337937     -2.81074833427923
  C           2.26947619954770      3.58728256752728     -1.86666804902867
  C          -2.41106263029854      4.37872530833148     -0.90127656251884
  C          -5.17367907605772      0.25654783672043     -1.30339552841253
  C          -2.34058271057490     -3.14804458148336     -1.91682893708833
  C           2.39972307192357     -4.13248571284571     -1.50515591509204
  C           5.05630986535550     -0.15662713847035     -1.76305749918442
  O           2.99686765425946      3.49995261608805     -3.06354194350940
  O          -2.02309934941224      5.55086367076265     -1.57268554885179
  O          -5.87070909933964      1.00585062637377     -2.26024499427777
  O          -3.17010361187099     -2.82826212193080     -3.00150123763221
  O           1.98772608599192     -5.12535188246658     -2.40754964168602
  O           5.61363339134482     -0.94667029021964     -2.77939144055906
  C           3.27187087090855      3.50471109344618     -0.70778553252891
  C          -1.41699662881382      4.10378784220462      0.24450769337215
  C          -5.10883272239062      1.06936272410800     -0.00445696117472
  C          -3.23382764334752     -3.29773086187410     -0.68003002597198
  C           1.48976266417409     -4.17992623100018     -0.27333058844780
  C           5.08649292182775     -0.96958223522865     -0.46302969265656
  C           2.58488498194591      3.80642624240868      0.63432782990992
  C          -1.94572469780282      2.87896071260363      1.01418758397504
  C          -4.58446246616305      0.22408448212743      1.17935840393886
  C          -2.44525098076517     -3.86142336518982      0.51093395398715
  C           2.01089976064311     -3.17706424507030      0.76765303115909
  C           4.71464729179622     -0.08697083789368      0.74324221000424
  O           1.75489580904376      4.95766171607582      0.57629048853562
  O          -3.23574640091030      3.12007123198777      1.51749509564045
  O          -5.13107894766876     -1.09219213305395      1.20241601446972
  O          -1.67483906701938     -4.99216007318006      0.14505912173077
  O           3.36404973835274     -3.35952016818568      1.08956835899170
  O           5.32906589030900      1.19369635847054      0.73160715633969
  C           3.61157094916744      4.06282682099846      1.74694665995336
  C          -1.08896320537168      2.43598916157223      2.19609819248704
  C          -5.00336092867279      0.80497303810395      2.54374625550689
  C          -3.36901029903910     -4.31507221088407      1.65022970978745
  C           1.11313117273656     -3.19632143030898      2.00271073677925
  C           5.11905978281626     -0.73557883668545      2.07482789277949
  O           4.46785450610173      5.12247659936807      1.42687990877423
  O          -1.69477390674411      1.42610250069075      2.84169654192715
  O          -6.37977067735065      1.03187466934743      2.60845263762659
  O          -4.32135626887622     -5.24057591462492      1.22077130968556
  O           1.39166898304445     -2.18154621143172      2.81891904869172
  O           6.48449419448523     -1.04226604201902      2.10254347064477
  H           0.21682443156015      5.87806974932157     -0.29261699282989
  H          -5.15364557348862      3.41966536226000      1.02935123624788
  H          -5.49544898340556     -2.80424994038936      0.25636501887523
  H          -0.25432913878868     -5.75021325227381     -1.01883029997558
  H           5.23528559390004     -3.39706876799935      0.36683329884574
  H           5.67722742714870      2.89653799604794     -0.24882269706519
  H           2.09784543381161      5.74124875166021     -1.89549166804700
  H          -3.91538569579176      5.39756361358646      0.26982243339680
  H          -6.86762162181182     -0.98699542264138     -0.77855127398435
  H          -2.20837379610715     -5.23890706175261     -2.42964118128717
  H           4.01169279598396     -5.30679421959170     -0.65903324231262
  H           6.84344028889600      1.02287007854346     -1.42359586245159
  H          -0.36046893677343      5.21427114623246     -2.50219237459339
  H          -4.91750936521033      3.82694432003691     -1.83338389786061
  H          -4.94467613641423     -2.09996697484575     -2.52828964640377
  H           0.19678803804650     -4.63421947329949     -3.09472285186952
  H           4.81696955824774     -3.29559182285514     -2.45784319150005
  H           4.80556558295823      2.29745959675852     -2.89861142134648
  H           1.57733464789819      2.73108707395644     -1.76881305254961
  H          -2.36993189272602      3.52110851639660     -1.59342729990273
  H          -4.13150230405421      0.08782033187829     -1.62977139636407
  H          -1.63666155930525     -2.32200983708132     -1.70843857888704
  H           2.28584462980775     -3.13496547415187     -1.96224525212157
  H           3.99463261036963      0.05650226868061     -1.98066992659827
  H           2.41213770379678      3.77143931485343     -3.78921713559022
  H          -2.77780069244869      5.84858848353231     -2.11077915943375
  H          -6.18528657984100      0.38406128244306     -2.93846626478742
  H          -2.67184068813780     -2.98204762675317     -3.81954722954804
  H           2.69703963918086     -5.23878674908523     -3.06441955634457
  H           5.83946680316893     -0.35669634725622     -3.52149526745986
  H           4.08184863885310      4.23360894030055     -0.88430167352631
  H          -1.37172625794403      4.96532113168986      0.92692141787420
  H          -6.11087401860153      1.44875741475753      0.24595105046101
  H          -4.07724752025948     -3.96262347311485     -0.91520454815914
  H           1.46591413106492     -5.19154156614784      0.15757475114023
  H           6.08542904087346     -1.41742139451620     -0.32598533260460
  H           1.96485717846764      2.92903505622895      0.90055876123355
  H          -1.96922319745032      2.02345636518422      0.30954904475657
  H          -3.48322544880321      0.16060624068455      1.12164077827146
  H          -1.79000889810496     -3.05494193270794      0.88683373135418
  H           1.86897905939254     -2.16601470165453      0.33054532708401
  H           3.61324739897136      0.05074835708368      0.69459002790896
  H           4.22661408153917      3.17364998806506      1.87259698621530
  H           3.06235723020412      4.25870022707266      2.67563567113149
  H          -4.67490932467220      0.08642200877143      3.30540714155910
  H          -4.49905053757004      1.75390590035225      2.71913441639082
  H          -3.89708174534728     -3.44317825547841      2.04137873103770
  H          -2.73314284409940     -4.72426242564833      2.44424135511851
  H           4.85868396373282     -0.03937329221210      2.88353501588263
  H           4.57613186204860     -1.66805206558030      2.21820408998268
  H           3.92410343897572      5.91359328799471      1.30615705547779
  H          -6.82679303482061      0.17756007536916      2.50457321194638
  H          -3.84673277809517     -6.03133644335812      0.91707781197912
  H           6.97773900580561     -0.21499234915481      1.99566283069881
  C           0.34680236141432     -1.72079697591950      3.72848874605260
  H           0.92102519927864     -1.26857232062364      4.54025033495972
  H          -0.24131215974544     -2.56717225972976      4.07860093973743
  O           0.22182395037495     -4.00192396830859      2.17593860751539
  C          -0.89809757504532      0.57438318972430      3.70558882537179
  H          -1.51961516622520      0.39196747574265      4.56892969684917
  H           0.03450812254813      1.12422315649119      3.96132304785891
  O          -0.03213882608107      2.94024194071081      2.49393798753573
  C          -0.68630636503610     -0.78528611613671      3.07788572839916
  O          -1.72613574385529     -1.37982501278887      2.60666665724528
  O           0.06406242328072     -0.25619871054686      1.39170589803615
  O           1.31241822048446      0.53594733898681      1.46272232579424
  H           1.81239159370418     -0.04590184311580      2.04487628568822
