133
Coordinates from ORCA-job job_im1
  C           0.89236108738239      4.99261921544356     -0.38680291240869
  C          -3.94284291910575      3.12250142091023      0.62928862989299
  C          -5.07740171773436     -1.87973890150028      0.00771977159579
  C          -0.78096537272215     -4.78284369704956     -0.86193644080538
  C           4.09131565358193     -3.02828851722607      0.17150253061977
  C           5.24197555154946      2.08151725804177     -0.49991143627440
  O           0.05587728452123      3.84440390452805     -0.39700728118562
  O          -4.12131744387236      2.08159040870103     -0.28670233899823
  O          -3.77497741290878     -2.08895478009777     -0.50997113163999
  O           0.10305640387833     -3.69446405257348     -0.64368839997072
  O           3.92523313964009     -1.78193805087389     -0.43923103361537
  O           3.94576056307462      2.37937373153370     -0.95152371864668
  C           1.55657912883763      5.09073476047815     -1.76430330627499
  C          -3.66085249864494      4.41488532708562     -0.16928100105706
  C          -5.87114977366079     -1.09996856869530     -1.05182100132888
  C          -1.54700095845348     -4.54602441397622     -2.17062600319999
  C           3.84571661431699     -4.09408521245769     -0.91738137928946
  C           5.86460174997093      1.18059590018905     -1.58215249454726
  O           0.61750930121753      5.15787184972976     -2.80499714758278
  O          -4.64190503672306      4.64958703052999     -1.13322597692067
  O          -5.96857296453543     -1.79672191088775     -2.25991054609532
  O          -0.68450641148729     -4.27659332480828     -3.24352938560902
  O           4.74387028804024     -3.95698698079915     -1.97697529011913
  O           5.90072070879347      1.82266531056145     -2.82386864918266
  C           2.43338910440369      3.84596243285651     -1.94071380266864
  C          -2.26458374391861      4.34696037176533     -0.81757242903218
  C          -5.16200428066344      0.24474876140733     -1.25480484344139
  C          -2.49017435250139     -3.35122019865697     -1.99113301364645
  C           2.38873408190902     -3.96154501575940     -1.40879469526872
  C           5.02007014965079     -0.10126865034910     -1.64783540069714
  O           3.16649603191544      3.88410894071772     -3.13587967971433
  O          -1.92045611422778      5.56690657312208     -1.41920343520290
  O          -5.86081641985798      1.05021037619060     -2.16064682070560
  O          -3.38816554541814     -3.22534044089157     -3.05728123819894
  O           2.05152287665631     -4.96901298065680     -2.32328641591522
  O           5.55589297693834     -1.04248229762628     -2.54081321149722
  C           3.43416428512947      3.69284042950573     -0.78914317238527
  C          -1.19884779071096      3.99163492031491      0.23288812247035
  C          -4.99914126156309      1.01439873972465      0.06069945305526
  C          -3.32796572775197     -3.42400173275581     -0.70800289359099
  C           1.42365280172584     -4.03270985565448     -0.22244089858544
  C           4.91438042153121     -0.77059204839991     -0.27414573535188
  C           2.77323468596424      3.87097308534433      0.58853220058467
  C          -1.65456576550753      2.67021113589023      0.87742510729886
  C          -4.45330865305052      0.11837654050008      1.19471856255866
  C          -2.51214541098316     -3.89149223769373      0.50482429787291
  C           1.85722631082210     -3.02619992899238      0.85048480231543
  C           4.50851357657674      0.23092520303793      0.82183707482546
  O           1.85401765608024      4.96122980270618      0.62060891882932
  O          -2.87883524085984      2.85604685648055      1.52822465245202
  O          -5.05218108692322     -1.17397962778269      1.21030533994605
  O          -1.67706849062457     -4.98842523783251      0.18790568172104
  O           3.18677040436653     -3.20660908794073      1.25235769333410
  O           5.25454802272223      1.43744595960815      0.74523202272077
  C           3.80358498559005      4.19351883734595      1.68343701706136
  C          -0.67399197904151      1.99537175355650      1.81358134248312
  C          -4.77383119870258      0.67908681570250      2.59676424433473
  C          -3.40448429160647     -4.35611733843844      1.66641316181710
  C           0.88707402755973     -3.09322718916695      2.01866889135271
  C           4.79626199793554     -0.33801112104846      2.22136762599750
  O           4.55841427421735      5.32681987863921      1.35990232816543
  O          -1.29275993042257      1.41139827184233      2.82954370925530
  O          -6.11741518914334      1.03874263388522      2.71597128539886
  O          -4.31496149505563     -5.33504859837876      1.26964975504797
  O           1.06472929021921     -2.10311855861642      2.87243619798957
  O           6.13794912779157     -0.70868028996511      2.35458924972278
  H           0.29705917787326      5.89241966542852     -0.18536472368745
  H          -4.82746599136753      3.24445451910292      1.26696550807028
  H          -5.55995335610903     -2.83633602508259      0.24458013836890
  H          -0.20956058666796     -5.72007190579547     -0.92662366011403
  H           5.08925960519198     -3.13569394781080      0.61506950390479
  H           5.83198083482475      2.99676503230508     -0.35611810044084
  H           2.19651535577208      5.98729778902563     -1.78692071650618
  H          -3.68455842687778      5.26636587710825      0.52094250405493
  H          -6.89474167630341     -0.93164341290125     -0.69940751364075
  H          -2.15358202085101     -5.44336675679104     -2.38081825385186
  H           3.99539925679467     -5.09427476764571     -0.49507529467163
  H           6.89917641191674      0.93459356683669     -1.32088812260858
  H          -0.25937830696433      5.36148829739187     -2.43256887559495
  H          -4.83078820288714      3.82037175717429     -1.59836546874248
  H          -5.09597567249777     -2.14889769383803     -2.50625704393025
  H           0.17366536986000     -4.71139653670384     -3.08506043748017
  H           4.86200361672725     -3.01268253235994     -2.18876870510846
  H           5.04753981542459      2.26211708230189     -2.97189864197575
  H           1.76818599758618      2.96290882028733     -1.92140089838640
  H          -2.26249859335059      3.54069139965300     -1.57172615043838
  H          -4.14087595902981      0.03574608425996     -1.62850638773910
  H          -1.86450395642600     -2.44009379416265     -1.90150103159907
  H           2.27013020735797     -2.96717434245328     -1.87557052436426
  H           3.99767494375270      0.17961140813852     -1.95781021949798
  H           2.56974206279757      4.18691856202152     -3.83686512352667
  H          -2.69865792439485      5.88835111193786     -1.90779365806287
  H          -6.23448221846662      0.46387542108521     -2.84083298794302
  H          -2.90035951406286     -3.33334089718678     -3.88914184794178
  H           2.79770474956663     -5.06695663667665     -2.94059161550118
  H           5.85930875834610     -0.56282445362163     -3.32878799578151
  H           4.24276144012371      4.42935888622748     -0.91315513007263
  H          -1.14975601119302      4.76174497930933      1.01409273257221
  H          -5.97042195996204      1.43002693794751      0.37000181738313
  H          -4.18406075283372     -4.09662362466999     -0.86799657922165
  H           1.42728170855518     -5.04374964457372      0.21342144766921
  H           5.88161680153398     -1.22448728613854     -0.01630335342960
  H           2.24640780614196      2.93740556177349      0.82974516380464
  H          -1.76117220784413      1.91848105099822      0.06689984394850
  H          -3.35661975361858      0.01227446085106      1.07191048956216
  H          -1.91187956631703     -3.02707479463326      0.84156121753765
  H           1.73703169372937     -2.00300978413281      0.44212950469833
  H           3.43112655246713      0.44330581688249      0.71368023269096
  H           4.49573044641900      3.35973550097439      1.79490994260648
  H           3.25557801477770      4.33717991274963      2.62294749532188
  H          -4.49163320269053     -0.09818750127285      3.31595746011699
  H          -4.16913048376179      1.56390013017544      2.78965100134405
  H          -3.96924932695473     -3.49983534493804      2.04120034198230
  H          -2.73880889346941     -4.71613405971565      2.45911245448760
  H           4.51803174414875      0.42192781169840      2.96054720744362
  H           4.19089078789153     -1.23248952305172      2.38283344125809
  H           3.94180138208747      6.06657912819879      1.26184194232557
  H          -6.65313071885146      0.23438497049382      2.64834070020314
  H          -3.81231317726370     -6.11995956291792      1.00114918064149
  H           6.67681846521513      0.08604179011590      2.21861114096611
  C           0.02517494066917     -1.94952527676561      3.87923253843304
  H           0.57402871016020     -1.59678950273719      4.75522105474204
  H          -0.48178649576583     -2.89824200980285      4.04352949640002
  O           0.00585466725885     -3.91288497936183      2.10742833953488
  C          -0.51446533716318      0.45851397460919      3.58438780425202
  H          -0.67196192734528      0.72098789173830      4.63976226770647
  H           0.53768364710543      0.54341711267261      3.31042522040657
  O           0.52024862863982      1.90824267963161      1.59389390210007
  C          -1.00273682901443     -0.93270642883781      3.45306813035874
  O          -2.15133099842073     -1.23194523618486      3.24394150277319
  O          -0.96956936832717     -0.78324669166541      0.77843463907871
  O          -0.10464938686129     -0.54795682192343     -0.37441917041300
  H          -0.04736288292995     -1.45845680507745     -0.71122418654158
