19
Coordinates from ORCA-job job_im6.QMRegion
  C          -1.08896320537168      2.43598916157223      2.19609819248704
  C           1.11313117273656     -3.19632143030898      2.00271073677925
  O          -1.69477390674411      1.42610250069075      2.84169654192715
  O           1.39166898304445     -2.18154621143172      2.81891904869172
  C           0.34680236141432     -1.72079697591950      3.72848874605260
  H           0.92102519927864     -1.26857232062364      4.54025033495972
  H          -0.24131215974544     -2.56717225972976      4.07860093973743
  O           0.22182395037495     -4.00192396830859      2.17593860751539
  C          -0.89809757504532      0.57438318972430      3.70558882537179
  H          -1.51961516622520      0.39196747574265      4.56892969684917
  H           0.03450812254813      1.12422315649119      3.96132304785891
  O          -0.03213882608107      2.94024194071081      2.49393798753573
  C          -0.68630636503610     -0.78528611613671      3.07788572839916
  O          -1.72613574385529     -1.37982501278887      2.60666665724528
  O           0.06406242328072     -0.25619871054686      1.39170589803615
  O           1.31241822048446      0.53594733898681      1.46272232579424
  H           1.81239159370418     -0.04590184311580      2.04487628568822
  H          -1.69887427192408      2.75133159179198      1.35472008880775
  H           1.75195607347290     -3.18261860130128      1.12388112876608
