133
Coordinates from ORCA-job job_im5
  C           0.78058517272098      4.94764301241630     -0.40553275228086
  C          -4.18374342731919      3.26199261682718      0.51238054874473
  C          -5.05040626651739     -1.83625861091644      0.02027977070660
  C          -0.76605836272371     -4.79436215535177     -0.89210911963396
  C           4.22401887240903     -3.22306657672353     -0.01098463991938
  C           5.18130397960994      1.97211419236906     -0.44433194470441
  O          -0.11128442472620      3.84528852704982     -0.29516993903136
  O          -4.24752194544840      2.15609189329023     -0.33601158143936
  O          -3.70717055405504     -1.99794091176594     -0.40115342007797
  O           0.17833920880558     -3.77920364552029     -0.62312454997294
  O           4.10193672364410     -1.97156294036108     -0.62539234830270
  O           3.82085641997937      2.21182012974052     -0.75228563244728
  C           1.44578606783635      4.90630174222551     -1.78972711016177
  C          -3.83910201615050      4.50006464493295     -0.34236971804998
  C          -5.83221252810032     -1.11251840526348     -1.08963270240272
  C          -1.51988365713726     -4.43205168237419     -2.18089792240438
  C           3.88418156235731     -4.29091158767747     -1.07780460611288
  C           5.80075994132772      1.19373452368937     -1.62097463861988
  O           0.50919808589437      4.91590367023839     -2.83412479019786
  O          -4.74993156059589      4.68214191433212     -1.38393779527686
  O          -5.86537807999229     -1.83435217967308     -2.28610488381318
  O          -0.65035849418741     -4.18891696949545     -3.25434106550976
  O           4.72712713943876     -4.19436142124327     -2.18682239373084
  O           5.73252887664094      1.91229650199439     -2.81880299198650
  C           2.29773780135618      3.62954559393074     -1.87558409361522
  C          -2.39993861440328      4.38149183514255     -0.88820694279850
  C          -5.17407364878666      0.25662387158773     -1.29789310282166
  C          -2.35436970394256     -3.17069791635161     -1.92321276673815
  C           2.40749377544472     -4.13163372566130     -1.49451927867783
  C           5.06411978865900     -0.15165106512561     -1.74382632520846
  O           3.02551847749515      3.56361061088377     -3.07293273002904
  O          -2.01658812420114      5.55736469610375     -1.55543269334392
  O          -5.87062753307468      1.01077124727133     -2.25093570276701
  O          -3.19143599210096     -2.87297354936653     -3.00807492279138
  O           2.00718299560129     -5.12242867450967     -2.40331287566199
  O           5.61595198724866     -0.96111409384096     -2.74751950929405
  C           3.29799853697705      3.53399454180801     -0.71586663177175
  C          -1.39742409570050      4.10347680073093      0.25016323366535
  C          -5.09997878829404      1.06537423693597      0.00321345717504
  C          -3.24288055877324     -3.31121117412750     -0.68172767835795
  C           1.49230555103759     -4.19547040879922     -0.26728385307906
  C           5.07838527794913     -0.94662715759876     -0.43246731135026
  C           2.61155776600604      3.82117687301591      0.62985583360136
  C          -1.91832933352071      2.87309597705158      1.02162603031015
  C          -4.57568108160917      0.21401645214735      1.18259688440868
  C          -2.45223292539359     -3.86547204137513      0.51248735611961
  C           2.00507780137804     -3.19808276677760      0.78212658733339
  C           4.71592926698584     -0.04090334588592      0.75713810179709
  O           1.76896981711548      4.96410014457459      0.58315347282807
  O          -3.20727645217730      3.10702650978671      1.52830814872641
  O          -5.12583496655745     -1.10029783585625      1.20273693135960
  O          -1.67549151850944     -4.99334363276496      0.15232698127592
  O           3.35782984448428     -3.37185306250410      1.10932171512226
  O           5.35012348178018      1.22860121889966      0.73145069190779
  C           3.64071710453992      4.08295275870929      1.74079964144816
  C          -1.04000800017515      2.40527782862058      2.18100538730566
  C          -4.98763275529274      0.79355153566563      2.55038596191975
  C          -3.37545532715757     -4.32512698451113      1.65144400012655
  C           1.08847643679308     -3.19874475090403      2.00174820532849
  C           5.08425607711210     -0.68207743199320      2.10337951876530
  O           4.48500096461940      5.15245565000905      1.42116289622591
  O          -1.66115875972852      1.44464835030785      2.88616156917000
  O          -6.36161170232053      1.03482420919102      2.61652494235764
  O          -4.32030643996656     -5.25708766312945      1.21987747916732
  O           1.34604760753708     -2.16425120392767      2.80504286300919
  O           6.44574475527205     -1.00385510477913      2.16325538276350
  H           0.23120632672906      5.89180169492071     -0.27696931552677
  H          -5.12922787303150      3.40731179349635      1.05257621809698
  H          -5.50348291536130     -2.80795441044450      0.25344379527367
  H          -0.25775787360152     -5.76070033453899     -1.00920103230099
  H           5.23420048675719     -3.37876243687053      0.38955351681865
  H           5.71240357420284      2.91873003447107     -0.27118233862138
  H           2.10994670293197      5.78317464914694     -1.88120869521817
  H          -3.90125333070871      5.39043826845930      0.29343064135661
  H          -6.87213492789528     -0.98153675525424     -0.77154733767026
  H          -2.20173938951332     -5.26214676843347     -2.42533452616418
  H           4.03064753165522     -5.28984232422247     -0.65151511368583
  H           6.86360332183939      1.01486975752248     -1.41786925573012
  H          -0.34630081941126      5.23703045232347     -2.49420105365776
  H          -4.91206863308406      3.82747011365568     -1.81148757076976
  H          -4.96167845813378     -2.10666315541658     -2.52637151448948
  H           0.19490029985764     -4.64823115943916     -3.09487391657672
  H           4.82965659752515     -3.25906974136772     -2.43114234581525
  H           4.84293406196300      2.29369964380756     -2.91056733365767
  H           1.60721477344912      2.76800228446097     -1.79188214889818
  H          -2.35861633030847      3.52722006627838     -1.58562818631791
  H          -4.13314826507373      0.08369186207748     -1.62770566888814
  H          -1.65767729036713     -2.33426883064780     -1.72669795757381
  H           2.28277062321255     -3.13143398857169     -1.94552677116897
  H           4.00450662021481      0.07069785420161     -1.96858989352419
  H           2.43646827705550      3.82985193937035     -3.79653082421889
  H          -2.77261902032995      5.85605160205386     -2.09216826772872
  H          -6.19166495525582      0.39194994709997     -2.92895043544810
  H          -2.69299624459322     -3.01950954479890     -3.82682601574280
  H           2.71852694362797     -5.22672224593073     -3.06141782260501
  H           5.84557318581089     -0.38558564499911     -3.49945528944243
  H           4.10743867122023      4.26699533728255     -0.88443825737736
  H          -1.35125022238922      4.96420802777753      0.93534565832379
  H          -6.10039116135614      1.44859624104209      0.25785405320154
  H          -4.08762701482191     -3.97775332787306     -0.90933051821235
  H           1.46562842196773     -5.21559203973192      0.14946181024589
  H           6.07676119622254     -1.40005562686027     -0.28548938259085
  H           2.00085831929959      2.93581049820306      0.89265274266014
  H          -1.94361586105418      2.02286591131308      0.30825971190869
  H          -3.47311003016531      0.14790211133093      1.11984287383713
  H          -1.80267389713281     -3.05051273924491      0.88447770933865
  H           1.86903564627283     -2.19034342011720      0.33017083616908
  H           3.61415768382319      0.12022895949211      0.69903175205293
  H           4.26560494505580      3.20083714551597      1.86152762803278
  H           3.09303855160697      4.27172861748368      2.67223826525131
  H          -4.66552280594787      0.06874105544755      3.30850298763135
  H          -4.47327698796309      1.73638090880874      2.72807079239741
  H          -3.91123580884564     -3.45709781335466      2.04089739688124
  H          -2.73798688222870     -4.72942198932620      2.44610148606505
  H           4.81211676061555      0.01954300321483      2.90129212180145
  H           4.52885886119163     -1.60800885733787      2.23705095857488
  H           3.93318335715862      5.93761352670035      1.30330287494594
  H          -6.81864968908463      0.18526541626886      2.51912750150950
  H          -3.84174960617778     -6.04838973657893      0.92346909106599
  H           6.95138243692478     -0.18619064153738      2.04717615880865
  C           0.32057538379129     -1.75530402549064      3.76039776595512
  H           0.91180656298995     -1.29660504753128      4.55482303084425
  H          -0.22430981694071     -2.63132820878249      4.11611366529931
  O           0.19723120023612     -4.00364763018895      2.18080993085112
  C          -0.84836951923617      0.57935771393092      3.73032121591709
  H          -1.41053047088593      0.50653519291501      4.65561385791204
  H           0.13280145915798      1.07277695754905      3.87753986482600
  O           0.06431538023146      2.83990201637720      2.40859740188237
  C          -0.78023310155490     -0.83749923868085      3.21910030873020
  O          -1.84724976085432     -1.40216909207733      2.84856203243407
  O          -0.25604097170911     -0.39136342926287      1.23975178555413
  O           1.00504041908773      0.30343174413504      0.89646392241755
  H           1.57013582391386     -0.15596577854615      1.55163479646306
