19
Coordinates from ORCA-job job_im4.QMRegion
  C          -1.00570774230404      2.38610338636733      2.17176453898254
  C           1.09416321334107     -3.21262515198902      2.01729491183347
  O          -1.63382997907741      1.47092355055749      2.92783056030201
  O           1.33781667822443     -2.15296744284432      2.79000376767929
  C           0.30716203502584     -1.76037540733064      3.75525344240421
  H           0.89892732504730     -1.30409962845740      4.55244739876683
  H          -0.21543314071432     -2.65392704999711      4.10051045655101
  O           0.18997751962079     -4.00359012220785      2.18527972700908
  C          -0.80726342585347      0.58816634241301      3.74558553630028
  H          -1.31654231826576      0.55828972894783      4.70172024369086
  H           0.20242519514178      1.03512760156158      3.81401479472650
  O           0.12646633838492      2.77513771338203      2.34573173697369
  C          -0.80904854833920     -0.84257731678165      3.26146394863969
  O          -1.91233559772132     -1.38745962746693      2.97501242453652
  O          -0.45094494872233     -0.36320431156194      1.28279086534039
  O           0.75014534961776      0.32531256801089      0.78515825997686
  H           1.31167099008252     -0.45960076901054      0.68331428663730
  H          -1.64154822933194      2.72917218536226      1.35669108368496
  H           1.75855645095029     -3.23024214502875      1.15652184616090
