133
Coordinates from ORCA-job job_im8
  C           0.71966285723072      4.88525119383559     -0.40607654679560
  C          -4.26369967473947      3.30248537757491      0.46275103601843
  C          -5.02851700650649     -1.81513122113394      0.03245087434435
  C          -0.76264733315984     -4.77017952142172     -0.90765530435169
  C           4.23993815050439     -3.28589901503433     -0.09578482744446
  C           5.06936337863132      1.88433310583198     -0.37240527306071
  O          -0.18794776843756      3.80494764831597     -0.26380824481910
  O          -4.29658819369390      2.18336778898857     -0.36676161079458
  O          -3.67402619012851     -1.95088883607133     -0.35874356767273
  O           0.18365837737768     -3.75809429539414     -0.63024986765735
  O           4.12561911919162     -2.06095916747324     -0.75216830831762
  O           3.70015109555475      2.08854937678501     -0.66018790769333
  C           1.38397271716988      4.77943173801183     -1.78704348499533
  C          -3.89799985621494      4.52340908322562     -0.40884505065623
  C          -5.80723613536227     -1.11882794370709     -1.09744873095075
  C          -1.51318765934731     -4.37269775161964     -2.18599654486613
  C           3.86529333239644     -4.36698252611130     -1.13265047330245
  C           5.71030277530530      1.18802446280006     -1.58800370837506
  O           0.44561851515793      4.77326472230115     -2.82909817527606
  O          -4.78809075475493      4.68679021002503     -1.47072964834041
  O          -5.81204521576117     -1.85389740414975     -2.28588901406741
  O          -0.64248881147714     -4.14699638485597     -3.26171232627068
  O           4.69548557011292     -4.30672754549891     -2.25313186011391
  O           5.61611815802754      1.96035099135455     -2.75073346036551
  C           2.19368346499489      3.47611244284266     -1.82586201080936
  C          -2.45078697739527      4.38409393664171     -0.92868309313332
  C          -5.17207150723465      0.25913344615473     -1.31220536171583
  C          -2.29779878144230     -3.08724996544280     -1.89429790424925
  C           2.39057368585309     -4.16677969795066     -1.53465478501162
  C           5.00987112612334     -0.16625007261420     -1.77086577552877
  O           2.92725911759151      3.34552244134991     -3.01539666305846
  O          -2.04789906751038      5.54386994830243     -1.61168385411869
  O          -5.87338881906615      0.99226664068293     -2.27846157629017
  O          -3.10824525578994     -2.71588818114346     -2.97684855382707
  O           1.95328376377716     -5.16248872149409     -2.42240020017864
  O           5.58672690231790     -0.91195018308919     -2.80967965193809
  C           3.18874304377813      3.41266616971078     -0.66103206091638
  C          -1.47752624375918      4.12109416812522      0.23423412248713
  C          -5.12824608165685      1.08090453140545     -0.01782853101430
  C          -3.20126134179202     -3.25297659781236     -0.66741703674250
  C           1.49604973328420     -4.18290950108208     -0.29020556015610
  C           5.06007700957552     -1.01465858456629     -0.49463248795042
  C           2.49431573134659      3.73088715070791      0.67435272820778
  C          -2.02214107128591      2.91346524308449      1.00791434760790
  C          -4.59909751790358      0.25115307496245      1.17556237490151
  C          -2.41503580682410     -3.82975483912488      0.51791564193071
  C           2.04023825196564     -3.16763364420765      0.72092095099715
  C           4.66423600755477     -0.19284913526320      0.74870585968361
  O           1.69728941953134      4.90570975879240      0.59227658951215
  O          -3.31153251356539      3.16807517684762      1.50179095755684
  O          -5.13659051919551     -1.06946419889869      1.20598894593102
  O          -1.66949380160413     -4.97503422752085      0.13901242374745
  O           3.38982579905749     -3.37944132350030      1.04056024093833
  O           5.25349959694124      1.10346571404373      0.77049343531632
  C           3.51724367057805      3.98524743033839      1.78974354037991
  C          -1.17817783701218      2.49435988721854      2.20064254363536
  C          -5.03238836611338      0.83589123906584      2.53376844917824
  C          -3.33533211654178     -4.26851579348609      1.66500833734861
  C           1.18279483070929     -3.16710296964737      1.98343952440856
  C           5.14572865754294     -0.86410916054834      2.04756294341192
  O           4.39843665775846      5.02041950153180      1.46009188430353
  O          -1.72054464313556      1.39048743120732      2.73184671564422
  O          -6.41464435791179      1.02512456436876      2.59597696484025
  O          -4.30595656542292     -5.17926775256532      1.24406018132508
  O           1.51681376744292     -2.14399527618841      2.75908899171019
  O           6.51580108838413     -1.14798493233620      2.00093049041462
  H           0.19086722856827      5.84198256699033     -0.30737307759517
  H          -5.22206903774569      3.45465682260950      0.97567475531870
  H          -5.46523391906911     -2.79331172507738      0.26806826449595
  H          -0.25980403345158     -5.73670096335669     -1.03798678808683
  H           5.25149576261533     -3.44612464141571      0.29811565457091
  H           5.56991392915274      2.83609007148268     -0.15639686627514
  H           2.07305989042732      5.63079606546811     -1.90550594472621
  H          -3.96706140993524      5.42528082358632      0.20850322803342
  H          -6.85315252306368     -1.00387940156051     -0.79401133898473
  H          -2.22549868299711     -5.17413747497735     -2.43619162463086
  H           3.99301792869991     -5.36048320959164     -0.69127762130458
  H           6.77704841273281      1.03088735949231     -1.39783377322132
  H          -0.39127667400752      5.16013657734188     -2.50942031981090
  H          -4.93369680689422      3.82483115256180     -1.89012409868577
  H          -4.89626666492621     -2.08193485824531     -2.52951059936672
  H           0.20076074996692     -4.60969068317789     -3.09600368506890
  H           4.79286342219836     -3.37867777180082     -2.52395647949307
  H           4.70746452447594      2.29828429076142     -2.84116967737243
  H           1.48795139431220      2.63544574327332     -1.71108618700568
  H          -2.40364035612917      3.51462186784750     -1.60442934823579
  H          -4.12546550503207      0.10311161265303     -1.63062175988197
  H          -1.57434415855093     -2.28655570756212     -1.65695247292650
  H           2.28962319847225     -3.17317157237011     -2.00130152611956
  H           3.94560902958660      0.03242185500460     -1.98637701815713
  H           2.35618039852747      3.61953627521911     -3.75010974822415
  H          -2.79419275070460      5.83584277796495     -2.16358296011142
  H          -6.16716905284841      0.36312224653029     -2.95903132578188
  H          -2.61145567312608     -2.87996214778653     -3.79452937265730
  H           2.65356735690461     -5.28781761282467     -3.08621503455197
  H           5.80510718816757     -0.29281999893484     -3.52554116892144
  H           3.99792270232833      4.13370261796925     -0.84058645738509
  H          -1.42519137973604      4.98801233287259      0.90475449912904
  H          -6.13650992298091      1.44767506897319      0.22357222867578
  H          -4.03982580510943     -3.91697981871694     -0.91611848530730
  H           1.46943617613233     -5.18050632004252      0.16476077620291
  H           6.06735483132548     -1.43468097817138     -0.36723233245490
  H           1.85812799649291      2.87572429895423      0.94410205429445
  H          -2.04257968185927      2.04695121742068      0.32019427080189
  H          -3.49786597526450      0.19373796549209      1.12373544249809
  H          -1.74351613344485     -3.03609173060110      0.88516128258682
  H           1.91157462233305     -2.16100496776084      0.28111919151881
  H           3.56768797223311     -0.09823272294358      0.74034149585451
  H           4.11193147157759      3.08252035798856      1.93817715258738
  H           2.96203453358712      4.20320849357077      2.70935504333938
  H          -4.68755364212544      0.13529531607163      3.30463392566950
  H          -4.55473519368138      1.80015998361206      2.69992034085959
  H          -3.84787660946167     -3.38879848766931      2.05784451566954
  H          -2.69952736912776     -4.68956915415510      2.45362056630777
  H           4.91809779544828     -0.18384711395840      2.88001026827313
  H           4.62130366404077     -1.80676823627012      2.19983481644148
  H           3.87150172988485      5.82328251942839      1.33126306846661
  H          -6.83719091065660      0.16077726541267      2.47722807956051
  H          -3.84569874861517     -5.96902848044026      0.92009343921702
  H           6.98632051416711     -0.30724929201217      1.90510923782075
  C           0.49913083025689     -1.55348595866386      3.60693827759703
  H           1.07358546826390     -1.13718283660899      4.43964342511977
  H          -0.20812977050306     -2.31080485237678      3.93405558055610
  O           0.31187689032435     -3.97573302174122      2.22289776731059
  C          -0.90445942647256      0.56489957275060      3.60205330638501
  H          -1.60457489719252      0.10858015299427      4.28696705582412
  H          -0.15083093619405      1.20070579104945      4.08255145135541
  O          -0.19297919770704      3.08142624163338      2.59157393403197
  C          -0.28758493077362     -0.54346130325318      2.75651004644154
  O          -1.14166590833059     -1.16538455191966      1.93416866424507
  O           0.63291461475811      0.12853694242008      1.75534094266451
  O           1.70008291163661      0.92818266551493      2.45453334359490
  H           2.27816696709641      0.20708145758946      2.76823764606964
