19
Coordinates from ORCA-job job_im9.QMRegion
  C          -1.28555059113000      2.59185954127359      2.20740922385940
  C           1.30124782405373     -3.08640228554453      1.94126634048013
  O          -1.67557529173249      1.36660929697789      2.57309517261039
  O           1.71607857708104     -2.03114998668845      2.62958742847679
  C           0.75823623025179     -1.33267072084393      3.45233343279463
  H           1.35575123453636     -0.88351508092745      4.23890410533263
  H          -0.00501970510671     -2.01843053256843      3.81156392370578
  O           0.41176660614033     -3.83880725700700      2.27738029066266
  C          -0.81448619035575      0.57787079755560      3.42885300185659
  H          -1.50055864683614     -0.08060702732228      3.94844465007238
  H          -0.24430579107209      1.24285500353383      4.07457784048846
  O          -0.39799170593751      3.25674677317688      2.69957904704752
  C           0.09196949131512     -0.29140038828235      2.55091385166700
  O          -0.56265407578219     -0.87342509304734      1.51322879896533
  O           1.05343273303608      0.48842295704801      1.89710643527492
  O           1.93361138069817      1.16255395828020      2.93565763860007
  H           2.64136798021867      0.48124729197631      3.02425406008184
  H          -1.90015599311384      2.87932932599847      1.36745257204146
  H           1.87944006596316     -3.16320582286336      1.03046700544561
