133
Coordinates from ORCA-job job_im2
  C           0.82066587028248      4.97187572423840     -0.39144555782518
  C          -4.10738841625371      3.22201690157856      0.55975305896473
  C          -5.05778119618180     -1.84972946057994      0.01434487504559
  C          -0.75942991537137     -4.78626667202653     -0.87265926449074
  C           4.20588058950077     -3.18137090831929      0.05961209131623
  C           5.19476163441515      2.00894581114167     -0.45565235469095
  O          -0.06234253519731      3.85910634817196     -0.33374576977805
  O          -4.20468599068554      2.13449918411010     -0.31175503358247
  O          -3.72919190134425     -2.02697470360020     -0.44327897886884
  O           0.17589050610924     -3.75653051449485     -0.61565583471647
  O           4.03755909643674     -1.92219641205364     -0.53140795387097
  O           3.86301071476742      2.27593953132871     -0.83420869683736
  C           1.48764480983666      4.98528044142095     -1.77505328713121
  C          -3.78676946332950      4.47751152970773     -0.28078424834203
  C          -5.84616433718055     -1.10655374195197     -1.07651973337012
  C          -1.51777810409314     -4.46901028027323     -2.17017514505248
  C           3.89585403883794     -4.23638266836885     -1.02638112653655
  C           5.82353831132466      1.18150289749374     -1.59183308906489
  O           0.55264877869814      5.01668353479451     -2.82062849315766
  O          -4.72008196622349      4.67322474509824     -1.29971072887509
  O          -5.90212209240929     -1.81887589263704     -2.27772049552655
  O          -0.65191998780385     -4.21537232272607     -3.24388450988697
  O           4.74733391904152     -4.10830765330612     -2.12494469102077
  O           5.80193451584806      1.87167132836909     -2.80792132739869
  C           2.34992552744598      3.72103983566877     -1.89819578624451
  C          -2.35988161135787      4.37976503125164     -0.85703393993873
  C          -5.17228332436296      0.25592938989606     -1.28197752590035
  C          -2.39931676361447     -3.23500939713723     -1.94723657770245
  C           2.41989972795900     -4.09024239597664     -1.45509221188237
  C           5.04286769158342     -0.14111982251295     -1.69496666800932
  O           3.07986841653143      3.69620354395848     -3.09559004593494
  O          -1.98989330151423      5.56989629438027     -1.50467478764182
  O          -5.87030133468477      1.02638711571285     -2.21949925721038
  O          -3.26021556288460     -3.00582319800549     -3.02806032089621
  O           2.03701725157000     -5.08009744575073     -2.37098536737628
  O           5.59439343496361     -1.00173826367359     -2.65604816136504
  C           3.35008512954561      3.59847821604465     -0.74183959565151
  C          -1.33460647478302      4.08045179632604      0.25349573717992
  C          -5.06714782917867      1.05067629631507      0.02518782900235
  C          -3.26711950504900     -3.34825480337672     -0.68946740023531
  C           1.49037874995421     -4.16120827359212     -0.23910598638708
  C           5.00677016697720     -0.88765435467405     -0.35540447138562
  C           2.67305374853332      3.83696714283268      0.61846729040757
  C          -1.83002020198164      2.81662818571367      0.99407174619084
  C          -4.53444208056730      0.18308445206363      1.18851226812813
  C          -2.46571588061974     -3.86645250301992      0.51324260955603
  C           1.99702387872087     -3.18473762994462      0.82910408214843
  C           4.60979064775634      0.05572319214334      0.79714559189581
  O           1.79972292374233      4.96175863667849      0.60425308998992
  O          -3.10162654400754      3.03552471900920      1.54345355337409
  O          -5.09755125050719     -1.12483252903630      1.20602324058359
  O          -1.66606266981382     -4.98411285713820      0.17305641025762
  O           3.34148686315049     -3.38317803468066      1.17427046772996
  O           5.29076459843438      1.30408629613834      0.75260430967789
  C           3.70264793118200      4.12100247319300      1.72359581823235
  C          -0.89917257858007      2.26806234016159      2.06846506857362
  C          -4.91694462121475      0.75487863212506      2.56900886296861
  C          -3.37829026281398     -4.32973598296239      1.66057289379246
  C           1.04770399422478     -3.17623138469106      2.02426491885716
  C           4.96324488422588     -0.55889226166065      2.16202167078844
  O           4.51401151302939      5.21543189190088      1.40530871318206
  O          -1.53495580183894      1.45572662688720      2.91769722835538
  O          -6.28193637487559      1.03752714398093      2.65151045471621
  O          -4.30955353488060     -5.28003718679309      1.24024014609228
  O           1.26864572949765     -2.12657358153216      2.81325376161674
  O           6.31777954965280     -0.89755825379149      2.24050114479993
  H           0.26237045385009      5.90461932480604     -0.23265773568524
  H          -5.03574496828552      3.35870333234844      1.12990363614611
  H          -5.52014314445737     -2.81708675691836      0.24909372895204
  H          -0.23678005787851     -5.74925368218143     -0.97265979278177
  H           5.22082995459111     -3.30810125534376      0.45857719221731
  H           5.75001793991703      2.94254968004417     -0.28916364284311
  H           2.14183818918617      5.87162333036671     -1.83883932439140
  H          -3.84102850559958      5.35768775379240      0.37175184916244
  H          -6.88121236559810     -0.96418572027136     -0.74546968166691
  H          -2.17141967822975     -5.32772887038612     -2.40191311063816
  H           4.05033454538537     -5.24009036800159     -0.61292385710503
  H           6.87641973506805      0.97739710869868     -1.36299403761031
  H          -0.31318273046118      5.29242095497811     -2.46834946858436
  H          -4.88809520533026      3.82555149333867     -1.73923778466133
  H          -5.00873845629435     -2.12178899058458     -2.51910946759658
  H           0.19285891961319     -4.67751606858078     -3.09166845940118
  H           4.85707878475979     -3.16562706601327     -2.34000026873999
  H           4.92749369833455      2.27992966725072     -2.92390518481402
  H           1.66711610342902      2.85214982187426     -1.84129572682304
  H          -2.32679030445517      3.54012899455236     -1.57372863645686
  H          -4.13750149184795      0.07105925225859     -1.62740314422941
  H          -1.72934759176972     -2.36506415369704     -1.79231845736912
  H           2.29459917665052     -3.08869256417685     -1.90746301800147
  H           3.99993981111702      0.11081699601835     -1.96087776195353
  H           2.48634653187802      3.97077458638495     -3.81096831408204
  H          -2.75062909746334      5.87319708250498     -2.03235963768753
  H          -6.20881525213302      0.41798078710920     -2.89845462315776
  H          -2.76213818207238     -3.12900833996021     -3.85087522657712
  H           2.75539973287217     -5.17876008997406     -3.01963012123499
  H           5.85556735163942     -0.46291860643615     -3.42116811265541
  H           4.16139149383848      4.32964846617113     -0.88779488856970
  H          -1.28587320358478      4.91697556732872      0.96515075385735
  H          -6.05891940748223      1.44391993284337      0.29879541959351
  H          -4.11563010501653     -4.02109290329153     -0.88933629307912
  H           1.46205595558175     -5.18715696505614      0.16775549484336
  H           5.99688857814199     -1.32609400764834     -0.15778547177875
  H           2.10165967339713      2.93128146460273      0.87328098584896
  H          -1.88190706669826      2.00100085594379      0.24291739782709
  H          -3.43165014339837      0.10729598718613      1.10803785772868
  H          -1.83483868429014     -3.03085339019945      0.87262677208539
  H           1.90697207519043     -2.16285713761630      0.40622113216739
  H           3.52245293586250      0.23059953397517      0.73498469736950
  H           4.35258571488309      3.25504283412141      1.84325612651338
  H           3.15315442090611      4.29053966907604      2.65826272814454
  H          -4.60703247099848      0.01054873538892      3.31209852126643
  H          -4.37073646244109      1.67856690899632      2.75423858829153
  H          -3.92575864882304     -3.46676106462193      2.04512014111341
  H          -2.72992233363896     -4.71714566233579      2.45457290789007
  H           4.68733802003405      0.16253157952180      2.93923272107217
  H           4.38784639454510     -1.47545764806684      2.30802455614408
  H           3.93430134649621      5.98203565252185      1.29301504724973
  H          -6.76713612273303      0.20309052657268      2.56467720505999
  H          -3.82258705666542     -6.06974133590748      0.95652979823375
  H           6.83194515245727     -0.08571777080444      2.11233695803462
  C           0.23274662449623     -1.82133447286959      3.80418230900285
  H           0.81598016459931     -1.39754142065583      4.61483193225774
  H          -0.27389963884765     -2.74607520321343      4.08424502955025
  O           0.13672716236333     -3.96266049149020      2.16555200796297
  C          -0.70100606299068      0.56463580439832      3.71331783682226
  H          -1.10231290183576      0.65208127203194      4.72023475966419
  H           0.34103583965251      0.89910255646004      3.64262405186098
  O           0.29109005523291      2.50534385010155      2.10568366007294
  C          -0.87704234537079     -0.88437086946188      3.35967760004169
  O          -1.98767881616228     -1.33660581797060      3.08715116645018
  O          -0.62392048176309     -0.49164662034613      1.15343364797221
  O           0.47846248024091      0.01054919600030      0.33140054473286
  H           0.65546223983102     -0.80487108503510     -0.15494002266674
