133
Coordinates from ORCA-job job_im4
  C           0.79023040442221      4.95773471222409     -0.40003908843843
  C          -4.16858639052259      3.25563349045470      0.52473595060858
  C          -5.05112265891720     -1.83876594969560      0.01814237501445
  C          -0.75935546288282     -4.79208952072801     -0.88394610388587
  C           4.23571705313913     -3.22981119150818      0.00773103253620
  C           5.18255183840283      1.97985991376750     -0.44436689253176
  O          -0.10334609830141      3.85581285863846     -0.30283338779997
  O          -4.23790886507271      2.15219021035782     -0.32773403978065
  O          -3.71128715481002     -2.00269274692433     -0.41106287369906
  O           0.19191499287565     -3.78445454059346     -0.61141422233602
  O           4.08336006962817     -1.96752742414930     -0.58278386182578
  O           3.83122422059097      2.22934586926902     -0.77387427328522
  C           1.45609979698854      4.93011612502868     -1.78449695273556
  C          -3.83026730794363      4.49674161594964     -0.32865734949931
  C          -5.83487205280976     -1.11068430010834     -1.08719755850862
  C          -1.51337257922570     -4.43652103228312     -2.17511496977125
  C           3.89959052489736     -4.28697466681356     -1.07084744189975
  C           5.80542999387972      1.18711599249624     -1.60854156846002
  O           0.52127334884564      4.94459764126533     -2.83031622426299
  O          -4.74535018289521      4.68009526533418     -1.36661358778145
  O          -5.87266810752680     -1.83035295329188     -2.28493458459904
  O          -0.64493369944099     -4.18951704922012     -3.24840946963922
  O           4.73784494833175     -4.17359193000564     -2.18129008616413
  O           5.75214812160521      1.89666207096922     -2.81258805461715
  C           2.31234995286836      3.65776945901045     -1.88075651341797
  C          -2.39317088269979      4.38430189604804     -0.87870449901511
  C          -5.17377943238657      0.25748282261383     -1.29448327050423
  C          -2.36019477943904     -3.18136132232814     -1.92687986479254
  C           2.41933167344458     -4.13529989623859     -1.48187359152342
  C           5.05690709657945     -0.15333806700690     -1.72547891488103
  O           3.04045510505581      3.60365210134983     -3.07818488328760
  O          -2.01278755934734      5.56265717997498     -1.54329568461277
  O          -5.87057410506903      1.01465373818535     -2.24469719467135
  O          -3.20269402677067     -2.90184863558855     -3.01190975623506
  O           2.02183230691582     -5.11952646794957     -2.39711320315086
  O           5.61071650980167     -0.97610785169372     -2.71779766521804
  C           3.31040152188101      3.55161242423145     -0.72099610788346
  C          -1.38560694311595      4.10403390207497      0.25465136661591
  C          -5.09313949697964      1.06279195951778      0.00842292735356
  C          -3.24499114344393     -3.31745728285062     -0.68233122913112
  C           1.50380226305959     -4.20889664103321     -0.25680867146421
  C           5.05471418987692     -0.93386600108315     -0.40468632128848
  C           2.62692836931967      3.82638129019081      0.62908206436477
  C          -1.89889311717109      2.86802305031919      1.02680490749212
  C          -4.56826746377018      0.20749511655427      1.18449884641017
  C          -2.45203049007600     -3.86287692555868      0.51463098940719
  C           2.02786410392246     -3.23738308322528      0.80761285531670
  C           4.68263314969643     -0.01615572199292      0.77329002328634
  O           1.77703100490422      4.96573879018936      0.59002892176696
  O          -3.18702258725157      3.09749523110303      1.53679377523639
  O          -5.11997631459265     -1.10563969533679      1.20342792832843
  O          -1.66988806903088     -4.98886098709122      0.15991042725009
  O           3.37675250218254     -3.41771355492783      1.13088979500107
  O           5.33101368802677      1.24765512167916      0.74164695929083
  C           3.65800646835695      4.09329269376640      1.73749237139354
  C          -1.00570774230404      2.38610338636733      2.17176453898254
  C          -4.97446688321074      0.78507138360536      2.55491691938396
  C          -3.37377446317251     -4.32454785771247      1.65418593300809
  C           1.09416321334107     -3.21262515198902      2.01729491183347
  C           5.04812849304339     -0.65171375802235      2.12453592716270
  O           4.49381295312748      5.16941329348757      1.41759354855234
  O          -1.63382997907741      1.47092355055749      2.92783056030201
  O          -6.34666555533922      1.03575510052706      2.62370094224834
  O          -4.31479648185135     -5.26100584144413      1.22390834014522
  O           1.33781667822443     -2.15296744284432      2.79000376767929
  O           6.40821125828796     -0.97877805355792      2.18747489070872
  H           0.24139614590988      5.90131988218605     -0.26363580700358
  H          -5.11179797414600      3.39851503998865      1.06948135958737
  H          -5.50569950049900     -2.80991369413853      0.25129807006650
  H          -0.25498061679862     -5.76132662001237     -1.00039711098060
  H           5.25126691255431     -3.37287446687507      0.39671228825558
  H           5.72210956259927      2.92320994820601     -0.27255318663958
  H           2.11735011894732      5.81083103407371     -1.86910807746284
  H          -3.89284816608590      5.38586720215016      0.30969628518682
  H          -6.87378724078282     -0.97796101925605     -0.76608127222169
  H          -2.18876807699774     -5.27293706234208     -2.41657434567774
  H           4.05202818630710     -5.28912419893249     -0.65359731895061
  H           6.86676089097331      1.00253580529811     -1.39784561533963
  H          -0.33759587421618      5.25306402002018     -2.48822544750705
  H          -4.90809299386840      3.82654912481254     -1.79620504936955
  H          -4.97109194737190     -2.10972455917786     -2.52483273262626
  H           0.19697256605848     -4.65674155826697     -3.09568766254514
  H           4.84199620768184     -3.23450494624349     -2.41103509030236
  H           4.86794234827082      2.28866944346449     -2.91159718414079
  H           1.62167942168777      2.79467105644554     -1.80655443720407
  H          -2.35190351001844      3.53268964616459     -1.58024048203886
  H          -4.13409943218322      0.08229026374143     -1.62734578207737
  H          -1.67144852924210     -2.33651041227976     -1.74036543850803
  H           2.28938130524739     -3.13163046171433     -1.92745359155617
  H           4.00285889713016      0.08033629740011     -1.96657144715586
  H           2.44954554691495      3.86857246972310     -3.79971155472419
  H          -2.76917844027453      5.86094283897388     -2.08047630393307
  H          -6.19521106881033      0.39773049338390     -2.92266465207422
  H          -2.70364198021387     -3.04157796531467     -3.83097606499545
  H           2.73223366771392     -5.21791499828419     -3.05729758411060
  H           5.84847742339117     -0.41042289241908     -3.47352193567752
  H           4.12142775027724      4.28476482116258     -0.88166588879680
  H          -1.33917948350610      4.96382468395113      0.94209689545919
  H          -6.09253300804325      1.44761286021675      0.26685074030154
  H          -4.08923051751564     -3.98691962746767     -0.90407576148473
  H           1.46835923044426     -5.24002731139383      0.14473287334508
  H           6.05455948554693     -1.37743383395624     -0.24258577538872
  H           2.02567168594796      2.93691512488719      0.89474158416456
  H          -1.92851978520073      2.02393593974656      0.30538896784985
  H          -3.46476390682873      0.14036597126014      1.12124288348029
  H          -1.80836128839180     -3.04343021290502      0.88663326516668
  H           1.92237918131427     -2.22172065484348      0.35321732832307
  H           3.58593162948305      0.15065983852236      0.72583093873366
  H           4.28849053753156      3.21540845551804      1.85775922223558
  H           3.11056747183311      4.27697040030411      2.67078551072985
  H          -4.65439300567272      0.05578124849308      3.30921449497569
  H          -4.45266063858872      1.72331114429276      2.73495450951257
  H          -3.91221475130668     -3.45789535477333      2.04333921475912
  H          -2.73415147051544     -4.72453707883223      2.44918736684441
  H           4.77370252819515      0.05372475050358      2.91692155783166
  H           4.48657834518637     -1.57456869190864      2.26005635980397
  H           3.93519986763695      5.94966920744922      1.30181038917297
  H          -6.81026049213146      0.18949926815704      2.52945203002315
  H          -3.83394358004818     -6.05225343527037      0.93199480864815
  H           6.91535385209414     -0.16274265770220      2.06725670040101
  C           0.30716203502584     -1.76037540733064      3.75525344240421
  H           0.89892732504730     -1.30409962845740      4.55244739876683
  H          -0.21543314071432     -2.65392704999711      4.10051045655101
  O           0.18997751962079     -4.00359012220785      2.18527972700908
  C          -0.80726342585347      0.58816634241301      3.74558553630028
  H          -1.31654231826576      0.55828972894783      4.70172024369086
  H           0.20242519514178      1.03512760156158      3.81401479472650
  O           0.12646633838492      2.77513771338203      2.34573173697369
  C          -0.80904854833920     -0.84257731678165      3.26146394863969
  O          -1.91233559772132     -1.38745962746693      2.97501242453652
  O          -0.45094494872233     -0.36320431156194      1.28279086534039
  O           0.75014534961776      0.32531256801089      0.78515825997686
  H           1.31167099008252     -0.45960076901054      0.68331428663730
