19
Coordinates from ORCA-job job_im1.QMRegion
  C          -0.67399197904151      1.99537175355650      1.81358134248312
  C           0.88707402755973     -3.09322718916695      2.01866889135271
  O          -1.29275993042257      1.41139827184233      2.82954370925530
  O           1.06472929021921     -2.10311855861642      2.87243619798957
  C           0.02517494066917     -1.94952527676561      3.87923253843304
  H           0.57402871016020     -1.59678950273719      4.75522105474204
  H          -0.48178649576583     -2.89824200980285      4.04352949640002
  O           0.00585466725885     -3.91288497936183      2.10742833953488
  C          -0.51446533716318      0.45851397460919      3.58438780425202
  H          -0.67196192734528      0.72098789173830      4.63976226770647
  H           0.53768364710543      0.54341711267261      3.31042522040657
  O           0.52024862863982      1.90824267963161      1.59389390210007
  C          -1.00273682901443     -0.93270642883781      3.45306813035874
  O          -2.15133099842073     -1.23194523618486      3.24394150277319
  O          -0.96956936832717     -0.78324669166541      0.77843463907871
  O          -0.10464938686129     -0.54795682192343     -0.37441917041300
  H          -0.04736288292995     -1.45845680507745     -0.71122418654158
  H          -1.37204249744162      2.47577617306746      1.14715077469380
  H           1.57740497074787     -3.04553262354676      1.18742452083939
