133
Coordinates from ORCA-job job
  C           0.51180447317435      4.88684269073421     -0.39276219256700
  C          -4.49522931547641      3.40664918626953      0.42226430948299
  C          -5.09673166669982     -1.74137990445880      0.09629019987311
  C          -0.83982064477842     -4.68348475146439     -0.85526460655060
  C           4.18840246483923     -3.28287601212711     -0.15251805195007
  C           4.84235663029020      1.88977823504889     -0.28010890723235
  O          -0.42955576773789      3.84507183521796     -0.22463206717659
  O          -4.47997436860192      2.26345116749846     -0.37249944710966
  O          -3.72737091195075     -1.83456141795987     -0.26191891553083
  O           0.12776834090990     -3.69218099452459     -0.58476165482281
  O           4.05803842387522     -2.06782070124447     -0.82029899332497
  O           3.45861469242882      2.04182069485079     -0.53462193134715
  C           1.17302305604336      4.70859445463491     -1.76672972823452
  C          -4.11912635165783      4.60024812213112     -0.48367761636845
  C          -5.88113698431880     -1.09470105313137     -1.05824278015437
  C          -1.59007856039040     -4.25454629404839     -2.12284480380652
  C           3.78126704995580     -4.37543751258631     -1.16432106603488
  C           5.49716275942150      1.26964940757199     -1.52688111969109
  O           0.23545436296600      4.67633904039243     -2.80790711371627
  O          -4.98260302219879      4.71861756290947     -1.57272688186232
  O          -5.84888243382997     -1.85141572494672     -2.23258728385398
  O          -0.72324369374680     -4.05345624939344     -3.20592048866745
  O           4.57992099223820     -4.33433988655488     -2.30779892406942
  O           5.36802710975874      2.07833292915859     -2.66041823218347
  C           1.94799477540858      3.38598678946672     -1.74985923187202
  C          -2.65996076455002      4.45002701780272     -0.96467423021899
  C          -5.28838211201603      0.29902851565443     -1.29054681349171
  C          -2.32217510509753     -2.94400889252749     -1.80672609499875
  C           2.29826820428641     -4.17019580460982     -1.53082646341394
  C           4.84421177378432     -0.09950282283418     -1.75296263527582
  O           2.68042437337406      3.19484231206533     -2.93115176737632
  O          -2.23968615727839      5.58309176183514     -1.67915416737374
  O          -6.00469736346751      0.99166266698158     -2.27585339426062
  O          -3.11105940695951     -2.51701980979182     -2.88435322791150
  O           1.82692968317635     -5.17548590207300     -2.38931408118330
  O           5.44545800026541     -0.78311190542321     -2.81958226302387
  C           2.93337839840751      3.35631639584207     -0.57777312592853
  C          -1.71725917925161      4.22873081158164      0.22672517152580
  C          -5.28128780441811      1.14351802329207     -0.00924002538450
  C          -3.23144669098876     -3.12068462150687     -0.58627045162082
  C           1.43358384469597     -4.14509591402335     -0.26496983827478
  C           4.93068792651899     -0.98801076798176     -0.50597025081887
  C           2.22972735901896      3.70337713186915      0.74377345687465
  C          -2.27746746528727      3.05834168691089      1.03071317718791
  C          -4.73545958491073      0.35167291224078      1.20188596452599
  C          -2.43840087647082     -3.69603538877623      0.59668567434658
  C           2.01862603675501     -3.11032007010178      0.69558187013375
  C           4.51366338198688     -0.23400992567068      0.77428800308553
  O           1.47161796278175      4.89843341000204      0.62285408434569
  O          -3.57262610655437      3.32387679865712      1.49772216565886
  O          -5.24491205394887     -0.97970281955237      1.25251032768469
  O          -1.72911617451420     -4.86243267869366      0.21020333092486
  O           3.36351534648306     -3.35431659108560      1.00193783680992
  O           5.06379416910575      1.07851322133171      0.83179452285031
  C           3.23968944187007      3.94742587981925      1.87386886445032
  C          -1.40847847590403      2.66765110820564      2.21091129616015
  C          -5.18819634296027      0.94640264551531      2.54901774023349
  C          -3.35020284853365     -4.11686182799803      1.75780714720873
  C           1.20916787113952     -2.99788453305267      1.97714417624114
  C           5.04719243607224     -0.91531591845673      2.04923899355664
  O           4.15112150457586      4.95454717609399      1.54283664169067
  O          -1.79060946884607      1.44285991359321      2.58633908598825
  O          -6.57847879113437      1.06922795026010      2.61075311476036
  O          -4.33605585424566     -5.01628306545754      1.34881518225093
  O           1.62008814177803     -1.93551967542610      2.65681553261087
  O           6.42212944933121     -1.16020895068966      1.96274754512698
  H           0.01675236421813      5.86333994787909     -0.32797750159230
  H          -5.47225667192144      3.55826450060300      0.89840934887417
  H          -5.50205992968892     -2.73030361766638      0.34338675052244
  H          -0.36249964128340     -5.66114995265562     -0.99473906014155
  H           5.20826052887805     -3.43858369294669      0.22075770537482
  H           5.30317540721689      2.85353375603452     -0.03185157760895
  H           1.88378852354518      5.53567883138124     -1.92215884138528
  H          -4.20920941320505      5.52417338974970      0.09759527947797
  H          -6.93425307303794     -1.00906521501365     -0.77022653791185
  H          -2.33474825559398     -5.02624441706340     -2.37331520929292
  H           3.91512979910589     -5.36311981464429     -0.71248574120451
  H           6.57060792574822      1.14405852557223     -1.35111831091413
  H          -0.58356500493447      5.12489246423858     -2.52133622654964
  H          -5.10359780440092      3.84348138756534     -1.97257735248502
  H          -4.92243977307433     -2.02856380474499     -2.47947782872375
  H           0.10939677129517     -4.53825919804643     -3.04742068629889
  H           4.66701903250407     -3.41086052334168     -2.59456048835666
  H           4.44152362584678      2.36606377286014     -2.75197679556782
  H           1.22534324118794      2.56340596834791     -1.60477495350182
  H          -2.59384710150767      3.55385132834341     -1.60387565851304
  H          -4.23443887927580      0.17121999773102     -1.59885856309081
  H          -1.57123523517286     -2.17524181820271     -1.54574735456031
  H           2.19561628413616     -3.18372993594582     -2.01298848394910
  H           3.77148506921057      0.06558485794145     -1.95952376510558
  H           2.11552350300802      3.44464975054461     -3.67888175702740
  H          -2.97071833097390      5.85073983011860     -2.26284254279836
  H          -6.25982668841398      0.34360406232198     -2.95377712333282
  H          -2.61682460333350     -2.68633715839986     -3.70266519583276
  H           2.50594318495154     -5.31614302165434     -3.07234448803404
  H           5.63111550877398     -0.12800448355723     -3.51213040710537
  H           3.73522357347201      4.08248530345709     -0.76418591347895
  H          -1.65494616629542      5.12024450853647      0.86147350865788
  H          -6.30208829346333      1.48298071780744      0.21790213701191
  H          -4.05646297881723     -3.79807336173906     -0.84062899629462
  H           1.39571237515101     -5.12855964978186      0.21789796298312
  H           5.95682890631886     -1.36403509787234     -0.39048027747310
  H           1.56964461035268      2.86633511778276      1.01550691229387
  H          -2.28651286603481      2.17034967673745      0.37391531160963
  H          -3.63436363736874      0.31972917004750      1.15211658399490
  H          -1.74191250021780     -2.91351165270330      0.94508678118392
  H           1.90768277279483     -2.12052460917397      0.21341045808665
  H           3.41260731527905     -0.17907872628868      0.80013787582474
  H           3.80588779608235      3.03176283164646      2.04874668469976
  H           2.67263815817243      4.19001003006400      2.77995909533887
  H          -4.81003018278184      0.28198231390389      3.33616338770990
  H          -4.75925959714385      1.93700905045670      2.69213217278572
  H          -3.85106277111093     -3.23087411921805      2.15253841989579
  H          -2.70940373110101     -4.54466154128201      2.53874185556573
  H           4.82150184964578     -0.25481926554578      2.89503662067839
  H           4.54981524620684     -1.87404074068628      2.19981079954110
  H           3.64707057623356      5.76824741308656      1.39371085226547
  H          -6.95665189994379      0.18637046807622      2.48145517031516
  H          -3.89009730488501     -5.80807873348223      1.01076911004843
  H           6.86519661315559     -0.30473855313633      1.85689279183523
  C           0.66073919245090     -1.23659314494253      3.47742340158205
  H           1.25800305637438     -0.77859319621640      4.25906920135026
  H          -0.09764279271724     -1.92403487890513      3.84369273904912
  O           0.32486817403217     -3.75283296572277      2.32113467149347
  C          -0.92267416611912      0.66496757743316      3.44510331246059
  H          -1.60356447480752      0.00636554535564      3.97131202666878
  H          -0.35435362088806      1.33764306883102      4.08446983229094
  O          -0.52322743695585      3.34091104711532      2.69580140853948
  C          -0.01391738741351     -0.20541842132107      2.57065462950771
  O          -0.66827097110328     -0.79836883808622      1.53900256653603
  O           0.94129500380917      0.57510864011784      1.90857699511830
  O           1.82068806282556      1.26142098027813      2.93978918095139
  H           2.53248524501108      0.58469849075426      3.03110662910116
